6
 energy: -8.226118396969 gnorm: 0.000127761529 xtb: 6.7.1 (edcfbbe)
C           -0.36187834133054        0.02429946111756       -0.01689304744922
O            0.91085997178598       -0.53131072039430       -0.23867186123801
H           -0.58946247421633        0.10243189293983        1.05182133676442
H           -0.45693307087536        1.01517237150625       -0.47426065013250
H           -1.07918956513238       -0.64937408537375       -0.48210654639340
H            1.57660347976862        0.03878108020441        0.16011176844871
