112
ex_0078 frame0 cis
C       -0.571986    -5.684765     3.886824
C       -0.518604    -4.360118     4.664104
C       -1.679084    -4.266706     5.664145
C       -0.562287    -3.176536     3.721501
C       -1.658867    -2.997461     2.890654
C       -1.774405    -1.902209     2.028223
C       -3.080666    -1.779225     1.234654
C       -3.080583    -2.703254     0.015126
C       -4.317058    -2.104757     2.114236
C       -0.685317    -0.981263     1.936100
C       -0.732672     0.170829     0.983593
C       -1.423645     1.401463     1.252497
C       -2.192495     1.831020     2.530805
C       -3.625778     1.339219     2.620023
C       -1.433726     1.599881     3.835280
C       -1.431314     2.376774     0.253598
C       -0.731114     2.266767    -0.946685
C       -0.778530     3.465696    -1.908509
C       -2.024339     3.426458    -2.796614
C       -0.726134     4.823485    -1.178298
C       -0.019269     1.071297    -1.217078
C        0.732400     0.962186    -2.506559
C        2.093755     1.376397    -2.528780
C        2.834728     1.871619    -1.278169
C        2.830203     3.397791    -1.227886
C        4.276175     1.336558    -1.195422
C        2.791150     1.331919    -3.741556
C        2.210918     0.843682    -4.908697
C        3.036877     0.831489    -6.176188
C        2.405265     1.747909    -7.228231
C        3.219024    -0.595187    -6.699539
C        0.890782     0.380707    -4.881013
C        0.120820     0.459255    -3.709073
C       -1.341616     0.006224    -3.755779
C       -1.472970    -1.518099    -3.768190
C       -2.102526     0.577232    -4.978915
C       -0.056250     0.000860    -0.274468
N        0.612028    -1.186653    -0.698011
N        1.942730    -1.212835    -1.053984
O        2.498684    -2.400282    -0.706953
Co       1.171599    -3.721604    -1.239981
N        1.029119    -4.389291     0.637354
O       -0.061994    -5.191473     0.658238
N        1.310511    -3.110271    -3.136005
O        1.244793    -3.916377    -4.014362
O       -0.085604    -2.317866    -0.750030
C        0.470447    -1.174116     2.776831
C        1.705825    -0.258550     2.757343
C        1.836031     0.596458     4.039624
C        2.999982    -1.076105     2.554564
C        0.485297    -2.259611     3.674100
H       -1.511496    -5.774747     3.299265
H       -0.520997    -6.546192     4.583263
H        0.286941    -5.747853     3.187228
H        0.430756    -4.337514     5.242567
H       -2.661192    -4.375758     5.155546
H       -1.590740    -5.064815     6.429064
H       -1.658052    -3.280339     6.176256
H       -2.450449    -3.723719     2.943249
H       -3.202472    -0.742811     0.862757
H       -2.746728    -3.726051     0.294688
H       -2.417544    -2.295575    -0.766774
H       -4.094465    -2.765861    -0.430581
H       -4.260725    -1.647880     3.121214
H       -4.426200    -3.194178     2.285121
H       -5.241765    -1.754427     1.612621
H       -2.318649     2.936619     2.488118
H       -4.172456     1.900921     3.409570
H       -4.157428     1.493756     1.656396
H       -3.627375     0.295416     2.910281
H       -0.449466     2.098892     3.780453
H       -1.318026     0.520938     4.052147
H       -1.991762     2.051892     4.684392
H       -1.975866     3.285786     0.441462
H        0.118942     3.459997    -2.562657
H       -1.782099     2.846117    -3.679850
H       -2.895271     2.963138    -2.284674
H       -2.309358     4.431310    -3.171003
H       -1.692515     5.068613    -0.692837
H       -0.521050     5.627386    -1.915790
H        0.065362     4.843959    -0.405736
H        2.338487     1.499704    -0.357093
H        1.822867     3.734372    -0.952428
H        3.096343     3.834618    -2.213451
H        3.525689     3.780585    -0.453175
H        4.935846     1.816915    -1.947505
H        4.295166     0.236428    -1.341083
H        4.704368     1.564846    -0.196779
H        3.811169     1.678532    -3.786906
H        4.051139     1.235977    -5.958641
H        1.417070     1.361959    -7.555173
H        3.071813     1.827694    -8.112027
H        2.266224     2.766776    -6.803820
H        3.676626    -1.229325    -5.909235
H        3.893091    -0.592209    -7.581345
H        2.245562    -1.040169    -6.994149
H        0.446004     0.004953    -5.792343
H       -1.819542     0.372598    -2.826410
H       -2.502331    -1.823815    -3.489377
H       -1.218146    -1.946098    -4.762919
H       -0.792317    -1.949106    -3.027141
H       -1.909588    -0.022878    -5.892456
H       -1.771898     1.590777    -5.262302
H       -3.196227     0.580122    -4.788288
H        1.634099     0.439942     1.899894
H        2.812214     0.457064     4.552803
H        1.040134     0.367282     4.778498
H        1.780289     1.674420     3.776747
H        2.910572    -1.755571     1.687941
H        3.234642    -1.692570     3.450245
H        3.864941    -0.397957     2.394449
H        1.334276    -2.415697     4.326078
112
ex_0078 frame1 trans
C        5.094621     1.610484     5.496429
C        4.313446     2.885481     5.152619
C        5.258982     4.076161     4.954068
C        3.451240     2.688280     3.921129
C        4.021239     2.451953     2.671583
C        3.246404     2.310562     1.505095
C        4.091250     2.194760     0.219431
C        4.664945     3.608110    -0.029510
C        3.468709     1.609603    -1.061231
C        1.812569     2.303361     1.633663
C        0.864202     2.039941     0.507671
C        0.423219     3.082812    -0.364983
C        0.898648     4.529992    -0.253957
C        1.710776     4.953608    -1.492318
C       -0.288936     5.506532    -0.109057
C       -0.490210     2.773257    -1.375611
C       -1.019163     1.489571    -1.541376
C       -2.060585     1.283674    -2.632865
C       -1.419533     1.427561    -4.018348
C       -3.227542     2.295193    -2.528849
C       -0.561325     0.432526    -0.695874
C       -1.036080    -0.987783    -0.801984
C       -0.260512    -1.875357    -1.627082
C        0.989704    -1.419487    -2.381691
C        0.760647    -1.481327    -3.896439
C        2.223942    -2.270971    -2.024679
C       -0.646371    -3.216529    -1.760343
C       -1.741903    -3.727968    -1.074567
C       -2.102747    -5.195533    -1.212596
C       -3.575424    -5.376224    -1.610985
C       -1.785885    -5.942839     0.086913
C       -2.493297    -2.875610    -0.267187
C       -2.204870    -1.504160    -0.139425
C       -3.230546    -0.745495     0.725731
C       -4.413049    -0.338588    -0.156502
C       -2.749787     0.428760     1.573859
C        0.401265     0.710825     0.303209
N        1.022853    -0.188559     1.197543
N        0.510621    -0.403922     2.447964
O        0.976109    -1.555153     2.985423
Co       2.577592    -2.201194     2.076807
N        3.814594    -1.711806     3.564096
O        4.106274    -2.586003     4.499982
N        1.753082    -4.021094     2.007722
O        1.998734    -4.814478     2.863144
O        2.116932    -0.816377     0.786975
C        1.232299     2.569304     2.923842
C       -0.285605     2.672961     3.142228
C       -0.641119     4.148118     3.330773
C       -0.840781     1.870539     4.335884
C        2.066643     2.743190     4.034731
H        4.388040     0.773543     5.686536
H        5.701887     1.768236     6.412840
H        5.773710     1.318022     4.667488
H        3.659923     3.119652     6.022131
H        6.027940     3.854848     4.183597
H        5.776632     4.311973     5.906968
H        4.682379     4.970692     4.634648
H        5.101430     2.438660     2.595371
H        4.963487     1.526575     0.398308
H        5.260180     3.654641    -0.964152
H        5.329549     3.919173     0.803007
H        3.864553     4.366527    -0.065918
H        4.186068     1.725935    -1.903409
H        3.301760     0.522925    -0.939299
H        2.539623     2.081448    -1.393928
H        1.546724     4.617105     0.641709
H        2.180445     5.944391    -1.315269
H        1.071627     5.017080    -2.396620
H        2.510438     4.233629    -1.729520
H       -0.859693     5.591076    -1.057788
H       -1.018653     5.173486     0.649121
H        0.080360     6.520807     0.151807
H       -0.813056     3.559095    -2.041511
H       -2.448636     0.249557    -2.537006
H       -1.264134     2.488731    -4.296662
H       -2.064101     0.938764    -4.781334
H       -0.414097     0.981876    -4.030440
H       -4.046030     2.016499    -3.224039
H       -3.621873     2.382268    -1.498602
H       -2.895863     3.319754    -2.802954
H        1.211113    -0.369481    -2.113736
H        0.729540    -2.525774    -4.263360
H        1.567624    -0.929304    -4.425325
H       -0.221175    -1.056563    -4.158751
H        2.165707    -3.275843    -2.495527
H        3.149990    -1.778029    -2.387643
H        2.306725    -2.436077    -0.935382
H       -0.065000    -3.882169    -2.384376
H       -1.479352    -5.656377    -2.010812
H       -3.794819    -4.808562    -2.539745
H       -3.792331    -6.449724    -1.789538
H       -4.259399    -5.025101    -0.809433
H       -2.037033    -7.019437    -0.019303
H       -2.352361    -5.522511     0.944278
H       -0.697979    -5.863098     0.304865
H       -3.351014    -3.285032     0.249541
H       -3.646963    -1.464411     1.467788
H       -4.109429     0.445155    -0.852921
H       -4.777710    -1.197122    -0.758628
H       -5.253678     0.043904     0.459423
H       -3.596720     0.815459     2.183383
H       -1.969513     0.089116     2.277889
H       -2.394665     1.268679     0.951253
H       -0.818174     2.340092     2.237398
H       -0.244135     4.547360     4.284592
H       -1.745024     4.281003     3.302394
H       -0.185339     4.743211     2.524995
H       -0.455888     2.261777     5.300536
H       -0.586750     0.798642     4.277824
H       -1.947980     1.962217     4.364639
H        1.635471     2.953978     5.002838
112
ex_0078 frame2 see-saw N-O2-ax-conf12
C       -3.431143     0.030125     6.354714
C       -2.605331     0.801886     5.331366
C       -1.111215     0.637880     5.651504
C       -3.053597     0.394807     3.916553
C       -3.568422     1.369500     3.073441
C       -4.000376     1.087021     1.763493
C       -4.456454     2.283877     0.917817
C       -5.835843     2.792387     1.339755
C       -3.420522     3.428987     0.967983
C       -3.986490    -0.261297     1.272072
C       -4.570790    -0.454604    -0.119597
C       -5.960110    -0.686160    -0.292787
C       -6.962332    -0.708842     0.876124
C       -7.320894    -2.125445     1.328581
C       -8.258149     0.054196     0.522271
C       -6.458606    -0.906176    -1.582226
C       -5.675921    -0.822502    -2.738320
C       -6.433825    -1.000102    -4.067251
C       -6.424003     0.251807    -4.951043
C       -5.963665    -2.213225    -4.856993
C       -4.285486    -0.575126    -2.596691
C       -3.310612    -0.476353    -3.709844
C       -3.051913     0.799230    -4.306254
C       -3.720032     2.100808    -3.840887
C       -2.752580     2.840858    -2.897521
C       -4.100944     3.042884    -4.999982
C       -2.145214     0.871571    -5.367849
C       -1.483903    -0.253837    -5.845014
C       -0.541141    -0.140585    -7.019493
C       -1.358796     0.277741    -8.252118
C        0.601839     0.846412    -6.754822
C       -1.696717    -1.487530    -5.232264
C       -2.616261    -1.635741    -4.181096
C       -2.826972    -3.038906    -3.592901
C       -1.652624    -3.416337    -2.672700
C       -2.988547    -4.112383    -4.687308
C       -3.730913    -0.338689    -1.297491
N       -2.354164     0.031963    -1.143212
N       -1.468257     0.204816    -2.209951
O       -0.148260     0.003830    -1.940449
Co       0.000000     0.000000     0.000000
N        0.000000     0.000000     2.000000
O        0.000000     0.000000     3.208710
N        1.983712    -0.227902    -0.126555
O        2.525484    -0.076938     1.101459
O       -1.930721     0.212217     0.080913
C       -3.421998    -1.286322     2.131160
C       -3.231228    -2.792415     1.827711
C       -1.731489    -3.044444     1.593952
C       -4.020363    -3.452721     0.688562
C       -2.969183    -0.915643     3.431080
H       -3.218452     0.413605     7.375064
H       -3.184391    -1.052011     6.320188
H       -4.510845     0.169346     6.140789
H       -2.822931     1.882641     5.482247
H       -0.503926     1.325077     5.027654
H       -0.904436     0.940014     6.700756
H       -0.781237    -0.417200     5.533552
H       -3.594446     2.383906     3.441146
H       -4.505566     2.014939    -0.157801
H       -6.583273     2.295899     0.712836
H       -6.059138     2.563498     2.403330
H       -5.957067     3.879465     1.160589
H       -3.406143     3.938786     1.953542
H       -2.401221     3.053889     0.737512
H       -3.683337     4.203241     0.215191
H       -6.537088    -0.168933     1.747759
H       -7.449892    -2.797877     0.450687
H       -6.531294    -2.503140     2.002500
H       -8.254585    -2.139800     1.925500
H       -8.053363     1.012228     0.015103
H       -8.914340    -0.533037    -0.149710
H       -8.832361     0.261343     1.449938
H       -7.515579    -1.076518    -1.700641
H       -7.505114    -1.184859    -3.836116
H       -6.753328     1.143821    -4.376612
H       -5.425199     0.427623    -5.381542
H       -7.120258     0.115595    -5.805811
H       -6.661833    -2.417137    -5.694329
H       -4.974135    -2.015215    -5.299419
H       -5.926596    -3.106657    -4.198341
H       -4.646839     1.881425    -3.273248
H       -3.130661     3.849723    -2.637969
H       -1.746982     2.944889    -3.363642
H       -2.645221     2.300942    -1.940243
H       -4.630617     2.500825    -5.807122
H       -4.755253     3.855735    -4.625260
H       -3.201285     3.527955    -5.437880
H       -1.919564     1.821985    -5.820353
H       -0.096498    -1.138503    -7.227889
H       -2.209639    -0.424992    -8.397518
H       -0.730153     0.263440    -9.164387
H       -1.778974     1.299682    -8.126654
H        1.311457     0.836898    -7.608140
H        0.220480     1.883021    -6.635699
H        1.147977     0.560964    -5.831197
H       -1.138335    -2.342483    -5.585817
H       -3.748184    -3.064804    -2.975741
H       -1.722843    -4.482847    -2.364000
H       -1.670683    -2.798164    -1.752434
H       -0.675890    -3.265919    -3.180399
H       -2.018960    -4.337731    -5.179291
H       -3.698926    -3.792848    -5.472128
H       -3.366938    -5.054859    -4.240899
H       -3.526974    -3.367385     2.736479
H       -1.533170    -4.133444     1.489523
H       -1.395251    -2.530947     0.669497
H       -1.118969    -2.681924     2.444873
H       -3.708095    -4.515646     0.591448
H       -5.087166    -3.506608     0.923566
H       -3.865152    -2.972114    -0.289664
H       -2.539474    -1.667487     4.083210
112
ex_0078 frame3 see-saw N-O1-ax-conf21
C        4.879282     0.589641    -2.161499
C        4.609163    -0.257892    -3.418487
C        5.434161     0.258832    -4.599622
C        3.130746    -0.261299    -3.762669
C        2.467269     0.942143    -4.001311
C        1.087822     0.982955    -4.230491
C        0.421900     2.342153    -4.394538
C        0.838857     3.021150    -5.701126
C        0.742124     3.262352    -3.196087
C        0.346623    -0.239794    -4.295730
C       -1.144642    -0.262417    -4.556395
C       -1.691095    -0.353419    -5.862538
C       -0.798971    -0.443260    -7.088364
C       -0.912356     0.819772    -7.940605
C       -1.135954    -1.690449    -7.927603
C       -3.078659    -0.361494    -6.037957
C       -3.962343    -0.393762    -4.954669
C       -5.465236    -0.576139    -5.233702
C       -6.171822     0.698513    -5.692888
C       -5.694738    -1.691796    -6.270686
C       -3.436547    -0.269814    -3.643974
C       -4.324027    -0.216936    -2.459406
C       -4.770503     1.015768    -1.869304
C       -4.399889     2.466081    -2.272607
C       -3.287849     2.950480    -1.329470
C       -4.012976     2.803530    -3.716769
C       -5.658128     0.940505    -0.784509
C       -6.043730    -0.275709    -0.218888
C       -6.914987    -0.308480     1.019003
C       -6.253521     0.501305     2.146895
C       -8.321730     0.204309     0.703764
C       -5.621267    -1.464806    -0.801325
C       -4.725547    -1.467556    -1.880196
C       -4.219905    -2.831530    -2.385197
C       -5.251237    -3.600104    -3.220858
C       -3.727459    -3.712289    -1.214714
C       -2.022684    -0.246207    -3.433297
N       -1.458499    -0.223021    -2.120834
N       -2.266411    -0.418705    -1.004838
O       -1.905644     0.384831     0.010324
Co       0.000000     0.000000     0.000000
N        0.000000     0.000000     2.000000
O        0.000000     0.000000     3.183496
N        1.956932    -0.386104    -0.057547
O        2.578285     0.547823     0.698597
O       -0.151474    -0.014244    -1.938979
C        1.033675    -1.482898    -4.106110
C        0.294564    -2.824544    -4.182086
C        0.670455    -3.573787    -5.466274
C        0.507123    -3.718928    -2.940446
C        2.418267    -1.465840    -3.844501
H        4.215708     0.276290    -1.332563
H        4.715546     1.672108    -2.353097
H        5.929550     0.455025    -1.826642
H        4.935416    -1.296910    -3.191750
H        5.121001     1.286518    -4.883679
H        5.288254    -0.409780    -5.473926
H        6.512654     0.280232    -4.339523
H        3.022564     1.866234    -3.935669
H       -0.672383     2.185590    -4.424188
H        0.094103     3.801372    -5.969992
H        0.907651     2.276286    -6.512703
H        1.846964     3.473247    -5.632503
H        1.796428     3.618856    -3.241285
H        0.092604     4.160871    -3.203376
H        0.613042     2.727149    -2.231745
H        0.251285    -0.534790    -6.753184
H       -0.926807     1.712677    -7.292385
H       -0.054612     0.877619    -8.643380
H       -1.866241     0.850399    -8.500919
H       -0.319321    -1.906703    -8.646091
H       -1.292962    -2.577099    -7.280421
H       -2.073011    -1.539071    -8.506550
H       -3.469215    -0.449482    -7.038982
H       -5.977047    -0.919712    -4.311505
H       -7.171295     0.471816    -6.116133
H       -6.367167     1.343110    -4.819018
H       -5.566082     1.231430    -6.458428
H       -6.749339    -2.037829    -6.217939
H       -5.497803    -1.336059    -7.301057
H       -5.028738    -2.554433    -6.100004
H       -5.283611     3.114416    -2.070257
H       -2.337445     2.421149    -1.540798
H       -3.567613     2.795155    -0.265727
H       -3.111472     4.038712    -1.472756
H       -3.128452     2.251837    -4.072361
H       -4.856472     2.662043    -4.395983
H       -3.771795     3.885776    -3.787863
H       -5.986193     1.855743    -0.308978
H       -7.009140    -1.355644     1.385903
H       -5.197399     0.180307     2.283270
H       -6.793326     0.336354     3.102364
H       -6.266315     1.589716     1.927587
H       -8.817219    -0.499343    -0.000163
H       -8.283867     1.207586     0.228932
H       -8.931410     0.267878     1.628227
H       -5.923593    -2.395075    -0.341794
H       -3.312883    -2.688867    -3.010825
H       -4.958259    -3.533245    -4.276042
H       -5.258802    -4.686783    -2.998351
H       -6.276779    -3.192681    -3.100975
H       -4.571304    -4.088552    -0.598790
H       -3.020932    -3.158286    -0.563268
H       -3.202136    -4.607960    -1.613501
H       -0.793256    -2.634346    -4.254865
H        1.497914    -4.293744    -5.309179
H        0.965150    -2.862416    -6.267227
H       -0.219167    -4.131510    -5.831681
H        1.584058    -3.945005    -2.780644
H        0.113812    -3.235825    -2.022264
H       -0.007190    -4.695148    -3.075307
H        2.944438    -2.394316    -3.668899
112
ex_0078 frame4 see-saw N-O1-ax-conf20
C        4.880998     0.587980    -2.164022
C        4.610135    -0.259282    -3.421496
C        5.437414     0.256494    -4.601629
C        3.130940    -0.262408    -3.766220
C        2.466505     0.941196    -4.004625
C        1.086438     0.981932    -4.234531
C        0.419900     2.341373    -4.400058
C        0.849319     3.026219    -5.699299
C        0.728056     3.258454    -3.196782
C        0.345790    -0.241009    -4.299098
C       -1.145985    -0.264395    -4.557767
C       -1.691527    -0.349808    -5.864966
C       -0.799220    -0.435121    -7.092546
C       -0.921537     0.822172    -7.952112
C       -1.130035    -1.686988    -7.927251
C       -3.079500    -0.356519    -6.040778
C       -3.964456    -0.393568    -4.958220
C       -5.468103    -0.575732    -5.238994
C       -6.178572     0.697071    -5.697489
C       -5.696883    -1.689055    -6.278992
C       -3.439152    -0.274273    -3.646043
C       -4.326721    -0.221717    -2.461288
C       -4.770631     1.011844    -1.870696
C       -4.395703     2.461041    -2.273451
C       -3.283410     2.938787    -1.327095
C       -4.003408     2.798493    -3.716426
C       -5.659496     0.939242    -0.786172
C       -6.047755    -0.275943    -0.220156
C       -6.918814    -0.307786     1.019050
C       -6.256397     0.499538     2.148500
C       -8.325459     0.206941     0.707918
C       -5.627871    -1.466010    -0.803790
C       -4.730866    -1.470864    -1.882275
C       -4.226638    -2.835667    -2.387176
C       -5.259730    -3.608932    -3.215747
C       -3.727861    -3.710975    -1.215673
C       -2.025438    -0.255492    -3.434135
N       -1.458621    -0.244264    -2.122027
N       -2.263121    -0.472328    -1.011375
O       -1.919608     0.296472     0.014230
Co       0.000000     0.000000     0.000000
N        0.000000     0.000000     2.000000
O        0.000000     0.000000     3.186401
N        1.972527    -0.320482    -0.028364
O        2.547697     0.550390     0.804623
O       -0.155092    -0.016219    -1.938689
C        1.033405    -1.484087    -4.110893
C        0.293343    -2.824981    -4.189081
C        0.678412    -3.580765    -5.466042
C        0.498070    -3.714016    -2.943333
C        2.418253    -1.467156    -3.848873
H        4.228844     0.265229    -1.328801
H        4.703037     1.668861    -2.351632
H        5.936178     0.466088    -1.839616
H        4.937059    -1.298372    -3.196010
H        5.131050     1.286999    -4.882371
H        5.288608    -0.409089    -5.477786
H        6.516271     0.269585    -4.341394
H        3.021725     1.865495    -3.940005
H       -0.674357     2.186869    -4.441338
H        0.119400     3.823506    -5.958871
H        0.903647     2.289771    -6.519034
H        1.865337     3.459380    -5.624429
H        1.786499     3.603846    -3.222569
H        0.088178     4.163932    -3.218407
H        0.572998     2.726250    -2.234831
H        0.253069    -0.519048    -6.760888
H       -0.922903     1.720229    -7.311572
H       -0.074315     0.871045    -8.668553
H       -1.882829     0.850062    -8.499912
H       -0.322639    -1.887635    -8.660842
H       -1.258997    -2.577219    -7.278803
H       -2.079125    -1.551248    -8.489966
H       -3.469245    -0.440101    -7.042391
H       -5.979749    -0.920510    -4.317148
H       -7.184434     0.467275    -6.104314
H       -6.362501     1.348637    -4.826715
H       -5.583818     1.222863    -6.476161
H       -6.755689    -2.023737    -6.239451
H       -5.485065    -1.335727    -7.307211
H       -5.042278    -2.558624    -6.101476
H       -5.278008     3.112265    -2.073745
H       -2.337274     2.398949    -1.531976
H       -3.568681     2.788080    -0.264233
H       -3.097030     4.025153    -1.472228
H       -3.116111     2.248553    -4.067553
H       -4.842693     2.654603    -4.400328
H       -3.764654     3.881482    -3.786810
H       -5.985585     1.855522    -0.311073
H       -7.015345    -1.355334     1.383935
H       -5.205199     0.167181     2.294124
H       -6.805270     0.345931     3.100786
H       -6.254897     1.587201     1.924860
H       -8.818481    -0.487789    -0.006446
H       -8.288780     1.217517     0.249093
H       -8.936659     0.254108     1.632667
H       -5.932058    -2.395715    -0.344551
H       -3.322566    -2.695890    -3.017777
H       -4.982889    -3.526830    -4.273794
H       -5.247551    -4.698075    -3.005561
H       -6.288728    -3.216653    -3.077850
H       -4.567136    -4.080656    -0.590072
H       -3.013273    -3.155955    -0.574131
H       -3.208336    -4.610219    -1.614005
H       -0.793282    -2.633541    -4.271295
H        1.538265    -4.262020    -5.309876
H        0.933513    -2.870206    -6.280769
H       -0.193805    -4.179350    -5.808765
H        1.573216    -3.949767    -2.785098
H        0.112002    -3.220293    -2.027724
H       -0.027744    -4.684964    -3.071516
H        2.944185    -2.396123    -3.674126
112
ex_0078 frame5 see-saw N-O1-ax-conf17
C        4.884181     0.594108    -2.162238
C        4.608586    -0.256912    -3.416404
C        5.430562     0.257783    -4.600810
C        3.129238    -0.262111    -3.758922
C        2.464392     0.940270    -3.997717
C        1.084681     0.979748    -4.227019
C        0.419297     2.339087    -4.392253
C        0.837286     3.017217    -5.699308
C        0.740414     3.260506    -3.194708
C        0.343655    -0.243879    -4.291636
C       -1.148700    -0.270606    -4.552118
C       -1.693893    -0.353793    -5.859827
C       -0.800390    -0.439329    -7.085393
C       -0.912712     0.822974    -7.938458
C       -1.136285    -1.687235    -7.924885
C       -3.081458    -0.357998    -6.037302
C       -3.966341    -0.395357    -4.954930
C       -5.468912    -0.573868    -5.235724
C       -6.173794     0.701055    -5.696546
C       -5.697162    -1.690586    -6.271933
C       -3.442237    -0.280105    -3.643045
C       -4.328546    -0.225192    -2.458269
C       -4.771397     1.008716    -1.868055
C       -4.397227     2.458303    -2.269953
C       -3.283227     2.935580    -1.325321
C       -4.011865     2.797829    -3.714176
C       -5.659206     0.935903    -0.783711
C       -6.046851    -0.279332    -0.217870
C       -6.916491    -0.309401     1.020736
C       -6.252837     0.501304     2.146852
C       -8.322829     0.204521     0.705969
C       -5.627978    -1.469680    -0.800696
C       -4.732275    -1.474197    -1.879071
C       -4.227391    -2.837554    -2.385616
C       -5.256510    -3.605003    -3.223919
C       -3.734556    -3.717889    -1.215162
C       -2.030778    -0.271104    -3.430592
N       -1.462426    -0.279678    -2.121869
N       -2.261055    -0.562323    -1.019443
O       -1.936674     0.171687     0.059415
Co       0.000000     0.000000     0.000000
N        0.000000     0.000000     2.000000
O        0.000000     0.000000     3.208710
N        1.992282    -0.139008    -0.111792
O        2.526188     0.058564     1.114513
O       -0.168954    -0.019274    -1.937357
C        1.032180    -1.485659    -4.101725
C        0.293852    -2.827306    -4.178556
C        0.670087    -3.573455    -5.464421
C        0.506745    -3.723081    -2.938381
C        2.416988    -1.467175    -3.839121
H        4.226307     0.285732    -1.326745
H        4.721195     1.676129    -2.356906
H        5.936034     0.459331    -1.832339
H        4.935618    -1.295423    -3.188603
H        5.116003     1.284683    -4.886323
H        5.283515    -0.412600    -5.473533
H        6.509663     0.280924    -4.343238
H        3.019337     1.864741    -3.933372
H       -0.674940     2.182100    -4.421707
H        0.092532     3.796841    -5.969924
H        0.908002     2.271644    -6.510074
H        1.845016     3.470292    -5.630343
H        1.794228     3.618486    -3.241782
H        0.090001     4.158361    -3.201131
H        0.614117     2.725579    -2.229878
H        0.249518    -0.531405    -6.749220
H       -0.928816     1.715953    -7.290563
H       -0.053622     0.880535    -8.639772
H       -1.865509     0.852642    -8.500652
H       -0.318244    -1.905314    -8.641363
H       -1.295407    -2.573532    -7.277601
H       -2.071988    -1.536131    -8.506153
H       -3.471061    -0.441658    -7.039402
H       -5.981970    -0.916401    -4.313883
H       -7.172586     0.474639    -6.121567
H       -6.370275     1.345790    -4.822997
H       -5.566334     1.233743    -6.460805
H       -6.751285    -2.038009    -6.219056
H       -5.500113    -1.335577    -7.302595
H       -5.030274    -2.552429    -6.100082
H       -5.278675     3.109859    -2.066451
H       -2.337041     2.394872    -1.529713
H       -3.567663     2.784990    -0.262267
H       -3.099928     4.022943    -1.470029
H       -3.129653     2.244226    -4.072423
H       -4.857338     2.660393    -4.392138
H       -3.768622     3.879923    -3.783713
H       -5.984937     1.852075    -0.308173
H       -7.010938    -1.356043     1.388798
H       -5.196064     0.181402     2.280914
H       -6.790276     0.336227     3.103580
H       -6.267041     1.589702     1.927386
H       -8.819706    -0.499954     0.003848
H       -8.284160     1.206752     0.228907
H       -8.931389     0.270778     1.630901
H       -5.931214    -2.399363    -0.341034
H       -3.319509    -2.694516    -3.010064
H       -4.960120    -3.538679    -4.278472
H       -5.265442    -4.691225    -3.000037
H       -6.281654    -3.195783    -3.107354
H       -4.578401    -4.094685    -0.600049
H       -3.029703    -3.163895    -0.562159
H       -3.206370    -4.611719    -1.613808
H       -0.794110    -2.638137    -4.251374
H        1.497893    -4.293217    -5.308901
H        0.964230    -2.860174    -6.263961
H       -0.219352    -4.130518    -5.831253
H        1.583944    -3.946918    -2.777655
H        0.111084    -3.242029    -2.020120
H       -0.005454    -4.700005    -3.075643
H        2.944063    -2.395159    -3.663978
112
ex_0078 frame6 see-saw N-O1-ax-conf12
C        5.573192    -0.073692    -4.458827
C        4.640764    -0.755857    -3.458357
C        5.054640    -0.447652    -2.011637
C        3.197151    -0.364996    -3.730449
C        2.298318    -1.349639    -4.109788
C        0.937110    -1.077162    -4.302747
C        0.024306    -2.282449    -4.585038
C        0.169778    -2.813637    -6.009878
C        0.274410    -3.413667    -3.560290
C        0.460600     0.270835    -4.208453
C       -0.993697     0.466238    -4.525841
C       -1.454066     0.694641    -5.840991
C       -0.511826     0.713396    -7.055144
C       -0.127681     2.129388    -7.483222
C       -1.119344    -0.044110    -8.252546
C       -2.819390     0.912739    -6.051942
C       -3.781415     0.827263    -5.037264
C       -5.241189     1.005806    -5.502205
C       -6.098915    -0.248696    -5.313198
C       -5.926904     2.214853    -4.883684
C       -3.343215     0.580546    -3.704578
C       -4.253483     0.482416    -2.521625
C       -4.783724    -0.792856    -2.141419
C       -4.455563    -2.093933    -2.880946
C       -3.346262    -2.826820    -2.112464
C       -5.671717    -3.034385    -3.039904
C       -5.646851    -0.868528    -1.040037
C       -6.003286     0.256668    -0.306927
C       -6.979320     0.143159     0.845348
C       -8.348648    -0.277200     0.286855
C       -6.501596    -0.840119     1.920717
C       -5.453071     1.492147    -0.642885
C       -4.596954     1.642670    -1.749633
C       -4.072760     3.049040    -2.074180
C       -2.945214     3.437333    -1.102433
C       -5.180981     4.119680    -2.018601
C       -1.935587     0.407779    -3.440881
N       -1.445215     0.175830    -2.107149
N       -2.299959     0.238353    -0.989351
O       -1.858945    -0.572485    -0.010371
Co       0.000000     0.000000     0.000000
N        0.000000     0.000000     2.000000
O        0.000000     0.000000     3.208710
N        1.927708     0.525111    -0.015059
O        2.595958    -0.414015     0.685307
O       -0.140937    -0.106063    -1.934437
C        1.395044     1.307787    -3.815539
C        1.130686     2.814672    -3.573826
C        1.210502     3.061453    -2.052539
C       -0.156882     3.461556    -4.095013
C        2.747762     0.948540    -3.611402
H        6.608458    -0.455164    -4.338387
H        5.573233     1.026880    -4.311960
H        5.232964    -0.296700    -5.493271
H        4.751576    -1.854819    -3.597567
H        4.353347    -0.931825    -1.299966
H        6.072416    -0.849554    -1.814782
H        5.065777     0.645504    -1.816463
H        2.660368    -2.364395    -4.169945
H       -1.041827    -2.015991    -4.428020
H       -0.540579    -2.272685    -6.643760
H        1.193703    -2.656210    -6.409664
H       -0.099186    -3.887285    -6.083550
H        1.248032    -3.921502    -3.720086
H        0.231982    -3.026176    -2.520389
H       -0.507900    -4.195804    -3.668284
H        0.425183     0.169102    -6.813164
H       -1.017865     2.797552    -7.474258
H        0.658434     2.512972    -6.807605
H        0.317893     2.137545    -8.497717
H       -1.557341    -1.011384    -7.950748
H       -1.921463     0.538229    -8.745583
H       -0.328543    -0.235109    -9.007911
H       -3.157800     1.084853    -7.059493
H       -5.239092     1.191381    -6.598095
H       -5.603118    -1.136702    -5.760119
H       -6.308698    -0.426625    -4.246785
H       -7.081160    -0.113534    -5.814894
H       -6.894112     2.405986    -5.392952
H       -6.153153     2.016861    -3.824315
H       -5.285528     3.115085    -4.990519
H       -4.075298    -1.871011    -3.898262
H       -3.134999    -3.816723    -2.567597
H       -3.634395    -2.977052    -1.048712
H       -2.408454    -2.240915    -2.141233
H       -6.557574    -2.496804    -3.430886
H       -5.424680    -3.861553    -3.735921
H       -5.954074    -3.504442    -2.072842
H       -6.046943    -1.819022    -0.729647
H       -7.102557     1.141032     1.320906
H       -8.666618     0.432590    -0.508935
H       -9.116478    -0.272452     1.086954
H       -8.306861    -1.295442    -0.157598
H       -7.210485    -0.836836     2.775311
H       -6.447135    -1.876611     1.524730
H       -5.496596    -0.545888     2.288865
H       -5.705836     2.347126    -0.032953
H       -3.645853     3.071938    -3.097212
H       -2.644665     4.496849    -1.254813
H       -2.048222     2.812357    -1.281444
H       -3.262632     3.311404    -0.044852
H       -5.492889     4.326319    -0.973168
H       -6.079874     3.813440    -2.583918
H       -4.807980     5.071280    -2.449679
H        1.952658     3.398920    -4.049259
H        1.134542     4.147149    -1.826793
H        0.383192     2.536264    -1.531266
H        2.173678     2.713292    -1.626595
H       -0.185914     4.526368    -3.774305
H       -0.167500     3.501913    -5.188032
H       -1.069692     2.974929    -3.717864
H        3.461589     1.699946    -3.293949
112
ex_0078 frame7 see-saw N-O1-ax-conf13
C        5.577797    -0.070969    -4.460411
C        4.641670    -0.753781    -3.463756
C        5.051934    -0.446214    -2.015837
C        3.196974    -0.364297    -3.737326
C        2.298938    -1.349282    -4.118880
C        0.936798    -1.077757    -4.310795
C        0.023694    -2.283475    -4.592328
C        0.175955    -2.823365    -6.012430
C        0.269737    -3.408862    -3.560409
C        0.459358     0.270066    -4.216599
C       -0.993884     0.468423    -4.535537
C       -1.454851     0.697479    -5.850750
C       -0.512200     0.714146    -7.065552
C       -0.122029     2.127980    -7.495190
C       -1.121210    -0.040667    -8.264271
C       -2.820655     0.918009    -6.060023
C       -3.782401     0.831786    -5.044227
C       -5.242907     1.011162    -5.506971
C       -6.097566    -0.244733    -5.316053
C       -5.931130     2.218506    -4.887296
C       -3.343619     0.584158    -3.711909
C       -4.255244     0.484168    -2.526401
C       -4.784354    -0.792198    -2.144965
C       -4.454582    -2.093337    -2.885469
C       -3.347716    -2.829300    -2.117075
C       -5.669340    -3.034727    -3.050804
C       -5.647192    -0.868287    -1.042070
C       -6.004621     0.257090    -0.308309
C       -6.978881     0.143969     0.847365
C       -8.350129    -0.276712     0.294462
C       -6.499397    -0.837343     1.923948
C       -5.456897     1.493122    -0.646771
C       -4.600243     1.644222    -1.753525
C       -4.076189     3.050847    -2.078424
C       -2.949822     3.436970    -1.105060
C       -5.180751     4.125527    -2.023682
C       -1.933435     0.413502    -3.451165
N       -1.440844     0.187478    -2.118429
N       -2.295109     0.263893    -1.005874
O       -1.859408    -0.556098    -0.036797
Co       0.000000     0.000000     0.000000
N        0.000000     0.000000     2.000000
O        0.000000     0.000000     3.169552
N        1.923427     0.541789    -0.052448
O        2.617091    -0.355062     0.676145
O       -0.138652    -0.102046    -1.936873
C        1.392345     1.307323    -3.821865
C        1.124082     2.813820    -3.578748
C        1.210127     3.062736    -2.057935
C       -0.170873     3.454834    -4.089219
C        2.745685     0.949093    -3.617378
H        6.614334    -0.446060    -4.329346
H        5.571323     1.030219    -4.319391
H        5.248087    -0.302252    -5.496262
H        4.755446    -1.852447    -3.603175
H        4.356098    -0.941023    -1.306192
H        6.074043    -0.837615    -1.820048
H        5.051543     0.646155    -1.816521
H        2.661989    -2.363675    -4.179933
H       -1.043227    -2.015342    -4.444650
H       -0.494329    -2.253192    -6.663478
H        1.213654    -2.713216    -6.389679
H       -0.138108    -3.884466    -6.087866
H        1.247633    -3.912159    -3.707419
H        0.214822    -3.016764    -2.522908
H       -0.507034    -4.195842    -3.672257
H        0.423653     0.168767    -6.822156
H       -1.013438     2.793634    -7.512330
H        0.648277     2.520295    -6.806946
H        0.346528     2.127492    -8.499430
H       -1.551521    -1.012753    -7.965871
H       -1.928894     0.539465    -8.750945
H       -0.333402    -0.221935    -9.025178
H       -3.160371     1.091915    -7.066893
H       -5.243252     1.197143    -6.602811
H       -5.601897    -1.130938    -5.766620
H       -6.301610    -0.424102    -4.249041
H       -7.082834    -0.110823    -5.811906
H       -6.902621     2.403043    -5.391026
H       -6.151343     2.022567    -3.826476
H       -5.295640     3.122075    -5.000277
H       -4.069362    -1.868788    -3.900516
H       -3.128307    -3.811914    -2.584396
H       -3.642886    -2.995501    -1.057919
H       -2.412496    -2.238763    -2.132381
H       -6.548883    -2.502685    -3.461981
H       -5.412519    -3.870796    -3.732564
H       -5.966801    -3.493997    -2.083370
H       -6.045489    -1.819077    -0.730156
H       -7.102535     1.141673     1.323410
H       -8.674421     0.437393    -0.494689
H       -9.113384    -0.277737     1.099255
H       -8.308927    -1.292447    -0.155369
H       -7.211673    -0.838684     2.776058
H       -6.437525    -1.873354     1.528163
H       -5.498191    -0.536879     2.297085
H       -5.709898     2.347560    -0.036349
H       -3.646325     3.072460    -3.100164
H       -2.634098     4.489615    -1.271021
H       -2.059260     2.800157    -1.270454
H       -3.274996     3.329416    -0.047988
H       -5.506092     4.320987    -0.980362
H       -6.073124     3.832332    -2.605324
H       -4.797572     5.081268    -2.436119
H        1.940519     3.399947    -4.060991
H        1.128520     4.147826    -1.831540
H        0.387224     2.533876    -1.532791
H        2.176956     2.720624    -1.636067
H       -0.195749     4.522741    -3.778129
H       -0.200270     3.482361    -5.182160
H       -1.077220     2.971635    -3.692634
H        3.458270     1.701166    -3.298852
112
ex_0078 frame8 see-saw N-O1-ax-conf14
C        5.571887    -0.074036    -4.458252
C        4.640795    -0.756491    -3.456793
C        5.055651    -0.447907    -2.010587
C        3.197461    -0.365587    -3.728526
C        2.298610    -1.350158    -4.107514
C        0.937859    -1.077113    -4.301972
C        0.024986    -2.282169    -4.584162
C        0.169287    -2.811600    -6.009617
C        0.275518    -3.414619    -3.560723
C        0.461585     0.271213    -4.209331
C       -0.992136     0.469772    -4.529649
C       -1.452875     0.694754    -5.843672
C       -0.510773     0.712088    -7.056175
C       -0.128615     2.129413    -7.481905
C       -1.117949    -0.045894    -8.252780
C       -2.819063     0.910754    -6.055074
C       -3.781177     0.827339    -5.040099
C       -5.240981     1.004497    -5.503391
C       -6.099044    -0.249660    -5.313227
C       -5.925507     2.213963    -4.883958
C       -3.342402     0.584825    -3.708424
C       -4.252751     0.484622    -2.523404
C       -4.781816    -0.790883    -2.142159
C       -4.453524    -2.092477    -2.880019
C       -3.344010    -2.823277    -2.109835
C       -5.670272    -3.033009    -3.037617
C       -5.644591    -0.867228    -1.040555
C       -6.002211     0.257489    -0.307914
C       -6.978612     0.143173     0.843977
C       -8.347523    -0.277600     0.284545
C       -6.501422    -0.840483     1.919319
C       -5.452879     1.493342    -0.643914
C       -4.596861     1.644704    -1.750686
C       -4.073292     3.051589    -2.074744
C       -2.946361     3.443687    -1.102685
C       -5.182890     4.119834    -2.018901
C       -1.932976     0.421761    -3.447764
N       -1.439969     0.210450    -2.116552
N       -2.286019     0.323373    -1.002066
O       -1.873686    -0.519110    -0.030138
Co       0.000000     0.000000     0.000000
N        0.000000     0.000000     2.000000
O        0.000000     0.000000     3.175464
N        1.931003     0.514385    -0.045828
O        2.599066    -0.431985     0.653366
O       -0.143688    -0.101243    -1.936472
C        1.396052     1.307499    -3.814792
C        1.132366     2.814115    -3.572317
C        1.210422     3.059619    -2.050765
C       -0.153476     3.462214    -4.095688
C        2.748384     0.947850    -3.609492
H        6.606819    -0.457064    -4.341119
H        5.573602     1.026298    -4.309532
H        5.228697    -0.294367    -5.492287
H        4.751032    -1.855502    -3.595985
H        4.352964    -0.929163    -1.298744
H        6.071954    -0.852822    -1.812930
H        5.069939     0.645424    -1.816640
H        2.660339    -2.365099    -4.167002
H       -1.040776    -2.015476    -4.425482
H       -0.546924    -2.276131    -6.641182
H        1.190253    -2.646365    -6.412765
H       -0.091191    -3.886874    -6.083872
H        1.247890    -3.923927    -3.723295
H        0.236516    -3.027848    -2.520452
H       -0.508267    -4.195518    -3.667105
H        0.426650     0.168653    -6.813989
H       -1.018132     2.798206    -7.465461
H        0.660685     2.511025    -6.808830
H        0.310937     2.141313    -8.498702
H       -1.558503    -1.011413    -7.948856
H       -1.918319     0.537482    -8.747358
H       -0.326497    -0.240303    -9.006408
H       -3.157790     1.081954    -7.062619
H       -5.239227     1.189791    -6.599221
H       -5.603278    -1.138446    -5.758557
H       -6.310038    -0.426589    -4.246764
H       -7.080718    -0.114617    -5.816066
H       -6.891708     2.407365    -5.394041
H       -6.153599     2.015248    -3.825036
H       -5.282535     3.113294    -4.988296
H       -4.073860    -1.870589    -3.897733
H       -3.134034    -3.815153    -2.561355
H       -3.631814    -2.970303    -1.045566
H       -2.406418    -2.236205    -2.139607
H       -6.558083    -2.494322    -3.422640
H       -5.426673    -3.857484    -3.737830
H       -5.949010    -3.506710    -2.071268
H       -6.044134    -1.818005    -0.730043
H       -7.102090     1.141031     1.319438
H       -8.664150     0.430592    -0.513174
H       -9.116523    -0.271021     1.083479
H       -8.305591    -1.296705    -0.157950
H       -7.209250    -0.835655     2.774779
H       -6.449456    -1.877256     1.523668
H       -5.495378    -0.548243     2.286088
H       -5.705855     2.348048    -0.033805
H       -3.646346     3.075000    -3.097718
H       -2.653464     4.505725    -1.248951
H       -2.043035     2.830885    -1.287563
H       -3.259523     3.308389    -0.044997
H       -5.490732     4.329579    -0.972917
H       -6.083228     3.809321    -2.579300
H       -4.812942     5.070028    -2.455213
H        1.955611     3.398188    -4.045625
H        1.136513     4.145239    -1.824368
H        0.381766     2.535572    -1.530590
H        2.172590     2.709649    -1.624102
H       -0.184167     4.525959    -3.771970
H       -0.159463     3.505626    -5.188640
H       -1.067563     2.974600    -3.723430
H        3.462292     1.698966    -3.291619
112
ex_0078 frame9 see-saw N-O1-ax-conf16
C        5.569340    -0.074634    -4.457648
C        4.639843    -0.757188    -3.454764
C        5.056156    -0.448550    -2.009074
C        3.196824    -0.365954    -3.725626
C        2.297786    -1.350469    -4.103846
C        0.937360    -1.077078    -4.298920
C        0.024659    -2.281935    -4.581337
C        0.167590    -2.808595    -6.008058
C        0.275908    -3.416216    -3.559974
C        0.461172     0.271278    -4.206601
C       -0.993001     0.469397    -4.527273
C       -1.453066     0.694547    -5.841108
C       -0.510411     0.712470    -7.052363
C       -0.130149     2.130506    -7.477262
C       -1.116732    -0.047067    -8.247954
C       -2.819158     0.910180    -6.053532
C       -3.781786     0.826624    -5.039111
C       -5.241236     1.003607    -5.502841
C       -6.100153    -0.250240    -5.313384
C       -5.925132     2.213553    -4.883658
C       -3.343681     0.584050    -3.707572
C       -4.253578     0.483841    -2.522865
C       -4.782990    -0.791289    -2.141850
C       -4.455279    -2.092880    -2.879265
C       -3.345247    -2.822660    -2.108746
C       -5.672493    -3.033059    -3.035193
C       -5.645870    -0.867492    -1.040580
C       -6.002971     0.257141    -0.307923
C       -6.979495     0.142811     0.843414
C       -8.348033    -0.277927     0.282972
C       -6.502228    -0.841341     1.918287
C       -5.453011     1.492771    -0.643423
C       -4.597081     1.643825    -1.750126
C       -4.073150     3.050475    -2.073771
C       -2.945890     3.442010    -1.101698
C       -5.183149     4.118217    -2.017564
C       -1.935928     0.421566    -3.445922
N       -1.444758     0.210908    -2.112903
N       -2.286392     0.320998    -0.995925
O       -1.876054    -0.511263    -0.032887
Co       0.000000     0.000000     0.000000
N        0.000000     0.000000     2.000000
O        0.000000     0.000000     3.183496
N        1.922353     0.543915    -0.061896
O        2.605846    -0.413838     0.635922
O       -0.146700    -0.098970    -1.936479
C        1.396129     1.307473    -3.812084
C        1.133660     2.814283    -3.569746
C        1.209788     3.059688    -2.048170
C       -0.149805     3.464057    -4.096326
C        2.748239     0.947473    -3.606578
H        6.603877    -0.459614    -4.344438
H        5.573142     1.025460    -4.306926
H        5.222501    -0.292039    -5.491138
H        4.749158    -1.856260    -3.594115
H        4.351806    -0.926240    -1.296595
H        6.070858    -0.857157    -1.811166
H        5.074447     0.644965    -1.816433
H        2.659183    -2.365590    -4.163011
H       -1.040830    -2.015540    -4.420382
H       -0.559990    -2.282727    -6.634732
H        1.183760    -2.628739    -6.417278
H       -0.078358    -3.887178    -6.082374
H        1.247026    -3.926811    -3.726032
H        0.240384    -3.030974    -2.518997
H       -0.509419    -4.195743    -3.665397
H        0.427406     0.169751    -6.809979
H       -1.018861     2.800248    -7.452085
H        0.664187     2.509362    -6.808344
H        0.301686     2.145055    -8.497163
H       -1.560162    -1.010541    -7.941851
H       -1.915111     0.536886    -8.744933
H       -0.324044    -0.245435    -8.999082
H       -3.157161     1.081659    -7.061268
H       -5.238464     1.188942    -6.598577
H       -5.604040    -1.139559    -5.757241
H       -6.313501    -0.426835    -4.247189
H       -7.080620    -0.114938    -5.818509
H       -6.889775     2.408956    -5.395824
H       -6.155608     2.014439    -3.825214
H       -5.280448     3.111926    -4.985836
H       -4.077050    -1.871621    -3.897640
H       -3.138488    -3.817199    -2.555683
H       -3.630704    -2.963877    -1.042976
H       -2.406664    -2.237396    -2.143190
H       -6.562224    -2.492719    -3.413739
H       -5.431988    -3.854342    -3.740190
H       -5.946509    -3.510573    -2.069302
H       -6.046098    -1.818157    -0.730514
H       -7.102638     1.140733     1.318831
H       -8.662954     0.428837    -0.516727
H       -9.118175    -0.269503     1.080693
H       -8.306044    -1.297816    -0.157778
H       -7.208456    -0.835118     2.774975
H       -6.452680    -1.878271     1.522653
H       -5.494848    -0.550986     2.282985
H       -5.705640     2.347685    -0.033401
H       -3.646841     3.074253    -3.097005
H       -2.656214     4.505487    -1.243207
H       -2.041027     2.832822    -1.290807
H       -3.256709     3.300687    -0.044036
H       -5.486638     4.331882    -0.971058
H       -6.085684     3.804392    -2.572706
H       -4.815783     5.066706    -2.459744
H        1.958628     3.397783    -4.040794
H        1.137683     4.145453    -1.821981
H        0.379824     2.537010    -1.528796
H        2.171190     2.708684    -1.620694
H       -0.181888     4.526818    -3.769672
H       -0.149738     3.511192    -5.189141
H       -1.065740     2.975371    -3.730083
H        3.462482     1.698317    -3.288736
112
ex_0078 frame10 see-saw N-O1-ax-conf15
C        5.566220    -0.076103    -4.456136
C        4.638946    -0.758311    -3.450975
C        5.056213    -0.448799    -2.005674
C        3.197047    -0.366383    -3.721726
C        2.297830    -1.351031    -4.098420
C        0.938212    -1.077265    -4.294203
C        0.025394    -2.281341    -4.577293
C        0.164315    -2.802311    -6.006847
C        0.278630    -3.419038    -3.560229
C        0.462688     0.271025    -4.201673
C       -0.991987     0.464647    -4.520570
C       -1.452166     0.692437    -5.833449
C       -0.510281     0.713847    -7.044615
C       -0.134387     2.133011    -7.469178
C       -1.116186    -0.048479    -8.238737
C       -2.817555     0.907660    -6.046338
C       -3.780092     0.822395    -5.032811
C       -5.239071     0.999995    -5.497734
C       -6.100625    -0.252838    -5.310744
C       -5.921210     2.210697    -4.878807
C       -3.342195     0.576965    -3.701678
C       -4.251308     0.479080    -2.519002
C       -4.783028    -0.794544    -2.139514
C       -4.457443    -2.095817    -2.877161
C       -3.346318    -2.825502    -2.107374
C       -5.676066    -3.033953    -3.028974
C       -5.646388    -0.869551    -1.039459
C       -6.001061     0.255277    -0.306675
C       -6.978971     0.141785     0.842179
C       -8.346319    -0.278211     0.277761
C       -6.503511    -0.843638     1.916423
C       -5.447486     1.489781    -0.639750
C       -4.592110     1.639497    -1.746591
C       -4.066936     3.045408    -2.069227
C       -2.939015     3.435764    -1.097465
C       -5.179125     4.111337    -2.013185
C       -1.934776     0.406656    -3.439606
N       -1.444907     0.177760    -2.109361
N       -2.297739     0.248511    -0.993226
O       -1.858137    -0.576169    -0.022084
Co       0.000000     0.000000     0.000000
N        0.000000     0.000000     2.000000
O        0.000000     0.000000     3.186401
N        1.935126     0.503424    -0.008357
O        2.595760    -0.442361     0.690565
O       -0.142400    -0.109649    -1.935897
C        1.398206     1.307639    -3.809262
C        1.137901     2.814900    -3.568794
C        1.211516     3.060218    -2.047274
C       -0.141637     3.467532    -4.101167
C        2.749860     0.947259    -3.604106
H        6.599574    -0.465748    -4.350548
H        5.574859     1.023439    -4.301081
H        5.212141    -0.287005    -5.488654
H        4.746247    -1.857611    -3.589878
H        4.346282    -0.916901    -1.291981
H        6.066924    -0.865892    -1.805343
H        5.083934     0.645217    -1.816899
H        2.658451    -2.366430    -4.156608
H       -1.039378    -2.015272    -4.411330
H       -0.585308    -2.295512    -6.623613
H        1.170228    -2.594498    -6.428529
H       -0.053231    -3.886783    -6.081268
H        1.246599    -3.932854    -3.734782
H        0.252344    -3.036129    -2.518078
H       -0.510628    -4.195063    -3.662047
H        0.428437     0.171997    -6.803668
H       -1.021315     2.804358    -7.425260
H        0.671291     2.506414    -6.810546
H        0.279748     2.153075    -8.496117
H       -1.565388    -1.008205    -7.929395
H       -1.910348     0.537022    -8.740649
H       -0.321962    -0.254829    -8.986109
H       -3.154853     1.078994    -7.054421
H       -5.234591     1.185752    -6.593370
H       -5.604456    -1.143539    -5.751758
H       -6.319320    -0.428738    -4.245301
H       -7.078451    -0.116240    -5.820775
H       -6.882445     2.411108    -5.395286
H       -6.156497     2.009567    -3.821662
H       -5.272300     3.106593    -4.975946
H       -4.082323    -1.875565    -3.896938
H       -3.148000    -3.825773    -2.544485
H       -3.624974    -2.953246    -1.037937
H       -2.404070    -2.247779    -2.154302
H       -6.569657    -2.488800    -3.391663
H       -5.443586    -3.847623    -3.745197
H       -5.938803    -3.520001    -2.064102
H       -6.048709    -1.819653    -0.730639
H       -7.101221     1.140087     1.316953
H       -8.656171     0.424954    -0.527204
H       -9.119871    -0.264785     1.071835
H       -8.304495    -1.300165    -0.158448
H       -7.207048    -0.833271     2.775033
H       -6.460031    -1.880959     1.520915
H       -5.493214    -0.558305     2.277191
H       -5.698373     2.345356    -0.029594
H       -3.641948     3.070001    -3.093016
H       -2.657602     4.503100    -1.229778
H       -2.032769     2.829614    -1.293773
H       -3.245533     3.284282    -0.039988
H       -5.473298     4.334702    -0.965984
H       -6.086541     3.788405    -2.555422
H       -4.819829     5.055948    -2.469991
H        1.965637     3.397311    -4.036576
H        1.142545     4.146539    -1.822302
H        0.379650     2.539715    -1.529170
H        2.171345     2.706470    -1.618101
H       -0.177706     4.528010    -3.767898
H       -0.129840     3.523459    -5.193613
H       -1.060810     2.975756    -3.747324
H        3.464880     1.697822    -3.287303
112
ex_0078 frame11 see-saw N-O2-ax-conf16
C       -3.426599     0.030601     6.352870
C       -2.599806     0.800683     5.328869
C       -1.105286     0.631093     5.643210
C       -3.048642     0.396034     3.914819
C       -3.564096     1.372169     3.073608
C       -3.994975     1.091618     1.763680
C       -4.453541     2.287714     0.918358
C       -5.833115     2.794190     1.342068
C       -3.418847     3.433136     0.967641
C       -3.978636    -0.255176     1.272487
C       -4.559586    -0.445630    -0.117607
C       -5.949537    -0.684643    -0.290091
C       -6.953838    -0.710325     0.877681
C       -7.316307    -2.125877     1.329768
C       -8.249914     0.053096     0.521874
C       -6.447286    -0.909776    -1.578567
C       -5.666123    -0.821555    -2.734334
C       -6.426647    -1.002858    -4.063081
C       -6.420949     0.249470    -4.947105
C       -5.959639    -2.214755    -4.855654
C       -4.276889    -0.567276    -2.592902
C       -3.305736    -0.472085    -3.708791
C       -3.049322     0.802695    -4.306958
C       -3.719037     2.103854    -3.841934
C       -2.754327     2.848279    -2.899655
C       -4.101836     3.043719    -5.001780
C       -2.143749     0.873684    -5.369483
C       -1.482823    -0.252497    -5.846265
C       -0.540552    -0.140224    -7.021018
C       -1.357925     0.277972    -8.253724
C        0.602594     0.846404    -6.755885
C       -1.695504    -1.485958    -5.232983
C       -2.613706    -1.633079    -4.180704
C       -2.825273    -3.036551    -3.592404
C       -1.651746    -3.414724    -2.672069
C       -2.987450    -4.111007    -4.686473
C       -3.721250    -0.325764    -1.298677
N       -2.347678     0.051114    -1.156464
N       -1.459618     0.231311    -2.218871
O       -0.146214     0.006377    -1.940700
Co       0.000000     0.000000     0.000000
N        0.000000     0.000000     2.000000
O        0.000000     0.000000     3.183496
N        1.974640    -0.251788    -0.142375
O        2.510522    -0.184593     1.090944
O       -1.929226     0.230760     0.066048
C       -3.416038    -1.282918     2.128823
C       -3.226366    -2.789303     1.823826
C       -1.727316    -3.043915     1.590622
C       -4.016610    -3.449150     0.684943
C       -2.963917    -0.914012     3.428583
H       -3.211641     0.413170     7.373059
H       -3.183478    -1.052292     6.317649
H       -4.506279     0.173126     6.140449
H       -2.814335     1.881912     5.480730
H       -0.498029     1.314774     5.015723
H       -0.893855     0.933041     6.691545
H       -0.779589    -0.425061     5.523145
H       -3.592369     2.385869     3.442753
H       -4.504752     2.019699    -0.157401
H       -6.580874     2.293657     0.719002
H       -6.053444     2.568434     2.406842
H       -5.957370     3.880170     1.158603
H       -3.403216     3.941337     1.953861
H       -2.399836     3.058660     0.735004
H       -3.683563     4.207420     0.215652
H       -6.528970    -0.170905     1.749679
H       -7.449069    -2.797149     0.451619
H       -6.527839    -2.506204     2.003261
H       -8.249461    -2.137175     1.927784
H       -8.046340     1.010997     0.014144
H       -8.905969    -0.534171    -0.150425
H       -8.825757     0.260090     1.448659
H       -7.503912    -1.083479    -1.696558
H       -7.497787    -1.188155    -3.830552
H       -6.750913     1.141186    -4.372580
H       -5.423344     0.426768    -5.379749
H       -7.118678     0.112691    -5.800859
H       -6.659881    -2.416209    -5.692219
H       -4.970909    -2.016347    -5.299352
H       -5.923550    -3.109241    -4.198583
H       -4.645795     1.883286    -3.274446
H       -3.134385     3.856890    -2.643135
H       -1.748077     2.951509    -3.364382
H       -2.648941     2.313578    -1.939967
H       -4.633283     2.500655    -5.806997
H       -4.755227     3.857188    -4.626703
H       -3.202761     3.527922    -5.441628
H       -1.919323     1.823523    -5.823504
H       -0.096048    -1.138280    -7.229200
H       -2.208356    -0.425177    -8.399490
H       -0.728817     0.264013    -9.165664
H       -1.778504     1.299711    -8.128244
H        1.312204     0.837316    -7.609140
H        0.221335     1.882942    -6.635923
H        1.148608     0.560238    -5.832353
H       -1.138440    -2.341531    -5.587365
H       -3.746647    -3.061811    -2.975469
H       -1.724472    -4.480530    -2.361247
H       -1.668502    -2.793916    -1.753462
H       -0.675076    -3.267784    -3.180850
H       -2.018515    -4.336008    -5.179873
H       -3.699163    -3.793286    -5.470719
H       -3.364229    -5.053924    -4.239379
H       -3.523336    -3.364042     2.732509
H       -1.530882    -4.133288     1.485743
H       -1.390436    -2.529623     0.666787
H       -1.114968    -2.683076     2.442359
H       -3.706260    -4.512867     0.588749
H       -5.083393    -3.501919     0.919724
H       -3.861087    -2.968973    -0.293525
H       -2.535765    -1.666911     4.080500
112
ex_0078 frame12 see-saw N-O1-ax-conf19
C        4.879554     0.592236    -2.160830
C        4.607837    -0.257468    -3.416748
C        5.431815     0.257846    -4.599613
C        3.128990    -0.262065    -3.760373
C        2.464686     0.940725    -3.999275
C        1.084848     0.980979    -4.227708
C        0.419454     2.340093    -4.393237
C        0.838764     3.018887    -5.699476
C        0.738867     3.260634    -3.195034
C        0.343297    -0.241852    -4.291167
C       -1.149848    -0.263737    -4.548814
C       -1.693522    -0.352397    -5.857356
C       -0.800296    -0.440614    -7.084558
C       -0.914053     0.821529    -7.939062
C       -1.135481    -1.688159    -7.924916
C       -3.080605    -0.359719    -6.035419
C       -3.966133    -0.394065    -4.953652
C       -5.468319    -0.575311    -5.235619
C       -6.173808     0.699701    -5.696050
C       -5.696762    -1.690972    -6.272720
C       -3.443558    -0.272555    -3.641515
C       -4.329199    -0.221533    -2.457975
C       -4.772884     1.011497    -1.868151
C       -4.399006     2.460895    -2.271272
C       -3.285646     2.940153    -1.326812
C       -4.011641     2.799311    -3.715265
C       -5.660468     0.937623    -0.784090
C       -6.046968    -0.278134    -0.218264
C       -6.916777    -0.309133     1.020358
C       -6.253504     0.501040     2.147065
C       -8.323273     0.204691     0.706112
C       -5.626797    -1.468125    -0.801112
C       -4.731142    -1.471712    -1.879614
C       -4.225532    -2.835410    -2.385798
C       -5.255596    -3.604370    -3.222285
C       -3.731989    -3.715213    -1.215159
C       -2.032608    -0.253058    -3.426460
N       -1.466877    -0.240414    -2.117613
N       -2.276502    -0.458867    -1.011099
O       -1.917679     0.315640     0.037595
Co       0.000000     0.000000     0.000000
N        0.000000     0.000000     2.000000
O        0.000000     0.000000     3.175464
N        1.958388    -0.353870    -0.035413
O        2.538588     0.395766     0.901297
O       -0.165220    -0.020864    -1.938570
C        1.031723    -1.484607    -4.102898
C        0.293527    -2.826482    -4.180127
C        0.671030    -3.574502    -5.464736
C        0.505839    -3.721446    -2.939216
C        2.416738    -1.466889    -3.841485
H        4.217788     0.282355    -1.327822
H        4.716197     1.674277    -2.354954
H        5.931066     0.458705    -1.829091
H        4.934746    -1.296114    -3.189285
H        5.118658     1.285271    -4.884665
H        5.285134    -0.411587    -5.473208
H        6.510700     0.279414    -4.340980
H        3.019973     1.864985    -3.935095
H       -0.674742     2.183592    -4.424490
H        0.095788     3.800783    -5.968533
H        0.907161     2.274512    -6.511498
H        1.847586     3.469360    -5.629901
H        1.793483     3.616405    -3.239104
H        0.090039     4.159577    -3.203774
H        0.608216     2.725910    -2.230688
H        0.250183    -0.531127    -6.749880
H       -0.928110     1.715364    -7.292474
H       -0.056724     0.878538    -8.642904
H       -1.867859     0.851620    -8.499757
H       -0.318974    -1.903180    -8.644286
H       -1.290422    -2.575357    -7.278186
H       -2.073024    -1.538626    -8.503791
H       -3.469671    -0.444508    -7.037827
H       -5.981462    -0.918099    -4.314047
H       -7.173635     0.473147    -6.118672
H       -6.368721     1.345474    -4.822963
H       -5.568176     1.231591    -6.462353
H       -6.751781    -2.036001    -6.221909
H       -5.497481    -1.335823    -7.302890
H       -5.031975    -2.554121    -6.100161
H       -5.280878     3.111599    -2.068688
H       -2.337933     2.404080    -1.533828
H       -3.568352     2.787496    -0.263574
H       -3.103700     4.027496    -1.470880
H       -3.128153     2.246704    -4.071883
H       -4.855572     2.660045    -4.394533
H       -3.768974     3.881365    -3.785261
H       -5.986308     1.853448    -0.308483
H       -7.011333    -1.355989     1.387777
H       -5.197578     0.179219     2.282980
H       -6.792799     0.337649     3.103053
H       -6.265297     1.589339     1.926978
H       -8.819476    -0.498345     0.002081
H       -8.285082     1.208234     0.231822
H       -8.932288     0.267990     1.630995
H       -5.929309    -2.398043    -0.341371
H       -3.318266    -2.692654    -3.011234
H       -4.961995    -3.536889    -4.277416
H       -5.262263    -4.691016    -2.999824
H       -6.281347    -3.197338    -3.103148
H       -4.575303    -4.091275    -0.598560
H       -3.025545    -3.160340    -0.564345
H       -3.205764    -4.610466    -1.613615
H       -0.794201    -2.636840    -4.254140
H        1.502624    -4.289972    -5.308839
H        0.960814    -2.861983    -6.266452
H       -0.216410    -4.136795    -5.828635
H        1.582816    -3.947187    -2.779205
H        0.112029    -3.238561    -2.021167
H       -0.008347    -4.697578    -3.074856
H        2.943703    -2.395149    -3.666627
112
ex_0078 frame13 see-saw N-O1-ax
C       -1.367971    -6.639486    -3.414355
C       -1.658850    -5.643834    -2.286133
C       -0.500959    -5.622863    -1.272244
C       -1.901325    -4.243693    -2.819551
C       -3.117258    -3.601194    -2.581404
C       -3.343701    -2.275773    -2.998791
C       -4.688837    -1.636552    -2.657819
C       -5.839061    -2.339499    -3.396225
C       -4.979545    -1.680360    -1.143194
C       -2.305894    -1.584474    -3.715035
C       -2.459896    -0.173502    -4.198640
C       -3.064925     0.221697    -5.430779
C       -3.789298    -0.676899    -6.454717
C       -3.434044    -2.166559    -6.551614
C       -5.301739    -0.464473    -6.235210
C       -3.014069     1.574916    -5.783291
C       -2.514602     2.577480    -4.933433
C       -2.599302     4.030345    -5.410039
C       -1.492332     4.342726    -6.421598
C       -3.977189     4.346890    -6.021251
C       -1.966879     2.205684    -3.680850
C       -1.409673     3.256931    -2.749958
C       -2.242148     3.853138    -1.745304
C       -3.693306     3.433691    -1.507586
C       -4.671005     4.451042    -2.087855
C       -3.981509     3.231441     0.000846
C       -1.718364     4.872321    -0.930698
C       -0.385412     5.260351    -1.003155
C        0.169744     6.316176    -0.060690
C       -0.586535     7.650712    -0.165805
C        0.128799     5.775770     1.373094
C        0.436467     4.665928    -1.954623
C       -0.040790     3.681185    -2.846825
C        0.959078     3.128212    -3.872358
C        1.903366     2.104415    -3.217897
C        1.803887     4.248468    -4.528251
C       -1.956209     0.826367    -3.330926
N       -1.410589     0.552711    -2.069852
N       -2.206038     0.825264    -0.968618
O       -1.945470    -0.017529     0.047890
Co       0.000000     0.000000     0.000000
N        0.000000     0.000000     2.000000
O        0.000000     0.000000     3.208710
N        1.993992    -0.001808    -0.113045
O        2.511196     0.238743     1.114135
O       -0.177232     0.050999    -1.937396
C       -1.072721    -2.257274    -3.978929
C        0.109185    -1.598949    -4.715892
C        0.170079    -2.025014    -6.183966
C        1.455938    -1.893704    -4.026692
C       -0.917410    -3.585341    -3.550344
H       -1.286986    -7.667282    -3.002530
H       -2.187893    -6.617134    -4.162280
H       -0.412607    -6.395054    -3.926765
H       -2.569197    -5.987166    -1.747282
H        0.464444    -5.376549    -1.765461
H       -0.691646    -4.862398    -0.483887
H       -0.397965    -6.613828    -0.782144
H       -3.879670    -4.129000    -2.023609
H       -4.664329    -0.574014    -2.972286
H       -6.018393    -3.360812    -3.004662
H       -5.608253    -2.454800    -4.469990
H       -6.771941    -1.743424    -3.291161
H       -5.904784    -1.111673    -0.910215
H       -4.142403    -1.254713    -0.559148
H       -5.144188    -2.724193    -0.794316
H       -3.581107    -0.323032    -7.489965
H       -4.078361    -2.642019    -7.322104
H       -3.560969    -2.735849    -5.621676
H       -2.416001    -2.293028    -6.937877
H       -5.907537    -1.261635    -6.717896
H       -5.550928    -0.419002    -5.160113
H       -5.623536     0.510326    -6.653593
H       -3.447558     1.855254    -6.730088
H       -2.482729     4.729908    -4.555191
H       -1.713288     5.261417    -7.003392
H       -1.315457     3.497300    -7.119299
H       -0.562365     4.528412    -5.875497
H       -4.111187     3.866868    -7.012073
H       -4.793986     4.012321    -5.350833
H       -4.071372     5.441104    -6.180496
H       -3.886185     2.470915    -2.020513
H       -4.539938     5.447645    -1.617921
H       -4.500089     4.547758    -3.174440
H       -5.714222     4.103879    -1.929641
H       -4.006290     4.198432     0.547444
H       -3.207691     2.601686     0.484536
H       -4.972109     2.757203     0.148393
H       -2.338619     5.345241    -0.187440
H        1.238194     6.513429    -0.302533
H       -1.666433     7.526057     0.061218
H       -0.485893     8.071585    -1.188296
H       -0.171610     8.384438     0.558157
H        0.626784     6.486345     2.065356
H       -0.915632     5.616595     1.714743
H        0.670758     4.805962     1.421408
H        1.467651     4.984639    -1.992982
H        0.423876     2.620742    -4.702637
H        1.461810     1.095259    -3.281591
H        2.881975     2.050445    -3.740000
H        2.095503     2.349803    -2.150549
H        2.349987     3.836414    -5.404151
H        1.188391     5.101326    -4.867638
H        2.565717     4.656833    -3.834430
H        0.018319    -0.493869    -4.704322
H        1.157730    -1.801743    -6.633873
H       -0.554808    -1.421326    -6.758952
H       -0.042733    -3.110949    -6.298169
H        1.759035    -2.954642    -4.135081
H        1.415986    -1.637398    -2.949560
H        2.255121    -1.285537    -4.500570
H        0.005283    -4.109131    -3.731620
112
ex_0078 frame14 see-saw N-O2-ax-conf13
C       -3.422726     0.031601     6.352782
C       -2.595656     0.799867     5.327721
C       -1.100803     0.627384     5.638423
C       -3.046074     0.395467     3.914893
C       -3.562063     1.372014     3.074531
C       -3.993042     1.091658     1.765155
C       -4.452700     2.287012     0.919278
C       -5.832924     2.792213     1.342081
C       -3.418710     3.432752     0.967919
C       -3.976236    -0.255183     1.274075
C       -4.556437    -0.442258    -0.114778
C       -5.944776    -0.683602    -0.289253
C       -6.950492    -0.711125     0.877117
C       -7.313544    -2.126529     1.328690
C       -8.246289     0.052164     0.519281
C       -6.440220    -0.909478    -1.577959
C       -5.657449    -0.819387    -2.732545
C       -6.417955    -1.000795    -4.061528
C       -6.413748     0.251201    -4.946031
C       -5.951428    -2.212321    -4.853990
C       -4.267797    -0.561590    -2.588127
C       -3.297852    -0.468184    -3.703933
C       -3.043543     0.805894    -4.303531
C       -3.715626     2.106708    -3.840768
C       -2.755951     2.856018    -2.897957
C       -4.099054     3.042832    -5.003687
C       -2.137521     0.876410    -5.365762
C       -1.477251    -0.250275    -5.842535
C       -0.538356    -0.139290    -7.019841
C       -1.358871     0.277532    -8.251194
C        0.604705     0.847858    -6.757818
C       -1.687393    -1.483011    -5.226952
C       -2.605970    -1.629757    -4.175147
C       -2.817832    -3.033562    -3.586845
C       -1.645646    -3.416682    -2.666967
C       -2.982333    -4.105902    -4.682953
C       -3.717573    -0.313604    -1.287923
N       -2.343799     0.080437    -1.132238
N       -1.447671     0.230485    -2.193358
O       -0.169993    -0.153157    -1.932817
Co       0.000000     0.000000     0.000000
N        0.000000     0.000000     2.000000
O        0.000000     0.000000     3.169552
N        1.967384    -0.331260    -0.136048
O        2.521511    -0.171562     1.086737
O       -1.918132     0.310442     0.088679
C       -3.414286    -1.283505     2.129810
C       -3.225220    -2.790135     1.824844
C       -1.726516    -3.045217     1.590955
C       -4.016798    -3.450791     0.687216
C       -2.962168    -0.914801     3.429242
H       -3.207041     0.415234     7.372348
H       -3.180891    -1.051595     6.318486
H       -4.502397     0.174974     6.140485
H       -2.808253     1.881509     5.479284
H       -0.493813     1.308830     5.008384
H       -0.886394     0.930017     6.685910
H       -0.777485    -0.429448     5.517813
H       -3.590324     2.385679     3.443611
H       -4.503575     2.018877    -0.156461
H       -6.579653     2.294701     0.715207
H       -6.055686     2.561884     2.405366
H       -5.956418     3.878888     1.162699
H       -3.404326     3.941592     1.953731
H       -2.399382     3.058328     0.736674
H       -3.683108     4.205775     0.214575
H       -6.526903    -0.171307     1.749492
H       -7.443423    -2.798112     0.450334
H       -6.526775    -2.505909     2.004692
H       -8.248533    -2.138060     1.923814
H       -8.042463     1.009260     0.010101
H       -8.902094    -0.535972    -0.152573
H       -8.822696     0.260759     1.445363
H       -7.496631    -1.083711    -1.696983
H       -7.489128    -1.186340    -3.829163
H       -6.744104     1.143135    -4.372051
H       -5.416523     0.428305    -5.379726
H       -7.112560     0.113501    -5.798881
H       -6.652489    -2.413672    -5.689957
H       -4.962854    -2.012920    -5.297593
H       -5.915488    -3.106666    -4.196715
H       -4.643533     1.884800    -3.275602
H       -3.138367     3.865821    -2.648634
H       -1.748112     2.958141    -3.359153
H       -2.653926     2.324780    -1.935928
H       -4.626018     2.496546    -5.809697
H       -4.757170     3.854082    -4.632008
H       -3.200700     3.529842    -5.441770
H       -1.916006     1.825461    -5.822825
H       -0.094300    -1.137564    -7.228042
H       -2.210020    -0.425355    -8.394205
H       -0.732061     0.262262    -9.164717
H       -1.778831     1.299588    -8.126232
H        1.313271     0.837728    -7.611808
H        0.222920     1.884301    -6.638690
H        1.151446     0.563047    -5.834286
H       -1.131470    -2.339129    -5.581875
H       -3.739465    -3.058083    -2.970257
H       -1.719885    -4.483692    -2.360380
H       -1.662924    -2.799497    -1.745981
H       -0.668330    -3.269148    -3.174311
H       -2.013571    -4.333917    -5.175276
H       -3.691079    -3.784634    -5.468287
H       -3.363868    -5.048013    -4.238206
H       -3.521407    -3.364699     2.733960
H       -1.530330    -4.134700     1.486295
H       -1.390080    -2.530799     0.667078
H       -1.113916    -2.684460     2.442536
H       -3.705544    -4.514243     0.590371
H       -5.082981    -3.505550     0.924308
H       -3.863965    -2.970194    -0.291510
H       -2.534382    -1.667917     4.081180
112
ex_0078 frame15 see-saw N-O2-ax-conf15
C       -3.427241     0.030065     6.353452
C       -2.600515     0.800464     5.329700
C       -1.106060     0.632049     5.644560
C       -3.048216     0.395424     3.915544
C       -3.563764     1.371497     3.074293
C       -3.993867     1.090825     1.764491
C       -4.452888     2.286446     0.918437
C       -5.832293     2.792934     1.342203
C       -3.418173     3.431729     0.966831
C       -3.976969    -0.256211     1.273416
C       -4.557817    -0.443789    -0.115347
C       -5.946180    -0.684255    -0.290080
C       -6.951064    -0.710796     0.876719
C       -7.313783    -2.125883     1.329437
C       -8.246952     0.052210     0.519247
C       -6.442025    -0.910017    -1.578893
C       -5.659413    -0.820637    -2.733726
C       -6.419880    -1.001417    -4.062873
C       -6.414894     0.250810    -4.946964
C       -5.953162    -2.212921    -4.855505
C       -4.269523    -0.563421    -2.589216
C       -3.298904    -0.469663    -3.705251
C       -3.044341     0.804821    -4.304493
C       -3.716441     2.105626    -3.841477
C       -2.756513     2.854258    -2.898382
C       -4.100196     3.042655    -5.003779
C       -2.137992     0.875829    -5.366674
C       -1.477356    -0.250633    -5.843683
C       -0.537646    -0.139298    -7.020566
C       -1.357490     0.277561    -8.252318
C        0.605473     0.847715    -6.758104
C       -1.687901    -1.483615    -5.228672
C       -2.606580    -1.630746    -4.176864
C       -2.818485    -3.034396    -3.588540
C       -1.646211    -3.416447    -2.668361
C       -2.982666    -4.107338    -4.683853
C       -3.718864    -0.316501    -1.287526
N       -2.341273     0.075491    -1.131971
N       -1.449519     0.218874    -2.193713
O       -0.169212    -0.155886    -1.932637
Co       0.000000     0.000000     0.000000
N        0.000000     0.000000     2.000000
O        0.000000     0.000000     3.186401
N        1.963572    -0.326717    -0.147691
O        2.524287    -0.146469     1.094059
O       -1.921752     0.303702     0.061737
C       -3.414227    -1.283844     2.129561
C       -3.224164    -2.790244     1.824312
C       -1.725391    -3.045176     1.590756
C       -4.015104    -3.450634     0.686056
C       -2.962387    -0.914686     3.429311
H       -3.212747     0.413000     7.373603
H       -3.183517    -1.052692     6.318491
H       -4.506925     0.172061     6.140682
H       -2.815878     1.881550     5.481299
H       -0.499257     1.316234     5.017141
H       -0.895171     0.934191     6.692910
H       -0.779577    -0.423876     5.524606
H       -3.593208     2.385126     3.443312
H       -4.504626     2.018247    -0.157314
H       -6.580138     2.292787     0.718965
H       -6.052756     2.566824     2.406856
H       -5.956374     3.878894     1.158795
H       -3.402134     3.939873     1.952996
H       -2.399280     3.057242     0.733894
H       -3.683207     4.205625     0.214578
H       -6.526686    -0.170620     1.748461
H       -7.446763    -2.797470     0.451555
H       -6.525545    -2.505909     2.003305
H       -8.246977    -2.136362     1.927334
H       -8.043372     1.009762     0.010803
H       -8.902431    -0.535683    -0.153074
H       -8.823464     0.259763     1.445464
H       -7.498526    -1.083439    -1.698014
H       -7.491214    -1.186720    -3.830900
H       -6.745529     1.142492    -4.372747
H       -5.417322     0.427949    -5.379705
H       -7.112934     0.113622    -5.800552
H       -6.653336    -2.413759    -5.692352
H       -4.964085    -2.013963    -5.298141
H       -5.918029    -3.107511    -4.198531
H       -4.644047     1.883585    -3.275926
H       -3.140472     3.863111    -2.646889
H       -1.749521     2.959439    -3.360558
H       -2.651931     2.320505    -1.937870
H       -4.629774     2.497491    -5.808809
H       -4.756032     3.855300    -4.630991
H       -3.201914     3.528185    -5.443651
H       -1.915866     1.825160    -5.823042
H       -0.093347    -1.137446    -7.228913
H       -2.207858    -0.426048    -8.396352
H       -0.729974     0.263227    -9.165398
H       -1.778383     1.299194    -8.127164
H        1.313682     0.838405    -7.612466
H        0.223779     1.884045    -6.637889
H        1.152762     0.561961    -5.835201
H       -1.131307    -2.339405    -5.583344
H       -3.739965    -3.058840    -2.971778
H       -1.721858    -4.482479    -2.358880
H       -1.662141    -2.796998    -1.748865
H       -0.668980    -3.271472    -3.176586
H       -2.014273    -4.333477    -5.177715
H       -3.693596    -3.787708    -5.467879
H       -3.361378    -5.049997    -4.237885
H       -3.520951    -3.364731     2.733210
H       -1.529168    -4.134623     1.485722
H       -1.388851    -2.530532     0.666992
H       -1.113035    -2.684499     2.442534
H       -3.705068    -4.514540     0.590379
H       -5.081784    -3.503483     0.921271
H       -3.860064    -2.970944    -0.292753
H       -2.534792    -1.667641     4.081479
112
ex_0078 frame16 see-saw N-O2-ax-conf14
C       -3.416887     0.034595     6.347771
C       -2.587369     0.801298     5.324110
C       -1.093311     0.628191     5.638539
C       -3.040072     0.394518     3.913008
C       -3.554890     1.370218     3.071699
C       -3.990159     1.087723     1.764521
C       -4.449861     2.282715     0.918763
C       -5.833518     2.782855     1.337668
C       -3.419593     3.432519     0.970392
C       -3.976466    -0.260326     1.274936
C       -4.560043    -0.447591    -0.113730
C       -5.947087    -0.683326    -0.290057
C       -6.950044    -0.710394     0.875860
C       -7.309037    -2.128517     1.322170
C       -8.243486     0.055675     0.519751
C       -6.443417    -0.903632    -1.579496
C       -5.659456    -0.816950    -2.733481
C       -6.418348    -0.995206    -4.062672
C       -6.413138     0.255432    -4.949219
C       -5.949615    -2.208634    -4.851155
C       -4.269754    -0.565016    -2.587377
C       -3.297799    -0.470622    -3.701231
C       -3.042650     0.803189    -4.300531
C       -3.712527     2.104459    -3.839060
C       -2.749315     2.848897    -2.895232
C       -4.091089     3.040653    -5.003790
C       -2.137192     0.874516    -5.362368
C       -1.477091    -0.251244    -5.839012
C       -0.541006    -0.139070    -7.017389
C       -1.365657     0.278306    -8.246228
C        0.600936     0.849705    -6.756946
C       -1.684883    -1.483763    -5.222311
C       -2.604370    -1.631128    -4.171428
C       -2.814735    -3.034851    -3.583744
C       -1.642461    -3.421120    -2.664070
C       -2.980010    -4.102278    -4.683864
C       -3.720925    -0.322298    -1.286384
N       -2.348206     0.064070    -1.126577
N       -1.452584     0.221971    -2.186626
O       -0.171897    -0.154850    -1.932448
Co       0.000000     0.000000     0.000000
N        0.000000     0.000000     2.000000
O        0.000000     0.000000     3.175464
N        1.973776    -0.298796    -0.132351
O        2.524621    -0.100320     1.083423
O       -1.920574     0.279416     0.097433
C       -3.413973    -1.287197     2.132006
C       -3.226560    -2.794145     1.830101
C       -1.728202    -3.047829     1.592504
C       -4.023318    -3.457683     0.697946
C       -2.959427    -0.916664     3.429979
H       -3.208140     0.423332     7.366590
H       -3.170555    -1.047803     6.318389
H       -4.495902     0.172426     6.128241
H       -2.799232     1.883410     5.473185
H       -0.484024     1.308431     5.009469
H       -0.880605     0.933023     6.685578
H       -0.770996    -0.429446     5.521136
H       -3.579153     2.384776     3.438514
H       -4.494461     2.013631    -0.157001
H       -6.574644     2.309209     0.685294
H       -6.071517     2.521235     2.390654
H       -5.949899     3.875180     1.191695
H       -3.416633     3.946727     1.953741
H       -2.396561     3.060615     0.751437
H       -3.679329     4.201292     0.211068
H       -6.526476    -0.171485     1.748961
H       -7.413588    -2.802782     0.442221
H       -6.530078    -2.499465     2.012479
H       -8.255771    -2.149946     1.897485
H       -8.035694     1.007580     0.002114
H       -8.904186    -0.535012    -0.144884
H       -8.813114     0.274976     1.447374
H       -7.500466    -1.073755    -1.698633
H       -7.489482    -1.179992    -3.830079
H       -6.738812     1.149483    -4.375860
H       -5.416939     0.429635    -5.387208
H       -7.116155     0.117483    -5.798555
H       -6.653500    -2.417819    -5.682448
H       -4.963298    -2.007288    -5.299622
H       -5.905488    -3.099204    -4.189169
H       -4.642229     1.884961    -3.276072
H       -3.119604     3.865078    -2.653982
H       -1.737900     2.936785    -3.352228
H       -2.656607     2.319838    -1.930456
H       -4.598778     2.490274    -5.819712
H       -4.765123     3.841832    -4.639262
H       -3.191952     3.539426    -5.427423
H       -1.916328     1.823955    -5.819313
H       -0.097482    -1.137517    -7.225465
H       -2.222396    -0.419257    -8.382484
H       -0.744161     0.256945    -9.163055
H       -1.779333     1.303157    -8.122006
H        1.312992     0.834341    -7.607754
H        0.217979     1.886743    -6.646008
H        1.143228     0.571592    -5.828731
H       -1.128319    -2.339875    -5.576568
H       -3.737141    -3.061016    -2.968369
H       -1.704162    -4.494433    -2.377358
H       -1.671641    -2.821658    -1.731803
H       -0.663881    -3.252285    -3.162460
H       -2.007757    -4.342277    -5.163647
H       -3.673160    -3.767695    -5.477858
H       -3.382121    -5.039039    -4.246212
H       -3.517397    -3.367755     2.741431
H       -1.531280    -4.137475     1.491796
H       -1.393949    -2.536189     0.666559
H       -1.114019    -2.683717     2.441620
H       -3.703912    -4.517722     0.593167
H       -5.086125    -3.523224     0.948780
H       -3.885825    -2.973267    -0.281054
H       -2.530892    -1.668821     4.082400
112
ex_0078 frame17 see-saw N-O2-ax-conf20
C       -1.360940    -0.838992     5.469609
C       -2.542349     0.157474     5.274091
C       -3.665467    -0.234108     6.233998
C       -3.093311     0.216907     3.843268
C       -3.447308    -0.966385     3.202701
C       -3.917958    -0.986716     1.881402
C       -4.211159    -2.339836     1.256822
C       -5.415835    -3.007310     1.928122
C       -2.980497    -3.268557     1.344439
C       -4.108687     0.241673     1.164904
C       -4.647192     0.262545    -0.272865
C       -6.048431     0.357706    -0.526946
C       -7.067558     0.445939     0.600461
C       -7.930835    -0.816580     0.658285
C       -7.967622     1.689043     0.445544
C       -6.521808     0.371984    -1.845414
C       -5.659873     0.402075    -2.943958
C       -6.245259     0.580747    -4.352686
C       -6.824677    -0.701604    -4.945463
C       -7.302968     1.696107    -4.364240
C       -4.273770     0.274333    -2.720993
C       -3.285620     0.222963    -3.810549
C       -2.796012    -1.012906    -4.359290
C       -3.122919    -2.463500    -3.910388
C       -1.967108    -2.938265    -3.006088
C       -4.450783    -2.800989    -3.223849
C       -1.907216    -0.939266    -5.439445
C       -1.413164     0.277776    -5.913577
C       -0.353945     0.308430    -6.992137
C        0.874501    -0.504922    -6.550185
C       -0.929738    -0.202928    -8.313433
C       -1.900475     1.469266    -5.388356
C       -2.786855     1.471764    -4.304687
C       -3.179072     2.833489    -3.699318
C       -4.206667     3.614867    -4.524990
C       -1.929109     3.705444    -3.437920
C       -3.747925     0.189988    -1.400784
N       -2.333543     0.034189    -1.198058
N       -1.419579     0.052176    -2.271881
O       -0.103160     0.005177    -1.942749
Co       0.000000     0.000000     0.000000
N        0.000000     0.000000     2.000000
O        0.000000     0.000000     3.186401
N        1.990102     0.133674    -0.101555
O        2.512017     0.088721     1.140850
O       -1.939056    -0.126790     0.051742
C       -3.781451     1.471570     1.828179
C       -3.995287     2.818741     1.123353
C       -5.196811     3.550565     1.740111
C       -2.752210     3.728771     1.095302
C       -3.255624     1.433106     3.148205
H       -1.119469    -1.420490     4.561021
H       -1.601147    -1.638690     6.202011
H       -0.459907    -0.314468     5.859116
H       -2.197202     1.171542     5.579056
H       -4.056589    -1.242063     5.977344
H       -4.488521     0.505747     6.179697
H       -3.276598    -0.261738     7.275414
H       -3.316149    -1.896117     3.738391
H       -4.451676    -2.178368     0.189880
H       -5.835988    -3.784350     1.254060
H       -6.189267    -2.255472     2.162747
H       -5.152282    -3.462392     2.902705
H       -2.825903    -3.624868     2.388624
H       -3.117039    -4.165712     0.708590
H       -2.054488    -2.738696     1.036654
H       -6.522823     0.533718     1.559064
H       -7.305471    -1.712296     0.507107
H       -8.448224    -0.876156     1.639675
H       -8.676023    -0.843147    -0.160161
H       -8.507109     1.901004     1.391255
H       -7.374657     2.579995     0.157692
H       -8.728107     1.534664    -0.351590
H       -7.584085     0.455113    -2.013062
H       -5.451146     0.927886    -5.045192
H       -7.438807    -0.484697    -5.842086
H       -5.998534    -1.340487    -5.303808
H       -7.446761    -1.237585    -4.195505
H       -7.461292     2.044839    -5.407076
H       -8.270503     1.341226    -3.959494
H       -6.991005     2.556888    -3.747705
H       -3.101739    -3.120476    -4.809174
H       -1.983765    -2.419858    -2.026969
H       -0.979491    -2.775285    -3.487217
H       -2.062264    -4.026245    -2.799126
H       -4.614900    -2.239639    -2.290022
H       -5.292789    -2.672339    -3.907696
H       -4.461596    -3.880057    -2.958572
H       -1.495424    -1.855409    -5.841802
H       -0.007297     1.354594    -7.151393
H        1.205744    -0.185100    -5.537623
H        1.713570    -0.340582    -7.257778
H        0.654996    -1.592900    -6.522881
H       -1.713770     0.503036    -8.664623
H       -1.393407    -1.204166    -8.184764
H       -0.138337    -0.270373    -9.086645
H       -1.489452     2.398006    -5.757180
H       -3.603693     2.682768    -2.683550
H       -5.179489     3.545378    -4.019991
H       -3.982046     4.700060    -4.570477
H       -4.302786     3.215408    -5.556003
H       -1.490721     4.092618    -4.381551
H       -1.153837     3.140238    -2.879910
H       -2.210629     4.595161    -2.831743
H       -4.275446     2.635730     0.068341
H       -4.897199     4.280208     2.518207
H       -5.916891     2.830836     2.184614
H       -5.737027     4.099662     0.937499
H       -2.389525     3.946699     2.123153
H       -1.926880     3.260513     0.520906
H       -3.001909     4.704823     0.624167
H       -2.992944     2.355874     3.649026
112
ex_0078 frame18 see-saw N-O2-ax-conf19
C       -1.345842    -0.836593     5.466147
C       -2.527171     0.159927     5.269561
C       -3.648085    -0.236782     6.229321
C       -3.080793     0.219231     3.840261
C       -3.436474    -0.963748     3.202179
C       -3.908120    -0.984621     1.882155
C       -4.202176    -2.337847     1.259790
C       -5.419965    -2.996340     1.917669
C       -2.975474    -3.271445     1.364398
C       -4.099658     0.243613     1.164051
C       -4.640031     0.263681    -0.272443
C       -6.041363     0.361462    -0.527384
C       -7.060063     0.452975     0.598993
C       -7.912711    -0.816674     0.666330
C       -7.968411     1.690058     0.436555
C       -6.514372     0.375282    -1.845122
C       -5.650753     0.402680    -2.941817
C       -6.234193     0.579310    -4.349753
C       -6.814699    -0.705993    -4.935307
C       -7.286695     1.699089    -4.363113
C       -4.265102     0.273810    -2.717906
C       -3.278133     0.223435    -3.806309
C       -2.789469    -1.012354    -4.355835
C       -3.116495    -2.464005    -3.909241
C       -1.964609    -2.943758    -3.002031
C       -4.448403    -2.802859    -3.232395
C       -1.901370    -0.936669    -5.434866
C       -1.408122     0.281209    -5.907333
C       -0.351907     0.310934    -6.986247
C        0.873849    -0.506141    -6.544970
C       -0.935403    -0.199899    -8.304955
C       -1.892978     1.472281    -5.380657
C       -2.779710     1.473199    -4.298582
C       -3.173097     2.833594    -3.692409
C       -4.210449     3.605745    -4.514937
C       -1.926894     3.713986    -3.439741
C       -3.740603     0.179588    -1.396451
N       -2.329662     0.000332    -1.188228
N       -1.417661     0.015472    -2.265846
O       -0.100988     0.003082    -1.942574
Co       0.000000     0.000000     0.000000
N        0.000000     0.000000     2.000000
O        0.000000     0.000000     3.175464
N        1.987718     0.185944    -0.106096
O        2.508494     0.093050     1.140903
O       -1.933914    -0.176300     0.039322
C       -3.771342     1.473319     1.825122
C       -3.985023     2.820906     1.120700
C       -5.199237     3.540998     1.728503
C       -2.747272     3.739439     1.102968
C       -3.243808     1.435112     3.144413
H       -1.085613    -1.401786     4.554156
H       -1.600750    -1.658342     6.167647
H       -0.456860    -0.319375     5.892324
H       -2.181323     1.175053     5.570660
H       -4.039818    -1.242527     5.963619
H       -4.471360     0.502832     6.182359
H       -3.256317    -0.276146     7.268965
H       -3.303331    -1.892860     3.738044
H       -4.428336    -2.173904     0.190170
H       -5.858492    -3.747235     1.226038
H       -6.177609    -2.233424     2.171433
H       -5.166816    -3.480393     2.881033
H       -2.850061    -3.645672     2.406518
H       -3.092932    -4.156748     0.709140
H       -2.039710    -2.737191     1.095335
H       -6.511342     0.550697     1.553993
H       -7.282547    -1.706106     0.494824
H       -8.407996    -0.888849     1.657982
H       -8.674401    -0.844912    -0.136868
H       -8.482821     1.927498     1.389936
H       -7.387323     2.574156     0.106675
H       -8.748777     1.513896    -0.336802
H       -7.576835     0.460389    -2.014079
H       -5.439771     0.922922    -5.043486
H       -7.451774    -0.493471    -5.816334
H       -5.988913    -1.335308    -5.312545
H       -7.412987    -1.252014    -4.172886
H       -7.421472     2.066997    -5.402681
H       -8.262734     1.340785    -3.982440
H       -6.982436     2.547966    -3.725529
H       -3.089352    -3.119749    -4.808634
H       -1.985707    -2.434741    -2.018192
H       -0.974782    -2.777683    -3.477816
H       -2.060306    -4.033361    -2.804000
H       -4.623407    -2.237400    -2.302895
H       -5.282962    -2.680683    -3.926584
H       -4.458215    -3.880436    -2.961690
H       -1.488841    -1.851985    -5.837997
H       -0.001729     1.356203    -7.144302
H        1.192144    -0.204625    -5.522429
H        1.720254    -0.324157    -7.239113
H        0.657160    -1.594954    -6.541241
H       -1.704064     0.518937    -8.664062
H       -1.423240    -1.188794    -8.167731
H       -0.145091    -0.295081    -9.075682
H       -1.481766     2.401488    -5.748286
H       -3.590262     2.679695    -2.673975
H       -5.175171     3.555390    -3.991188
H       -3.976374     4.686954    -4.592281
H       -4.327662     3.184237    -5.535154
H       -1.503668     4.109765    -4.386970
H       -1.139594     3.151299    -2.896100
H       -2.207174     4.598073    -2.824955
H       -4.254208     2.641315     0.061629
H       -4.911334     4.320178     2.461398
H       -5.889241     2.822262     2.220467
H       -5.772220     4.033405     0.912428
H       -2.378415     3.941142     2.131654
H       -1.922910     3.288234     0.513762
H       -3.005722     4.723045     0.652662
H       -2.980542     2.357863     3.644514
112
ex_0078 frame19 see-saw N-O2-ax-conf21
C       -1.357797    -0.838269     5.468300
C       -2.539253     0.158125     5.272558
C       -3.661721    -0.234610     6.232584
C       -3.091560     0.217566     3.842403
C       -3.445714    -0.965628     3.202183
C       -3.917531    -0.985875     1.881460
C       -4.209647    -2.338914     1.256791
C       -5.416795    -3.005067     1.925058
C       -2.979245    -3.268133     1.347925
C       -4.109699     0.242150     1.165359
C       -4.650548     0.265602    -0.272140
C       -6.050376     0.359013    -0.527419
C       -7.068445     0.446936     0.599847
C       -7.928513    -0.817366     0.660061
C       -7.969319     1.688967     0.443335
C       -6.522755     0.371773    -1.846057
C       -5.659981     0.401957    -2.944038
C       -6.244105     0.579578    -4.352815
C       -6.823834    -0.703293    -4.944104
C       -7.300339     1.696174    -4.364758
C       -4.274199     0.277026    -2.720458
C       -3.285255     0.223692    -3.809669
C       -2.794865    -1.011860    -4.358121
C       -3.121061    -2.462479    -3.909458
C       -1.965875    -2.936425    -3.004169
C       -4.449866    -2.800615    -3.225282
C       -1.905780    -0.938083    -5.437846
C       -1.412289     0.278931    -5.912294
C       -0.353540     0.309090    -6.990921
C        0.874326    -0.505058    -6.548959
C       -0.930805    -0.202359    -8.311670
C       -1.899683     1.470357    -5.387388
C       -2.786342     1.472630    -4.303972
C       -3.178878     2.834033    -3.698844
C       -4.208588     3.613530    -4.523589
C       -1.929455     3.707473    -3.439221
C       -3.750086     0.202045    -1.398219
N       -2.336447     0.065995    -1.195332
N       -1.424746     0.071679    -2.264612
O       -0.109387     0.007353    -1.942252
Co       0.000000     0.000000     0.000000
N        0.000000     0.000000     2.000000
O        0.000000     0.000000     3.183496
N        1.991273     0.065820    -0.139958
O        2.517379     0.085349     1.116121
O       -1.942814    -0.063950     0.043766
C       -3.781424     1.472453     1.828138
C       -3.994916     2.819714     1.123268
C       -5.198652     3.549597     1.737634
C       -2.752119     3.730829     1.097065
C       -3.254894     1.433879     3.147747
H       -1.111618    -1.415647     4.558765
H       -1.601626    -1.643412     6.193324
H       -0.459733    -0.315372     5.867005
H       -2.193966     1.172489     5.576456
H       -4.052911    -1.242123     5.973898
H       -4.484924     0.505097     6.179869
H       -3.272155    -0.264777     7.273571
H       -3.312643    -1.895319     3.737281
H       -4.446954    -2.176649     0.189246
H       -5.840786    -3.776536     1.247097
H       -6.186935    -2.250881     2.163924
H       -5.155193    -3.466207     2.897320
H       -2.830844    -3.628630     2.391703
H       -3.111414    -4.163005     0.707993
H       -2.051275    -2.736667     1.048365
H       -6.522831     0.537102     1.557601
H       -7.301483    -1.711433     0.504480
H       -8.440539    -0.879593     1.643962
H       -8.677211    -0.844508    -0.155065
H       -8.502891     1.906482     1.390963
H       -7.377976     2.578201     0.146651
H       -8.733908     1.530068    -0.348911
H       -7.584725     0.454636    -2.014469
H       -5.449678     0.925862    -5.045464
H       -7.442770    -0.487185    -5.837512
H       -5.997751    -1.340285    -5.306348
H       -7.440975    -1.241344    -4.191470
H       -7.453670     2.049167    -5.406875
H       -8.269814     1.340893    -3.965011
H       -6.989627     2.554325    -3.743700
H       -3.098418    -3.119626    -4.808137
H       -1.982783    -2.416631    -2.025636
H       -0.978113    -2.774002    -3.485200
H       -2.061158    -4.024530    -2.797317
H       -4.616656    -2.238463    -2.292440
H       -5.290210    -2.673508    -3.911569
H       -4.460281    -3.879388    -2.958939
H       -1.493589    -1.854132    -5.840088
H       -0.006075     1.355020    -7.150054
H        1.202694    -0.189178    -5.534176
H        1.715083    -0.336936    -7.253614
H        0.655459    -1.593276    -6.526787
H       -1.711468     0.506403    -8.664744
H       -1.399741    -1.200957    -8.181020
H       -0.139499    -0.275902    -9.084301
H       -1.488768     2.399140    -5.756372
H       -3.601736     2.682520    -2.682487
H       -5.179564     3.548264    -4.014163
H       -3.981645     4.697886    -4.575878
H       -4.309642     3.209252    -5.552301
H       -1.494244     4.096597    -4.383571
H       -1.151657     3.142443    -2.884507
H       -2.210463     4.595823    -2.830874
H       -4.272445     2.637357     0.067270
H       -4.900818     4.289677     2.506384
H       -5.912528     2.829816     2.192179
H       -5.745718     4.086657     0.931685
H       -2.387793     3.945252     2.125006
H       -1.927110     3.265900     0.519429
H       -3.003056     4.708721     0.630335
H       -2.990969     2.356519     3.647952
112
ex_0078 frame20 see-saw N-O2-ax
C       -3.621999     6.624076    -0.669502
C       -2.567772     5.635450    -1.180127
C       -1.348596     5.616468    -0.240108
C       -3.125836     4.230650    -1.327061
C       -3.119893     3.599344    -2.571839
C       -3.559330     2.271489    -2.728925
C       -3.488039     1.650465    -4.122311
C       -4.478907     2.339005    -5.072150
C       -2.078772     1.748982    -4.748648
C       -4.050285     1.557530    -1.581561
C       -4.535736     0.135817    -1.625296
C       -5.880607    -0.238557    -1.951442
C       -7.027244     0.669940    -2.451745
C       -7.070541     2.154248    -2.064673
C       -7.122065     0.470020    -3.978463
C       -6.239470    -1.583703    -1.813062
C       -5.321193    -2.598639    -1.501571
C       -5.826831    -4.042111    -1.469629
C       -6.601714    -4.345992    -0.185306
C       -6.697538    -4.347096    -2.703763
C       -3.978719    -2.248541    -1.232295
C       -2.961640    -3.286682    -0.849781
C       -2.132638    -3.869540    -1.856752
C       -2.179926    -3.431005    -3.318974
C       -2.954865    -4.431539    -4.172937
C       -0.758867    -3.226454    -3.887959
C       -1.233294    -4.887705    -1.502385
C       -1.052311    -5.278840    -0.180045
C       -0.017972    -6.329181     0.180844
C       -0.266094    -7.661785    -0.544005
C        1.376849    -5.779767    -0.138760
C       -1.834207    -4.692816     0.810097
C       -2.798445    -3.707334     0.512423
C       -3.614742    -3.149129     1.687034
C       -2.783201    -2.119497     2.475545
C       -4.094762    -4.259549     2.652782
C       -3.592621    -0.891595    -1.316974
N       -2.326902    -0.342994    -1.131803
N       -1.516887    -0.031499    -2.197263
O       -0.172455    -0.004786    -1.938999
Co       0.000000     0.000000     0.000000
N        0.000000     0.000000     2.000000
O        0.000000     0.000000     3.208710
N        1.989020     0.167870    -0.125181
O        2.524002    -0.469553     0.954692
O       -1.937492    -0.135240     0.090659
C       -4.085203     2.223948    -0.310305
C       -4.578615     1.564314     0.994206
C       -6.003937     2.005728     1.346067
C       -3.644008     1.860627     2.185586
C       -3.647832     3.557384    -0.228813
H       -3.208145     7.654588    -0.673755
H       -4.519253     6.596487    -1.322069
H       -3.929987     6.379149     0.369937
H       -2.217536     5.985892    -2.175595
H       -1.646311     5.375700     0.803812
H       -0.613325     4.852734    -0.575121
H       -0.845520     6.606341    -0.238619
H       -2.732098     4.141429    -3.423404
H       -3.764981     0.579871    -4.039430
H       -4.151307     3.365134    -5.333373
H       -5.472477     2.443485    -4.602732
H       -4.578649     1.741343    -6.004323
H       -2.037779     1.165846    -5.691759
H       -1.283397     1.382751    -4.082003
H       -1.820831     2.801418    -4.993049
H       -8.002639     0.307320    -2.053073
H       -7.949561     2.628719    -2.552769
H       -6.182275     2.733955    -2.348200
H       -7.276133     2.267761    -0.994998
H       -7.696963     1.284625    -4.470303
H       -6.120945     0.396199    -4.440095
H       -7.627237    -0.488900    -4.212852
H       -7.262264    -1.850597    -2.029519
H       -4.973628    -4.751309    -1.528029
H       -7.243815    -5.244123    -0.294526
H       -7.220228    -3.484092     0.141853
H       -5.882621    -4.566600     0.608998
H       -7.692108    -3.860235    -2.639377
H       -6.196909    -4.009278    -3.633881
H       -6.876936    -5.439868    -2.773846
H       -2.700654    -2.456746    -3.396125
H       -2.481707    -5.434996    -4.144238
H       -3.988175    -4.519011    -3.790264
H       -3.003140    -4.076860    -5.224132
H       -0.230726    -4.194913    -4.027031
H       -0.149957    -2.593084    -3.208630
H       -0.804412    -2.745861    -4.885540
H       -0.616838    -5.351502    -2.253998
H       -0.046862    -6.527123     1.275776
H       -0.262430    -7.532441    -1.647024
H       -1.246724    -8.086576    -0.242258
H        0.529238    -8.392893    -0.286180
H        2.157049    -6.482544     0.219926
H        1.509502    -5.624794    -1.230265
H        1.521165    -4.805526     0.378023
H       -1.672952    -5.008477     1.830442
H       -4.531485    -2.640522     1.320596
H       -2.943351    -1.107654     2.060885
H       -3.080821    -2.075494     3.545001
H       -1.697717    -2.355751     2.434591
H       -4.850652    -3.841493     3.352340
H       -4.543030    -5.118414     2.121640
H       -3.266141    -4.660434     3.270023
H       -4.592568     0.459443     0.900229
H       -6.246545     1.813947     2.410588
H       -6.718940     1.387551     0.774841
H       -6.157937     3.087892     1.135936
H       -3.695035     2.921909     2.505965
H       -2.594316     1.605244     1.940741
H       -3.957668     1.256495     3.063419
H       -3.660265     4.078231     0.713790
112
ex_0078 frame21 see-saw N-O2-ax-conf5
C       -3.622890     6.623873    -0.670711
C       -2.568711     5.635162    -1.181310
C       -1.349508     5.616732    -0.241410
C       -3.126149     4.229708    -1.328338
C       -3.119750     3.598418    -2.573060
C       -3.559008     2.270418    -2.730722
C       -3.487902     1.650560    -4.124701
C       -4.477499     2.341814    -5.074050
C       -2.078630     1.748064    -4.751226
C       -4.049628     1.555380    -1.583753
C       -4.534826     0.132809    -1.627507
C       -5.880854    -0.239600    -1.952236
C       -7.027076     0.670419    -2.451247
C       -7.066855     2.155809    -2.067387
C       -7.123991     0.468775    -3.977547
C       -6.241526    -1.584530    -1.813499
C       -5.324348    -2.600812    -1.502838
C       -5.830248    -4.043921    -1.469497
C       -6.606406    -4.346379    -0.186162
C       -6.699191    -4.349524    -2.704652
C       -3.981311    -2.252448    -1.234543
C       -2.963200    -3.288612    -0.850758
C       -2.133470    -3.870456    -1.857873
C       -2.181255    -3.431793    -3.320418
C       -2.954167    -4.433428    -4.174833
C       -0.760567    -3.224137    -3.889637
C       -1.232908    -4.887649    -1.503500
C       -1.051686    -5.278592    -0.180993
C       -0.017084    -6.328577     0.180599
C       -0.265907    -7.661621    -0.543016
C        1.378198    -5.780418    -0.138993
C       -1.833720    -4.692675     0.809228
C       -2.799268    -3.708383     0.511812
C       -3.615924    -3.150597     1.686915
C       -2.785545    -2.121596     2.477298
C       -4.094995    -4.261013     2.652548
C       -3.592936    -0.896161    -1.318783
N       -2.327831    -0.348016    -1.133325
N       -1.519628    -0.012202    -2.193214
O       -0.174428    -0.002185    -1.938894
Co       0.000000     0.000000     0.000000
N        0.000000     0.000000     2.000000
O        0.000000     0.000000     3.183496
N        1.998708     0.141001    -0.092022
O        2.519997    -0.548518     0.935821
O       -1.936575    -0.164063     0.107733
C       -4.084672     2.221714    -0.311984
C       -4.577401     1.561428     0.992706
C       -6.002031     2.003208     1.347385
C       -3.641267     1.856353     2.183089
C       -3.648046     3.555747    -0.230248
H       -3.207755     7.653974    -0.672042
H       -4.518663     6.599001    -1.325369
H       -3.933180     6.377391     0.367621
H       -2.218360     5.986436    -2.176493
H       -1.646498     5.372198     0.801803
H       -0.612204     4.856131    -0.578983
H       -0.849062     6.607984    -0.237027
H       -2.732369     4.140995    -3.424486
H       -3.766041     0.580109    -4.043340
H       -4.149928     3.369038    -5.330950
H       -5.472215     2.444448    -4.606771
H       -4.574788     1.747456    -6.008582
H       -2.039330     1.167537    -5.695943
H       -1.283408     1.377603    -4.087196
H       -1.818347     2.800566    -4.992455
H       -8.002082     0.309557    -2.050284
H       -7.946743     2.630458    -2.553754
H       -6.178804     2.733636    -2.355204
H       -7.268519     2.272932    -0.997481
H       -7.706796     1.278475    -4.468242
H       -6.123465     0.403093    -4.441201
H       -7.621182    -0.494630    -4.210474
H       -7.264569    -1.850456    -2.029639
H       -4.976839    -4.753212    -1.525884
H       -7.239134    -5.251465    -0.292310
H       -7.234442    -3.488227     0.132268
H       -5.887969    -4.553799     0.612410
H       -7.692545    -3.859862    -2.643502
H       -6.195908    -4.015212    -3.634641
H       -6.881188    -5.442002    -2.772570
H       -2.703798    -2.458505    -3.397844
H       -2.479433    -5.436112    -4.146214
H       -3.987442    -4.522347    -3.792392
H       -3.002686    -4.078705    -5.226064
H       -0.228941    -4.191015    -4.026322
H       -0.153884    -2.586689    -3.212199
H       -0.807411    -2.746365    -4.888625
H       -0.615871    -5.350839    -2.255151
H       -0.046347    -6.526023     1.275601
H       -0.259907    -7.533594    -1.646172
H       -1.247766    -8.084442    -0.242411
H        0.527662    -8.393678    -0.282389
H        2.157714    -6.484872     0.218009
H        1.510428    -5.623895    -1.230316
H        1.524079    -4.807295     0.379386
H       -1.671601    -5.007741     1.829549
H       -4.532540    -2.641525     1.320871
H       -2.939839    -1.110701     2.059094
H       -3.092251    -2.070448     3.543797
H       -1.700843    -2.363168     2.445742
H       -4.848307    -3.841873     3.354227
H       -4.545988    -5.118594     2.121601
H       -3.265259    -4.662792     3.267747
H       -4.592548     0.456715     0.897682
H       -6.244990     1.803802     2.410476
H       -6.718398     1.390366     0.772337
H       -6.154095     3.087142     1.145272
H       -3.689687     2.917977     2.502954
H       -2.592545     1.598085     1.936882
H       -3.955746     1.253744     3.061699
H       -3.661166     4.076639     0.712376
112
ex_0078 frame22 see-saw N-O2-ax-conf2
C       -3.620382     6.622681    -0.666759
C       -2.565941     5.634490    -1.177966
C       -1.347036     5.614415    -0.237261
C       -3.124929     4.230783    -1.325652
C       -3.120157     3.599961    -2.570809
C       -3.559455     2.272112    -2.727256
C       -3.487827     1.649786    -4.119851
C       -4.481079     2.333292    -5.070531
C       -2.078100     1.750729    -4.745314
C       -4.050774     1.558947    -1.579413
C       -4.537094     0.137710    -1.620676
C       -5.880828    -0.238090    -1.950709
C       -7.027072     0.668795    -2.454865
C       -7.079022     2.149971    -2.058568
C       -7.117945     0.474311    -3.982613
C       -6.238033    -1.583028    -1.812624
C       -5.319036    -2.596622    -1.499060
C       -5.823759    -4.039988    -1.469010
C       -6.595015    -4.345620    -0.182427
C       -6.696548    -4.343376    -2.701959
C       -3.977267    -2.245593    -1.226130
C       -2.961209    -3.285226    -0.846284
C       -2.132808    -3.868570    -1.853872
C       -2.178209    -3.430317    -3.316030
C       -2.956642    -4.428399    -4.170223
C       -0.755587    -3.233380    -3.884825
C       -1.234995    -4.887912    -1.500073
C       -1.053996    -5.279434    -0.178227
C       -0.019828    -6.329812     0.180934
C       -0.266438    -7.661379    -0.546698
C        1.373903    -5.777494    -0.138258
C       -1.835501    -4.693852     0.812298
C       -2.798288    -3.707159     0.514793
C       -3.614242    -3.148225     1.688103
C       -2.781647    -2.119072     2.476730
C       -4.096951    -4.259035     2.651686
C       -3.592959    -0.887349    -1.304976
N       -2.347058    -0.329561    -1.111422
N       -1.526181    -0.014685    -2.184233
O       -0.176124    -0.001623    -1.936659
Co       0.000000     0.000000     0.000000
N        0.000000     0.000000     2.000000
O        0.000000     0.000000     3.169552
N        1.995992     0.093977    -0.084887
O        2.511927    -0.528856     0.984522
O       -1.925276    -0.089800     0.115685
C       -4.085341     2.225648    -0.309304
C       -4.579961     1.567088     0.994216
C       -6.006416     2.009061     1.340111
C       -3.647586     1.865371     2.186500
C       -3.646620     3.558102    -0.227612
H       -3.209781     7.654272    -0.677863
H       -4.521381     6.588800    -1.313912
H       -3.922411     6.381381     0.375414
H       -2.215914     5.983588    -2.173873
H       -1.646799     5.382953     0.808293
H       -0.616469     4.843250    -0.565588
H       -0.837677     6.600962    -0.242549
H       -2.731875     4.141553    -3.422509
H       -3.762274     0.578835    -4.034073
H       -4.152586     3.356587    -5.341817
H       -5.471684     2.443030    -4.595814
H       -4.587314     1.728394    -5.997329
H       -2.032357     1.162642    -5.685048
H       -1.282385     1.392554    -4.074295
H       -1.824410     2.803031    -4.995275
H       -8.003364     0.301870    -2.062245
H       -7.955739     2.624573    -2.550637
H       -6.190056     2.734337    -2.330670
H       -7.294997     2.253876    -0.989719
H       -7.675078     1.300573    -4.475513
H       -6.116121     0.382177    -4.440329
H       -7.642074    -0.473567    -4.220968
H       -7.259845    -1.851242    -2.031591
H       -4.970589    -4.748890    -1.532126
H       -7.259563    -5.226276    -0.297502
H       -7.189212    -3.474200     0.164853
H       -5.874188    -4.596265     0.601090
H       -7.693836    -3.862965    -2.631131
H       -6.200642    -3.996977    -3.631595
H       -6.869097    -5.436863    -2.777800
H       -2.694265    -2.453394    -3.391774
H       -2.486447    -5.433409    -4.141318
H       -3.990250    -4.513260    -3.787922
H       -3.003421    -4.074231    -5.221629
H       -0.235570    -4.205496    -4.030449
H       -0.140775    -2.609945    -3.201502
H       -0.797043    -2.746382    -4.879359
H       -0.618786    -5.351863    -2.251698
H       -0.048203    -6.528644     1.275684
H       -0.268379    -7.529027    -1.649401
H       -1.244306    -8.090523    -0.242295
H        0.532880    -8.390246    -0.295347
H        2.155197    -6.476123     0.225846
H        1.508417    -5.627287    -1.230214
H        1.514127    -4.800212     0.374077
H       -1.675103    -5.010041     1.832669
H       -4.530309    -2.639440     1.320023
H       -2.964233    -1.102720     2.081562
H       -3.055997    -2.097238     3.553056
H       -1.693852    -2.338097     2.409194
H       -4.859498    -3.843472     3.345378
H       -4.536879    -5.120655     2.118412
H       -3.270371    -4.656459     3.273765
H       -4.592098     0.461943     0.902479
H       -6.247655     1.836219     2.407981
H       -6.719221     1.378684     0.778967
H       -6.164554     3.086779     1.110512
H       -3.704236     2.925771     2.508443
H       -2.596442     1.615809     1.941528
H       -3.958897     1.257656     3.062558
H       -3.658045     4.078755     0.714963
112
ex_0078 frame23 see-saw N-O2-ax-conf3
C       -3.622681     6.625423    -0.671302
C       -2.568747     5.636502    -1.181686
C       -1.349485     5.617672    -0.242006
C       -3.126808     4.231307    -1.327944
C       -3.120631     3.599541    -2.572376
C       -3.560133     2.271679    -2.729476
C       -3.489129     1.651085    -4.123364
C       -4.477661     2.342677    -5.073722
C       -2.079927     1.747530    -4.750099
C       -4.050753     1.556975    -1.582606
C       -4.536324     0.134375    -1.624349
C       -5.882059    -0.238296    -1.950569
C       -7.028919     0.671292    -2.450198
C       -7.066761     2.157507    -2.068603
C       -7.125119     0.468162    -3.976406
C       -6.242010    -1.583369    -1.812919
C       -5.323961    -2.599224    -1.501757
C       -5.828837    -4.043016    -1.469934
C       -6.605712    -4.345855    -0.187307
C       -6.697447    -4.348990    -2.705047
C       -3.980511    -2.249691    -1.232176
C       -2.962211    -3.286510    -0.851515
C       -2.133006    -3.868727    -1.858233
C       -2.181217    -3.430238    -3.320822
C       -2.953648    -4.432888    -4.174562
C       -0.760993    -3.221619    -3.890511
C       -1.232456    -4.886143    -1.503875
C       -1.051247    -5.277472    -0.181442
C       -0.017085    -6.328210     0.180446
C       -0.266308    -7.661518    -0.542507
C        1.378568    -5.780942    -0.139144
C       -1.833102    -4.691073     0.808677
C       -2.798697    -3.706361     0.511249
C       -3.614979    -3.149090     1.686662
C       -2.784526    -2.119305     2.475410
C       -4.092881    -4.259584     2.653171
C       -3.582495    -0.900065    -1.309830
N       -2.298501    -0.343095    -1.114974
N       -1.517292    -0.028815    -2.184880
O       -0.171372    -0.006819    -1.939275
Co       0.000000     0.000000     0.000000
N        0.000000     0.000000     2.000000
O        0.000000     0.000000     3.175464
N        1.983414     0.239433    -0.098465
O        2.541543    -0.520961     0.934356
O       -1.937721    -0.162958     0.082189
C       -4.085818     2.223716    -0.310414
C       -4.578494     1.563577     0.994564
C       -6.003285     2.003913     1.350010
C       -3.642262     1.858356     2.185091
C       -3.649124     3.557998    -0.229257
H       -3.206499     7.655169    -0.670685
H       -4.517495     6.602121    -1.327558
H       -3.934718     6.377731     0.366281
H       -2.218243     5.987728    -2.176885
H       -1.646105     5.370407     0.800796
H       -0.611122     4.858719    -0.581627
H       -0.850449     6.609768    -0.235617
H       -2.732785     4.141384    -3.424117
H       -3.767963     0.580765    -4.041952
H       -4.150469     3.370759    -5.328148
H       -5.473620     2.443478    -4.608572
H       -4.572041     1.749619    -6.009706
H       -2.041492     1.167387    -5.695223
H       -1.284382     1.375948    -4.086803
H       -1.818359     2.799814    -4.990721
H       -8.003863     0.310943    -2.048355
H       -7.947277     2.631591    -2.554211
H       -6.178800     2.734465    -2.359225
H       -7.265974     2.276353    -0.998355
H       -7.712442     1.275148    -4.467670
H       -6.123732     0.407439    -4.440360
H       -7.617025    -0.498952    -4.209028
H       -7.264114    -1.850282    -2.030377
H       -4.974684    -4.751915    -1.525935
H       -7.233871    -5.255337    -0.293867
H       -7.239611    -3.488684     0.126940
H       -5.886586    -4.547399     0.613898
H       -7.690359    -3.858252    -2.644932
H       -6.193794    -4.016891    -3.635945
H       -6.881028    -5.441285    -2.771072
H       -2.704914    -2.457590    -3.398754
H       -2.478496    -5.435342    -4.145687
H       -3.986828    -4.522192    -3.792050
H       -3.002599    -4.078606    -5.225894
H       -0.227886    -4.188097    -4.025154
H       -0.155119    -2.581664    -3.214436
H       -0.809104    -2.745999    -4.890584
H       -0.616310    -5.350309    -2.255762
H       -0.046476    -6.525610     1.275480
H       -0.258623    -7.534205    -1.645774
H       -1.248911    -8.083242    -0.242595
H        0.526264    -8.394251    -0.280045
H        2.157885    -6.486601     0.216169
H        1.510182    -5.622785    -1.230351
H        1.525594    -4.808707     0.380699
H       -1.671153    -5.007041     1.828869
H       -4.532381    -2.641087     1.321553
H       -2.931075    -1.110030     2.047995
H       -3.098793    -2.060272     3.540839
H       -1.699706    -2.367264     2.452023
H       -4.845033    -3.840066     3.356097
H       -4.545974    -5.116755     2.122963
H       -3.262870    -4.662329     3.267386
H       -4.593276     0.458997     0.899243
H       -6.246964     1.799005     2.412559
H       -6.718970     1.393000     0.771459
H       -6.155108     3.089305     1.152419
H       -3.689775     2.920134     2.504713
H       -2.593639     1.599186     1.939553
H       -3.957297     1.255854     3.063712
H       -3.661549     4.079243     0.713406
112
ex_0078 frame24 see-saw N-O2-ax-conf4
C       -3.620440     6.621628    -0.666307
C       -2.565772     5.633737    -1.177796
C       -1.347027     5.613668    -0.236793
C       -3.124223     4.229821    -1.326563
C       -3.118782     3.599746    -2.572112
C       -3.557753     2.271837    -2.729749
C       -3.486029     1.650210    -4.122172
C       -4.481256     2.332688    -5.071372
C       -2.076888     1.752964    -4.747891
C       -4.049235     1.557317    -1.583260
C       -4.535325     0.135434    -1.625628
C       -5.880152    -0.239167    -1.952346
C       -7.026379     0.668503    -2.454930
C       -7.079741     2.149041    -2.056673
C       -7.116765     0.475515    -3.982937
C       -6.238705    -1.583580    -1.812127
C       -5.319831    -2.597819    -1.500393
C       -5.824993    -4.040480    -1.467928
C       -6.595347    -4.345611    -0.180796
C       -6.697643    -4.343347    -2.700873
C       -3.977536    -2.248194    -1.230993
C       -2.961213    -3.286964    -0.849290
C       -2.131942    -3.870282    -1.855424
C       -2.176687    -3.431944    -3.317306
C       -2.956640    -4.428749    -4.171115
C       -0.753852    -3.235926    -3.885318
C       -1.234324    -4.889125    -1.500651
C       -1.054131    -5.280170    -0.178626
C       -0.019913    -6.330150     0.180966
C       -0.266068    -7.661656    -0.547043
C        1.373596    -5.777205    -0.138031
C       -1.836358    -4.694536     0.811242
C       -2.798941    -3.707902     0.512683
C       -3.614839    -3.148509     1.686041
C       -2.781476    -2.119296     2.474570
C       -4.097668    -4.258960     2.650323
C       -3.591402    -0.891021    -1.314974
N       -2.327218    -0.338456    -1.127755
N       -1.519553    -0.031574    -2.196440
O       -0.175700    -0.005108    -1.938741
Co       0.000000     0.000000     0.000000
N        0.000000     0.000000     2.000000
O        0.000000     0.000000     3.186401
N        1.988299     0.149217    -0.133397
O        2.530553    -0.488335     0.924457
O       -1.937918    -0.122956     0.097530
C       -4.084463     2.223492    -0.312327
C       -4.579251     1.565123     0.991263
C       -6.005537     2.008289     1.337313
C       -3.647156     1.863780     2.183982
C       -3.646038     3.556160    -0.229414
H       -3.210529     7.653505    -0.678532
H       -4.522103     6.586709    -1.312455
H       -3.921282     6.380894     0.376363
H       -2.215697     5.983122    -2.173560
H       -1.647242     5.383839     0.809011
H       -0.617126     4.841333    -0.563834
H       -0.836656     6.599696    -0.243225
H       -2.730878     4.142236    -3.423365
H       -3.759338     0.579019    -4.036524
H       -4.153481     3.355745    -5.344327
H       -5.470816     2.442768    -4.594390
H       -4.589554     1.726673    -5.997150
H       -2.030327     1.163678    -5.686754
H       -1.280729     1.397477    -4.075813
H       -1.825341     2.805499    -4.998896
H       -8.002958     0.300537    -2.063967
H       -7.955830     2.623833    -2.549775
H       -6.190387     2.734013    -2.326461
H       -7.298196     2.251315    -0.988206
H       -7.670654     1.303872    -4.475919
H       -6.114950     0.379774    -4.440182
H       -7.644437    -0.470268    -4.222061
H       -7.261366    -1.851007    -2.028287
H       -4.971999    -4.749529    -1.531621
H       -7.263826    -5.223073    -0.296797
H       -7.184718    -3.472287     0.169860
H       -5.874080    -4.601666     0.600542
H       -7.695037    -3.863338    -2.629280
H       -6.201895    -3.995425    -3.630149
H       -6.869081    -5.436844    -2.777940
H       -2.691416    -2.454451    -3.393385
H       -2.487525    -5.434210    -4.142089
H       -3.990230    -4.512237    -3.788141
H       -3.003375    -4.074229    -5.222321
H       -0.235278    -4.208559    -4.032053
H       -0.138553    -2.614312    -3.200648
H       -0.794516    -2.747096    -4.878923
H       -0.617336    -5.352716    -2.251693
H       -0.048459    -6.528934     1.275723
H       -0.269092    -7.528863    -1.649703
H       -1.243430    -8.091638    -0.242179
H        0.534018    -8.390026    -0.296868
H        2.155113    -6.474941     0.227227
H        1.508580    -5.628024    -1.230069
H        1.512864    -4.799273     0.373339
H       -1.676103    -5.010030     1.831938
H       -4.530564    -2.639394     1.317726
H       -2.966485    -1.102068     2.082179
H       -3.051761    -2.100908     3.552177
H       -1.693475    -2.336066     2.403229
H       -4.861114    -3.843635     3.343194
H       -4.536135    -5.121541     2.117513
H       -3.271343    -4.655443     3.273445
H       -4.591386     0.459968     0.899321
H       -6.246052     1.839518     2.406041
H       -6.718918     1.375970     0.779132
H       -6.164126     3.085289     1.104392
H       -3.704649     2.924077     2.506495
H       -2.595818     1.614861     1.939093
H       -3.958327     1.256081     3.060123
H       -3.658191     4.076587     0.713371
112
ex_0078 frame25 see-saw N-O2-ax-conf6
C       -3.620060     6.622753    -0.665827
C       -2.565539     5.634640    -1.177206
C       -1.346700     5.614322    -0.236278
C       -3.124238     4.230821    -1.325691
C       -3.118972     3.600560    -2.571130
C       -3.557877     2.272600    -2.728421
C       -3.486157     1.650494    -4.120586
C       -4.481599     2.331985    -5.070167
C       -2.076997     1.753221    -4.746250
C       -4.049430     1.558192    -1.581916
C       -4.535449     0.135986    -1.624730
C       -5.880027    -0.238674    -1.951861
C       -7.026215     0.668738    -2.454557
C       -7.080658     2.149037    -2.055832
C       -7.116183     0.475744    -3.982641
C       -6.238397    -1.583156    -1.811966
C       -5.319349    -2.597308    -1.500397
C       -5.823395    -4.039801    -1.468117
C       -6.592948    -4.345082    -0.180763
C       -6.695750    -4.342379    -2.701141
C       -3.977748    -2.247924    -1.230585
C       -2.960893    -3.286552    -0.848770
C       -2.131535    -3.869734    -1.855065
C       -2.175917    -3.431267    -3.316903
C       -2.956187    -4.427967    -4.170520
C       -0.752913    -3.236157    -3.885141
C       -1.234021    -4.888731    -1.500462
C       -1.053848    -5.279969    -0.178527
C       -0.019983    -6.330323     0.180833
C       -0.266261    -7.661692    -0.547491
C        1.373527    -5.777392    -0.138000
C       -1.835777    -4.694172     0.811472
C       -2.798224    -3.707406     0.513035
C       -3.613826    -3.147495     1.686202
C       -2.780567    -2.118063     2.474565
C       -4.096683    -4.257631     2.650507
C       -3.593227    -0.891323    -1.313169
N       -2.331720    -0.339271    -1.123589
N       -1.523418    -0.019274    -2.191702
O       -0.175789    -0.003942    -1.939231
Co       0.000000     0.000000     0.000000
N        0.000000     0.000000     2.000000
O        0.000000     0.000000     3.183306
N        1.989746     0.152071    -0.134552
O        2.524280    -0.488880     0.931059
O       -1.937102    -0.133314     0.109037
C       -4.084734     2.224745    -0.311130
C       -4.579768     1.566895     0.992471
C       -6.006481     2.009844     1.337469
C       -3.648278     1.866303     2.185410
C       -3.646102     3.557433    -0.228429
H       -3.210414     7.654715    -0.678983
H       -4.522100     6.587131    -1.311422
H       -3.920322     6.382627     0.377156
H       -2.215469     5.983696    -2.173091
H       -1.647030     5.385563     0.809736
H       -0.617549     4.840994    -0.562685
H       -0.835364     6.599837    -0.243547
H       -2.731033     4.142853    -3.422518
H       -3.759204     0.579313    -4.034320
H       -4.153706     3.354597    -5.344696
H       -5.470890     2.442693    -4.592778
H       -4.590467     1.724714    -5.995056
H       -2.030026     1.162990    -5.684447
H       -1.280714     1.398793    -4.073889
H       -1.825792     2.805613    -4.998107
H       -8.002723     0.300384    -2.063866
H       -7.956804     2.623386    -2.549300
H       -6.191445     2.734631    -2.324810
H       -7.299905     2.250601    -0.987431
H       -7.667458     1.305488    -4.476193
H       -6.114291     0.377166    -4.439359
H       -7.646510    -0.468589    -4.221757
H       -7.260788    -1.850719    -2.028800
H       -4.969997    -4.748397    -1.532375
H       -7.263718    -5.220548    -0.297411
H       -7.179488    -3.470661     0.172062
H       -5.871251    -4.604114     0.599229
H       -7.693406    -3.863157    -2.628816
H       -6.200359    -3.993093    -3.630165
H       -6.866042    -5.435950    -2.778951
H       -2.690100    -2.453435    -3.392789
H       -2.487321    -5.433565    -4.141265
H       -3.989655    -4.511190    -3.787333
H       -3.002969    -4.073730    -5.221803
H       -0.235129    -4.209172    -4.032409
H       -0.136861    -2.615333    -3.200416
H       -0.793239    -2.746993    -4.878613
H       -0.617110    -5.352374    -2.251564
H       -0.048591    -6.529275     1.275555
H       -0.269858    -7.528608    -1.650118
H       -1.243382    -8.092022    -0.242341
H        0.534102    -8.389990    -0.297996
H        2.154994    -6.474863     0.227842
H        1.508759    -5.628668    -1.230066
H        1.512481    -4.799209     0.372988
H       -1.675519    -5.009666     1.832142
H       -4.529502    -2.638517     1.317568
H       -2.969088    -1.100589     2.084941
H       -3.048630    -2.101067     3.552615
H       -1.692259    -2.332564     2.400350
H       -4.860885    -3.842374     3.342523
H       -4.534071    -5.120643     2.117587
H       -3.270418    -4.653320     3.274208
H       -4.591298     0.461743     0.900938
H       -6.247139     1.843190     2.406501
H       -6.719370     1.376000     0.780303
H       -6.165898     3.086276     1.102370
H       -3.706840     2.926583     2.507975
H       -2.596722     1.618030     1.940424
H       -3.959283     1.258366     3.061453
H       -3.658256     4.078167     0.714217
112
ex_0078 frame26 see-saw N-O1-ax-conf2
C       -1.366577    -6.634685    -3.414494
C       -1.657418    -5.640003    -2.285254
C       -0.499117    -5.620099    -1.271724
C       -1.900154    -4.239825    -2.817716
C       -3.116183    -3.597675    -2.579546
C       -3.343008    -2.272306    -2.996743
C       -4.688000    -1.633794    -2.654766
C       -5.836966    -2.333446    -3.397925
C       -4.981433    -1.683911    -1.140444
C       -2.305775    -1.580664    -3.713932
C       -2.460205    -0.169666    -4.199118
C       -3.065404     0.224855    -5.431597
C       -3.791006    -0.674877    -6.453347
C       -3.429218    -2.162375    -6.555083
C       -5.303474    -0.466890    -6.229158
C       -3.013256     1.577443    -5.785924
C       -2.513802     2.580708    -4.936663
C       -2.598580     4.033054    -5.414450
C       -1.489048     4.347332    -6.423036
C       -3.976222     4.347303    -6.027748
C       -1.966340     2.210014    -3.683826
C       -1.407746     3.260703    -2.752984
C       -2.239795     3.856124    -1.747950
C       -3.690175     3.435582    -1.509416
C       -4.670471     4.449681    -2.090516
C       -3.975568     3.234972    -0.000121
C       -1.716562     4.875553    -0.933601
C       -0.383779     5.263606    -1.005405
C        0.170348     6.318105    -0.061142
C       -0.587436     7.652098    -0.163752
C        0.129016     5.774402     1.371494
C        0.438116     4.670427    -1.957624
C       -0.039218     3.685033    -2.849193
C        0.959692     3.130866    -3.873825
C        1.900890     2.105602    -3.216125
C        1.805218     4.249487    -4.531087
C       -1.956793     0.831238    -3.332186
N       -1.412206     0.559985    -2.069697
N       -2.203902     0.834173    -0.964334
O       -1.944945    -0.013879     0.052856
Co       0.000000     0.000000     0.000000
N        0.000000     0.000000     2.000000
O        0.000000     0.000000     3.169552
N        1.996615    -0.000999    -0.113505
O        2.503882     0.327957     1.096718
O       -0.179785     0.057441    -1.937064
C       -1.072602    -2.253670    -3.977191
C        0.109182    -1.596885    -4.714584
C        0.165371    -2.024907    -6.182230
C        1.456530    -1.893658    -4.027311
C       -0.916523    -3.581156    -3.547557
H       -1.290620    -7.663502    -3.004443
H       -2.183559    -6.607783    -4.165502
H       -0.408589    -6.392629    -3.923315
H       -2.568204    -5.982648    -1.746858
H        0.467180    -5.379964    -1.766388
H       -0.685695    -4.855566    -0.486329
H       -0.400315    -6.609623    -0.777951
H       -3.878422    -4.125853    -2.021988
H       -4.661359    -0.570240    -2.965657
H       -6.022030    -3.353751    -3.006297
H       -5.599973    -2.450913    -4.470099
H       -6.768219    -1.733850    -3.298722
H       -5.904721    -1.112924    -0.905545
H       -4.143057    -1.265979    -0.552294
H       -5.151639    -2.728922    -0.797368
H       -3.589239    -0.319379    -7.489298
H       -4.076609    -2.640129    -7.321455
H       -3.546043    -2.733794    -5.625063
H       -2.413524    -2.281814    -6.949862
H       -5.907845    -1.273399    -6.698062
H       -5.548280    -0.407116    -5.153473
H       -5.631685     0.500156    -6.660558
H       -3.447866     1.857146    -6.732445
H       -2.486626     4.733168    -4.559377
H       -1.717632     5.254283    -7.020015
H       -1.294058     3.494620    -7.107121
H       -0.566227     4.554898    -5.872620
H       -4.106437     3.870365    -7.020601
H       -4.793021     4.007630    -5.359680
H       -4.074229     5.441832    -6.182973
H       -3.881379     2.471680    -2.020726
H       -4.540877     5.447283    -1.622267
H       -4.500952     4.544644    -3.177640
H       -5.712628     4.100351    -1.930354
H       -4.005360     4.203116     0.544201
H       -3.196842     2.611431     0.484025
H       -4.962839     2.754972     0.150114
H       -2.336534     5.347165    -0.189437
H        1.238874     6.516075    -0.302003
H       -1.667932     7.525149     0.059266
H       -0.484548     8.076572    -1.184497
H       -0.176416     8.383879     0.564294
H        0.630371     6.481619     2.064750
H       -0.915570     5.618105     1.714026
H        0.667589     4.802541     1.417173
H        1.469608     4.988598    -1.995762
H        0.423909     2.623834    -4.704014
H        1.467599     1.093718    -3.299660
H        2.889629     2.066293    -3.720117
H        2.071901     2.337513    -2.142083
H        2.347474     3.837227    -5.409257
H        1.190513     5.104021    -4.867304
H        2.569303     4.655817    -3.838625
H        0.020737    -0.491565    -4.702771
H        1.155964    -1.816464    -6.632432
H       -0.551936    -1.412050    -6.757335
H       -0.062666    -3.107996    -6.295389
H        1.759337    -2.954353    -4.138902
H        1.417409    -1.639967    -2.949365
H        2.255348    -1.284504    -4.500483
H        0.006088    -4.104984    -3.728626
112
ex_0078 frame27 see-saw N-O1-ax-conf5
C       -1.370057    -6.634981    -3.415740
C       -1.659649    -5.638948    -2.287358
C       -0.502597    -5.621582    -1.272800
C       -1.899515    -4.237470    -2.819815
C       -3.114271    -3.593450    -2.581694
C       -3.340646    -2.268360    -3.000243
C       -4.686534    -1.630844    -2.658196
C       -5.835288    -2.337870    -3.395319
C       -4.978508    -1.675986    -1.143325
C       -2.302797    -1.577547    -3.717950
C       -2.458862    -0.166609    -4.204498
C       -3.064643     0.227009    -5.436298
C       -3.788760    -0.675231    -6.456553
C       -3.434955    -2.166043    -6.545092
C       -5.300774    -0.461185    -6.236108
C       -3.014930     1.580367    -5.791637
C       -2.515147     2.584949    -4.943461
C       -2.601634     4.038202    -5.421656
C       -1.494759     4.352450    -6.432847
C       -3.980545     4.354110    -6.032465
C       -1.966352     2.213810    -3.690152
C       -1.406599     3.262456    -2.757493
C       -2.239543     3.856330    -1.752125
C       -3.690546     3.435078    -1.516543
C       -4.671281     4.452660    -2.090806
C       -3.976366     3.224236    -0.008844
C       -1.716764     4.874415    -0.934988
C       -0.383527     5.262579    -1.005066
C        0.171164     6.316536    -0.059523
C       -0.584316     7.651435    -0.164497
C        0.128653     5.775729     1.374277
C        0.439123     4.669834    -1.957247
C       -0.037518     3.686211    -2.851512
C        0.962540     3.133239    -3.876472
C        1.902686     2.107787    -3.218994
C        1.809982     4.251269    -4.531709
C       -1.957628     0.834252    -3.338501
N       -1.416340     0.555440    -2.075725
N       -2.221840     0.818526    -0.979315
O       -1.945307    -0.015119     0.048034
Co       0.000000     0.000000     0.000000
N        0.000000     0.000000     2.000000
O        0.000000     0.000000     3.183496
N        1.996291    -0.011501    -0.108283
O        2.500491     0.415082     1.072768
O       -0.180720     0.058696    -1.931429
C       -1.069114    -2.251347    -3.979591
C        0.114339    -1.594442    -4.715541
C        0.174954    -2.022586    -6.182780
C        1.460892    -1.889864    -4.025634
C       -0.914655    -3.579395    -3.549559
H       -1.287174    -7.662477    -3.003226
H       -2.191738    -6.614717    -4.161762
H       -0.415956    -6.390299    -3.930261
H       -2.570647    -5.981884    -1.749276
H        0.462897    -5.372656    -1.764370
H       -0.694807    -4.865008    -0.481173
H       -0.399380    -6.614763    -0.787093
H       -3.876968    -4.120846    -2.024209
H       -4.663948    -0.568165    -2.972853
H       -6.009315    -3.360293    -3.004135
H       -5.606554    -2.452261    -4.469442
H       -6.770668    -1.746345    -3.287719
H       -5.906106    -1.110706    -0.911132
H       -4.144023    -1.248411    -0.557076
H       -5.140838    -2.720304    -0.794702
H       -3.580129    -0.326229    -7.493194
H       -4.078549    -2.645059    -7.313728
H       -3.564013    -2.731187    -5.613071
H       -2.416145    -2.295945    -6.928053
H       -5.907497    -1.255684    -6.721977
H       -5.549714    -0.419842    -5.160860
H       -5.621246     0.515901    -6.649914
H       -3.451407     1.858954    -6.737973
H       -2.485455     4.738114    -4.567096
H       -1.711307     5.277461    -7.006738
H       -1.325243     3.511985    -7.138198
H       -0.562094     4.527102    -5.886638
H       -4.117499     3.871084    -7.021516
H       -4.796417     4.022973    -5.359250
H       -4.075122     5.447989    -6.195398
H       -3.882957     2.474828    -2.034243
H       -4.541648     5.447668    -1.617286
H       -4.503196     4.553100    -3.177675
H       -5.713316     4.102206    -1.931389
H       -3.997436     4.187338     0.544369
H       -3.203370     2.589651     0.469435
H       -4.967752     2.751366     0.137631
H       -2.337444     5.344956    -0.190518
H        1.239907     6.513892    -0.299958
H       -1.663987     7.527459     0.064015
H       -0.484564     8.071252    -1.187500
H       -0.167830     8.385636     0.558143
H        0.623606     6.487444     2.067744
H       -0.915986     5.614330     1.714247
H        0.672832     4.807297     1.423808
H        1.470849     4.987361    -1.993059
H        0.428617     2.625874    -4.707588
H        1.454855     1.101268    -3.277111
H        2.879413     2.045168    -3.743296
H        2.098124     2.356538    -2.152962
H        2.360757     3.835903    -5.403134
H        1.194513     5.101244    -4.878563
H        2.568078     4.662650    -3.835563
H        0.024406    -0.489259    -4.705725
H        1.160564    -1.794461    -6.634643
H       -0.554399    -1.423948    -6.757195
H       -0.032228    -3.109851    -6.294491
H        1.762049    -2.951749    -4.130409
H        1.421932    -1.629800    -2.949299
H        2.261491    -1.285249    -4.501715
H        0.007463    -4.104195    -3.730356
112
ex_0078 frame28 see-saw N-O1-ax-conf3
C       -1.366822    -6.633368    -3.414849
C       -1.657440    -5.638575    -2.285554
C       -0.499305    -5.619672    -1.271889
C       -1.899736    -4.237974    -2.817609
C       -3.115554    -3.595650    -2.579341
C       -3.342764    -2.270429    -2.996694
C       -4.687914    -1.632593    -2.654265
C       -5.836027    -2.332712    -3.398129
C       -4.982552    -1.684453    -1.140090
C       -2.305982    -1.578575    -3.714352
C       -2.460673    -0.167501    -4.200835
C       -3.065732     0.226707    -5.433056
C       -3.791239    -0.674153    -6.453504
C       -3.428938    -2.161759    -6.553524
C       -5.303533    -0.466302    -6.228633
C       -3.013518     1.579309    -5.788146
C       -2.513768     2.582918    -4.939006
C       -2.598773     4.035330    -5.417520
C       -1.489004     4.350160    -6.425760
C       -3.976818     4.349089    -6.030745
C       -1.965946     2.211983    -3.685796
C       -1.406442     3.261857    -2.754638
C       -2.238299     3.856267    -1.749332
C       -3.688119     3.434549    -1.511273
C       -4.669659     4.448486    -2.090987
C       -3.972213     3.231551    -0.002391
C       -1.715490     4.875585    -0.934401
C       -0.382815     5.264145    -1.005817
C        0.170842     6.318352    -0.060795
C       -0.587180     7.652225    -0.163307
C        0.129136     5.774364     1.371776
C        0.439272     4.671673    -1.958383
C       -0.037929     3.686373    -2.850355
C        0.960918     3.132379    -3.874927
C        1.900892     2.106594    -3.216300
C        1.807096     4.250468    -4.531999
C       -1.958732     0.833067    -3.334147
N       -1.419140     0.549033    -2.071443
N       -2.224202     0.798326    -0.970394
O       -1.945249    -0.050979     0.040305
Co       0.000000     0.000000     0.000000
N        0.000000     0.000000     2.000000
O        0.000000     0.000000     3.175464
N        1.996381     0.029089    -0.112328
O        2.500432     0.393047     1.091125
O       -0.180427     0.058568    -1.936954
C       -1.072346    -2.251599    -3.977080
C        0.109978    -1.595375    -4.714155
C        0.165812    -2.024353    -6.181492
C        1.457420    -1.892809    -4.026925
C       -0.916108    -3.579092    -3.547081
H       -1.290989    -7.662207    -3.004715
H       -2.183829    -6.606624    -4.165822
H       -0.408781    -6.391608    -3.923702
H       -2.568420    -5.981113    -1.747412
H        0.467117    -5.379678    -1.766353
H       -0.685761    -4.855581    -0.486074
H       -0.400924    -6.609555    -0.778691
H       -3.877707    -4.123857    -2.021893
H       -4.661469    -0.568761    -2.964432
H       -6.020433    -3.353237    -3.006750
H       -5.598499    -2.450037    -4.470149
H       -6.767698    -1.733835    -3.299056
H       -5.905871    -1.113608    -0.905165
H       -4.145152    -1.267917    -0.550166
H       -5.153070    -2.729767    -0.798244
H       -3.589918    -0.319763    -7.489879
H       -4.076454    -2.640628    -7.318983
H       -3.545183    -2.732536    -5.623045
H       -2.413327    -2.281361    -6.948416
H       -5.907908    -1.273017    -6.697090
H       -5.547979    -0.406179    -5.152838
H       -5.631886     0.500614    -6.660142
H       -3.448618     1.858489    -6.734820
H       -2.487371     4.735598    -4.562551
H       -1.716983     5.257773    -7.022141
H       -1.294328     3.497911    -7.110490
H       -0.566161     4.556573    -5.874667
H       -4.107536     3.871920    -7.023459
H       -4.793143     4.009214    -5.362154
H       -4.075831     5.443566    -6.186095
H       -3.878576     2.471062    -2.023408
H       -4.540776     5.445912    -1.622139
H       -4.501092     4.544382    -3.178267
H       -5.711449     4.098185    -1.930435
H       -4.001475     4.198850     0.543611
H       -3.192719     2.606403     0.478748
H       -4.959623     2.751899     0.147935
H       -2.335582     5.346448    -0.189881
H        1.239409     6.516615    -0.301207
H       -1.667690     7.525008     0.059526
H       -0.484249     8.076753    -1.184022
H       -0.176420     8.384088     0.564813
H        0.630149     6.481565     2.065332
H       -0.915517     5.617888     1.714042
H        0.667857     4.802600     1.417518
H        1.470869     4.989804    -1.995972
H        0.425404     2.625490    -4.705341
H        1.466390     1.095185    -3.299345
H        2.889814     2.065964    -3.719740
H        2.071511     2.338734    -2.142226
H        2.349890     3.837610    -5.409575
H        1.192382     5.104589    -4.869330
H        2.570691     4.657073    -3.839131
H        0.022034    -0.489993    -4.702643
H        1.156259    -1.816429    -6.632222
H       -0.551707    -1.411823    -6.756585
H       -0.062433    -3.107525    -6.293807
H        1.759747    -2.953727    -4.138152
H        1.418712    -1.638631    -2.949050
H        2.256711    -1.284552    -4.500491
H        0.006407    -4.103135    -3.728009
112
ex_0078 frame29 see-saw N-O1-ax-conf4
C       -1.369371    -6.632946    -3.415817
C       -1.658812    -5.636782    -2.287295
C       -0.501792    -5.620637    -1.272635
C       -1.897789    -4.234753    -2.819339
C       -3.112058    -3.589904    -2.581779
C       -3.337986    -2.264667    -3.001057
C       -4.683849    -1.627952    -2.658105
C       -5.832500    -2.334714    -3.396078
C       -4.976074    -1.675609    -1.142912
C       -2.300020    -1.574117    -3.720192
C       -2.457081    -0.162726    -4.209387
C       -3.064471     0.229742    -5.440322
C       -3.789667    -0.674578    -6.457034
C       -3.433437    -2.164796    -6.545356
C       -5.301367    -0.461393    -6.233925
C       -3.015426     1.582934    -5.797843
C       -2.514821     2.588737    -4.950787
C       -2.602941     4.041452    -5.427125
C       -1.494073     4.356684    -6.435363
C       -3.982069     4.355143    -6.037471
C       -1.965151     2.219185    -3.698170
C       -1.404066     3.266092    -2.763243
C       -2.237584     3.858897    -1.757102
C       -3.688762     3.437967    -1.521320
C       -4.671050     4.454330    -2.093666
C       -3.972644     3.226065    -0.012779
C       -1.715318     4.876199    -0.938656
C       -0.382077     5.264079    -1.007040
C        0.171597     6.316959    -0.059836
C       -0.584808     7.651521    -0.163913
C        0.128416     5.774646     1.373335
C        0.441275     4.672023    -1.959011
C       -0.035002     3.689129    -2.854397
C        0.965060     3.135396    -3.878058
C        1.903127     2.108986    -3.218417
C        1.812437     4.252911    -4.533196
C       -1.957602     0.840143    -3.346460
N       -1.418901     0.558840    -2.084643
N       -2.238370     0.828831    -1.000072
O       -1.942854     0.052580     0.059044
Co       0.000000     0.000000     0.000000
N        0.000000     0.000000     2.000000
O        0.000000     0.000000     3.186401
N        1.991812    -0.078543    -0.123985
O        2.520551     0.427619     1.013648
O       -0.185029     0.058682    -1.936567
C       -1.066736    -2.249210    -3.979767
C        0.117149    -1.594056    -4.715330
C        0.174417    -2.023420    -6.182188
C        1.463466    -1.891187    -4.026094
C       -0.912587    -3.576936    -3.548168
H       -1.289302    -7.660923    -3.003832
H       -2.189468    -6.610653    -4.163510
H       -0.413763    -6.390032    -3.928444
H       -2.570321    -5.979075    -1.749661
H        0.464290    -5.374982    -1.764753
H       -0.691927    -4.862102    -0.482428
H       -0.400907    -6.613208    -0.785170
H       -3.875153    -4.117362    -2.024831
H       -4.660416    -0.565027    -2.971768
H       -6.008707    -3.356574    -3.004184
H       -5.602152    -2.450893    -4.469658
H       -6.767433    -1.742128    -3.290688
H       -5.902782    -1.109318    -0.909505
H       -4.140221    -1.251833    -0.555108
H       -5.141223    -2.720403    -0.796563
H       -3.583454    -0.326689    -7.494219
H       -4.078571    -2.645220    -7.311689
H       -3.558083    -2.730105    -5.612753
H       -2.415604    -2.292505    -6.931874
H       -5.907954    -1.258479    -6.715671
H       -5.548634    -0.415744    -5.158355
H       -5.623416     0.513539    -6.651489
H       -3.455520     1.860126    -6.742960
H       -2.489270     4.740720    -4.571611
H       -1.711778     5.278831    -7.012967
H       -1.318780     3.513954    -7.136765
H       -0.563992     4.535579    -5.885585
H       -4.117085     3.873594    -7.027393
H       -4.796622     4.019754    -5.364408
H       -4.079560     5.449165    -6.197030
H       -3.881350     2.478683    -2.040420
H       -4.541709     5.449028    -1.619580
H       -4.504150     4.554772    -3.180727
H       -5.712315     4.102161    -1.932826
H       -3.996252     4.189021     0.540674
H       -3.197050     2.594199     0.465136
H       -4.962367     2.750334     0.135500
H       -2.335931     5.345161    -0.193134
H        1.240421     6.514822    -0.299403
H       -1.664836     7.526274     0.062382
H       -0.483888     8.073013    -1.186111
H       -0.170553     8.384941     0.560721
H        0.624959     6.484877     2.067214
H       -0.916411     5.614860     1.713460
H        0.670924     4.805224     1.421766
H        1.473529     4.988312    -1.992978
H        0.431686     2.627927    -4.709413
H        1.456598     1.101845    -3.281385
H        2.882916     2.049601    -3.737297
H        2.092234     2.353885    -2.150292
H        2.361531     3.837892    -5.405756
H        1.196322     5.103219    -4.878271
H        2.571094     4.663224    -3.837070
H        0.029379    -0.488763    -4.705580
H        1.160645    -1.800768    -6.635078
H       -0.553090    -1.421714    -6.755867
H       -0.038646    -3.109726    -6.292987
H        1.763815    -2.953136    -4.132491
H        1.424256    -1.632409    -2.949322
H        2.264126    -1.286279    -4.501554
H        0.008993    -4.102628    -3.728776
112
ex_0078 frame30 see-saw N-O2-ax-conf17
C       -1.353578    -0.840318     5.467707
C       -2.534991     0.156826     5.272447
C       -3.658153    -0.241541     6.228547
C       -3.088476     0.219963     3.842424
C       -3.442691    -0.962348     3.201134
C       -3.915792    -0.982067     1.880881
C       -4.205783    -2.335290     1.257181
C       -5.419934    -2.998310     1.917165
C       -2.976386    -3.266011     1.358666
C       -4.109893     0.246379     1.165119
C       -4.653034     0.275250    -0.271797
C       -6.052310     0.361511    -0.528978
C       -7.069594     0.447978     0.598155
C       -7.922439    -0.820186     0.665511
C       -7.973904     1.687623     0.436833
C       -6.523817     0.368309    -1.847580
C       -5.658700     0.401622    -2.943797
C       -6.240079     0.574001    -4.352525
C       -6.820487    -0.709415    -4.940069
C       -7.290777     1.695644    -4.365212
C       -4.272747     0.285600    -2.719343
C       -3.282490     0.227721    -3.807007
C       -2.790988    -1.007938    -4.353727
C       -3.115450    -2.458823    -3.905640
C       -1.962326    -2.930135    -2.996983
C       -4.446982    -2.799448    -3.228667
C       -1.901278    -0.934350    -5.432246
C       -1.409233     0.282464    -5.907827
C       -0.352192     0.310980    -6.986729
C        0.874030    -0.505635    -6.545442
C       -0.934436    -0.200424    -8.305745
C       -1.896314     1.474022    -5.384006
C       -2.783230     1.476212    -4.301675
C       -3.176910     2.836387    -3.696620
C       -4.212624     3.610046    -4.518383
C       -1.929065     3.713918    -3.441456
C       -3.750135     0.235876    -1.395709
N       -2.333899     0.152338    -1.181830
N       -1.422182     0.156906    -2.257873
O       -0.110316     0.012351    -1.942363
Co       0.000000     0.000000     0.000000
N        0.000000     0.000000     2.000000
O        0.000000     0.000000     3.208710
N        1.982342    -0.125563    -0.126235
O        2.519497    -0.074190     1.137092
O       -1.939997     0.070698     0.092631
C       -3.780397     1.475735     1.828918
C       -3.993274     2.823392     1.125104
C       -5.204128     3.547616     1.732087
C       -2.751613     3.737047     1.104404
C       -3.253078     1.436546     3.148842
H       -1.119792    -1.431224     4.562997
H       -1.589970    -1.635470     6.205833
H       -0.450104    -0.314704     5.850873
H       -2.191482     1.170162     5.582197
H       -4.049034    -1.247160     5.962652
H       -4.480453     0.499311     6.180220
H       -3.268940    -0.278945     7.269427
H       -3.307485    -1.892571     3.734864
H       -4.434246    -2.170717     0.188154
H       -5.854435    -3.753869     1.228132
H       -6.181364    -2.238615     2.168665
H       -5.164058    -3.477631     2.882250
H       -2.845485    -3.638243     2.401012
H       -3.095719    -4.154028     0.707050
H       -2.043297    -2.730078     1.082951
H       -6.522135     0.545921     1.553996
H       -7.291515    -1.709715     0.497838
H       -8.420028    -0.889526     1.656119
H       -8.681060    -0.848596    -0.140284
H       -8.491298     1.922419     1.389260
H       -7.388201     2.571928     0.114682
H       -8.750644     1.516592    -0.340976
H       -7.586161     0.450022    -2.017086
H       -5.444737     0.918317    -5.045064
H       -7.452690    -0.494558    -5.823922
H       -5.994127    -1.340170    -5.313538
H       -7.422964    -1.253504    -4.179833
H       -7.428418     2.061704    -5.405000
H       -8.266050     1.340127    -3.980326
H       -6.982970     2.545613    -3.730649
H       -3.088261    -3.116814    -4.803914
H       -1.979737    -2.404430    -2.020854
H       -0.973982    -2.770592    -3.477772
H       -2.058302    -4.018892    -2.790595
H       -4.621550    -2.234802    -2.298662
H       -5.282242    -2.677182    -3.922272
H       -4.456252    -3.877683    -2.959757
H       -1.487830    -1.850303    -5.833568
H       -0.002492     1.356219    -7.145621
H        1.194762    -0.201092    -5.524660
H        1.719117    -0.326853    -7.242121
H        0.656823    -1.594364    -6.537847
H       -1.705558     0.516267    -8.663862
H       -1.418327    -1.191354    -8.169620
H       -0.143949    -0.291182    -9.077011
H       -1.484967     2.402697    -5.752422
H       -3.594550     2.682836    -2.678357
H       -5.178093     3.556558    -3.996415
H       -3.978882     4.691545    -4.590683
H       -4.327378     3.191364    -5.539989
H       -1.502415     4.108226    -4.387597
H       -1.144183     3.150011    -2.895391
H       -2.208713     4.598568    -2.827288
H       -4.263280     2.643243     0.066510
H       -4.912790     4.319275     2.471392
H       -5.899933     2.829405     2.216694
H       -5.770825     4.047924     0.916421
H       -2.382556     3.941500     2.132477
H       -1.928134     3.280641     0.517676
H       -3.005908     4.719557     0.649455
H       -2.987749     2.358505     3.649302
112
ex_0078 frame31 see-saw N-O1-ax-conf18
C        4.596966     3.069270     2.785928
C        3.236386     2.367675     2.757303
C        3.411474     0.863939     3.012313
C        2.471842     2.613411     1.451339
C        1.221814     3.230230     1.498434
C        0.427181     3.423200     0.345259
C       -0.977699     4.041315     0.532327
C       -0.955613     5.573788     0.585317
C       -1.697379     3.512564     1.792558
C        0.958966     3.042218    -0.939863
C        0.155079     3.267699    -2.205482
C        0.340148     4.405890    -3.051674
C        1.372498     5.549136    -2.883800
C        2.432891     5.366252    -3.987129
C        2.052442     5.793133    -1.520544
C       -0.498776     4.532326    -4.179158
C       -1.477227     3.581391    -4.548171
C       -2.225116     3.857353    -5.862707
C       -1.179160     3.792945    -6.995115
C       -3.401475     2.937500    -6.239977
C       -1.673247     2.465385    -3.702017
C       -2.692414     1.363890    -3.808951
C       -3.955166     1.473262    -3.127571
C       -4.297080     2.680018    -2.229327
C       -5.086666     3.784676    -2.919778
C       -5.019680     2.235443    -0.935038
C       -4.910607     0.449922    -3.282683
C       -4.610479    -0.714638    -3.985586
C       -5.579727    -1.885348    -4.008063
C       -6.089023    -2.176060    -5.424425
C       -4.894365    -3.121233    -3.394897
C       -3.402957    -0.801359    -4.675888
C       -2.410436     0.183179    -4.568352
C       -1.080691    -0.091803    -5.286501
C       -1.231154    -0.179414    -6.814874
C       -0.482261    -1.425203    -4.775084
C       -0.815923     2.300678    -2.605475
N       -1.000115     1.088899    -1.933160
N       -2.165803     0.725230    -1.278827
O       -1.885737     0.482717     0.017095
Co       0.000000     0.000000     0.000000
N        0.000000     0.000000     2.000000
O        0.000000     0.000000     3.169552
N        1.940677    -0.479784    -0.000950
O        2.047364    -1.746642     0.452735
O        0.013741     0.242347    -1.929133
C        2.268169     2.442108    -0.998389
C        2.921598     2.010800    -2.323399
C        4.233354     2.778408    -2.547953
C        3.244927     0.509348    -2.421566
C        2.988203     2.237602     0.203790
H        5.254407     2.701362     1.971708
H        5.101914     2.869780     3.757813
H        4.462544     4.166139     2.687590
H        2.651467     2.765386     3.618369
H        3.930119     0.692699     3.980797
H        2.425143     0.372789     3.082116
H        3.993612     0.377208     2.203662
H        0.854883     3.522536     2.470123
H       -1.620443     3.751097    -0.319795
H       -0.225276     5.940366     1.340234
H       -0.725988     5.981742    -0.414843
H       -1.959062     5.974647     0.843374
H       -2.749732     3.867817     1.804824
H       -1.701358     2.405433     1.810319
H       -1.234244     3.889655     2.729564
H        0.871328     6.526800    -3.065684
H        3.335466     5.987911    -3.804492
H        2.739222     4.309160    -4.066392
H        2.021665     5.636930    -4.978755
H        2.746301     6.657776    -1.611314
H        1.326876     6.104056    -0.758480
H        2.644503     4.957346    -1.133080
H       -0.348321     5.388894    -4.823484
H       -2.662163     4.877792    -5.819375
H       -1.653703     3.880338    -7.993184
H       -0.432303     4.606460    -6.908045
H       -0.619010     2.836233    -6.945021
H       -4.200391     2.953964    -5.481060
H       -3.860904     3.288847    -7.185951
H       -3.092990     1.898672    -6.413740
H       -3.347831     3.129675    -1.879073
H       -6.031980     3.379694    -3.337464
H       -4.476221     4.233889    -3.726171
H       -5.320588     4.595227    -2.197638
H       -4.498512     1.386209    -0.447675
H       -6.070286     1.936973    -1.130426
H       -5.047828     3.073655    -0.206488
H       -5.847883     0.488193    -2.749042
H       -6.463725    -1.672695    -3.366350
H       -5.255684    -2.239983    -6.155067
H       -6.776211    -1.363802    -5.741607
H       -6.645150    -3.136657    -5.448742
H       -4.031272    -3.465370    -4.002225
H       -4.534426    -2.887736    -2.368692
H       -5.617863    -3.960530    -3.318528
H       -3.190680    -1.712108    -5.213315
H       -0.339549     0.701712    -5.054145
H       -2.071948    -0.844195    -7.103168
H       -1.418883     0.813118    -7.251535
H       -0.302489    -0.567099    -7.282717
H       -1.088826    -2.303318    -5.082639
H        0.533005    -1.576013    -5.200529
H       -0.399437    -1.440959    -3.672363
H        2.234910     2.242055    -3.160166
H        4.096666     3.865701    -2.428845
H        4.602478     2.581421    -3.577838
H        5.015678     2.467843    -1.826576
H        3.714695     0.282263    -3.401265
H        2.337317    -0.112543    -2.371863
H        3.955617     0.197519    -1.625108
H        3.964755     1.774505     0.170810
112
ex_0078 frame32 square-planar cis-conf3
C        0.259642     2.850322     5.919513
C        0.703080     2.392809     4.528290
C        0.142741     3.339071     3.451262
C        0.274307     0.957950     4.247258
C       -1.078362     0.621419     4.252417
C       -1.524021    -0.667310     3.937516
C       -3.038216    -0.935826     4.019271
C       -3.483813    -0.859378     5.491486
C       -3.925374     0.063848     3.241146
C       -0.557065    -1.662506     3.550683
C       -1.014957    -3.012969     3.103996
C       -1.180859    -4.081532     4.036967
C       -0.995553    -4.045358     5.578068
C       -2.372460    -4.286010     6.233584
C       -0.323235    -2.832331     6.254975
C       -1.557514    -5.335394     3.538967
C       -1.796499    -5.603396     2.185545
C       -2.180966    -7.042304     1.800248
C       -3.645858    -7.296088     2.145842
C       -1.314593    -8.115032     2.490674
C       -1.690696    -4.537056     1.250512
C       -1.989679    -4.784497    -0.201162
C       -1.041466    -5.284048    -1.164411
C        0.435799    -5.670236    -0.923646
C        0.561585    -7.194883    -0.815375
C        1.197938    -4.998447     0.225223
C       -1.469889    -5.457314    -2.501241
C       -2.776481    -5.173483    -2.908865
C       -3.247453    -5.389970    -4.339138
C       -2.530412    -4.460933    -5.322260
C       -3.089158    -6.858980    -4.754791
C       -3.682109    -4.675168    -1.977344
C       -3.338501    -4.495377    -0.633279
C       -4.439680    -3.991641     0.317342
C       -4.793242    -2.524125     0.054706
C       -5.756200    -4.805643     0.210703
C       -1.291543    -3.242447     1.703178
N       -1.117670    -2.072116     0.910830
N       -2.063136    -1.076772     1.057459
O       -1.937680    -0.109108     0.102288
Co       0.000000     0.000000     0.000000
N        2.000000     0.000000     0.000000
O        3.175464     0.000000     0.000000
N        0.000000     2.000000     0.000000
O        0.000000     3.186056     0.000000
O       -0.092144    -1.941756     0.067493
C        0.849160    -1.347332     3.595018
C        1.970792    -2.379386     3.238151
C        2.696498    -3.079383     4.392922
C        3.073144    -1.710314     2.438709
C        1.224113    -0.037066     3.981583
H        0.617626     3.885345     6.106575
H       -0.846449     2.844961     6.014216
H        0.694834     2.180504     6.689223
H        1.811950     2.471247     4.486204
H        0.450755     4.388136     3.648233
H        0.542617     3.049354     2.460676
H       -0.967730     3.309116     3.409476
H       -1.798653     1.384447     4.504402
H       -3.251330    -1.959951     3.649148
H       -2.892027    -1.510198     6.144329
H       -3.369815     0.167668     5.895065
H       -4.543992    -1.172272     5.588195
H       -3.844689     1.087796     3.661542
H       -3.698643     0.138975     2.171195
H       -4.988935    -0.244910     3.324911
H       -0.331613    -4.891932     5.864772
H       -3.127790    -3.587180     5.832781
H       -2.754425    -5.303275     6.023027
H       -2.320458    -4.176638     7.337399
H        0.709705    -2.698858     5.937958
H       -0.827030    -1.874154     6.111078
H       -0.259503    -3.010549     7.349451
H       -1.691411    -6.133081     4.250620
H       -2.080414    -7.195442     0.706687
H       -3.894448    -6.993508     3.183442
H       -4.250180    -6.705383     1.464186
H       -3.922221    -8.361166     1.990756
H       -0.236075    -7.931201     2.321592
H       -1.575778    -9.118633     2.092193
H       -1.498990    -8.157471     3.584375
H        1.003139    -5.360245    -1.831327
H        1.630202    -7.496194    -0.785471
H        0.082579    -7.698935    -1.680206
H        0.083217    -7.555600     0.109669
H        2.259777    -5.327311     0.206251
H        0.801709    -5.266268     1.220533
H        1.213258    -3.905238     0.086695
H       -0.774933    -5.841768    -3.238950
H       -4.331941    -5.146954    -4.395981
H       -2.988332    -4.556068    -6.330647
H       -2.637950    -3.405490    -4.991854
H       -1.450565    -4.708025    -5.394371
H       -3.576545    -7.030822    -5.738202
H       -2.017061    -7.137170    -4.841599
H       -3.569373    -7.524964    -4.006158
H       -4.689241    -4.455381    -2.302165
H       -4.055892    -4.064953     1.353324
H       -5.441806    -2.408446    -0.838001
H       -3.891130    -1.935579    -0.146796
H       -5.317186    -2.102430     0.940550
H       -6.445477    -4.526814     1.035314
H       -6.282195    -4.597372    -0.744259
H       -5.617763    -5.895966     0.210870
H        1.528379    -3.148599     2.573158
H        3.058636    -2.325997     5.128227
H        3.583891    -3.634829     4.011958
H        2.064020    -3.845657     4.868632
H        3.621764    -2.428959     1.791216
H        2.559405    -0.990346     1.868224
H        3.797144    -1.139750     3.059194
H        2.267903     0.242722     4.008143
112
ex_0078 frame33 square-planar cis-conf4
C       -6.438662     1.599804    -1.365468
C       -7.079927     0.304502    -0.843593
C       -8.262353    -0.117789    -1.724872
C       -6.048217    -0.807270    -0.765545
C       -5.447675    -1.291524    -1.923238
C       -4.455426    -2.279040    -1.885588
C       -3.796359    -2.661667    -3.223184
C       -4.760252    -3.337232    -4.208348
C       -3.192349    -1.394958    -3.871621
C       -4.105567    -2.868286    -0.628874
C       -3.106135    -3.962730    -0.645192
C       -3.504245    -5.317573    -0.859384
C       -4.987791    -5.757464    -1.131594
C       -6.041856    -5.377856    -0.075008
C       -5.164724    -7.272835    -1.384054
C       -2.495870    -6.293001    -0.819799
C       -1.132829    -6.021532    -0.628172
C       -0.257512    -7.309304    -0.639668
C       -0.210749    -7.963337    -2.032569
C        1.167255    -7.252143    -0.088459
C       -0.726980    -4.656453    -0.454292
C        0.709966    -4.269257    -0.282581
C        1.281946    -4.290265     1.035450
C        0.457095    -4.603451     2.293278
C        0.167594    -3.293785     3.048446
C        1.123336    -5.625217     3.248504
C        2.647352    -4.016442     1.202637
C        3.475321    -3.715512     0.124251
C        4.963850    -3.485043     0.366553
C        5.805218    -4.436155    -0.492469
C        5.381793    -2.035727     0.126793
C        2.914820    -3.632975    -1.156159
C        1.540867    -3.861864    -1.395634
C        1.093972    -3.638296    -2.867238
C        0.321352    -4.754703    -3.562660
C        0.343656    -2.312215    -3.007029
C       -1.718532    -3.612894    -0.483372
N       -1.294067    -2.236294    -0.361928
N       -2.173269    -1.198446    -0.676479
O       -1.944135    -0.073249     0.044034
Co       0.000000     0.000000     0.000000
N        2.000000     0.000000     0.000000
O        3.186401     0.000000     0.000000
N        0.000000     2.000000     0.000000
O        0.000000     3.189888     0.000000
O       -0.050941    -1.944571     0.054328
C       -4.726264    -2.380781     0.581846
C       -4.475431    -2.839035     2.041654
C       -3.861012    -1.688102     2.865349
C       -3.617973    -4.086627     2.290845
C       -5.690025    -1.356064     0.464051
H       -5.989207     1.458517    -2.371057
H       -7.199925     2.405843    -1.433929
H       -5.642218     1.935328    -0.666398
H       -7.480712     0.522897     0.171243
H       -8.717723    -1.047777    -1.322901
H       -7.942221    -0.302487    -2.772127
H       -9.035324     0.678459    -1.735710
H       -5.717584    -0.842111    -2.866111
H       -2.941815    -3.353190    -3.073070
H       -4.907813    -4.395636    -3.937044
H       -4.335720    -3.340846    -5.233594
H       -5.746126    -2.828998    -4.232832
H       -3.970328    -0.668957    -4.184734
H       -2.614452    -1.670985    -4.778499
H       -2.499385    -0.879289    -3.178444
H       -5.298940    -5.256745    -2.058816
H       -7.045184    -5.725222    -0.405720
H       -6.168446    -4.295763     0.031847
H       -5.833573    -5.846725     0.904817
H       -4.535644    -7.615405    -2.231992
H       -6.216061    -7.511071    -1.653199
H       -4.914016    -7.849290    -0.465127
H       -2.753065    -7.329003    -0.955833
H       -0.779516    -8.021124     0.040099
H        0.467972    -7.413989    -2.696671
H        0.194481    -8.994099    -1.958450
H       -1.207963    -8.019537    -2.512760
H        1.613907    -8.269875    -0.090061
H        1.831982    -6.600754    -0.687370
H        1.132876    -6.940162     0.961902
H       -0.528525    -5.017674     2.008238
H       -0.400939    -2.589370     2.410934
H        1.111545    -2.797653     3.362620
H       -0.449183    -3.493566     3.949924
H        2.018830    -6.107387     2.806207
H        0.399498    -6.422832     3.516733
H        1.460847    -5.145082     4.193218
H        3.072912    -4.031240     2.197979
H        5.202583    -3.705610     1.430735
H        5.669751    -4.227244    -1.574849
H        5.516240    -5.488587    -0.289059
H        6.882088    -4.313394    -0.249641
H        5.155613    -1.709698    -0.910858
H        6.470099    -1.913264     0.311878
H        4.863330    -1.391726     0.861950
H        3.560891    -3.341259    -1.974006
H        2.002007    -3.484436    -3.492282
H       -0.638406    -4.978363    -3.059372
H        0.074389    -4.451803    -4.604154
H        0.969396    -5.639355    -3.640656
H        0.193733    -2.068825    -4.081549
H       -0.651814    -2.361925    -2.552340
H        0.936563    -1.486783    -2.556347
H       -5.476423    -3.080849     2.466034
H       -3.820175    -1.965516     3.941276
H       -4.451655    -0.753233     2.794886
H       -2.828261    -1.474153     2.515912
H       -3.612094    -4.323193     3.377605
H       -2.571708    -3.921131     1.990219
H       -4.024099    -4.974162     1.783320
H       -6.170605    -0.966822     1.353744
112
ex_0078 frame34 cis
C       -0.571986    -5.684765     3.886824
C       -0.518604    -4.360118     4.664104
C       -1.679084    -4.266706     5.664145
C       -0.562287    -3.176536     3.721501
C       -1.658867    -2.997461     2.890654
C       -1.773788    -1.903051     2.027073
C       -3.080666    -1.779225     1.234654
C       -3.080583    -2.703254     0.015126
C       -4.317058    -2.104757     2.114236
C       -0.685055    -0.981616     1.935660
C       -0.738724     0.168114     0.980664
C       -1.425857     1.400446     1.251514
C       -2.192495     1.831020     2.530805
C       -3.625778     1.339219     2.620023
C       -1.433726     1.599881     3.835280
C       -1.431314     2.376774     0.253598
C       -0.730969     2.266835    -0.946607
C       -0.778530     3.465696    -1.908509
C       -2.024339     3.426458    -2.796614
C       -0.726134     4.823485    -1.178298
C       -0.026255     1.068073    -1.220935
C        0.732057     0.963301    -2.506852
C        2.093635     1.376786    -2.528863
C        2.834728     1.871619    -1.278169
C        2.830203     3.397791    -1.227886
C        4.276175     1.336558    -1.195422
C        2.791150     1.331919    -3.741556
C        2.210918     0.843682    -4.908697
C        3.036877     0.831489    -6.176188
C        2.405265     1.747909    -7.228231
C        3.219024    -0.595187    -6.699539
C        0.890782     0.380707    -4.881013
C        0.120705     0.459637    -3.709174
C       -1.341616     0.006224    -3.755779
C       -1.472970    -1.518099    -3.768190
C       -2.102526     0.577232    -4.978915
C       -0.061369    -0.001165    -0.276953
N        0.611765    -1.186446    -0.699012
N        1.942730    -1.212835    -1.053984
O        2.498684    -2.400282    -0.706953
Co       1.171599    -3.721604    -1.239981
N        1.029119    -4.389291     0.637354
O       -0.061994    -5.191473     0.658238
N        1.310511    -3.110271    -3.136005
O        1.244793    -3.916377    -4.014362
O       -0.085604    -2.317866    -0.750030
C        0.470537    -1.174240     2.776679
C        1.705825    -0.258550     2.757343
C        1.836031     0.596458     4.039624
C        2.999982    -1.076105     2.554564
C        0.485297    -2.259611     3.674100
H       -1.511496    -5.774747     3.299265
H       -0.520997    -6.546192     4.583263
H        0.286941    -5.747853     3.187228
H        0.430756    -4.337514     5.242567
H       -2.661192    -4.375758     5.155546
H       -1.590740    -5.064815     6.429064
H       -1.658052    -3.280339     6.176256
H       -2.450449    -3.723719     2.943249
H       -3.202472    -0.742811     0.862757
H       -2.746728    -3.726051     0.294688
H       -2.417544    -2.295575    -0.766774
H       -4.094465    -2.765861    -0.430581
H       -4.260725    -1.647880     3.121214
H       -4.426200    -3.194178     2.285121
H       -5.241765    -1.754427     1.612621
H       -2.318649     2.936619     2.488118
H       -4.172456     1.900921     3.409570
H       -4.157428     1.493756     1.656396
H       -3.627375     0.295416     2.910281
H       -0.449466     2.098892     3.780453
H       -1.318026     0.520938     4.052147
H       -1.991762     2.051892     4.684392
H       -1.975866     3.285786     0.441462
H        0.118942     3.459997    -2.562657
H       -1.782099     2.846117    -3.679850
H       -2.895271     2.963138    -2.284674
H       -2.309358     4.431310    -3.171003
H       -1.692515     5.068613    -0.692837
H       -0.521050     5.627386    -1.915790
H        0.065362     4.843959    -0.405736
H        2.338487     1.499704    -0.357093
H        1.822867     3.734372    -0.952428
H        3.096343     3.834618    -2.213451
H        3.525689     3.780585    -0.453175
H        4.935846     1.816915    -1.947505
H        4.295166     0.236428    -1.341083
H        4.704368     1.564846    -0.196779
H        3.811169     1.678532    -3.786906
H        4.051139     1.235977    -5.958641
H        1.417070     1.361959    -7.555173
H        3.071813     1.827694    -8.112027
H        2.266224     2.766776    -6.803820
H        3.676626    -1.229325    -5.909235
H        3.893091    -0.592209    -7.581345
H        2.245562    -1.040169    -6.994149
H        0.446004     0.004953    -5.792343
H       -1.819542     0.372598    -2.826410
H       -2.502331    -1.823815    -3.489377
H       -1.218146    -1.946098    -4.762919
H       -0.792317    -1.949106    -3.027141
H       -1.909588    -0.022878    -5.892456
H       -1.771898     1.590777    -5.262302
H       -3.196227     0.580122    -4.788288
H        1.634099     0.439942     1.899894
H        2.812214     0.457064     4.552803
H        1.040134     0.367282     4.778498
H        1.780289     1.674420     3.776747
H        2.910572    -1.755571     1.687941
H        3.234642    -1.692570     3.450245
H        3.864941    -0.397957     2.394449
H        1.334276    -2.415697     4.326078
112
ex_0078 frame35 trans
C        5.094621     1.610484     5.496429
C        4.313446     2.885481     5.152619
C        5.258982     4.076161     4.954068
C        3.451240     2.688280     3.921129
C        4.021239     2.451953     2.671583
C        3.246322     2.315209     1.504605
C        4.091250     2.194760     0.219431
C        4.664945     3.608110    -0.029510
C        3.468709     1.609603    -1.061231
C        1.812494     2.306299     1.633031
C        0.866417     2.039431     0.505933
C        0.423966     3.082614    -0.365599
C        0.898648     4.529992    -0.253957
C        1.710776     4.953608    -1.492318
C       -0.288936     5.506532    -0.109057
C       -0.490210     2.773257    -1.375611
C       -1.017110     1.488970    -1.543229
C       -2.060585     1.283674    -2.632865
C       -1.419533     1.427561    -4.018348
C       -3.227542     2.295193    -2.528849
C       -0.558619     0.431790    -0.698263
C       -1.036705    -0.987507    -0.802870
C       -0.260730    -1.875264    -1.627387
C        0.989704    -1.419487    -2.381691
C        0.760647    -1.481327    -3.896439
C        2.223942    -2.270971    -2.024679
C       -0.646371    -3.216529    -1.760343
C       -1.741903    -3.727968    -1.074567
C       -2.102747    -5.195533    -1.212596
C       -3.575424    -5.376224    -1.610985
C       -1.785885    -5.942839     0.086913
C       -2.493297    -2.875610    -0.267187
C       -2.205091    -1.504083    -0.139754
C       -3.230546    -0.745495     0.725731
C       -4.413049    -0.338588    -0.156502
C       -2.749787     0.428760     1.573859
C        0.402878     0.710486     0.301753
N        1.022877    -0.188528     1.197558
N        0.510621    -0.403922     2.447964
O        0.976109    -1.555153     2.985423
Co       2.577592    -2.201194     2.076807
N        3.814594    -1.711806     3.564096
O        4.106274    -2.586003     4.499982
N        1.753082    -4.021094     2.007722
O        1.998734    -4.814478     2.863144
O        2.116932    -0.816377     0.786975
C        1.232340     2.570320     2.923653
C       -0.285605     2.672961     3.142228
C       -0.641119     4.148118     3.330773
C       -0.840781     1.870539     4.335884
C        2.066643     2.743190     4.034731
H        4.388040     0.773543     5.686536
H        5.701887     1.768236     6.412840
H        5.773710     1.318022     4.667488
H        3.659923     3.119652     6.022131
H        6.027940     3.854848     4.183597
H        5.776632     4.311973     5.906968
H        4.682379     4.970692     4.634648
H        5.101430     2.438660     2.595371
H        4.963487     1.526575     0.398308
H        5.260180     3.654641    -0.964152
H        5.329549     3.919173     0.803007
H        3.864553     4.366527    -0.065918
H        4.186068     1.725935    -1.903409
H        3.301760     0.522925    -0.939299
H        2.539623     2.081448    -1.393928
H        1.546724     4.617105     0.641709
H        2.180445     5.944391    -1.315269
H        1.071627     5.017080    -2.396620
H        2.510438     4.233629    -1.729520
H       -0.859693     5.591076    -1.057788
H       -1.018653     5.173486     0.649121
H        0.080360     6.520807     0.151807
H       -0.813056     3.559095    -2.041511
H       -2.448636     0.249557    -2.537006
H       -1.264134     2.488731    -4.296662
H       -2.064101     0.938764    -4.781334
H       -0.414097     0.981876    -4.030440
H       -4.046030     2.016499    -3.224039
H       -3.621873     2.382268    -1.498602
H       -2.895863     3.319754    -2.802954
H        1.211113    -0.369481    -2.113736
H        0.729540    -2.525774    -4.263360
H        1.567624    -0.929304    -4.425325
H       -0.221175    -1.056563    -4.158751
H        2.165707    -3.275843    -2.495527
H        3.149990    -1.778029    -2.387643
H        2.306725    -2.436077    -0.935382
H       -0.065000    -3.882169    -2.384376
H       -1.479352    -5.656377    -2.010812
H       -3.794819    -4.808562    -2.539745
H       -3.792331    -6.449724    -1.789538
H       -4.259399    -5.025101    -0.809433
H       -2.037033    -7.019437    -0.019303
H       -2.352361    -5.522511     0.944278
H       -0.697979    -5.863098     0.304865
H       -3.351014    -3.285032     0.249541
H       -3.646963    -1.464411     1.467788
H       -4.109429     0.445155    -0.852921
H       -4.777710    -1.197122    -0.758628
H       -5.253678     0.043904     0.459423
H       -3.596720     0.815459     2.183383
H       -1.969513     0.089116     2.277889
H       -2.394665     1.268679     0.951253
H       -0.818174     2.340092     2.237398
H       -0.244135     4.547360     4.284592
H       -1.745024     4.281003     3.302394
H       -0.185339     4.743211     2.524995
H       -0.455888     2.261777     5.300536
H       -0.586750     0.798642     4.277824
H       -1.947980     1.962217     4.364639
H        1.635471     2.953978     5.002838
112
ex_0078 frame36 see-saw N-O2-ax-conf12
C       -3.431143     0.030125     6.354714
C       -2.605331     0.801886     5.331366
C       -1.111215     0.637880     5.651504
C       -3.053597     0.394807     3.916553
C       -3.568422     1.369500     3.073441
C       -3.995389     1.087696     1.761725
C       -4.456454     2.283877     0.917817
C       -5.835843     2.792387     1.339755
C       -3.420522     3.428987     0.967983
C       -3.982979    -0.260693     1.270503
C       -4.574771    -0.432162    -0.120669
C       -5.961382    -0.678375    -0.293673
C       -6.962332    -0.708842     0.876124
C       -7.320894    -2.125445     1.328581
C       -8.258149     0.054196     0.522271
C       -6.458606    -0.906176    -1.582226
C       -5.676638    -0.818305    -2.738486
C       -6.433825    -1.000102    -4.067251
C       -6.424003     0.251807    -4.951043
C       -5.963665    -2.213225    -4.856993
C       -4.289142    -0.554915    -2.598481
C       -3.306599    -0.475449    -3.706220
C       -3.050498     0.799521    -4.305029
C       -3.720032     2.100808    -3.840887
C       -2.752580     2.840858    -2.897521
C       -4.100944     3.042884    -4.999982
C       -2.145214     0.871571    -5.367849
C       -1.483903    -0.253837    -5.845014
C       -0.541141    -0.140585    -7.019493
C       -1.358796     0.277741    -8.252118
C        0.601839     0.846412    -6.754822
C       -1.696717    -1.487530    -5.232264
C       -2.614877    -1.635427    -4.179844
C       -2.826972    -3.038906    -3.592901
C       -1.652624    -3.416337    -2.672700
C       -2.988547    -4.112383    -4.687308
C       -3.735875    -0.318421    -1.299067
N       -2.355814     0.038498    -1.143566
N       -1.468257     0.204816    -2.209951
O       -0.148260     0.003830    -1.940449
Co       0.000000     0.000000     0.000000
N        0.000000     0.000000     2.000000
O        0.000000     0.000000     3.208710
N        1.983712    -0.227902    -0.126555
O        2.525484    -0.076938     1.101459
O       -1.930721     0.212217     0.080913
C       -3.420718    -1.286056     2.130640
C       -3.231228    -2.792415     1.827711
C       -1.731489    -3.044444     1.593952
C       -4.020363    -3.452721     0.688562
C       -2.969183    -0.915643     3.431080
H       -3.218452     0.413605     7.375064
H       -3.184391    -1.052011     6.320188
H       -4.510845     0.169346     6.140789
H       -2.822931     1.882641     5.482247
H       -0.503926     1.325077     5.027654
H       -0.904436     0.940014     6.700756
H       -0.781237    -0.417200     5.533552
H       -3.594446     2.383906     3.441146
H       -4.505566     2.014939    -0.157801
H       -6.583273     2.295899     0.712836
H       -6.059138     2.563498     2.403330
H       -5.957067     3.879465     1.160589
H       -3.406143     3.938786     1.953542
H       -2.401221     3.053889     0.737512
H       -3.683337     4.203241     0.215191
H       -6.537088    -0.168933     1.747759
H       -7.449892    -2.797877     0.450687
H       -6.531294    -2.503140     2.002500
H       -8.254585    -2.139800     1.925500
H       -8.053363     1.012228     0.015103
H       -8.914340    -0.533037    -0.149710
H       -8.832361     0.261343     1.449938
H       -7.515579    -1.076518    -1.700641
H       -7.505114    -1.184859    -3.836116
H       -6.753328     1.143821    -4.376612
H       -5.425199     0.427623    -5.381542
H       -7.120258     0.115595    -5.805811
H       -6.661833    -2.417137    -5.694329
H       -4.974135    -2.015215    -5.299419
H       -5.926596    -3.106657    -4.198341
H       -4.646839     1.881425    -3.273248
H       -3.130661     3.849723    -2.637969
H       -1.746982     2.944889    -3.363642
H       -2.645221     2.300942    -1.940243
H       -4.630617     2.500825    -5.807122
H       -4.755253     3.855735    -4.625260
H       -3.201285     3.527955    -5.437880
H       -1.919564     1.821985    -5.820353
H       -0.096498    -1.138503    -7.227889
H       -2.209639    -0.424992    -8.397518
H       -0.730153     0.263440    -9.164387
H       -1.778974     1.299682    -8.126654
H        1.311457     0.836898    -7.608140
H        0.220480     1.883021    -6.635699
H        1.147977     0.560964    -5.831197
H       -1.138335    -2.342483    -5.585817
H       -3.748184    -3.064804    -2.975741
H       -1.722843    -4.482847    -2.364000
H       -1.670683    -2.798164    -1.752434
H       -0.675890    -3.265919    -3.180399
H       -2.018960    -4.337731    -5.179291
H       -3.698926    -3.792848    -5.472128
H       -3.366938    -5.054859    -4.240899
H       -3.526974    -3.367385     2.736479
H       -1.533170    -4.133444     1.489523
H       -1.395251    -2.530947     0.669497
H       -1.118969    -2.681924     2.444873
H       -3.708095    -4.515646     0.591448
H       -5.087166    -3.506608     0.923566
H       -3.865152    -2.972114    -0.289664
H       -2.539474    -1.667487     4.083210
112
ex_0078 frame37 see-saw N-O1-ax-conf21
C        4.879282     0.589641    -2.161499
C        4.609163    -0.257892    -3.418487
C        5.434161     0.258832    -4.599622
C        3.130746    -0.261299    -3.762669
C        2.467269     0.942143    -4.001311
C        1.087373     0.983074    -4.227731
C        0.421900     2.342153    -4.394538
C        0.838857     3.021150    -5.701126
C        0.742124     3.262352    -3.196087
C        0.346286    -0.239693    -4.293827
C       -1.144267    -0.281403    -4.555506
C       -1.691140    -0.359931    -5.862128
C       -0.798971    -0.443260    -7.088364
C       -0.912356     0.819772    -7.940605
C       -1.135954    -1.690449    -7.927603
C       -3.078659    -0.361494    -6.037957
C       -3.961872    -0.398109    -4.954432
C       -5.465236    -0.576139    -5.233702
C       -6.171822     0.698513    -5.692888
C       -5.694738    -1.691796    -6.270686
C       -3.436177    -0.289105    -3.642519
C       -4.317945    -0.216846    -2.454896
C       -4.768395     1.015715    -1.867576
C       -4.399889     2.466081    -2.272607
C       -3.287849     2.950480    -1.329470
C       -4.012976     2.803530    -3.716769
C       -5.658128     0.940505    -0.784509
C       -6.043730    -0.275709    -0.218888
C       -6.914987    -0.308480     1.019003
C       -6.253521     0.501305     2.146895
C       -8.321730     0.204309     0.703764
C       -5.621267    -1.464806    -0.801325
C       -4.723538    -1.467436    -1.878522
C       -4.219905    -2.831530    -2.385197
C       -5.251237    -3.600104    -3.220858
C       -3.727459    -3.712289    -1.214714
C       -2.022435    -0.264463    -3.432827
N       -1.457509    -0.228818    -2.121103
N       -2.266411    -0.418705    -1.004838
O       -1.905644     0.384831     0.010324
Co       0.000000     0.000000     0.000000
N        0.000000     0.000000     2.000000
O        0.000000     0.000000     3.183496
N        1.956932    -0.386104    -0.057547
O        2.578285     0.547823     0.698597
O       -0.151474    -0.014244    -1.938979
C        1.033553    -1.482868    -4.105464
C        0.294564    -2.824544    -4.182086
C        0.670455    -3.573787    -5.466274
C        0.507123    -3.718928    -2.940446
C        2.418267    -1.465840    -3.844501
H        4.215708     0.276290    -1.332563
H        4.715546     1.672108    -2.353097
H        5.929550     0.455025    -1.826642
H        4.935416    -1.296910    -3.191750
H        5.121001     1.286518    -4.883679
H        5.288254    -0.409780    -5.473926
H        6.512654     0.280232    -4.339523
H        3.022564     1.866234    -3.935669
H       -0.672383     2.185590    -4.424188
H        0.094103     3.801372    -5.969992
H        0.907651     2.276286    -6.512703
H        1.846964     3.473247    -5.632503
H        1.796428     3.618856    -3.241285
H        0.092604     4.160871    -3.203376
H        0.613042     2.727149    -2.231745
H        0.251285    -0.534790    -6.753184
H       -0.926807     1.712677    -7.292385
H       -0.054612     0.877619    -8.643380
H       -1.866241     0.850399    -8.500919
H       -0.319321    -1.906703    -8.646091
H       -1.292962    -2.577099    -7.280421
H       -2.073011    -1.539071    -8.506550
H       -3.469215    -0.449482    -7.038982
H       -5.977047    -0.919712    -4.311505
H       -7.171295     0.471816    -6.116133
H       -6.367167     1.343110    -4.819018
H       -5.566082     1.231430    -6.458428
H       -6.749339    -2.037829    -6.217939
H       -5.497803    -1.336059    -7.301057
H       -5.028738    -2.554433    -6.100004
H       -5.283611     3.114416    -2.070257
H       -2.337445     2.421149    -1.540798
H       -3.567613     2.795155    -0.265727
H       -3.111472     4.038712    -1.472756
H       -3.128452     2.251837    -4.072361
H       -4.856472     2.662043    -4.395983
H       -3.771795     3.885776    -3.787863
H       -5.986193     1.855743    -0.308978
H       -7.009140    -1.355644     1.385903
H       -5.197399     0.180307     2.283270
H       -6.793326     0.336354     3.102364
H       -6.266315     1.589716     1.927587
H       -8.817219    -0.499343    -0.000163
H       -8.283867     1.207586     0.228932
H       -8.931410     0.267878     1.628227
H       -5.923593    -2.395075    -0.341794
H       -3.312883    -2.688867    -3.010825
H       -4.958259    -3.533245    -4.276042
H       -5.258802    -4.686783    -2.998351
H       -6.276779    -3.192681    -3.100975
H       -4.571304    -4.088552    -0.598790
H       -3.020932    -3.158286    -0.563268
H       -3.202136    -4.607960    -1.613501
H       -0.793256    -2.634346    -4.254865
H        1.497914    -4.293744    -5.309179
H        0.965150    -2.862416    -6.267227
H       -0.219167    -4.131510    -5.831681
H        1.584058    -3.945005    -2.780644
H        0.113812    -3.235825    -2.022264
H       -0.007190    -4.695148    -3.075307
H        2.944438    -2.394316    -3.668899
112
ex_0078 frame38 see-saw N-O1-ax-conf20
C        4.880998     0.587980    -2.164022
C        4.610135    -0.259282    -3.421496
C        5.437414     0.256494    -4.601629
C        3.130940    -0.262408    -3.766220
C        2.466505     0.941196    -4.004625
C        1.085992     0.982052    -4.231798
C        0.419900     2.341373    -4.400058
C        0.849319     3.026219    -5.699299
C        0.728056     3.258454    -3.196782
C        0.345463    -0.240911    -4.297237
C       -1.145576    -0.283571    -4.556967
C       -1.691575    -0.356389    -5.864579
C       -0.799220    -0.435121    -7.092546
C       -0.921537     0.822172    -7.952112
C       -1.130035    -1.686988    -7.927251
C       -3.079500    -0.356519    -6.040778
C       -3.963989    -0.397862    -4.958002
C       -5.468103    -0.575732    -5.238994
C       -6.178572     0.697071    -5.697489
C       -5.696883    -1.689055    -6.278992
C       -3.438839    -0.293648    -3.644631
C       -4.320583    -0.221640    -2.456737
C       -4.768505     1.011784    -1.868950
C       -4.395703     2.461041    -2.273451
C       -3.283410     2.938787    -1.327095
C       -4.003408     2.798493    -3.716426
C       -5.659496     0.939242    -0.786172
C       -6.047755    -0.275943    -0.220156
C       -6.918814    -0.307786     1.019050
C       -6.256397     0.499538     2.148500
C       -8.325459     0.206941     0.707918
C       -5.627871    -1.466010    -0.803790
C       -4.728840    -1.470746    -1.880584
C       -4.226638    -2.835667    -2.387176
C       -5.259730    -3.608932    -3.215747
C       -3.727861    -3.710975    -1.215673
C       -2.025229    -0.273822    -3.433812
N       -1.457535    -0.250026    -2.122393
N       -2.263121    -0.472328    -1.011375
O       -1.919608     0.296472     0.014230
Co       0.000000     0.000000     0.000000
N        0.000000     0.000000     2.000000
O        0.000000     0.000000     3.186401
N        1.972527    -0.320482    -0.028364
O        2.547697     0.550390     0.804623
O       -0.155092    -0.016219    -1.938689
C        1.033285    -1.484058    -4.110261
C        0.293343    -2.824981    -4.189081
C        0.678412    -3.580765    -5.466042
C        0.498070    -3.714016    -2.943333
C        2.418253    -1.467156    -3.848873
H        4.228844     0.265229    -1.328801
H        4.703037     1.668861    -2.351632
H        5.936178     0.466088    -1.839616
H        4.937059    -1.298372    -3.196010
H        5.131050     1.286999    -4.882371
H        5.288608    -0.409089    -5.477786
H        6.516271     0.269585    -4.341394
H        3.021725     1.865495    -3.940005
H       -0.674357     2.186869    -4.441338
H        0.119400     3.823506    -5.958871
H        0.903647     2.289771    -6.519034
H        1.865337     3.459380    -5.624429
H        1.786499     3.603846    -3.222569
H        0.088178     4.163932    -3.218407
H        0.572998     2.726250    -2.234831
H        0.253069    -0.519048    -6.760888
H       -0.922903     1.720229    -7.311572
H       -0.074315     0.871045    -8.668553
H       -1.882829     0.850062    -8.499912
H       -0.322639    -1.887635    -8.660842
H       -1.258997    -2.577219    -7.278803
H       -2.079125    -1.551248    -8.489966
H       -3.469245    -0.440101    -7.042391
H       -5.979749    -0.920510    -4.317148
H       -7.184434     0.467275    -6.104314
H       -6.362501     1.348637    -4.826715
H       -5.583818     1.222863    -6.476161
H       -6.755689    -2.023737    -6.239451
H       -5.485065    -1.335727    -7.307211
H       -5.042278    -2.558624    -6.101476
H       -5.278008     3.112265    -2.073745
H       -2.337274     2.398949    -1.531976
H       -3.568681     2.788080    -0.264233
H       -3.097030     4.025153    -1.472228
H       -3.116111     2.248553    -4.067553
H       -4.842693     2.654603    -4.400328
H       -3.764654     3.881482    -3.786810
H       -5.985585     1.855522    -0.311073
H       -7.015345    -1.355334     1.383935
H       -5.205199     0.167181     2.294124
H       -6.805270     0.345931     3.100786
H       -6.254897     1.587201     1.924860
H       -8.818481    -0.487789    -0.006446
H       -8.288780     1.217517     0.249093
H       -8.936659     0.254108     1.632667
H       -5.932058    -2.395715    -0.344551
H       -3.322566    -2.695890    -3.017777
H       -4.982889    -3.526830    -4.273794
H       -5.247551    -4.698075    -3.005561
H       -6.288728    -3.216653    -3.077850
H       -4.567136    -4.080656    -0.590072
H       -3.013273    -3.155955    -0.574131
H       -3.208336    -4.610219    -1.614005
H       -0.793282    -2.633541    -4.271295
H        1.538265    -4.262020    -5.309876
H        0.933513    -2.870206    -6.280769
H       -0.193805    -4.179350    -5.808765
H        1.573216    -3.949767    -2.785098
H        0.112002    -3.220293    -2.027724
H       -0.027744    -4.684964    -3.071516
H        2.944185    -2.396123    -3.674126
112
ex_0078 frame39 see-saw N-O1-ax-conf17
C        4.884181     0.594108    -2.162238
C        4.608586    -0.256912    -3.416404
C        5.430562     0.257783    -4.600810
C        3.129238    -0.262111    -3.758922
C        2.464392     0.940270    -3.997717
C        1.084258     0.979862    -4.224423
C        0.419297     2.339087    -4.392253
C        0.837286     3.017217    -5.699308
C        0.740414     3.260506    -3.194708
C        0.343346    -0.243786    -4.289889
C       -1.148188    -0.291012    -4.551352
C       -1.693958    -0.360791    -5.859426
C       -0.800390    -0.439329    -7.085393
C       -0.912712     0.822974    -7.938458
C       -1.136285    -1.687235    -7.924885
C       -3.081458    -0.357998    -6.037302
C       -3.965870    -0.399769    -4.954716
C       -5.468912    -0.573868    -5.235724
C       -6.173794     0.701055    -5.696546
C       -5.697162    -1.690586    -6.271933
C       -3.442027    -0.300623    -3.641580
C       -4.322406    -0.225115    -2.453723
C       -4.769270     1.008656    -1.866310
C       -4.397227     2.458303    -2.269953
C       -3.283227     2.935580    -1.325321
C       -4.011865     2.797829    -3.714176
C       -5.659206     0.935903    -0.783711
C       -6.046851    -0.279332    -0.217870
C       -6.916491    -0.309401     1.020736
C       -6.252837     0.501304     2.146852
C       -8.322829     0.204521     0.705969
C       -5.627978    -1.469680    -0.800696
C       -4.730249    -1.474079    -1.877382
C       -4.227391    -2.837554    -2.385616
C       -5.256510    -3.605003    -3.223919
C       -3.734556    -3.717889    -1.215162
C       -2.030655    -0.290479    -3.430486
N       -1.461116    -0.285653    -2.122417
N       -2.261055    -0.562323    -1.019443
O       -1.936674     0.171687     0.059415
Co       0.000000     0.000000     0.000000
N        0.000000     0.000000     2.000000
O        0.000000     0.000000     3.208710
N        1.992282    -0.139008    -0.111792
O        2.526188     0.058564     1.114513
O       -0.168954    -0.019274    -1.937357
C        1.032067    -1.485631    -4.101131
C        0.293852    -2.827306    -4.178556
C        0.670087    -3.573455    -5.464421
C        0.506745    -3.723081    -2.938381
C        2.416988    -1.467175    -3.839121
H        4.226307     0.285732    -1.326745
H        4.721195     1.676129    -2.356906
H        5.936034     0.459331    -1.832339
H        4.935618    -1.295423    -3.188603
H        5.116003     1.284683    -4.886323
H        5.283515    -0.412600    -5.473533
H        6.509663     0.280924    -4.343238
H        3.019337     1.864741    -3.933372
H       -0.674940     2.182100    -4.421707
H        0.092532     3.796841    -5.969924
H        0.908002     2.271644    -6.510074
H        1.845016     3.470292    -5.630343
H        1.794228     3.618486    -3.241782
H        0.090001     4.158361    -3.201131
H        0.614117     2.725579    -2.229878
H        0.249518    -0.531405    -6.749220
H       -0.928816     1.715953    -7.290563
H       -0.053622     0.880535    -8.639772
H       -1.865509     0.852642    -8.500652
H       -0.318244    -1.905314    -8.641363
H       -1.295407    -2.573532    -7.277601
H       -2.071988    -1.536131    -8.506153
H       -3.471061    -0.441658    -7.039402
H       -5.981970    -0.916401    -4.313883
H       -7.172586     0.474639    -6.121567
H       -6.370275     1.345790    -4.822997
H       -5.566334     1.233743    -6.460805
H       -6.751285    -2.038009    -6.219056
H       -5.500113    -1.335577    -7.302595
H       -5.030274    -2.552429    -6.100082
H       -5.278675     3.109859    -2.066451
H       -2.337041     2.394872    -1.529713
H       -3.567663     2.784990    -0.262267
H       -3.099928     4.022943    -1.470029
H       -3.129653     2.244226    -4.072423
H       -4.857338     2.660393    -4.392138
H       -3.768622     3.879923    -3.783713
H       -5.984937     1.852075    -0.308173
H       -7.010938    -1.356043     1.388798
H       -5.196064     0.181402     2.280914
H       -6.790276     0.336227     3.103580
H       -6.267041     1.589702     1.927386
H       -8.819706    -0.499954     0.003848
H       -8.284160     1.206752     0.228907
H       -8.931389     0.270778     1.630901
H       -5.931214    -2.399363    -0.341034
H       -3.319509    -2.694516    -3.010064
H       -4.960120    -3.538679    -4.278472
H       -5.265442    -4.691225    -3.000037
H       -6.281654    -3.195783    -3.107354
H       -4.578401    -4.094685    -0.600049
H       -3.029703    -3.163895    -0.562159
H       -3.206370    -4.611719    -1.613808
H       -0.794110    -2.638137    -4.251374
H        1.497893    -4.293217    -5.308901
H        0.964230    -2.860174    -6.263961
H       -0.219352    -4.130518    -5.831253
H        1.583944    -3.946918    -2.777655
H        0.111084    -3.242029    -2.020120
H       -0.005454    -4.700005    -3.075643
H        2.944063    -2.395159    -3.663978
112
ex_0078 frame40 see-saw N-O1-ax-conf12
C        5.573192    -0.073692    -4.458827
C        4.640764    -0.755857    -3.458357
C        5.054640    -0.447652    -2.011637
C        3.197151    -0.364996    -3.730449
C        2.298318    -1.349639    -4.109788
C        0.935828    -1.078127    -4.294718
C        0.024306    -2.282449    -4.585038
C        0.169778    -2.813637    -6.009878
C        0.274410    -3.413667    -3.560290
C        0.459248     0.269978    -4.202890
C       -0.993966     0.463599    -4.526210
C       -1.454195     0.693729    -5.841106
C       -0.511826     0.713396    -7.055144
C       -0.127681     2.129388    -7.483222
C       -1.119344    -0.044110    -8.252546
C       -2.819390     0.912739    -6.051942
C       -3.781664     0.823914    -5.037793
C       -5.241189     1.005806    -5.502205
C       -6.098915    -0.248696    -5.313198
C       -5.926904     2.214853    -4.883684
C       -3.343356     0.579034    -3.704810
C       -4.249970     0.481724    -2.518996
C       -4.782521    -0.793083    -2.140490
C       -4.455563    -2.093933    -2.880946
C       -3.346262    -2.826820    -2.112464
C       -5.671717    -3.034385    -3.039904
C       -5.646851    -0.868528    -1.040037
C       -6.003286     0.256668    -0.306927
C       -6.979320     0.143159     0.845348
C       -8.348648    -0.277200     0.286855
C       -6.501596    -0.840119     1.920717
C       -5.453071     1.492147    -0.642885
C       -4.595742     1.642429    -1.748726
C       -4.072760     3.049040    -2.074180
C       -2.945214     3.437333    -1.102433
C       -5.180981     4.119680    -2.018601
C       -1.935733     0.406271    -3.441088
N       -1.445313     0.175349    -2.107196
N       -2.299959     0.238353    -0.989351
O       -1.858945    -0.572485    -0.010371
Co       0.000000     0.000000     0.000000
N        0.000000     0.000000     2.000000
O        0.000000     0.000000     3.208710
N        1.927708     0.525111    -0.015059
O        2.595958    -0.414015     0.685307
O       -0.140937    -0.106063    -1.934437
C        1.394639     1.307395    -3.813522
C        1.130686     2.814672    -3.573826
C        1.210502     3.061453    -2.052539
C       -0.156882     3.461556    -4.095013
C        2.747762     0.948540    -3.611402
H        6.608458    -0.455164    -4.338387
H        5.573233     1.026880    -4.311960
H        5.232964    -0.296700    -5.493271
H        4.751576    -1.854819    -3.597567
H        4.353347    -0.931825    -1.299966
H        6.072416    -0.849554    -1.814782
H        5.065777     0.645504    -1.816463
H        2.660368    -2.364395    -4.169945
H       -1.041827    -2.015991    -4.428020
H       -0.540579    -2.272685    -6.643760
H        1.193703    -2.656210    -6.409664
H       -0.099186    -3.887285    -6.083550
H        1.248032    -3.921502    -3.720086
H        0.231982    -3.026176    -2.520389
H       -0.507900    -4.195804    -3.668284
H        0.425183     0.169102    -6.813164
H       -1.017865     2.797552    -7.474258
H        0.658434     2.512972    -6.807605
H        0.317893     2.137545    -8.497717
H       -1.557341    -1.011384    -7.950748
H       -1.921463     0.538229    -8.745583
H       -0.328543    -0.235109    -9.007911
H       -3.157800     1.084853    -7.059493
H       -5.239092     1.191381    -6.598095
H       -5.603118    -1.136702    -5.760119
H       -6.308698    -0.426625    -4.246785
H       -7.081160    -0.113534    -5.814894
H       -6.894112     2.405986    -5.392952
H       -6.153153     2.016861    -3.824315
H       -5.285528     3.115085    -4.990519
H       -4.075298    -1.871011    -3.898262
H       -3.134999    -3.816723    -2.567597
H       -3.634395    -2.977052    -1.048712
H       -2.408454    -2.240915    -2.141233
H       -6.557574    -2.496804    -3.430886
H       -5.424680    -3.861553    -3.735921
H       -5.954074    -3.504442    -2.072842
H       -6.046943    -1.819022    -0.729647
H       -7.102557     1.141032     1.320906
H       -8.666618     0.432590    -0.508935
H       -9.116478    -0.272452     1.086954
H       -8.306861    -1.295442    -0.157598
H       -7.210485    -0.836836     2.775311
H       -6.447135    -1.876611     1.524730
H       -5.496596    -0.545888     2.288865
H       -5.705836     2.347126    -0.032953
H       -3.645853     3.071938    -3.097212
H       -2.644665     4.496849    -1.254813
H       -2.048222     2.812357    -1.281444
H       -3.262632     3.311404    -0.044852
H       -5.492889     4.326319    -0.973168
H       -6.079874     3.813440    -2.583918
H       -4.807980     5.071280    -2.449679
H        1.952658     3.398920    -4.049259
H        1.134542     4.147149    -1.826793
H        0.383192     2.536264    -1.531266
H        2.173678     2.713292    -1.626595
H       -0.185914     4.526368    -3.774305
H       -0.167500     3.501913    -5.188032
H       -1.069692     2.974929    -3.717864
H        3.461589     1.699946    -3.293949
112
ex_0078 frame41 see-saw N-O1-ax-conf13
C        5.577797    -0.070969    -4.460411
C        4.641670    -0.753781    -3.463756
C        5.051934    -0.446214    -2.015837
C        3.196974    -0.364297    -3.737326
C        2.298938    -1.349282    -4.118880
C        0.935544    -1.078705    -4.302900
C        0.023694    -2.283475    -4.592328
C        0.175955    -2.823365    -6.012430
C        0.269737    -3.408862    -3.560409
C        0.458019     0.269219    -4.211127
C       -0.994110     0.466265    -4.535837
C       -1.454957     0.696734    -5.850843
C       -0.512200     0.714146    -7.065552
C       -0.122029     2.127980    -7.495190
C       -1.121210    -0.040667    -8.264271
C       -2.820655     0.918009    -6.060023
C       -3.782636     0.828638    -5.044727
C       -5.242907     1.011162    -5.506971
C       -6.097566    -0.244733    -5.316053
C       -5.931130     2.218506    -4.887296
C       -3.343715     0.583115    -3.712070
C       -4.251617     0.483458    -2.523690
C       -4.783112    -0.792430    -2.144007
C       -4.454582    -2.093337    -2.885469
C       -3.347716    -2.829300    -2.117075
C       -5.669340    -3.034727    -3.050804
C       -5.647192    -0.868287    -1.042070
C       -6.004621     0.257090    -0.308309
C       -6.978881     0.143969     0.847365
C       -8.350129    -0.276712     0.294462
C       -6.499397    -0.837343     1.923948
C       -5.456897     1.493122    -0.646771
C       -4.598993     1.643974    -1.752589
C       -4.076189     3.050847    -2.078424
C       -2.949822     3.436970    -1.105060
C       -5.180751     4.125527    -2.023682
C       -1.933537     0.412440    -3.451306
N       -1.440915     0.187139    -2.118460
N       -2.295109     0.263893    -1.005874
O       -1.859408    -0.556098    -0.036797
Co       0.000000     0.000000     0.000000
N        0.000000     0.000000     2.000000
O        0.000000     0.000000     3.169552
N        1.923427     0.541789    -0.052448
O        2.617091    -0.355062     0.676145
O       -0.138652    -0.102046    -1.936873
C        1.391946     1.306935    -3.819883
C        1.124082     2.813820    -3.578748
C        1.210127     3.062736    -2.057935
C       -0.170873     3.454834    -4.089219
C        2.745685     0.949093    -3.617378
H        6.614334    -0.446060    -4.329346
H        5.571323     1.030219    -4.319391
H        5.248087    -0.302252    -5.496262
H        4.755446    -1.852447    -3.603175
H        4.356098    -0.941023    -1.306192
H        6.074043    -0.837615    -1.820048
H        5.051543     0.646155    -1.816521
H        2.661989    -2.363675    -4.179933
H       -1.043227    -2.015342    -4.444650
H       -0.494329    -2.253192    -6.663478
H        1.213654    -2.713216    -6.389679
H       -0.138108    -3.884466    -6.087866
H        1.247633    -3.912159    -3.707419
H        0.214822    -3.016764    -2.522908
H       -0.507034    -4.195842    -3.672257
H        0.423653     0.168767    -6.822156
H       -1.013438     2.793634    -7.512330
H        0.648277     2.520295    -6.806946
H        0.346528     2.127492    -8.499430
H       -1.551521    -1.012753    -7.965871
H       -1.928894     0.539465    -8.750945
H       -0.333402    -0.221935    -9.025178
H       -3.160371     1.091915    -7.066893
H       -5.243252     1.197143    -6.602811
H       -5.601897    -1.130938    -5.766620
H       -6.301610    -0.424102    -4.249041
H       -7.082834    -0.110823    -5.811906
H       -6.902621     2.403043    -5.391026
H       -6.151343     2.022567    -3.826476
H       -5.295640     3.122075    -5.000277
H       -4.069362    -1.868788    -3.900516
H       -3.128307    -3.811914    -2.584396
H       -3.642886    -2.995501    -1.057919
H       -2.412496    -2.238763    -2.132381
H       -6.548883    -2.502685    -3.461981
H       -5.412519    -3.870796    -3.732564
H       -5.966801    -3.493997    -2.083370
H       -6.045489    -1.819077    -0.730156
H       -7.102535     1.141673     1.323410
H       -8.674421     0.437393    -0.494689
H       -9.113384    -0.277737     1.099255
H       -8.308927    -1.292447    -0.155369
H       -7.211673    -0.838684     2.776058
H       -6.437525    -1.873354     1.528163
H       -5.498191    -0.536879     2.297085
H       -5.709898     2.347560    -0.036349
H       -3.646325     3.072460    -3.100164
H       -2.634098     4.489615    -1.271021
H       -2.059260     2.800157    -1.270454
H       -3.274996     3.329416    -0.047988
H       -5.506092     4.320987    -0.980362
H       -6.073124     3.832332    -2.605324
H       -4.797572     5.081268    -2.436119
H        1.940519     3.399947    -4.060991
H        1.128520     4.147826    -1.831540
H        0.387224     2.533876    -1.532791
H        2.176956     2.720624    -1.636067
H       -0.195749     4.522741    -3.778129
H       -0.200270     3.482361    -5.182160
H       -1.077220     2.971635    -3.692634
H        3.458270     1.701166    -3.298852
112
ex_0078 frame42 see-saw N-O1-ax-conf14
C        5.571887    -0.074036    -4.458252
C        4.640795    -0.756491    -3.456793
C        5.055651    -0.447907    -2.010587
C        3.197461    -0.365587    -3.728526
C        2.298610    -1.350158    -4.107514
C        0.936573    -1.078067    -4.293973
C        0.024986    -2.282169    -4.584162
C        0.169287    -2.811600    -6.009617
C        0.275518    -3.414619    -3.560723
C        0.460225     0.270362    -4.203789
C       -0.992287     0.468351    -4.529841
C       -1.452943     0.694263    -5.843732
C       -0.510773     0.712088    -7.056175
C       -0.128615     2.129413    -7.481905
C       -1.117949    -0.045894    -8.252780
C       -2.819063     0.910754    -6.055074
C       -3.781395     0.824396    -5.040556
C       -5.240981     1.004497    -5.503391
C       -6.099044    -0.249660    -5.313227
C       -5.925507     2.213963    -4.883958
C       -3.342438     0.584418    -3.708486
C       -4.249209     0.483928    -2.520759
C       -4.780603    -0.791110    -2.141223
C       -4.453524    -2.092477    -2.880019
C       -3.344010    -2.823277    -2.109835
C       -5.670272    -3.033009    -3.037617
C       -5.644591    -0.867228    -1.040555
C       -6.002211     0.257489    -0.307914
C       -6.978612     0.143173     0.843977
C       -8.347523    -0.277600     0.284545
C       -6.501422    -0.840483     1.919319
C       -5.452879     1.493342    -0.643914
C       -4.595640     1.644462    -1.749773
C       -4.073292     3.051589    -2.074744
C       -2.946361     3.443687    -1.102685
C       -5.182890     4.119834    -2.018901
C       -1.933014     0.421353    -3.447815
N       -1.439999     0.210321    -2.116561
N       -2.286019     0.323373    -1.002066
O       -1.873686    -0.519110    -0.030138
Co       0.000000     0.000000     0.000000
N        0.000000     0.000000     2.000000
O        0.000000     0.000000     3.175464
N        1.931003     0.514385    -0.045828
O        2.599066    -0.431985     0.653366
O       -0.143688    -0.101243    -1.936472
C        1.395646     1.307108    -3.812783
C        1.132366     2.814115    -3.572317
C        1.210422     3.059619    -2.050765
C       -0.153476     3.462214    -4.095688
C        2.748384     0.947850    -3.609492
H        6.606819    -0.457064    -4.341119
H        5.573602     1.026298    -4.309532
H        5.228697    -0.294367    -5.492287
H        4.751032    -1.855502    -3.595985
H        4.352964    -0.929163    -1.298744
H        6.071954    -0.852822    -1.812930
H        5.069939     0.645424    -1.816640
H        2.660339    -2.365099    -4.167002
H       -1.040776    -2.015476    -4.425482
H       -0.546924    -2.276131    -6.641182
H        1.190253    -2.646365    -6.412765
H       -0.091191    -3.886874    -6.083872
H        1.247890    -3.923927    -3.723295
H        0.236516    -3.027848    -2.520452
H       -0.508267    -4.195518    -3.667105
H        0.426650     0.168653    -6.813989
H       -1.018132     2.798206    -7.465461
H        0.660685     2.511025    -6.808830
H        0.310937     2.141313    -8.498702
H       -1.558503    -1.011413    -7.948856
H       -1.918319     0.537482    -8.747358
H       -0.326497    -0.240303    -9.006408
H       -3.157790     1.081954    -7.062619
H       -5.239227     1.189791    -6.599221
H       -5.603278    -1.138446    -5.758557
H       -6.310038    -0.426589    -4.246764
H       -7.080718    -0.114617    -5.816066
H       -6.891708     2.407365    -5.394041
H       -6.153599     2.015248    -3.825036
H       -5.282535     3.113294    -4.988296
H       -4.073860    -1.870589    -3.897733
H       -3.134034    -3.815153    -2.561355
H       -3.631814    -2.970303    -1.045566
H       -2.406418    -2.236205    -2.139607
H       -6.558083    -2.494322    -3.422640
H       -5.426673    -3.857484    -3.737830
H       -5.949010    -3.506710    -2.071268
H       -6.044134    -1.818005    -0.730043
H       -7.102090     1.141031     1.319438
H       -8.664150     0.430592    -0.513174
H       -9.116523    -0.271021     1.083479
H       -8.305591    -1.296705    -0.157950
H       -7.209250    -0.835655     2.774779
H       -6.449456    -1.877256     1.523668
H       -5.495378    -0.548243     2.286088
H       -5.705855     2.348048    -0.033805
H       -3.646346     3.075000    -3.097718
H       -2.653464     4.505725    -1.248951
H       -2.043035     2.830885    -1.287563
H       -3.259523     3.308389    -0.044997
H       -5.490732     4.329579    -0.972917
H       -6.083228     3.809321    -2.579300
H       -4.812942     5.070028    -2.455213
H        1.955611     3.398188    -4.045625
H        1.136513     4.145239    -1.824368
H        0.381766     2.535572    -1.530590
H        2.172590     2.709649    -1.624102
H       -0.184167     4.525959    -3.771970
H       -0.159463     3.505626    -5.188640
H       -1.067563     2.974600    -3.723430
H        3.462292     1.698966    -3.291619
112
ex_0078 frame43 see-saw N-O1-ax-conf16
C        5.569340    -0.074634    -4.457648
C        4.639843    -0.757188    -3.454764
C        5.056156    -0.448550    -2.009074
C        3.196824    -0.365954    -3.725626
C        2.297786    -1.350469    -4.103846
C        0.936066    -1.078035    -4.290893
C        0.024659    -2.281935    -4.581337
C        0.167590    -2.808595    -6.008058
C        0.275908    -3.416216    -3.559974
C        0.459807     0.270426    -4.201043
C       -0.993128     0.468198    -4.527435
C       -1.453124     0.694133    -5.841159
C       -0.510411     0.712470    -7.052363
C       -0.130149     2.130506    -7.477262
C       -1.116732    -0.047067    -8.247954
C       -2.819158     0.910180    -6.053532
C       -3.782006     0.823652    -5.039573
C       -5.241236     1.003607    -5.502841
C       -6.100153    -0.250240    -5.313384
C       -5.925132     2.213553    -4.883658
C       -3.343698     0.583857    -3.707601
C       -4.250069     0.483152    -2.520245
C       -4.781789    -0.791514    -2.140922
C       -4.455279    -2.092880    -2.879265
C       -3.345247    -2.822660    -2.108746
C       -5.672493    -3.033059    -3.035193
C       -5.645870    -0.867492    -1.040580
C       -6.002971     0.257141    -0.307923
C       -6.979495     0.142811     0.843414
C       -8.348033    -0.277927     0.282972
C       -6.502228    -0.841341     1.918287
C       -5.453011     1.492771    -0.643423
C       -4.595871     1.643584    -1.749221
C       -4.073150     3.050475    -2.073771
C       -2.945890     3.442010    -1.101698
C       -5.183149     4.118217    -2.017564
C       -1.935945     0.421379    -3.445945
N       -1.444771     0.210849    -2.112907
N       -2.286392     0.320998    -0.995925
O       -1.876054    -0.511263    -0.032887
Co       0.000000     0.000000     0.000000
N        0.000000     0.000000     2.000000
O        0.000000     0.000000     3.183496
N        1.922353     0.543915    -0.061896
O        2.605846    -0.413838     0.635922
O       -0.146700    -0.098970    -1.936479
C        1.395721     1.307081    -3.810068
C        1.133660     2.814283    -3.569746
C        1.209788     3.059688    -2.048170
C       -0.149805     3.464057    -4.096326
C        2.748239     0.947473    -3.606578
H        6.603877    -0.459614    -4.344438
H        5.573142     1.025460    -4.306926
H        5.222501    -0.292039    -5.491138
H        4.749158    -1.856260    -3.594115
H        4.351806    -0.926240    -1.296595
H        6.070858    -0.857157    -1.811166
H        5.074447     0.644965    -1.816433
H        2.659183    -2.365590    -4.163011
H       -1.040830    -2.015540    -4.420382
H       -0.559990    -2.282727    -6.634732
H        1.183760    -2.628739    -6.417278
H       -0.078358    -3.887178    -6.082374
H        1.247026    -3.926811    -3.726032
H        0.240384    -3.030974    -2.518997
H       -0.509419    -4.195743    -3.665397
H        0.427406     0.169751    -6.809979
H       -1.018861     2.800248    -7.452085
H        0.664187     2.509362    -6.808344
H        0.301686     2.145055    -8.497163
H       -1.560162    -1.010541    -7.941851
H       -1.915111     0.536886    -8.744933
H       -0.324044    -0.245435    -8.999082
H       -3.157161     1.081659    -7.061268
H       -5.238464     1.188942    -6.598577
H       -5.604040    -1.139559    -5.757241
H       -6.313501    -0.426835    -4.247189
H       -7.080620    -0.114938    -5.818509
H       -6.889775     2.408956    -5.395824
H       -6.155608     2.014439    -3.825214
H       -5.280448     3.111926    -4.985836
H       -4.077050    -1.871621    -3.897640
H       -3.138488    -3.817199    -2.555683
H       -3.630704    -2.963877    -1.042976
H       -2.406664    -2.237396    -2.143190
H       -6.562224    -2.492719    -3.413739
H       -5.431988    -3.854342    -3.740190
H       -5.946509    -3.510573    -2.069302
H       -6.046098    -1.818157    -0.730514
H       -7.102638     1.140733     1.318831
H       -8.662954     0.428837    -0.516727
H       -9.118175    -0.269503     1.080693
H       -8.306044    -1.297816    -0.157778
H       -7.208456    -0.835118     2.774975
H       -6.452680    -1.878271     1.522653
H       -5.494848    -0.550986     2.282985
H       -5.705640     2.347685    -0.033401
H       -3.646841     3.074253    -3.097005
H       -2.656214     4.505487    -1.243207
H       -2.041027     2.832822    -1.290807
H       -3.256709     3.300687    -0.044036
H       -5.486638     4.331882    -0.971058
H       -6.085684     3.804392    -2.572706
H       -4.815783     5.066706    -2.459744
H        1.958628     3.397783    -4.040794
H        1.137683     4.145453    -1.821981
H        0.379824     2.537010    -1.528796
H        2.171190     2.708684    -1.620694
H       -0.181888     4.526818    -3.769672
H       -0.149738     3.511192    -5.189141
H       -1.065740     2.975371    -3.730083
H        3.462482     1.698317    -3.288736
112
ex_0078 frame44 see-saw N-O1-ax-conf15
C        5.566220    -0.076103    -4.456136
C        4.638946    -0.758311    -3.450975
C        5.056213    -0.448799    -2.005674
C        3.197047    -0.366383    -3.721726
C        2.297830    -1.351031    -4.098420
C        0.936898    -1.078235    -4.286083
C        0.025394    -2.281341    -4.577293
C        0.164315    -2.802311    -6.006847
C        0.278630    -3.419038    -3.560229
C        0.461320     0.270168    -4.196059
C       -0.992205     0.462494    -4.520871
C       -1.452269     0.691693    -5.833543
C       -0.510281     0.713847    -7.044615
C       -0.134387     2.133011    -7.469178
C       -1.116186    -0.048479    -8.238737
C       -2.817555     0.907660    -6.046338
C       -3.780333     0.819128    -5.033326
C       -5.239071     0.999995    -5.497734
C       -6.100625    -0.252838    -5.310744
C       -5.921210     2.210697    -4.878807
C       -3.342292     0.575911    -3.701839
C       -4.247840     0.478390    -2.516410
C       -4.781840    -0.794769    -2.138595
C       -4.457443    -2.095817    -2.877161
C       -3.346318    -2.825502    -2.107374
C       -5.676066    -3.033953    -3.028974
C       -5.646388    -0.869551    -1.039459
C       -6.001061     0.255277    -0.306675
C       -6.978971     0.141785     0.842179
C       -8.346319    -0.278211     0.277761
C       -6.503511    -0.843638     1.916423
C       -5.447486     1.489781    -0.639750
C       -4.590914     1.639257    -1.745697
C       -4.066936     3.045408    -2.069227
C       -2.939015     3.435764    -1.097465
C       -5.179125     4.111337    -2.013185
C       -1.934876     0.405611    -3.439748
N       -1.444976     0.177426    -2.109393
N       -2.297739     0.248511    -0.993226
O       -1.858137    -0.576169    -0.022084
Co       0.000000     0.000000     0.000000
N        0.000000     0.000000     2.000000
O        0.000000     0.000000     3.186401
N        1.935126     0.503424    -0.008357
O        2.595760    -0.442361     0.690565
O       -0.142400    -0.109649    -1.935897
C        1.397795     1.307246    -3.807226
C        1.137901     2.814900    -3.568794
C        1.211516     3.060218    -2.047274
C       -0.141637     3.467532    -4.101167
C        2.749860     0.947259    -3.604106
H        6.599574    -0.465748    -4.350548
H        5.574859     1.023439    -4.301081
H        5.212141    -0.287005    -5.488654
H        4.746247    -1.857611    -3.589878
H        4.346282    -0.916901    -1.291981
H        6.066924    -0.865892    -1.805343
H        5.083934     0.645217    -1.816899
H        2.658451    -2.366430    -4.156608
H       -1.039378    -2.015272    -4.411330
H       -0.585308    -2.295512    -6.623613
H        1.170228    -2.594498    -6.428529
H       -0.053231    -3.886783    -6.081268
H        1.246599    -3.932854    -3.734782
H        0.252344    -3.036129    -2.518078
H       -0.510628    -4.195063    -3.662047
H        0.428437     0.171997    -6.803668
H       -1.021315     2.804358    -7.425260
H        0.671291     2.506414    -6.810546
H        0.279748     2.153075    -8.496117
H       -1.565388    -1.008205    -7.929395
H       -1.910348     0.537022    -8.740649
H       -0.321962    -0.254829    -8.986109
H       -3.154853     1.078994    -7.054421
H       -5.234591     1.185752    -6.593370
H       -5.604456    -1.143539    -5.751758
H       -6.319320    -0.428738    -4.245301
H       -7.078451    -0.116240    -5.820775
H       -6.882445     2.411108    -5.395286
H       -6.156497     2.009567    -3.821662
H       -5.272300     3.106593    -4.975946
H       -4.082323    -1.875565    -3.896938
H       -3.148000    -3.825773    -2.544485
H       -3.624974    -2.953246    -1.037937
H       -2.404070    -2.247779    -2.154302
H       -6.569657    -2.488800    -3.391663
H       -5.443586    -3.847623    -3.745197
H       -5.938803    -3.520001    -2.064102
H       -6.048709    -1.819653    -0.730639
H       -7.101221     1.140087     1.316953
H       -8.656171     0.424954    -0.527204
H       -9.119871    -0.264785     1.071835
H       -8.304495    -1.300165    -0.158448
H       -7.207048    -0.833271     2.775033
H       -6.460031    -1.880959     1.520915
H       -5.493214    -0.558305     2.277191
H       -5.698373     2.345356    -0.029594
H       -3.641948     3.070001    -3.093016
H       -2.657602     4.503100    -1.229778
H       -2.032769     2.829614    -1.293773
H       -3.245533     3.284282    -0.039988
H       -5.473298     4.334702    -0.965984
H       -6.086541     3.788405    -2.555422
H       -4.819829     5.055948    -2.469991
H        1.965637     3.397311    -4.036576
H        1.142545     4.146539    -1.822302
H        0.379650     2.539715    -1.529170
H        2.171345     2.706470    -1.618101
H       -0.177706     4.528010    -3.767898
H       -0.129840     3.523459    -5.193613
H       -1.060810     2.975756    -3.747324
H        3.464880     1.697822    -3.287303
112
ex_0078 frame45 see-saw N-O2-ax-conf16
C       -3.426599     0.030601     6.352870
C       -2.599806     0.800683     5.328869
C       -1.105286     0.631093     5.643210
C       -3.048642     0.396034     3.914819
C       -3.564096     1.372169     3.073608
C       -3.990339     1.092255     1.762037
C       -4.453541     2.287714     0.918358
C       -5.833115     2.794190     1.342068
C       -3.418847     3.433136     0.967641
C       -3.975385    -0.254613     1.271042
C       -4.563352    -0.424909    -0.118553
C       -5.950742    -0.677455    -0.290923
C       -6.953838    -0.710325     0.877681
C       -7.316307    -2.125877     1.329768
C       -8.249914     0.053096     0.521874
C       -6.447286    -0.909776    -1.578567
C       -5.666851    -0.817418    -2.734495
C       -6.426647    -1.002858    -4.063081
C       -6.420949     0.249470    -4.947105
C       -5.959639    -2.214755    -4.855654
C       -4.280305    -0.548756    -2.594615
C       -3.301822    -0.471203    -3.705281
C       -3.047946     0.802981    -4.305769
C       -3.719037     2.103854    -3.841934
C       -2.754327     2.848279    -2.899655
C       -4.101836     3.043719    -5.001780
C       -2.143749     0.873684    -5.369483
C       -1.482823    -0.252497    -5.846265
C       -0.540552    -0.140224    -7.021018
C       -1.357925     0.277972    -8.253724
C        0.602594     0.846404    -6.755885
C       -1.695504    -1.485958    -5.232983
C       -2.612358    -1.632775    -4.179488
C       -2.825273    -3.036551    -3.592404
C       -1.651746    -3.414724    -2.672069
C       -2.987450    -4.111007    -4.686473
C       -3.725927    -0.307188    -1.300141
N       -2.349232     0.057113    -1.156782
N       -1.459618     0.231311    -2.218871
O       -0.146214     0.006377    -1.940700
Co       0.000000     0.000000     0.000000
N        0.000000     0.000000     2.000000
O        0.000000     0.000000     3.183496
N        1.974640    -0.251788    -0.142375
O        2.510522    -0.184593     1.090944
O       -1.929226     0.230760     0.066048
C       -3.414853    -1.282673     2.128343
C       -3.226366    -2.789303     1.823826
C       -1.727316    -3.043915     1.590622
C       -4.016610    -3.449150     0.684943
C       -2.963917    -0.914012     3.428583
H       -3.211641     0.413170     7.373059
H       -3.183478    -1.052292     6.317649
H       -4.506279     0.173126     6.140449
H       -2.814335     1.881912     5.480730
H       -0.498029     1.314774     5.015723
H       -0.893855     0.933041     6.691545
H       -0.779589    -0.425061     5.523145
H       -3.592369     2.385869     3.442753
H       -4.504752     2.019699    -0.157401
H       -6.580874     2.293657     0.719002
H       -6.053444     2.568434     2.406842
H       -5.957370     3.880170     1.158603
H       -3.403216     3.941337     1.953861
H       -2.399836     3.058660     0.735004
H       -3.683563     4.207420     0.215652
H       -6.528970    -0.170905     1.749679
H       -7.449069    -2.797149     0.451619
H       -6.527839    -2.506204     2.003261
H       -8.249461    -2.137175     1.927784
H       -8.046340     1.010997     0.014144
H       -8.905969    -0.534171    -0.150425
H       -8.825757     0.260090     1.448659
H       -7.503912    -1.083479    -1.696558
H       -7.497787    -1.188155    -3.830552
H       -6.750913     1.141186    -4.372580
H       -5.423344     0.426768    -5.379749
H       -7.118678     0.112691    -5.800859
H       -6.659881    -2.416209    -5.692219
H       -4.970909    -2.016347    -5.299352
H       -5.923550    -3.109241    -4.198583
H       -4.645795     1.883286    -3.274446
H       -3.134385     3.856890    -2.643135
H       -1.748077     2.951509    -3.364382
H       -2.648941     2.313578    -1.939967
H       -4.633283     2.500655    -5.806997
H       -4.755227     3.857188    -4.626703
H       -3.202761     3.527922    -5.441628
H       -1.919323     1.823523    -5.823504
H       -0.096048    -1.138280    -7.229200
H       -2.208356    -0.425177    -8.399490
H       -0.728817     0.264013    -9.165664
H       -1.778504     1.299711    -8.128244
H        1.312204     0.837316    -7.609140
H        0.221335     1.882942    -6.635923
H        1.148608     0.560238    -5.832353
H       -1.138440    -2.341531    -5.587365
H       -3.746647    -3.061811    -2.975469
H       -1.724472    -4.480530    -2.361247
H       -1.668502    -2.793916    -1.753462
H       -0.675076    -3.267784    -3.180850
H       -2.018515    -4.336008    -5.179873
H       -3.699163    -3.793286    -5.470719
H       -3.364229    -5.053924    -4.239379
H       -3.523336    -3.364042     2.732509
H       -1.530882    -4.133288     1.485743
H       -1.390436    -2.529623     0.666787
H       -1.114968    -2.683076     2.442359
H       -3.706260    -4.512867     0.588749
H       -5.083393    -3.501919     0.919724
H       -3.861087    -2.968973    -0.293525
H       -2.535765    -1.666911     4.080500
112
ex_0078 frame46 see-saw N-O1-ax-conf19
C        4.879554     0.592236    -2.160830
C        4.607837    -0.257468    -3.416748
C        5.431815     0.257846    -4.599613
C        3.128990    -0.262065    -3.760373
C        2.464686     0.940725    -3.999275
C        1.084422     0.981095    -4.225082
C        0.419454     2.340093    -4.393237
C        0.838764     3.018887    -5.699476
C        0.738867     3.260634    -3.195034
C        0.342982    -0.241756    -4.289365
C       -1.149432    -0.283882    -4.547933
C       -1.693574    -0.359312    -5.856936
C       -0.800296    -0.440614    -7.084558
C       -0.914053     0.821529    -7.939062
C       -1.135481    -1.688159    -7.924916
C       -3.080605    -0.359719    -6.035419
C       -3.965689    -0.398175    -4.953435
C       -5.468319    -0.575311    -5.235619
C       -6.173808     0.699701    -5.696050
C       -5.696762    -1.690972    -6.272720
C       -3.443208    -0.292942    -3.640021
C       -4.322976    -0.221450    -2.453366
C       -4.770729     1.011438    -1.866383
C       -4.399006     2.460895    -2.271272
C       -3.285646     2.940153    -1.326812
C       -4.011641     2.799311    -3.715265
C       -5.660468     0.937623    -0.784090
C       -6.046968    -0.278134    -0.218264
C       -6.916777    -0.309133     1.020358
C       -6.253504     0.501040     2.147065
C       -8.323273     0.204691     0.706112
C       -5.626797    -1.468125    -0.801112
C       -4.729088    -1.471591    -1.877902
C       -4.225532    -2.835410    -2.385798
C       -5.255596    -3.604370    -3.222285
C       -3.731989    -3.715213    -1.215159
C       -2.032383    -0.272382    -3.426085
N       -1.465775    -0.246485    -2.117970
N       -2.276502    -0.458867    -1.011099
O       -1.917679     0.315640     0.037595
Co       0.000000     0.000000     0.000000
N        0.000000     0.000000     2.000000
O        0.000000     0.000000     3.175464
N        1.958388    -0.353870    -0.035413
O        2.538588     0.395766     0.901297
O       -0.165220    -0.020864    -1.938570
C        1.031607    -1.484579    -4.102286
C        0.293527    -2.826482    -4.180127
C        0.671030    -3.574502    -5.464736
C        0.505839    -3.721446    -2.939216
C        2.416738    -1.466889    -3.841485
H        4.217788     0.282355    -1.327822
H        4.716197     1.674277    -2.354954
H        5.931066     0.458705    -1.829091
H        4.934746    -1.296114    -3.189285
H        5.118658     1.285271    -4.884665
H        5.285134    -0.411587    -5.473208
H        6.510700     0.279414    -4.340980
H        3.019973     1.864985    -3.935095
H       -0.674742     2.183592    -4.424490
H        0.095788     3.800783    -5.968533
H        0.907161     2.274512    -6.511498
H        1.847586     3.469360    -5.629901
H        1.793483     3.616405    -3.239104
H        0.090039     4.159577    -3.203774
H        0.608216     2.725910    -2.230688
H        0.250183    -0.531127    -6.749880
H       -0.928110     1.715364    -7.292474
H       -0.056724     0.878538    -8.642904
H       -1.867859     0.851620    -8.499757
H       -0.318974    -1.903180    -8.644286
H       -1.290422    -2.575357    -7.278186
H       -2.073024    -1.538626    -8.503791
H       -3.469671    -0.444508    -7.037827
H       -5.981462    -0.918099    -4.314047
H       -7.173635     0.473147    -6.118672
H       -6.368721     1.345474    -4.822963
H       -5.568176     1.231591    -6.462353
H       -6.751781    -2.036001    -6.221909
H       -5.497481    -1.335823    -7.302890
H       -5.031975    -2.554121    -6.100161
H       -5.280878     3.111599    -2.068688
H       -2.337933     2.404080    -1.533828
H       -3.568352     2.787496    -0.263574
H       -3.103700     4.027496    -1.470880
H       -3.128153     2.246704    -4.071883
H       -4.855572     2.660045    -4.394533
H       -3.768974     3.881365    -3.785261
H       -5.986308     1.853448    -0.308483
H       -7.011333    -1.355989     1.387777
H       -5.197578     0.179219     2.282980
H       -6.792799     0.337649     3.103053
H       -6.265297     1.589339     1.926978
H       -8.819476    -0.498345     0.002081
H       -8.285082     1.208234     0.231822
H       -8.932288     0.267990     1.630995
H       -5.929309    -2.398043    -0.341371
H       -3.318266    -2.692654    -3.011234
H       -4.961995    -3.536889    -4.277416
H       -5.262263    -4.691016    -2.999824
H       -6.281347    -3.197338    -3.103148
H       -4.575303    -4.091275    -0.598560
H       -3.025545    -3.160340    -0.564345
H       -3.205764    -4.610466    -1.613615
H       -0.794201    -2.636840    -4.254140
H        1.502624    -4.289972    -5.308839
H        0.960814    -2.861983    -6.266452
H       -0.216410    -4.136795    -5.828635
H        1.582816    -3.947187    -2.779205
H        0.112029    -3.238561    -2.021167
H       -0.008347    -4.697578    -3.074856
H        2.943703    -2.395149    -3.666627
112
ex_0078 frame47 see-saw N-O1-ax
C       -1.367971    -6.639486    -3.414355
C       -1.658850    -5.643834    -2.286133
C       -0.500959    -5.622863    -1.272244
C       -1.901325    -4.243693    -2.819551
C       -3.117258    -3.601194    -2.581404
C       -3.342738    -2.274917    -2.996579
C       -4.688837    -1.636552    -2.657819
C       -5.839061    -2.339499    -3.396225
C       -4.979545    -1.680360    -1.143194
C       -2.305056    -1.583710    -3.713084
C       -2.461811    -0.173380    -4.197664
C       -3.065590     0.221817    -5.430415
C       -3.789298    -0.676899    -6.454717
C       -3.434044    -2.166559    -6.551614
C       -5.301739    -0.464473    -6.235210
C       -3.014069     1.574916    -5.783291
C       -2.517172     2.577731    -4.932228
C       -2.599302     4.030345    -5.410039
C       -1.492332     4.342726    -6.421598
C       -3.977189     4.346890    -6.021251
C       -1.967216     2.205722    -3.680691
C       -1.409540     3.256576    -2.749637
C       -2.242095     3.853020    -1.745190
C       -3.693306     3.433691    -1.507586
C       -4.671005     4.451042    -2.087855
C       -3.981509     3.231441     0.000846
C       -1.718364     4.872321    -0.930698
C       -0.385412     5.260351    -1.003155
C        0.169744     6.316176    -0.060690
C       -0.586535     7.650712    -0.165805
C        0.128799     5.775770     1.373094
C        0.436467     4.665928    -1.954623
C       -0.040744     3.681061    -2.846713
C        0.959078     3.128212    -3.872358
C        1.903366     2.104415    -3.217897
C        1.803887     4.248468    -4.528251
C       -1.956991     0.826452    -3.330569
N       -1.410613     0.552652    -2.069855
N       -2.206038     0.825264    -0.968618
O       -1.945470    -0.017529     0.047890
Co       0.000000     0.000000     0.000000
N        0.000000     0.000000     2.000000
O        0.000000     0.000000     3.208710
N        1.993992    -0.001808    -0.113045
O        2.511196     0.238743     1.114135
O       -0.177232     0.050999    -1.937396
C       -1.072435    -2.257020    -3.978244
C        0.109185    -1.598949    -4.715892
C        0.170079    -2.025014    -6.183966
C        1.455938    -1.893704    -4.026692
C       -0.917410    -3.585341    -3.550344
H       -1.286986    -7.667282    -3.002530
H       -2.187893    -6.617134    -4.162280
H       -0.412607    -6.395054    -3.926765
H       -2.569197    -5.987166    -1.747282
H        0.464444    -5.376549    -1.765461
H       -0.691646    -4.862398    -0.483887
H       -0.397965    -6.613828    -0.782144
H       -3.879670    -4.129000    -2.023609
H       -4.664329    -0.574014    -2.972286
H       -6.018393    -3.360812    -3.004662
H       -5.608253    -2.454800    -4.469990
H       -6.771941    -1.743424    -3.291161
H       -5.904784    -1.111673    -0.910215
H       -4.142403    -1.254713    -0.559148
H       -5.144188    -2.724193    -0.794316
H       -3.581107    -0.323032    -7.489965
H       -4.078361    -2.642019    -7.322104
H       -3.560969    -2.735849    -5.621676
H       -2.416001    -2.293028    -6.937877
H       -5.907537    -1.261635    -6.717896
H       -5.550928    -0.419002    -5.160113
H       -5.623536     0.510326    -6.653593
H       -3.447558     1.855254    -6.730088
H       -2.482729     4.729908    -4.555191
H       -1.713288     5.261417    -7.003392
H       -1.315457     3.497300    -7.119299
H       -0.562365     4.528412    -5.875497
H       -4.111187     3.866868    -7.012073
H       -4.793986     4.012321    -5.350833
H       -4.071372     5.441104    -6.180496
H       -3.886185     2.470915    -2.020513
H       -4.539938     5.447645    -1.617921
H       -4.500089     4.547758    -3.174440
H       -5.714222     4.103879    -1.929641
H       -4.006290     4.198432     0.547444
H       -3.207691     2.601686     0.484536
H       -4.972109     2.757203     0.148393
H       -2.338619     5.345241    -0.187440
H        1.238194     6.513429    -0.302533
H       -1.666433     7.526057     0.061218
H       -0.485893     8.071585    -1.188296
H       -0.171610     8.384438     0.558157
H        0.626784     6.486345     2.065356
H       -0.915632     5.616595     1.714743
H        0.670758     4.805962     1.421408
H        1.467651     4.984639    -1.992982
H        0.423876     2.620742    -4.702637
H        1.461810     1.095259    -3.281591
H        2.881975     2.050445    -3.740000
H        2.095503     2.349803    -2.150549
H        2.349987     3.836414    -5.404151
H        1.188391     5.101326    -4.867638
H        2.565717     4.656833    -3.834430
H        0.018319    -0.493869    -4.704322
H        1.157730    -1.801743    -6.633873
H       -0.554808    -1.421326    -6.758952
H       -0.042733    -3.110949    -6.298169
H        1.759035    -2.954642    -4.135081
H        1.415986    -1.637398    -2.949560
H        2.255121    -1.285537    -4.500570
H        0.005283    -4.109131    -3.731620
112
ex_0078 frame48 see-saw N-O2-ax-conf13
C       -3.422726     0.031601     6.352782
C       -2.595656     0.799867     5.327721
C       -1.100803     0.627384     5.638423
C       -3.046074     0.395467     3.914893
C       -3.562063     1.372014     3.074531
C       -3.988476     1.092288     1.763535
C       -4.452700     2.287012     0.919278
C       -5.832924     2.792213     1.342081
C       -3.418710     3.432752     0.967919
C       -3.973038    -0.254629     1.272656
C       -4.560421    -0.420690    -0.115672
C       -5.946046    -0.676122    -0.290121
C       -6.950492    -0.711125     0.877117
C       -7.313544    -2.126529     1.328690
C       -8.246289     0.052164     0.519281
C       -6.440220    -0.909478    -1.577959
C       -5.658298    -0.814615    -2.732728
C       -6.417955    -1.000795    -4.061528
C       -6.413748     0.251201    -4.946031
C       -5.951428    -2.212321    -4.853990
C       -4.271389    -0.542319    -2.589984
C       -3.294259    -0.467369    -3.700718
C       -3.042281     0.806160    -4.302440
C       -3.715626     2.106708    -3.840768
C       -2.755951     2.856018    -2.897957
C       -4.099054     3.042832    -5.003687
C       -2.137521     0.876410    -5.365762
C       -1.477251    -0.250275    -5.842535
C       -0.538356    -0.139290    -7.019841
C       -1.358871     0.277532    -8.251194
C        0.604705     0.847858    -6.757818
C       -1.687393    -1.483011    -5.226952
C       -2.604734    -1.629478    -4.174031
C       -2.817832    -3.033562    -3.586845
C       -1.645646    -3.416682    -2.666967
C       -2.982333    -4.105902    -4.682953
C       -3.722637    -0.294328    -1.289462
N       -2.345466     0.086694    -1.132801
N       -1.447671     0.230485    -2.193358
O       -0.169993    -0.153157    -1.932817
Co       0.000000     0.000000     0.000000
N        0.000000     0.000000     2.000000
O        0.000000     0.000000     3.169552
N        1.967384    -0.331260    -0.136048
O        2.521511    -0.171562     1.086737
O       -1.918132     0.310442     0.088679
C       -3.413120    -1.283264     2.129337
C       -3.225220    -2.790135     1.824844
C       -1.726516    -3.045217     1.590955
C       -4.016798    -3.450791     0.687216
C       -2.962168    -0.914801     3.429242
H       -3.207041     0.415234     7.372348
H       -3.180891    -1.051595     6.318486
H       -4.502397     0.174974     6.140485
H       -2.808253     1.881509     5.479284
H       -0.493813     1.308830     5.008384
H       -0.886394     0.930017     6.685910
H       -0.777485    -0.429448     5.517813
H       -3.590324     2.385679     3.443611
H       -4.503575     2.018877    -0.156461
H       -6.579653     2.294701     0.715207
H       -6.055686     2.561884     2.405366
H       -5.956418     3.878888     1.162699
H       -3.404326     3.941592     1.953731
H       -2.399382     3.058328     0.736674
H       -3.683108     4.205775     0.214575
H       -6.526903    -0.171307     1.749492
H       -7.443423    -2.798112     0.450334
H       -6.526775    -2.505909     2.004692
H       -8.248533    -2.138060     1.923814
H       -8.042463     1.009260     0.010101
H       -8.902094    -0.535972    -0.152573
H       -8.822696     0.260759     1.445363
H       -7.496631    -1.083711    -1.696983
H       -7.489128    -1.186340    -3.829163
H       -6.744104     1.143135    -4.372051
H       -5.416523     0.428305    -5.379726
H       -7.112560     0.113501    -5.798881
H       -6.652489    -2.413672    -5.689957
H       -4.962854    -2.012920    -5.297593
H       -5.915488    -3.106666    -4.196715
H       -4.643533     1.884800    -3.275602
H       -3.138367     3.865821    -2.648634
H       -1.748112     2.958141    -3.359153
H       -2.653926     2.324780    -1.935928
H       -4.626018     2.496546    -5.809697
H       -4.757170     3.854082    -4.632008
H       -3.200700     3.529842    -5.441770
H       -1.916006     1.825461    -5.822825
H       -0.094300    -1.137564    -7.228042
H       -2.210020    -0.425355    -8.394205
H       -0.732061     0.262262    -9.164717
H       -1.778831     1.299588    -8.126232
H        1.313271     0.837728    -7.611808
H        0.222920     1.884301    -6.638690
H        1.151446     0.563047    -5.834286
H       -1.131470    -2.339129    -5.581875
H       -3.739465    -3.058083    -2.970257
H       -1.719885    -4.483692    -2.360380
H       -1.662924    -2.799497    -1.745981
H       -0.668330    -3.269148    -3.174311
H       -2.013571    -4.333917    -5.175276
H       -3.691079    -3.784634    -5.468287
H       -3.363868    -5.048013    -4.238206
H       -3.521407    -3.364699     2.733960
H       -1.530330    -4.134700     1.486295
H       -1.390080    -2.530799     0.667078
H       -1.113916    -2.684460     2.442536
H       -3.705544    -4.514243     0.590371
H       -5.082981    -3.505550     0.924308
H       -3.863965    -2.970194    -0.291510
H       -2.534382    -1.667917     4.081180
112
ex_0078 frame49 see-saw N-O2-ax-conf15
C       -3.427241     0.030065     6.353452
C       -2.600515     0.800464     5.329700
C       -1.106060     0.632049     5.644560
C       -3.048216     0.395424     3.915544
C       -3.563764     1.371497     3.074293
C       -3.989364     1.091445     1.762897
C       -4.452888     2.286446     0.918437
C       -5.832293     2.792934     1.342203
C       -3.418173     3.431729     0.966831
C       -3.973805    -0.255662     1.272009
C       -4.561777    -0.422262    -0.116253
C       -5.947442    -0.676791    -0.290947
C       -6.951064    -0.710796     0.876719
C       -7.313783    -2.125883     1.329437
C       -8.246952     0.052210     0.519247
C       -6.442025    -0.910017    -1.578893
C       -5.660293    -0.815676    -2.733916
C       -6.419880    -1.001417    -4.062873
C       -6.414894     0.250810    -4.946964
C       -5.953162    -2.212921    -4.855505
C       -4.273100    -0.544179    -2.591056
C       -3.295250    -0.468835    -3.701978
C       -3.043058     0.805091    -4.303383
C       -3.716441     2.105626    -3.841477
C       -2.756513     2.854258    -2.898382
C       -4.100196     3.042655    -5.003779
C       -2.137992     0.875829    -5.366674
C       -1.477356    -0.250633    -5.843683
C       -0.537646    -0.139298    -7.020566
C       -1.357490     0.277561    -8.252318
C        0.605473     0.847715    -6.758104
C       -1.687901    -1.483615    -5.228672
C       -2.605322    -1.630462    -4.175729
C       -2.818485    -3.034396    -3.588540
C       -1.646211    -3.416447    -2.668361
C       -2.982666    -4.107338    -4.683853
C       -3.723861    -0.297327    -1.289053
N       -2.342899     0.081652    -1.132543
N       -1.449519     0.218874    -2.193713
O       -0.169212    -0.155886    -1.932637
Co       0.000000     0.000000     0.000000
N        0.000000     0.000000     2.000000
O        0.000000     0.000000     3.186401
N        1.963572    -0.326717    -0.147691
O        2.524287    -0.146469     1.094059
O       -1.921752     0.303702     0.061737
C       -3.413074    -1.283605     2.129094
C       -3.224164    -2.790244     1.824312
C       -1.725391    -3.045176     1.590756
C       -4.015104    -3.450634     0.686056
C       -2.962387    -0.914686     3.429311
H       -3.212747     0.413000     7.373603
H       -3.183517    -1.052692     6.318491
H       -4.506925     0.172061     6.140682
H       -2.815878     1.881550     5.481299
H       -0.499257     1.316234     5.017141
H       -0.895171     0.934191     6.692910
H       -0.779577    -0.423876     5.524606
H       -3.593208     2.385126     3.443312
H       -4.504626     2.018247    -0.157314
H       -6.580138     2.292787     0.718965
H       -6.052756     2.566824     2.406856
H       -5.956374     3.878894     1.158795
H       -3.402134     3.939873     1.952996
H       -2.399280     3.057242     0.733894
H       -3.683207     4.205625     0.214578
H       -6.526686    -0.170620     1.748461
H       -7.446763    -2.797470     0.451555
H       -6.525545    -2.505909     2.003305
H       -8.246977    -2.136362     1.927334
H       -8.043372     1.009762     0.010803
H       -8.902431    -0.535683    -0.153074
H       -8.823464     0.259763     1.445464
H       -7.498526    -1.083439    -1.698014
H       -7.491214    -1.186720    -3.830900
H       -6.745529     1.142492    -4.372747
H       -5.417322     0.427949    -5.379705
H       -7.112934     0.113622    -5.800552
H       -6.653336    -2.413759    -5.692352
H       -4.964085    -2.013963    -5.298141
H       -5.918029    -3.107511    -4.198531
H       -4.644047     1.883585    -3.275926
H       -3.140472     3.863111    -2.646889
H       -1.749521     2.959439    -3.360558
H       -2.651931     2.320505    -1.937870
H       -4.629774     2.497491    -5.808809
H       -4.756032     3.855300    -4.630991
H       -3.201914     3.528185    -5.443651
H       -1.915866     1.825160    -5.823042
H       -0.093347    -1.137446    -7.228913
H       -2.207858    -0.426048    -8.396352
H       -0.729974     0.263227    -9.165398
H       -1.778383     1.299194    -8.127164
H        1.313682     0.838405    -7.612466
H        0.223779     1.884045    -6.637889
H        1.152762     0.561961    -5.835201
H       -1.131307    -2.339405    -5.583344
H       -3.739965    -3.058840    -2.971778
H       -1.721858    -4.482479    -2.358880
H       -1.662141    -2.796998    -1.748865
H       -0.668980    -3.271472    -3.176586
H       -2.014273    -4.333477    -5.177715
H       -3.693596    -3.787708    -5.467879
H       -3.361378    -5.049997    -4.237885
H       -3.520951    -3.364731     2.733210
H       -1.529168    -4.134623     1.485722
H       -1.388851    -2.530532     0.666992
H       -1.113035    -2.684499     2.442534
H       -3.705068    -4.514540     0.590379
H       -5.081784    -3.503483     0.921271
H       -3.860064    -2.970944    -0.292753
H       -2.534792    -1.667641     4.081479
112
ex_0078 frame50 see-saw N-O2-ax-conf14
C       -3.416887     0.034595     6.347771
C       -2.587369     0.801298     5.324110
C       -1.093311     0.628191     5.638539
C       -3.040072     0.394518     3.913008
C       -3.554890     1.370218     3.071699
C       -3.985232     1.088393     1.762757
C       -4.449861     2.282715     0.918763
C       -5.833518     2.782855     1.337668
C       -3.419593     3.432519     0.970392
C       -3.973016    -0.259736     1.273396
C       -4.564053    -0.425450    -0.114666
C       -5.948365    -0.675644    -0.290925
C       -6.950044    -0.710394     0.875860
C       -7.309037    -2.128517     1.322170
C       -8.243486     0.055675     0.519751
C       -6.443417    -0.903632    -1.579496
C       -5.660282    -0.812193    -2.733665
C       -6.418348    -0.995206    -4.062672
C       -6.413138     0.255432    -4.949219
C       -5.949615    -2.208634    -4.851155
C       -4.273398    -0.545090    -2.589239
C       -3.294212    -0.469805    -3.698008
C       -3.041387     0.803454    -4.299439
C       -3.712527     2.104459    -3.839060
C       -2.749315     2.848897    -2.895232
C       -4.091089     3.040653    -5.003790
C       -2.137192     0.874516    -5.362368
C       -1.477091    -0.251244    -5.839012
C       -0.541006    -0.139070    -7.017389
C       -1.365657     0.278306    -8.246228
C        0.600936     0.849705    -6.756946
C       -1.684883    -1.483763    -5.222311
C       -2.603134    -1.630847    -4.170310
C       -2.814735    -3.034851    -3.583744
C       -1.642461    -3.421120    -2.664070
C       -2.980010    -4.102278    -4.683864
C       -3.726038    -0.302384    -1.287947
N       -2.349901     0.070545    -1.127087
N       -1.452584     0.221971    -2.186626
O       -0.171897    -0.154850    -1.932448
Co       0.000000     0.000000     0.000000
N        0.000000     0.000000     2.000000
O        0.000000     0.000000     3.175464
N        1.973776    -0.298796    -0.132351
O        2.524621    -0.100320     1.083423
O       -1.920574     0.279416     0.097433
C       -3.412715    -1.286939     2.131493
C       -3.226560    -2.794145     1.830101
C       -1.728202    -3.047829     1.592504
C       -4.023318    -3.457683     0.697946
C       -2.959427    -0.916664     3.429979
H       -3.208140     0.423332     7.366590
H       -3.170555    -1.047803     6.318389
H       -4.495902     0.172426     6.128241
H       -2.799232     1.883410     5.473185
H       -0.484024     1.308431     5.009469
H       -0.880605     0.933023     6.685578
H       -0.770996    -0.429446     5.521136
H       -3.579153     2.384776     3.438514
H       -4.494461     2.013631    -0.157001
H       -6.574644     2.309209     0.685294
H       -6.071517     2.521235     2.390654
H       -5.949899     3.875180     1.191695
H       -3.416633     3.946727     1.953741
H       -2.396561     3.060615     0.751437
H       -3.679329     4.201292     0.211068
H       -6.526476    -0.171485     1.748961
H       -7.413588    -2.802782     0.442221
H       -6.530078    -2.499465     2.012479
H       -8.255771    -2.149946     1.897485
H       -8.035694     1.007580     0.002114
H       -8.904186    -0.535012    -0.144884
H       -8.813114     0.274976     1.447374
H       -7.500466    -1.073755    -1.698633
H       -7.489482    -1.179992    -3.830079
H       -6.738812     1.149483    -4.375860
H       -5.416939     0.429635    -5.387208
H       -7.116155     0.117483    -5.798555
H       -6.653500    -2.417819    -5.682448
H       -4.963298    -2.007288    -5.299622
H       -5.905488    -3.099204    -4.189169
H       -4.642229     1.884961    -3.276072
H       -3.119604     3.865078    -2.653982
H       -1.737900     2.936785    -3.352228
H       -2.656607     2.319838    -1.930456
H       -4.598778     2.490274    -5.819712
H       -4.765123     3.841832    -4.639262
H       -3.191952     3.539426    -5.427423
H       -1.916328     1.823955    -5.819313
H       -0.097482    -1.137517    -7.225465
H       -2.222396    -0.419257    -8.382484
H       -0.744161     0.256945    -9.163055
H       -1.779333     1.303157    -8.122006
H        1.312992     0.834341    -7.607754
H        0.217979     1.886743    -6.646008
H        1.143228     0.571592    -5.828731
H       -1.128319    -2.339875    -5.576568
H       -3.737141    -3.061016    -2.968369
H       -1.704162    -4.494433    -2.377358
H       -1.671641    -2.821658    -1.731803
H       -0.663881    -3.252285    -3.162460
H       -2.007757    -4.342277    -5.163647
H       -3.673160    -3.767695    -5.477858
H       -3.382121    -5.039039    -4.246212
H       -3.517397    -3.367755     2.741431
H       -1.531280    -4.137475     1.491796
H       -1.393949    -2.536189     0.666559
H       -1.114019    -2.683717     2.441620
H       -3.703912    -4.517722     0.593167
H       -5.086125    -3.523224     0.948780
H       -3.885825    -2.973267    -0.281054
H       -2.530892    -1.668821     4.082400
112
ex_0078 frame51 see-saw N-O2-ax-conf20
C       -1.360940    -0.838992     5.469609
C       -2.542349     0.157474     5.274091
C       -3.665467    -0.234108     6.233998
C       -3.093311     0.216907     3.843268
C       -3.447308    -0.966385     3.202701
C       -3.918188    -0.986704     1.881484
C       -4.211159    -2.339836     1.256822
C       -5.415835    -3.007310     1.928122
C       -2.980497    -3.268557     1.344439
C       -4.108821     0.241682     1.164954
C       -4.647108     0.263761    -0.272878
C       -6.048402     0.358125    -0.526952
C       -7.067558     0.445939     0.600461
C       -7.930835    -0.816580     0.658285
C       -7.967622     1.689043     0.445544
C       -6.521808     0.371984    -1.845414
C       -5.659666     0.404690    -2.943717
C       -6.245259     0.580747    -4.352686
C       -6.824677    -0.701604    -4.945463
C       -7.302968     1.696107    -4.364240
C       -4.273593     0.276354    -2.720931
C       -3.278073     0.222782    -3.803601
C       -2.793163    -1.012834    -4.356953
C       -3.122919    -2.463500    -3.910388
C       -1.967108    -2.938265    -3.006088
C       -4.450783    -2.800989    -3.223849
C       -1.907216    -0.939266    -5.439445
C       -1.413164     0.277776    -5.913577
C       -0.353945     0.308430    -6.992137
C        0.874501    -0.504922    -6.550185
C       -0.929738    -0.202928    -8.313433
C       -1.900475     1.469266    -5.388356
C       -2.784111     1.471571    -4.302454
C       -3.179072     2.833489    -3.699318
C       -4.206667     3.614867    -4.524990
C       -1.929109     3.705444    -3.437920
C       -3.747803     0.191120    -1.400760
N       -2.333509     0.034544    -1.198023
N       -1.419579     0.052176    -2.271881
O       -0.103160     0.005177    -1.942749
Co       0.000000     0.000000     0.000000
N        0.000000     0.000000     2.000000
O        0.000000     0.000000     3.186401
N        1.990102     0.133674    -0.101555
O        2.512017     0.088721     1.140850
O       -1.939056    -0.126790     0.051742
C       -3.781496     1.471572     1.828197
C       -3.995287     2.818741     1.123353
C       -5.196811     3.550565     1.740111
C       -2.752210     3.728771     1.095302
C       -3.255624     1.433106     3.148205
H       -1.119469    -1.420490     4.561021
H       -1.601147    -1.638690     6.202011
H       -0.459907    -0.314468     5.859116
H       -2.197202     1.171542     5.579056
H       -4.056589    -1.242063     5.977344
H       -4.488521     0.505747     6.179697
H       -3.276598    -0.261738     7.275414
H       -3.316149    -1.896117     3.738391
H       -4.451676    -2.178368     0.189880
H       -5.835988    -3.784350     1.254060
H       -6.189267    -2.255472     2.162747
H       -5.152282    -3.462392     2.902705
H       -2.825903    -3.624868     2.388624
H       -3.117039    -4.165712     0.708590
H       -2.054488    -2.738696     1.036654
H       -6.522823     0.533718     1.559064
H       -7.305471    -1.712296     0.507107
H       -8.448224    -0.876156     1.639675
H       -8.676023    -0.843147    -0.160161
H       -8.507109     1.901004     1.391255
H       -7.374657     2.579995     0.157692
H       -8.728107     1.534664    -0.351590
H       -7.584085     0.455113    -2.013062
H       -5.451146     0.927886    -5.045192
H       -7.438807    -0.484697    -5.842086
H       -5.998534    -1.340487    -5.303808
H       -7.446761    -1.237585    -4.195505
H       -7.461292     2.044839    -5.407076
H       -8.270503     1.341226    -3.959494
H       -6.991005     2.556888    -3.747705
H       -3.101739    -3.120476    -4.809174
H       -1.983765    -2.419858    -2.026969
H       -0.979491    -2.775285    -3.487217
H       -2.062264    -4.026245    -2.799126
H       -4.614900    -2.239639    -2.290022
H       -5.292789    -2.672339    -3.907696
H       -4.461596    -3.880057    -2.958572
H       -1.495424    -1.855409    -5.841802
H       -0.007297     1.354594    -7.151393
H        1.205744    -0.185100    -5.537623
H        1.713570    -0.340582    -7.257778
H        0.654996    -1.592900    -6.522881
H       -1.713770     0.503036    -8.664623
H       -1.393407    -1.204166    -8.184764
H       -0.138337    -0.270373    -9.086645
H       -1.489452     2.398006    -5.757180
H       -3.603693     2.682768    -2.683550
H       -5.179489     3.545378    -4.019991
H       -3.982046     4.700060    -4.570477
H       -4.302786     3.215408    -5.556003
H       -1.490721     4.092618    -4.381551
H       -1.153837     3.140238    -2.879910
H       -2.210629     4.595161    -2.831743
H       -4.275446     2.635730     0.068341
H       -4.897199     4.280208     2.518207
H       -5.916891     2.830836     2.184614
H       -5.737027     4.099662     0.937499
H       -2.389525     3.946699     2.123153
H       -1.926880     3.260513     0.520906
H       -3.001909     4.704823     0.624167
H       -2.992944     2.355874     3.649026
112
ex_0078 frame52 see-saw N-O2-ax-conf19
C       -1.345842    -0.836593     5.466147
C       -2.527171     0.159927     5.269561
C       -3.648085    -0.236782     6.229321
C       -3.080793     0.219231     3.840261
C       -3.436474    -0.963748     3.202179
C       -3.908457    -0.984603     1.882275
C       -4.202176    -2.337847     1.259790
C       -5.419965    -2.996340     1.917669
C       -2.975474    -3.271445     1.364398
C       -4.099858     0.243626     1.164126
C       -4.640138     0.262222    -0.272422
C       -6.041400     0.360959    -0.527376
C       -7.060063     0.452975     0.598993
C       -7.912711    -0.816674     0.666330
C       -7.968411     1.690058     0.436555
C       -6.514372     0.375282    -1.845122
C       -5.650554     0.405157    -2.941593
C       -6.234193     0.579310    -4.349753
C       -6.814699    -0.705993    -4.935307
C       -7.286695     1.699089    -4.363113
C       -4.265151     0.273268    -2.717925
C       -3.270675     0.223248    -3.799442
C       -2.786654    -1.012287    -4.353525
C       -3.116495    -2.464005    -3.909241
C       -1.964609    -2.943758    -3.002031
C       -4.448403    -2.802859    -3.232395
C       -1.901370    -0.936669    -5.434866
C       -1.408122     0.281209    -5.907333
C       -0.351907     0.310934    -6.986247
C        0.873849    -0.506141    -6.544970
C       -0.935403    -0.199899    -8.304955
C       -1.892978     1.472281    -5.380657
C       -2.777001     1.473007    -4.296373
C       -3.173097     2.833594    -3.692409
C       -4.210449     3.605745    -4.514937
C       -1.926894     3.713986    -3.439741
C       -3.740776     0.178176    -1.396484
N       -2.329711    -0.000110    -1.188276
N       -1.417661     0.015472    -2.265846
O       -0.100988     0.003082    -1.942574
Co       0.000000     0.000000     0.000000
N        0.000000     0.000000     2.000000
O        0.000000     0.000000     3.175464
N        1.987718     0.185944    -0.106096
O        2.508494     0.093050     1.140903
O       -1.933914    -0.176300     0.039322
C       -3.771410     1.473322     1.825149
C       -3.985023     2.820906     1.120700
C       -5.199237     3.540998     1.728503
C       -2.747272     3.739439     1.102968
C       -3.243808     1.435112     3.144413
H       -1.085613    -1.401786     4.554156
H       -1.600750    -1.658342     6.167647
H       -0.456860    -0.319375     5.892324
H       -2.181323     1.175053     5.570660
H       -4.039818    -1.242527     5.963619
H       -4.471360     0.502832     6.182359
H       -3.256317    -0.276146     7.268965
H       -3.303331    -1.892860     3.738044
H       -4.428336    -2.173904     0.190170
H       -5.858492    -3.747235     1.226038
H       -6.177609    -2.233424     2.171433
H       -5.166816    -3.480393     2.881033
H       -2.850061    -3.645672     2.406518
H       -3.092932    -4.156748     0.709140
H       -2.039710    -2.737191     1.095335
H       -6.511342     0.550697     1.553993
H       -7.282547    -1.706106     0.494824
H       -8.407996    -0.888849     1.657982
H       -8.674401    -0.844912    -0.136868
H       -8.482821     1.927498     1.389936
H       -7.387323     2.574156     0.106675
H       -8.748777     1.513896    -0.336802
H       -7.576835     0.460389    -2.014079
H       -5.439771     0.922922    -5.043486
H       -7.451774    -0.493471    -5.816334
H       -5.988913    -1.335308    -5.312545
H       -7.412987    -1.252014    -4.172886
H       -7.421472     2.066997    -5.402681
H       -8.262734     1.340785    -3.982440
H       -6.982436     2.547966    -3.725529
H       -3.089352    -3.119749    -4.808634
H       -1.985707    -2.434741    -2.018192
H       -0.974782    -2.777683    -3.477816
H       -2.060306    -4.033361    -2.804000
H       -4.623407    -2.237400    -2.302895
H       -5.282962    -2.680683    -3.926584
H       -4.458215    -3.880436    -2.961690
H       -1.488841    -1.851985    -5.837997
H       -0.001729     1.356203    -7.144302
H        1.192144    -0.204625    -5.522429
H        1.720254    -0.324157    -7.239113
H        0.657160    -1.594954    -6.541241
H       -1.704064     0.518937    -8.664062
H       -1.423240    -1.188794    -8.167731
H       -0.145091    -0.295081    -9.075682
H       -1.481766     2.401488    -5.748286
H       -3.590262     2.679695    -2.673975
H       -5.175171     3.555390    -3.991188
H       -3.976374     4.686954    -4.592281
H       -4.327662     3.184237    -5.535154
H       -1.503668     4.109765    -4.386970
H       -1.139594     3.151299    -2.896100
H       -2.207174     4.598073    -2.824955
H       -4.254208     2.641315     0.061629
H       -4.911334     4.320178     2.461398
H       -5.889241     2.822262     2.220467
H       -5.772220     4.033405     0.912428
H       -2.378415     3.941142     2.131654
H       -1.922910     3.288234     0.513762
H       -3.005722     4.723045     0.652662
H       -2.980542     2.357863     3.644514
112
ex_0078 frame53 see-saw N-O2-ax-conf21
C       -1.357797    -0.838269     5.468300
C       -2.539253     0.158125     5.272558
C       -3.661721    -0.234610     6.232584
C       -3.091560     0.217566     3.842403
C       -3.445714    -0.965628     3.202183
C       -3.917514    -0.985876     1.881454
C       -4.209647    -2.338914     1.256791
C       -5.416795    -3.005067     1.925058
C       -2.979245    -3.268133     1.347925
C       -4.109671     0.242148     1.165348
C       -4.650356     0.268513    -0.272159
C       -6.050308     0.360017    -0.527435
C       -7.068445     0.446936     0.599847
C       -7.928513    -0.817366     0.660061
C       -7.969319     1.688967     0.443335
C       -6.522755     0.371773    -1.846057
C       -5.659731     0.405168    -2.943744
C       -6.244105     0.579578    -4.352815
C       -6.823834    -0.703293    -4.944104
C       -7.300339     1.696174    -4.364758
C       -4.273887     0.280666    -2.720365
C       -3.277702     0.223514    -3.802708
C       -2.792013    -1.011787    -4.355780
C       -3.121061    -2.462479    -3.909458
C       -1.965875    -2.936425    -3.004169
C       -4.449866    -2.800615    -3.225282
C       -1.905780    -0.938083    -5.437846
C       -1.412289     0.278931    -5.912294
C       -0.353540     0.309090    -6.990921
C        0.874326    -0.505058    -6.548959
C       -0.930805    -0.202359    -8.311670
C       -1.899683     1.470357    -5.387388
C       -2.783596     1.472437    -4.301736
C       -3.178878     2.834033    -3.698844
C       -4.208588     3.613530    -4.523589
C       -1.929455     3.707473    -3.439221
C       -3.749829     0.204745    -1.398166
N       -2.336374     0.066844    -1.195266
N       -1.424746     0.071679    -2.264612
O       -0.109387     0.007353    -1.942252
Co       0.000000     0.000000     0.000000
N        0.000000     0.000000     2.000000
O        0.000000     0.000000     3.183496
N        1.991273     0.065820    -0.139958
O        2.517379     0.085349     1.116121
O       -1.942814    -0.063950     0.043766
C       -3.781415     1.472453     1.828134
C       -3.994916     2.819714     1.123268
C       -5.198652     3.549597     1.737634
C       -2.752119     3.730829     1.097065
C       -3.254894     1.433879     3.147747
H       -1.111618    -1.415647     4.558765
H       -1.601626    -1.643412     6.193324
H       -0.459733    -0.315372     5.867005
H       -2.193966     1.172489     5.576456
H       -4.052911    -1.242123     5.973898
H       -4.484924     0.505097     6.179869
H       -3.272155    -0.264777     7.273571
H       -3.312643    -1.895319     3.737281
H       -4.446954    -2.176649     0.189246
H       -5.840786    -3.776536     1.247097
H       -6.186935    -2.250881     2.163924
H       -5.155193    -3.466207     2.897320
H       -2.830844    -3.628630     2.391703
H       -3.111414    -4.163005     0.707993
H       -2.051275    -2.736667     1.048365
H       -6.522831     0.537102     1.557601
H       -7.301483    -1.711433     0.504480
H       -8.440539    -0.879593     1.643962
H       -8.677211    -0.844508    -0.155065
H       -8.502891     1.906482     1.390963
H       -7.377976     2.578201     0.146651
H       -8.733908     1.530068    -0.348911
H       -7.584725     0.454636    -2.014469
H       -5.449678     0.925862    -5.045464
H       -7.442770    -0.487185    -5.837512
H       -5.997751    -1.340285    -5.306348
H       -7.440975    -1.241344    -4.191470
H       -7.453670     2.049167    -5.406875
H       -8.269814     1.340893    -3.965011
H       -6.989627     2.554325    -3.743700
H       -3.098418    -3.119626    -4.808137
H       -1.982783    -2.416631    -2.025636
H       -0.978113    -2.774002    -3.485200
H       -2.061158    -4.024530    -2.797317
H       -4.616656    -2.238463    -2.292440
H       -5.290210    -2.673508    -3.911569
H       -4.460281    -3.879388    -2.958939
H       -1.493589    -1.854132    -5.840088
H       -0.006075     1.355020    -7.150054
H        1.202694    -0.189178    -5.534176
H        1.715083    -0.336936    -7.253614
H        0.655459    -1.593276    -6.526787
H       -1.711468     0.506403    -8.664744
H       -1.399741    -1.200957    -8.181020
H       -0.139499    -0.275902    -9.084301
H       -1.488768     2.399140    -5.756372
H       -3.601736     2.682520    -2.682487
H       -5.179564     3.548264    -4.014163
H       -3.981645     4.697886    -4.575878
H       -4.309642     3.209252    -5.552301
H       -1.494244     4.096597    -4.383571
H       -1.151657     3.142443    -2.884507
H       -2.210463     4.595823    -2.830874
H       -4.272445     2.637357     0.067270
H       -4.900818     4.289677     2.506384
H       -5.912528     2.829816     2.192179
H       -5.745718     4.086657     0.931685
H       -2.387793     3.945252     2.125006
H       -1.927110     3.265900     0.519429
H       -3.003056     4.708721     0.630335
H       -2.990969     2.356519     3.647952
112
ex_0078 frame54 see-saw N-O2-ax
C       -3.621999     6.624076    -0.669502
C       -2.567772     5.635450    -1.180127
C       -1.348596     5.616468    -0.240108
C       -3.125836     4.230650    -1.327061
C       -3.119893     3.599344    -2.571839
C       -3.558254     2.271107    -2.728701
C       -3.488039     1.650465    -4.122311
C       -4.478907     2.339005    -5.072150
C       -2.078772     1.748982    -4.748648
C       -4.049377     1.557213    -1.581369
C       -4.536161     0.135914    -1.623665
C       -5.880774    -0.238454    -1.950872
C       -7.027244     0.669940    -2.451745
C       -7.070541     2.154248    -2.064673
C       -7.122065     0.470020    -3.978463
C       -6.239470    -1.583703    -1.813062
C       -5.321211    -2.598631    -1.501494
C       -5.826831    -4.042111    -1.469629
C       -6.601714    -4.345992    -0.185306
C       -6.697538    -4.347096    -2.703763
C       -3.979462    -2.248127    -1.229168
C       -2.960650    -3.285634    -0.849575
C       -2.132284    -3.869196    -1.856660
C       -2.179926    -3.431005    -3.318974
C       -2.954865    -4.431539    -4.172937
C       -0.758867    -3.226454    -3.887959
C       -1.233294    -4.887705    -1.502385
C       -1.052311    -5.278840    -0.180045
C       -0.017972    -6.329181     0.180844
C       -0.266094    -7.661785    -0.544005
C        1.376849    -5.779767    -0.138760
C       -1.834207    -4.692816     0.810097
C       -2.798096    -3.706972     0.512493
C       -3.614742    -3.149129     1.687034
C       -2.783201    -2.119497     2.475545
C       -4.094762    -4.259549     2.652782
C       -3.592948    -0.891396    -1.315311
N       -2.326935    -0.342917    -1.131806
N       -1.516887    -0.031499    -2.197263
O       -0.172455    -0.004786    -1.938999
Co       0.000000     0.000000     0.000000
N        0.000000     0.000000     2.000000
O        0.000000     0.000000     3.208710
N        1.989020     0.167870    -0.125181
O        2.524002    -0.469553     0.954692
O       -1.937492    -0.135240     0.090659
C       -4.084885     2.223840    -0.310239
C       -4.578615     1.564314     0.994206
C       -6.003937     2.005728     1.346067
C       -3.644008     1.860627     2.185586
C       -3.647832     3.557384    -0.228813
H       -3.208145     7.654588    -0.673755
H       -4.519253     6.596487    -1.322069
H       -3.929987     6.379149     0.369937
H       -2.217536     5.985892    -2.175595
H       -1.646311     5.375700     0.803812
H       -0.613325     4.852734    -0.575121
H       -0.845520     6.606341    -0.238619
H       -2.732098     4.141429    -3.423404
H       -3.764981     0.579871    -4.039430
H       -4.151307     3.365134    -5.333373
H       -5.472477     2.443485    -4.602732
H       -4.578649     1.741343    -6.004323
H       -2.037779     1.165846    -5.691759
H       -1.283397     1.382751    -4.082003
H       -1.820831     2.801418    -4.993049
H       -8.002639     0.307320    -2.053073
H       -7.949561     2.628719    -2.552769
H       -6.182275     2.733955    -2.348200
H       -7.276133     2.267761    -0.994998
H       -7.696963     1.284625    -4.470303
H       -6.120945     0.396199    -4.440095
H       -7.627237    -0.488900    -4.212852
H       -7.262264    -1.850597    -2.029519
H       -4.973628    -4.751309    -1.528029
H       -7.243815    -5.244123    -0.294526
H       -7.220228    -3.484092     0.141853
H       -5.882621    -4.566600     0.608998
H       -7.692108    -3.860235    -2.639377
H       -6.196909    -4.009278    -3.633881
H       -6.876936    -5.439868    -2.773846
H       -2.700654    -2.456746    -3.396125
H       -2.481707    -5.434996    -4.144238
H       -3.988175    -4.519011    -3.790264
H       -3.003140    -4.076860    -5.224132
H       -0.230726    -4.194913    -4.027031
H       -0.149957    -2.593084    -3.208630
H       -0.804412    -2.745861    -4.885540
H       -0.616838    -5.351502    -2.253998
H       -0.046862    -6.527123     1.275776
H       -0.262430    -7.532441    -1.647024
H       -1.246724    -8.086576    -0.242258
H        0.529238    -8.392893    -0.286180
H        2.157049    -6.482544     0.219926
H        1.509502    -5.624794    -1.230265
H        1.521165    -4.805526     0.378023
H       -1.672952    -5.008477     1.830442
H       -4.531485    -2.640522     1.320596
H       -2.943351    -1.107654     2.060885
H       -3.080821    -2.075494     3.545001
H       -1.697717    -2.355751     2.434591
H       -4.850652    -3.841493     3.352340
H       -4.543030    -5.118414     2.121640
H       -3.266141    -4.660434     3.270023
H       -4.592568     0.459443     0.900229
H       -6.246545     1.813947     2.410588
H       -6.718940     1.387551     0.774841
H       -6.157937     3.087892     1.135936
H       -3.695035     2.921909     2.505965
H       -2.594316     1.605244     1.940741
H       -3.957668     1.256495     3.063419
H       -3.660265     4.078231     0.713790
112
ex_0078 frame55 see-saw N-O2-ax-conf5
C       -3.622890     6.623873    -0.670711
C       -2.568711     5.635162    -1.181310
C       -1.349508     5.616732    -0.241410
C       -3.126149     4.229708    -1.328338
C       -3.119750     3.598418    -2.573060
C       -3.557975     2.270052    -2.730507
C       -3.487902     1.650560    -4.124701
C       -4.477499     2.341814    -5.074050
C       -2.078630     1.748064    -4.751226
C       -4.048765     1.555079    -1.583571
C       -4.535465     0.132956    -1.625048
C       -5.881106    -0.239444    -1.951376
C       -7.027076     0.670419    -2.451247
C       -7.066855     2.155809    -2.067387
C       -7.123991     0.468775    -3.977547
C       -6.241526    -1.584530    -1.813499
C       -5.324423    -2.600778    -1.502507
C       -5.830248    -4.043921    -1.469497
C       -6.606406    -4.346379    -0.186162
C       -6.699191    -4.349524    -2.704652
C       -3.982253    -2.251919    -1.230573
C       -2.962160    -3.287508    -0.850541
C       -2.133098    -3.870093    -1.857776
C       -2.181255    -3.431793    -3.320418
C       -2.954167    -4.433428    -4.174833
C       -0.760567    -3.224137    -3.889637
C       -1.232908    -4.887649    -1.503500
C       -1.051686    -5.278592    -0.180993
C       -0.017084    -6.328577     0.180599
C       -0.265907    -7.661621    -0.543016
C        1.378198    -5.780418    -0.138993
C       -1.833720    -4.692675     0.809228
C       -2.798902    -3.708002     0.511886
C       -3.615924    -3.150597     1.686915
C       -2.785545    -2.121596     2.477298
C       -4.094995    -4.261013     2.652548
C       -3.593376    -0.895893    -1.316548
N       -2.327881    -0.347899    -1.133326
N       -1.519628    -0.012202    -2.193214
O       -0.174428    -0.002185    -1.938894
Co       0.000000     0.000000     0.000000
N        0.000000     0.000000     2.000000
O        0.000000     0.000000     3.183496
N        1.998708     0.141001    -0.092022
O        2.519997    -0.548518     0.935821
O       -1.936575    -0.164063     0.107733
C       -4.084370     2.221611    -0.311922
C       -4.577401     1.561428     0.992706
C       -6.002031     2.003208     1.347385
C       -3.641267     1.856353     2.183089
C       -3.648046     3.555747    -0.230248
H       -3.207755     7.653974    -0.672042
H       -4.518663     6.599001    -1.325369
H       -3.933180     6.377391     0.367621
H       -2.218360     5.986436    -2.176493
H       -1.646498     5.372198     0.801803
H       -0.612204     4.856131    -0.578983
H       -0.849062     6.607984    -0.237027
H       -2.732369     4.140995    -3.424486
H       -3.766041     0.580109    -4.043340
H       -4.149928     3.369038    -5.330950
H       -5.472215     2.444448    -4.606771
H       -4.574788     1.747456    -6.008582
H       -2.039330     1.167537    -5.695943
H       -1.283408     1.377603    -4.087196
H       -1.818347     2.800566    -4.992455
H       -8.002082     0.309557    -2.050284
H       -7.946743     2.630458    -2.553754
H       -6.178804     2.733636    -2.355204
H       -7.268519     2.272932    -0.997481
H       -7.706796     1.278475    -4.468242
H       -6.123465     0.403093    -4.441201
H       -7.621182    -0.494630    -4.210474
H       -7.264569    -1.850456    -2.029639
H       -4.976839    -4.753212    -1.525884
H       -7.239134    -5.251465    -0.292310
H       -7.234442    -3.488227     0.132268
H       -5.887969    -4.553799     0.612410
H       -7.692545    -3.859862    -2.643502
H       -6.195908    -4.015212    -3.634641
H       -6.881188    -5.442002    -2.772570
H       -2.703798    -2.458505    -3.397844
H       -2.479433    -5.436112    -4.146214
H       -3.987442    -4.522347    -3.792392
H       -3.002686    -4.078705    -5.226064
H       -0.228941    -4.191015    -4.026322
H       -0.153884    -2.586689    -3.212199
H       -0.807411    -2.746365    -4.888625
H       -0.615871    -5.350839    -2.255151
H       -0.046347    -6.526023     1.275601
H       -0.259907    -7.533594    -1.646172
H       -1.247766    -8.084442    -0.242411
H        0.527662    -8.393678    -0.282389
H        2.157714    -6.484872     0.218009
H        1.510428    -5.623895    -1.230316
H        1.524079    -4.807295     0.379386
H       -1.671601    -5.007741     1.829549
H       -4.532540    -2.641525     1.320871
H       -2.939839    -1.110701     2.059094
H       -3.092251    -2.070448     3.543797
H       -1.700843    -2.363168     2.445742
H       -4.848307    -3.841873     3.354227
H       -4.545988    -5.118594     2.121601
H       -3.265259    -4.662792     3.267747
H       -4.592548     0.456715     0.897682
H       -6.244990     1.803802     2.410476
H       -6.718398     1.390366     0.772337
H       -6.154095     3.087142     1.145272
H       -3.689687     2.917977     2.502954
H       -2.592545     1.598085     1.936882
H       -3.955746     1.253744     3.061699
H       -3.661166     4.076639     0.712376
112
ex_0078 frame56 see-saw N-O2-ax-conf2
C       -3.620382     6.622681    -0.666759
C       -2.565941     5.634490    -1.177966
C       -1.347036     5.614415    -0.237261
C       -3.124929     4.230783    -1.325652
C       -3.120157     3.599961    -2.570809
C       -3.558353     2.271721    -2.727026
C       -3.487827     1.649786    -4.119851
C       -4.481079     2.333292    -5.070531
C       -2.078100     1.750729    -4.745314
C       -4.049837     1.558620    -1.579215
C       -4.537521     0.137811    -1.619060
C       -5.880996    -0.237988    -1.950144
C       -7.027072     0.668795    -2.454865
C       -7.079022     2.149971    -2.058568
C       -7.117945     0.474311    -3.982613
C       -6.238033    -1.583028    -1.812624
C       -5.319057    -2.596613    -1.498970
C       -5.823759    -4.039988    -1.469010
C       -6.595015    -4.345620    -0.182427
C       -6.696548    -4.343376    -2.701959
C       -3.978009    -2.245196    -1.223031
C       -2.960230    -3.284192    -0.846079
C       -2.132458    -3.868230    -1.853781
C       -2.178209    -3.430317    -3.316030
C       -2.956642    -4.428399    -4.170223
C       -0.755587    -3.233380    -3.884825
C       -1.234995    -4.887912    -1.500073
C       -1.053996    -5.279434    -0.178227
C       -0.019828    -6.329812     0.180934
C       -0.266438    -7.661379    -0.546698
C        1.373903    -5.777494    -0.138258
C       -1.835501    -4.693852     0.812298
C       -2.797943    -3.706802     0.514863
C       -3.614242    -3.148225     1.688103
C       -2.781647    -2.119072     2.476730
C       -4.096951    -4.259035     2.651686
C       -3.593298    -0.887156    -1.303335
N       -2.347091    -0.329486    -1.111425
N       -1.526181    -0.014685    -2.184233
O       -0.176124    -0.001623    -1.936659
Co       0.000000     0.000000     0.000000
N        0.000000     0.000000     2.000000
O        0.000000     0.000000     3.169552
N        1.995992     0.093977    -0.084887
O        2.511927    -0.528856     0.984522
O       -1.925276    -0.089800     0.115685
C       -4.085013     2.225536    -0.309236
C       -4.579961     1.567088     0.994216
C       -6.006416     2.009061     1.340111
C       -3.647586     1.865371     2.186500
C       -3.646620     3.558102    -0.227612
H       -3.209781     7.654272    -0.677863
H       -4.521381     6.588800    -1.313912
H       -3.922411     6.381381     0.375414
H       -2.215914     5.983588    -2.173873
H       -1.646799     5.382953     0.808293
H       -0.616469     4.843250    -0.565588
H       -0.837677     6.600962    -0.242549
H       -2.731875     4.141553    -3.422509
H       -3.762274     0.578835    -4.034073
H       -4.152586     3.356587    -5.341817
H       -5.471684     2.443030    -4.595814
H       -4.587314     1.728394    -5.997329
H       -2.032357     1.162642    -5.685048
H       -1.282385     1.392554    -4.074295
H       -1.824410     2.803031    -4.995275
H       -8.003364     0.301870    -2.062245
H       -7.955739     2.624573    -2.550637
H       -6.190056     2.734337    -2.330670
H       -7.294997     2.253876    -0.989719
H       -7.675078     1.300573    -4.475513
H       -6.116121     0.382177    -4.440329
H       -7.642074    -0.473567    -4.220968
H       -7.259845    -1.851242    -2.031591
H       -4.970589    -4.748890    -1.532126
H       -7.259563    -5.226276    -0.297502
H       -7.189212    -3.474200     0.164853
H       -5.874188    -4.596265     0.601090
H       -7.693836    -3.862965    -2.631131
H       -6.200642    -3.996977    -3.631595
H       -6.869097    -5.436863    -2.777800
H       -2.694265    -2.453394    -3.391774
H       -2.486447    -5.433409    -4.141318
H       -3.990250    -4.513260    -3.787922
H       -3.003421    -4.074231    -5.221629
H       -0.235570    -4.205496    -4.030449
H       -0.140775    -2.609945    -3.201502
H       -0.797043    -2.746382    -4.879359
H       -0.618786    -5.351863    -2.251698
H       -0.048203    -6.528644     1.275684
H       -0.268379    -7.529027    -1.649401
H       -1.244306    -8.090523    -0.242295
H        0.532880    -8.390246    -0.295347
H        2.155197    -6.476123     0.225846
H        1.508417    -5.627287    -1.230214
H        1.514127    -4.800212     0.374077
H       -1.675103    -5.010041     1.832669
H       -4.530309    -2.639440     1.320023
H       -2.964233    -1.102720     2.081562
H       -3.055997    -2.097238     3.553056
H       -1.693852    -2.338097     2.409194
H       -4.859498    -3.843472     3.345378
H       -4.536879    -5.120655     2.118412
H       -3.270371    -4.656459     3.273765
H       -4.592098     0.461943     0.902479
H       -6.247655     1.836219     2.407981
H       -6.719221     1.378684     0.778967
H       -6.164554     3.086779     1.110512
H       -3.704236     2.925771     2.508443
H       -2.596442     1.615809     1.941528
H       -3.958897     1.257656     3.062558
H       -3.658045     4.078755     0.714963
112
ex_0078 frame57 see-saw N-O2-ax-conf3
C       -3.622681     6.625423    -0.671302
C       -2.568747     5.636502    -1.181686
C       -1.349485     5.617672    -0.242006
C       -3.126808     4.231307    -1.327944
C       -3.120631     3.599541    -2.572376
C       -3.559041     2.271292    -2.729249
C       -3.489129     1.651085    -4.123364
C       -4.477661     2.342677    -5.073722
C       -2.079927     1.747530    -4.750099
C       -4.049832     1.556654    -1.582412
C       -4.536850     0.134499    -1.622334
C       -5.882266    -0.238169    -1.949864
C       -7.028919     0.671292    -2.450198
C       -7.066761     2.157507    -2.068603
C       -7.125119     0.468162    -3.976406
C       -6.242010    -1.583369    -1.812919
C       -5.323985    -2.599213    -1.501652
C       -5.828837    -4.043016    -1.469934
C       -6.605712    -4.345855    -0.187307
C       -6.697447    -4.348990    -2.705047
C       -3.981355    -2.249227    -1.228618
C       -2.961207    -3.285446    -0.851306
C       -2.132647    -3.868377    -1.858140
C       -2.181217    -3.430238    -3.320822
C       -2.953648    -4.432888    -4.174562
C       -0.760993    -3.221619    -3.890511
C       -1.232456    -4.886143    -1.503875
C       -1.051247    -5.277472    -0.181442
C       -0.017085    -6.328210     0.180446
C       -0.266308    -7.661518    -0.542507
C        1.378568    -5.780942    -0.139144
C       -1.833102    -4.691073     0.808677
C       -2.798343    -3.705993     0.511320
C       -3.614979    -3.149090     1.686662
C       -2.784526    -2.119305     2.475410
C       -4.092881    -4.259584     2.653171
C       -3.582887    -0.899835    -1.307882
N       -2.298541    -0.343003    -1.114976
N       -1.517292    -0.028815    -2.184880
O       -0.171372    -0.006819    -1.939275
Co       0.000000     0.000000     0.000000
N        0.000000     0.000000     2.000000
O        0.000000     0.000000     3.175464
N        1.983414     0.239433    -0.098465
O        2.541543    -0.520961     0.934356
O       -1.937721    -0.162958     0.082189
C       -4.085496     2.223607    -0.310348
C       -4.578494     1.563577     0.994564
C       -6.003285     2.003913     1.350010
C       -3.642262     1.858356     2.185091
C       -3.649124     3.557998    -0.229257
H       -3.206499     7.655169    -0.670685
H       -4.517495     6.602121    -1.327558
H       -3.934718     6.377731     0.366281
H       -2.218243     5.987728    -2.176885
H       -1.646105     5.370407     0.800796
H       -0.611122     4.858719    -0.581627
H       -0.850449     6.609768    -0.235617
H       -2.732785     4.141384    -3.424117
H       -3.767963     0.580765    -4.041952
H       -4.150469     3.370759    -5.328148
H       -5.473620     2.443478    -4.608572
H       -4.572041     1.749619    -6.009706
H       -2.041492     1.167387    -5.695223
H       -1.284382     1.375948    -4.086803
H       -1.818359     2.799814    -4.990721
H       -8.003863     0.310943    -2.048355
H       -7.947277     2.631591    -2.554211
H       -6.178800     2.734465    -2.359225
H       -7.265974     2.276353    -0.998355
H       -7.712442     1.275148    -4.467670
H       -6.123732     0.407439    -4.440360
H       -7.617025    -0.498952    -4.209028
H       -7.264114    -1.850282    -2.030377
H       -4.974684    -4.751915    -1.525935
H       -7.233871    -5.255337    -0.293867
H       -7.239611    -3.488684     0.126940
H       -5.886586    -4.547399     0.613898
H       -7.690359    -3.858252    -2.644932
H       -6.193794    -4.016891    -3.635945
H       -6.881028    -5.441285    -2.771072
H       -2.704914    -2.457590    -3.398754
H       -2.478496    -5.435342    -4.145687
H       -3.986828    -4.522192    -3.792050
H       -3.002599    -4.078606    -5.225894
H       -0.227886    -4.188097    -4.025154
H       -0.155119    -2.581664    -3.214436
H       -0.809104    -2.745999    -4.890584
H       -0.616310    -5.350309    -2.255762
H       -0.046476    -6.525610     1.275480
H       -0.258623    -7.534205    -1.645774
H       -1.248911    -8.083242    -0.242595
H        0.526264    -8.394251    -0.280045
H        2.157885    -6.486601     0.216169
H        1.510182    -5.622785    -1.230351
H        1.525594    -4.808707     0.380699
H       -1.671153    -5.007041     1.828869
H       -4.532381    -2.641087     1.321553
H       -2.931075    -1.110030     2.047995
H       -3.098793    -2.060272     3.540839
H       -1.699706    -2.367264     2.452023
H       -4.845033    -3.840066     3.356097
H       -4.545974    -5.116755     2.122963
H       -3.262870    -4.662329     3.267386
H       -4.593276     0.458997     0.899243
H       -6.246964     1.799005     2.412559
H       -6.718970     1.393000     0.771459
H       -6.155108     3.089305     1.152419
H       -3.689775     2.920134     2.504713
H       -2.593639     1.599186     1.939553
H       -3.957297     1.255854     3.063712
H       -3.661549     4.079243     0.713406
112
ex_0078 frame58 see-saw N-O2-ax-conf4
C       -3.620440     6.621628    -0.666307
C       -2.565772     5.633737    -1.177796
C       -1.347027     5.613668    -0.236793
C       -3.124223     4.229821    -1.326563
C       -3.118782     3.599746    -2.572112
C       -3.556701     2.271464    -2.729529
C       -3.486029     1.650210    -4.122172
C       -4.481256     2.332688    -5.071372
C       -2.076888     1.752964    -4.747891
C       -4.048345     1.557006    -1.583072
C       -4.535752     0.135533    -1.623993
C       -5.880320    -0.239063    -1.951775
C       -7.026379     0.668503    -2.454930
C       -7.079741     2.149041    -2.056673
C       -7.116765     0.475515    -3.982937
C       -6.238705    -1.583580    -1.812127
C       -5.319878    -2.597798    -1.500184
C       -5.824993    -4.040480    -1.467928
C       -6.595347    -4.345611    -0.180796
C       -6.697643    -4.343347    -2.700873
C       -3.978284    -2.247779    -1.227844
C       -2.960188    -3.285881    -0.849076
C       -2.131575    -3.869926    -1.855329
C       -2.176687    -3.431944    -3.317306
C       -2.956640    -4.428749    -4.171115
C       -0.753852    -3.235926    -3.885318
C       -1.234324    -4.889125    -1.500651
C       -1.054131    -5.280170    -0.178626
C       -0.019913    -6.330150     0.180966
C       -0.266068    -7.661656    -0.547043
C        1.373596    -5.777205    -0.138031
C       -1.836358    -4.694536     0.811242
C       -2.798580    -3.707528     0.512756
C       -3.614839    -3.148509     1.686041
C       -2.781476    -2.119296     2.474570
C       -4.097668    -4.258960     2.650323
C       -3.591734    -0.890821    -1.313303
N       -2.327250    -0.338381    -1.127758
N       -1.519553    -0.031574    -2.196440
O       -0.175700    -0.005108    -1.938741
Co       0.000000     0.000000     0.000000
N        0.000000     0.000000     2.000000
O        0.000000     0.000000     3.186401
N        1.988299     0.149217    -0.133397
O        2.530553    -0.488335     0.924457
O       -1.937918    -0.122956     0.097530
C       -4.084152     2.223386    -0.312262
C       -4.579251     1.565123     0.991263
C       -6.005537     2.008289     1.337313
C       -3.647156     1.863780     2.183982
C       -3.646038     3.556160    -0.229414
H       -3.210529     7.653505    -0.678532
H       -4.522103     6.586709    -1.312455
H       -3.921282     6.380894     0.376363
H       -2.215697     5.983122    -2.173560
H       -1.647242     5.383839     0.809011
H       -0.617126     4.841333    -0.563834
H       -0.836656     6.599696    -0.243225
H       -2.730878     4.142236    -3.423365
H       -3.759338     0.579019    -4.036524
H       -4.153481     3.355745    -5.344327
H       -5.470816     2.442768    -4.594390
H       -4.589554     1.726673    -5.997150
H       -2.030327     1.163678    -5.686754
H       -1.280729     1.397477    -4.075813
H       -1.825341     2.805499    -4.998896
H       -8.002958     0.300537    -2.063967
H       -7.955830     2.623833    -2.549775
H       -6.190387     2.734013    -2.326461
H       -7.298196     2.251315    -0.988206
H       -7.670654     1.303872    -4.475919
H       -6.114950     0.379774    -4.440182
H       -7.644437    -0.470268    -4.222061
H       -7.261366    -1.851007    -2.028287
H       -4.971999    -4.749529    -1.531621
H       -7.263826    -5.223073    -0.296797
H       -7.184718    -3.472287     0.169860
H       -5.874080    -4.601666     0.600542
H       -7.695037    -3.863338    -2.629280
H       -6.201895    -3.995425    -3.630149
H       -6.869081    -5.436844    -2.777940
H       -2.691416    -2.454451    -3.393385
H       -2.487525    -5.434210    -4.142089
H       -3.990230    -4.512237    -3.788141
H       -3.003375    -4.074229    -5.222321
H       -0.235278    -4.208559    -4.032053
H       -0.138553    -2.614312    -3.200648
H       -0.794516    -2.747096    -4.878923
H       -0.617336    -5.352716    -2.251693
H       -0.048459    -6.528934     1.275723
H       -0.269092    -7.528863    -1.649703
H       -1.243430    -8.091638    -0.242179
H        0.534018    -8.390026    -0.296868
H        2.155113    -6.474941     0.227227
H        1.508580    -5.628024    -1.230069
H        1.512864    -4.799273     0.373339
H       -1.676103    -5.010030     1.831938
H       -4.530564    -2.639394     1.317726
H       -2.966485    -1.102068     2.082179
H       -3.051761    -2.100908     3.552177
H       -1.693475    -2.336066     2.403229
H       -4.861114    -3.843635     3.343194
H       -4.536135    -5.121541     2.117513
H       -3.271343    -4.655443     3.273445
H       -4.591386     0.459968     0.899321
H       -6.246052     1.839518     2.406041
H       -6.718918     1.375970     0.779132
H       -6.164126     3.085289     1.104392
H       -3.704649     2.924077     2.506495
H       -2.595818     1.614861     1.939093
H       -3.958327     1.256081     3.060123
H       -3.658191     4.076587     0.713371
112
ex_0078 frame59 see-saw N-O2-ax-conf6
C       -3.620060     6.622753    -0.665827
C       -2.565539     5.634640    -1.177206
C       -1.346700     5.614322    -0.236278
C       -3.124238     4.230821    -1.325691
C       -3.118972     3.600560    -2.571130
C       -3.556841     2.272233    -2.728204
C       -3.486157     1.650494    -4.120586
C       -4.481599     2.331985    -5.070167
C       -2.076997     1.753221    -4.746250
C       -4.048555     1.557887    -1.581731
C       -4.535979     0.136109    -1.622708
C       -5.880235    -0.238545    -1.951155
C       -7.026215     0.668738    -2.454557
C       -7.080658     2.149037    -2.055832
C       -7.116183     0.475744    -3.982641
C       -6.238397    -1.583156    -1.811966
C       -5.319422    -2.597275    -1.500075
C       -5.823395    -4.039801    -1.468117
C       -6.592948    -4.345082    -0.180763
C       -6.695750    -4.342379    -2.701141
C       -3.978592    -2.247459    -1.227037
C       -2.959868    -3.285468    -0.848556
C       -2.131169    -3.869378    -1.854970
C       -2.175917    -3.431267    -3.316903
C       -2.956187    -4.427967    -4.170520
C       -0.752913    -3.236157    -3.885141
C       -1.234021    -4.888731    -1.500462
C       -1.053848    -5.279969    -0.178527
C       -0.019983    -6.330323     0.180833
C       -0.266261    -7.661692    -0.547491
C        1.373527    -5.777392    -0.138000
C       -1.835777    -4.694172     0.811472
C       -2.797863    -3.707032     0.513108
C       -3.613826    -3.147495     1.686202
C       -2.780567    -2.118063     2.474565
C       -4.096683    -4.257631     2.650507
C       -3.593616    -0.891092    -1.311230
N       -2.331761    -0.339177    -1.123592
N       -1.523418    -0.019274    -2.191702
O       -0.175789    -0.003942    -1.939231
Co       0.000000     0.000000     0.000000
N        0.000000     0.000000     2.000000
O        0.000000     0.000000     3.183306
N        1.989746     0.152071    -0.134552
O        2.524280    -0.488880     0.931059
O       -1.937102    -0.133314     0.109037
C       -4.084428     2.224640    -0.311067
C       -4.579768     1.566895     0.992471
C       -6.006481     2.009844     1.337469
C       -3.648278     1.866303     2.185410
C       -3.646102     3.557433    -0.228429
H       -3.210414     7.654715    -0.678983
H       -4.522100     6.587131    -1.311422
H       -3.920322     6.382627     0.377156
H       -2.215469     5.983696    -2.173091
H       -1.647030     5.385563     0.809736
H       -0.617549     4.840994    -0.562685
H       -0.835364     6.599837    -0.243547
H       -2.731033     4.142853    -3.422518
H       -3.759204     0.579313    -4.034320
H       -4.153706     3.354597    -5.344696
H       -5.470890     2.442693    -4.592778
H       -4.590467     1.724714    -5.995056
H       -2.030026     1.162990    -5.684447
H       -1.280714     1.398793    -4.073889
H       -1.825792     2.805613    -4.998107
H       -8.002723     0.300384    -2.063866
H       -7.956804     2.623386    -2.549300
H       -6.191445     2.734631    -2.324810
H       -7.299905     2.250601    -0.987431
H       -7.667458     1.305488    -4.476193
H       -6.114291     0.377166    -4.439359
H       -7.646510    -0.468589    -4.221757
H       -7.260788    -1.850719    -2.028800
H       -4.969997    -4.748397    -1.532375
H       -7.263718    -5.220548    -0.297411
H       -7.179488    -3.470661     0.172062
H       -5.871251    -4.604114     0.599229
H       -7.693406    -3.863157    -2.628816
H       -6.200359    -3.993093    -3.630165
H       -6.866042    -5.435950    -2.778951
H       -2.690100    -2.453435    -3.392789
H       -2.487321    -5.433565    -4.141265
H       -3.989655    -4.511190    -3.787333
H       -3.002969    -4.073730    -5.221803
H       -0.235129    -4.209172    -4.032409
H       -0.136861    -2.615333    -3.200416
H       -0.793239    -2.746993    -4.878613
H       -0.617110    -5.352374    -2.251564
H       -0.048591    -6.529275     1.275555
H       -0.269858    -7.528608    -1.650118
H       -1.243382    -8.092022    -0.242341
H        0.534102    -8.389990    -0.297996
H        2.154994    -6.474863     0.227842
H        1.508759    -5.628668    -1.230066
H        1.512481    -4.799209     0.372988
H       -1.675519    -5.009666     1.832142
H       -4.529502    -2.638517     1.317568
H       -2.969088    -1.100589     2.084941
H       -3.048630    -2.101067     3.552615
H       -1.692259    -2.332564     2.400350
H       -4.860885    -3.842374     3.342523
H       -4.534071    -5.120643     2.117587
H       -3.270418    -4.653320     3.274208
H       -4.591298     0.461743     0.900938
H       -6.247139     1.843190     2.406501
H       -6.719370     1.376000     0.780303
H       -6.165898     3.086276     1.102370
H       -3.706840     2.926583     2.507975
H       -2.596722     1.618030     1.940424
H       -3.959283     1.258366     3.061453
H       -3.658256     4.078167     0.714217
112
ex_0078 frame60 see-saw N-O1-ax-conf2
C       -1.366577    -6.634685    -3.414494
C       -1.657418    -5.640003    -2.285254
C       -0.499117    -5.620099    -1.271724
C       -1.900154    -4.239825    -2.817716
C       -3.116183    -3.597675    -2.579546
C       -3.342080    -2.271482    -2.994616
C       -4.688000    -1.633794    -2.654766
C       -5.836966    -2.333446    -3.397925
C       -4.981433    -1.683911    -1.140444
C       -2.304957    -1.579917    -3.712030
C       -2.462188    -0.169539    -4.198108
C       -3.066093     0.224981    -5.431220
C       -3.791006    -0.674877    -6.453347
C       -3.429218    -2.162375    -6.555083
C       -5.303474    -0.466890    -6.229158
C       -3.013256     1.577443    -5.785924
C       -2.516427     2.580965    -4.935433
C       -2.598580     4.033054    -5.414450
C       -1.489048     4.347332    -6.423036
C       -3.976222     4.347303    -6.027748
C       -1.966717     2.210057    -3.683648
C       -1.407570     3.260234    -2.752560
C       -2.239725     3.855968    -1.747800
C       -3.690175     3.435582    -1.509416
C       -4.670471     4.449681    -2.090516
C       -3.975568     3.234972    -0.000121
C       -1.716562     4.875553    -0.933601
C       -0.383779     5.263606    -1.005405
C        0.170348     6.318105    -0.061142
C       -0.587436     7.652098    -0.163752
C        0.129016     5.774402     1.371494
C        0.438116     4.670427    -1.957624
C       -0.039157     3.684870    -2.849045
C        0.959692     3.130866    -3.873825
C        1.900890     2.105602    -3.216125
C        1.805218     4.249487    -4.531087
C       -1.957613     0.831328    -3.331812
N       -1.412231     0.559923    -2.069700
N       -2.203902     0.834173    -0.964334
O       -1.944945    -0.013879     0.052856
Co       0.000000     0.000000     0.000000
N        0.000000     0.000000     2.000000
O        0.000000     0.000000     3.169552
N        1.996615    -0.000999    -0.113505
O        2.503882     0.327957     1.096718
O       -0.179785     0.057441    -1.937064
C       -1.072323    -2.253422    -3.976524
C        0.109182    -1.596885    -4.714584
C        0.165371    -2.024907    -6.182230
C        1.456530    -1.893658    -4.027311
C       -0.916523    -3.581156    -3.547557
H       -1.290620    -7.663502    -3.004443
H       -2.183559    -6.607783    -4.165502
H       -0.408589    -6.392629    -3.923315
H       -2.568204    -5.982648    -1.746858
H        0.467180    -5.379964    -1.766388
H       -0.685695    -4.855566    -0.486329
H       -0.400315    -6.609623    -0.777951
H       -3.878422    -4.125853    -2.021988
H       -4.661359    -0.570240    -2.965657
H       -6.022030    -3.353751    -3.006297
H       -5.599973    -2.450913    -4.470099
H       -6.768219    -1.733850    -3.298722
H       -5.904721    -1.112924    -0.905545
H       -4.143057    -1.265979    -0.552294
H       -5.151639    -2.728922    -0.797368
H       -3.589239    -0.319379    -7.489298
H       -4.076609    -2.640129    -7.321455
H       -3.546043    -2.733794    -5.625063
H       -2.413524    -2.281814    -6.949862
H       -5.907845    -1.273399    -6.698062
H       -5.548280    -0.407116    -5.153473
H       -5.631685     0.500156    -6.660558
H       -3.447866     1.857146    -6.732445
H       -2.486626     4.733168    -4.559377
H       -1.717632     5.254283    -7.020015
H       -1.294058     3.494620    -7.107121
H       -0.566227     4.554898    -5.872620
H       -4.106437     3.870365    -7.020601
H       -4.793021     4.007630    -5.359680
H       -4.074229     5.441832    -6.182973
H       -3.881379     2.471680    -2.020726
H       -4.540877     5.447283    -1.622267
H       -4.500952     4.544644    -3.177640
H       -5.712628     4.100351    -1.930354
H       -4.005360     4.203116     0.544201
H       -3.196842     2.611431     0.484025
H       -4.962839     2.754972     0.150114
H       -2.336534     5.347165    -0.189437
H        1.238874     6.516075    -0.302003
H       -1.667932     7.525149     0.059266
H       -0.484548     8.076572    -1.184497
H       -0.176416     8.383879     0.564294
H        0.630371     6.481619     2.064750
H       -0.915570     5.618105     1.714026
H        0.667589     4.802541     1.417173
H        1.469608     4.988598    -1.995762
H        0.423909     2.623834    -4.704014
H        1.467599     1.093718    -3.299660
H        2.889629     2.066293    -3.720117
H        2.071901     2.337513    -2.142083
H        2.347474     3.837227    -5.409257
H        1.190513     5.104021    -4.867304
H        2.569303     4.655817    -3.838625
H        0.020737    -0.491565    -4.702771
H        1.155964    -1.816464    -6.632432
H       -0.551936    -1.412050    -6.757335
H       -0.062666    -3.107996    -6.295389
H        1.759337    -2.954353    -4.138902
H        1.417409    -1.639967    -2.949365
H        2.255348    -1.284504    -4.500483
H        0.006088    -4.104984    -3.728626
112
ex_0078 frame61 see-saw N-O1-ax-conf5
C       -1.370057    -6.634981    -3.415740
C       -1.659649    -5.638948    -2.287358
C       -0.502597    -5.621582    -1.272800
C       -1.899515    -4.237470    -2.819815
C       -3.114271    -3.593450    -2.581694
C       -3.339719    -2.267535    -2.998117
C       -4.686534    -1.630844    -2.658196
C       -5.835288    -2.337870    -3.395319
C       -4.978508    -1.675986    -1.143325
C       -2.301974    -1.576791    -3.716033
C       -2.461278    -0.166457    -4.203267
C       -3.065482     0.227161    -5.435838
C       -3.788760    -0.675231    -6.456553
C       -3.434955    -2.166043    -6.545092
C       -5.300774    -0.461185    -6.236108
C       -3.014930     1.580367    -5.791637
C       -2.518053     2.585232    -4.942096
C       -2.601634     4.038202    -5.421656
C       -1.494759     4.352450    -6.432847
C       -3.980545     4.354110    -6.032465
C       -1.967202     2.213907    -3.689750
C       -1.406408     3.261942    -2.757031
C       -2.239467     3.856160    -1.751961
C       -3.690546     3.435078    -1.516543
C       -4.671281     4.452660    -2.090806
C       -3.976366     3.224236    -0.008844
C       -1.716764     4.874415    -0.934988
C       -0.383527     5.262579    -1.005066
C        0.171164     6.316536    -0.059523
C       -0.584316     7.651435    -0.164497
C        0.128653     5.775729     1.374277
C        0.439123     4.669834    -1.957247
C       -0.037451     3.686032    -2.851350
C        0.962540     3.133239    -3.876472
C        1.902686     2.107787    -3.218994
C        1.809982     4.251269    -4.531709
C       -1.958761     0.834376    -3.337987
N       -1.416373     0.555357    -2.075729
N       -2.221840     0.818526    -0.979315
O       -1.945307    -0.015119     0.048034
Co       0.000000     0.000000     0.000000
N        0.000000     0.000000     2.000000
O        0.000000     0.000000     3.183496
N        1.996291    -0.011501    -0.108283
O        2.500491     0.415082     1.072768
O       -0.180720     0.058696    -1.931429
C       -1.068834    -2.251097    -3.978918
C        0.114339    -1.594442    -4.715541
C        0.174954    -2.022586    -6.182780
C        1.460892    -1.889864    -4.025634
C       -0.914655    -3.579395    -3.549559
H       -1.287174    -7.662477    -3.003226
H       -2.191738    -6.614717    -4.161762
H       -0.415956    -6.390299    -3.930261
H       -2.570647    -5.981884    -1.749276
H        0.462897    -5.372656    -1.764370
H       -0.694807    -4.865008    -0.481173
H       -0.399380    -6.614763    -0.787093
H       -3.876968    -4.120846    -2.024209
H       -4.663948    -0.568165    -2.972853
H       -6.009315    -3.360293    -3.004135
H       -5.606554    -2.452261    -4.469442
H       -6.770668    -1.746345    -3.287719
H       -5.906106    -1.110706    -0.911132
H       -4.144023    -1.248411    -0.557076
H       -5.140838    -2.720304    -0.794702
H       -3.580129    -0.326229    -7.493194
H       -4.078549    -2.645059    -7.313728
H       -3.564013    -2.731187    -5.613071
H       -2.416145    -2.295945    -6.928053
H       -5.907497    -1.255684    -6.721977
H       -5.549714    -0.419842    -5.160860
H       -5.621246     0.515901    -6.649914
H       -3.451407     1.858954    -6.737973
H       -2.485455     4.738114    -4.567096
H       -1.711307     5.277461    -7.006738
H       -1.325243     3.511985    -7.138198
H       -0.562094     4.527102    -5.886638
H       -4.117499     3.871084    -7.021516
H       -4.796417     4.022973    -5.359250
H       -4.075122     5.447989    -6.195398
H       -3.882957     2.474828    -2.034243
H       -4.541648     5.447668    -1.617286
H       -4.503196     4.553100    -3.177675
H       -5.713316     4.102206    -1.931389
H       -3.997436     4.187338     0.544369
H       -3.203370     2.589651     0.469435
H       -4.967752     2.751366     0.137631
H       -2.337444     5.344956    -0.190518
H        1.239907     6.513892    -0.299958
H       -1.663987     7.527459     0.064015
H       -0.484564     8.071252    -1.187500
H       -0.167830     8.385636     0.558143
H        0.623606     6.487444     2.067744
H       -0.915986     5.614330     1.714247
H        0.672832     4.807297     1.423808
H        1.470849     4.987361    -1.993059
H        0.428617     2.625874    -4.707588
H        1.454855     1.101268    -3.277111
H        2.879413     2.045168    -3.743296
H        2.098124     2.356538    -2.152962
H        2.360757     3.835903    -5.403134
H        1.194513     5.101244    -4.878563
H        2.568078     4.662650    -3.835563
H        0.024406    -0.489259    -4.705725
H        1.160564    -1.794461    -6.634643
H       -0.554399    -1.423948    -6.757195
H       -0.032228    -3.109851    -6.294491
H        1.762049    -2.951749    -4.130409
H        1.421932    -1.629800    -2.949299
H        2.261491    -1.285249    -4.501715
H        0.007463    -4.104195    -3.730356
112
ex_0078 frame62 see-saw N-O1-ax-conf3
C       -1.366822    -6.633368    -3.414849
C       -1.657440    -5.638575    -2.285554
C       -0.499305    -5.619672    -1.271889
C       -1.899736    -4.237974    -2.817609
C       -3.115554    -3.595650    -2.579341
C       -3.341847    -2.269615    -2.994593
C       -4.687914    -1.632593    -2.654265
C       -5.836027    -2.332712    -3.398129
C       -4.982552    -1.684453    -1.140090
C       -2.305173    -1.577834    -3.712469
C       -2.463086    -0.167347    -4.199607
C       -3.066569     0.226860    -5.432597
C       -3.791239    -0.674153    -6.453504
C       -3.428938    -2.161759    -6.553524
C       -5.303533    -0.466302    -6.228633
C       -3.013518     1.579309    -5.788146
C       -2.516392     2.583176    -4.937776
C       -2.598773     4.035330    -5.417520
C       -1.489004     4.350160    -6.425760
C       -3.976818     4.349089    -6.030745
C       -1.966790     2.212080    -3.685397
C       -1.406257     3.261362    -2.754191
C       -2.238225     3.856103    -1.749174
C       -3.688119     3.434549    -1.511273
C       -4.669659     4.448486    -2.090987
C       -3.972213     3.231551    -0.002391
C       -1.715490     4.875585    -0.934401
C       -0.382815     5.264145    -1.005817
C        0.170842     6.318352    -0.060795
C       -0.587180     7.652225    -0.163307
C        0.129136     5.774364     1.371776
C        0.439272     4.671673    -1.958383
C       -0.037864     3.686200    -2.850199
C        0.960918     3.132379    -3.874927
C        1.900892     2.106594    -3.216300
C        1.807096     4.250468    -4.531999
C       -1.959863     0.833192    -3.333634
N       -1.419171     0.548953    -2.071448
N       -2.224202     0.798326    -0.970394
O       -1.945249    -0.050979     0.040305
Co       0.000000     0.000000     0.000000
N        0.000000     0.000000     2.000000
O        0.000000     0.000000     3.175464
N        1.996381     0.029089    -0.112328
O        2.500432     0.393047     1.091125
O       -0.180427     0.058568    -1.936954
C       -1.072070    -2.251353    -3.976419
C        0.109978    -1.595375    -4.714155
C        0.165812    -2.024353    -6.181492
C        1.457420    -1.892809    -4.026925
C       -0.916108    -3.579092    -3.547081
H       -1.290989    -7.662207    -3.004715
H       -2.183829    -6.606624    -4.165822
H       -0.408781    -6.391608    -3.923702
H       -2.568420    -5.981113    -1.747412
H        0.467117    -5.379678    -1.766353
H       -0.685761    -4.855581    -0.486074
H       -0.400924    -6.609555    -0.778691
H       -3.877707    -4.123857    -2.021893
H       -4.661469    -0.568761    -2.964432
H       -6.020433    -3.353237    -3.006750
H       -5.598499    -2.450037    -4.470149
H       -6.767698    -1.733835    -3.299056
H       -5.905871    -1.113608    -0.905165
H       -4.145152    -1.267917    -0.550166
H       -5.153070    -2.729767    -0.798244
H       -3.589918    -0.319763    -7.489879
H       -4.076454    -2.640628    -7.318983
H       -3.545183    -2.732536    -5.623045
H       -2.413327    -2.281361    -6.948416
H       -5.907908    -1.273017    -6.697090
H       -5.547979    -0.406179    -5.152838
H       -5.631886     0.500614    -6.660142
H       -3.448618     1.858489    -6.734820
H       -2.487371     4.735598    -4.562551
H       -1.716983     5.257773    -7.022141
H       -1.294328     3.497911    -7.110490
H       -0.566161     4.556573    -5.874667
H       -4.107536     3.871920    -7.023459
H       -4.793143     4.009214    -5.362154
H       -4.075831     5.443566    -6.186095
H       -3.878576     2.471062    -2.023408
H       -4.540776     5.445912    -1.622139
H       -4.501092     4.544382    -3.178267
H       -5.711449     4.098185    -1.930435
H       -4.001475     4.198850     0.543611
H       -3.192719     2.606403     0.478748
H       -4.959623     2.751899     0.147935
H       -2.335582     5.346448    -0.189881
H        1.239409     6.516615    -0.301207
H       -1.667690     7.525008     0.059526
H       -0.484249     8.076753    -1.184022
H       -0.176420     8.384088     0.564813
H        0.630149     6.481565     2.065332
H       -0.915517     5.617888     1.714042
H        0.667857     4.802600     1.417518
H        1.470869     4.989804    -1.995972
H        0.425404     2.625490    -4.705341
H        1.466390     1.095185    -3.299345
H        2.889814     2.065964    -3.719740
H        2.071511     2.338734    -2.142226
H        2.349890     3.837610    -5.409575
H        1.192382     5.104589    -4.869330
H        2.570691     4.657073    -3.839131
H        0.022034    -0.489993    -4.702643
H        1.156259    -1.816429    -6.632222
H       -0.551707    -1.411823    -6.756585
H       -0.062433    -3.107525    -6.293807
H        1.759747    -2.953727    -4.138152
H        1.418712    -1.638631    -2.949050
H        2.256711    -1.284552    -4.500491
H        0.006407    -4.103135    -3.728009
112
ex_0078 frame63 see-saw N-O1-ax-conf4
C       -1.369371    -6.632946    -3.415817
C       -1.658812    -5.636782    -2.287295
C       -0.501792    -5.620637    -1.272635
C       -1.897789    -4.234753    -2.819339
C       -3.112058    -3.589904    -2.581779
C       -3.337109    -2.263886    -2.999049
C       -4.683849    -1.627952    -2.658105
C       -5.832500    -2.334714    -3.396078
C       -4.976074    -1.675609    -1.142912
C       -2.299208    -1.573368    -3.718301
C       -2.460213    -0.162529    -4.207789
C       -3.065558     0.229940    -5.439724
C       -3.789667    -0.674578    -6.457034
C       -3.433437    -2.164796    -6.545356
C       -5.301367    -0.461393    -6.233925
C       -3.015426     1.582934    -5.797843
C       -2.518399     2.589083    -4.949102
C       -2.602941     4.041452    -5.427125
C       -1.494073     4.356684    -6.435363
C       -3.982069     4.355143    -6.037471
C       -1.966729     2.219365    -3.697421
C       -1.403834     3.265464    -2.762680
C       -2.237491     3.858689    -1.756903
C       -3.688762     3.437967    -1.521320
C       -4.671050     4.454330    -2.093666
C       -3.972644     3.226065    -0.012779
C       -1.715318     4.876199    -0.938656
C       -0.382077     5.264079    -1.007040
C        0.171597     6.316959    -0.059836
C       -0.584808     7.651521    -0.163913
C        0.128416     5.774646     1.373335
C        0.441275     4.672023    -1.959011
C       -0.034921     3.688910    -2.854200
C        0.965060     3.135396    -3.878058
C        1.903127     2.108986    -3.218417
C        1.812437     4.252911    -4.533196
C       -1.959235     0.840323    -3.345720
N       -1.418948     0.558721    -2.084649
N       -2.238370     0.828831    -1.000072
O       -1.942854     0.052580     0.059044
Co       0.000000     0.000000     0.000000
N        0.000000     0.000000     2.000000
O        0.000000     0.000000     3.186401
N        1.991812    -0.078543    -0.123985
O        2.520551     0.427619     1.013648
O       -0.185029     0.058682    -1.936567
C       -1.066460    -2.248962    -3.979103
C        0.117149    -1.594056    -4.715330
C        0.174417    -2.023420    -6.182188
C        1.463466    -1.891187    -4.026094
C       -0.912587    -3.576936    -3.548168
H       -1.289302    -7.660923    -3.003832
H       -2.189468    -6.610653    -4.163510
H       -0.413763    -6.390032    -3.928444
H       -2.570321    -5.979075    -1.749661
H        0.464290    -5.374982    -1.764753
H       -0.691927    -4.862102    -0.482428
H       -0.400907    -6.613208    -0.785170
H       -3.875153    -4.117362    -2.024831
H       -4.660416    -0.565027    -2.971768
H       -6.008707    -3.356574    -3.004184
H       -5.602152    -2.450893    -4.469658
H       -6.767433    -1.742128    -3.290688
H       -5.902782    -1.109318    -0.909505
H       -4.140221    -1.251833    -0.555108
H       -5.141223    -2.720403    -0.796563
H       -3.583454    -0.326689    -7.494219
H       -4.078571    -2.645220    -7.311689
H       -3.558083    -2.730105    -5.612753
H       -2.415604    -2.292505    -6.931874
H       -5.907954    -1.258479    -6.715671
H       -5.548634    -0.415744    -5.158355
H       -5.623416     0.513539    -6.651489
H       -3.455520     1.860126    -6.742960
H       -2.489270     4.740720    -4.571611
H       -1.711778     5.278831    -7.012967
H       -1.318780     3.513954    -7.136765
H       -0.563992     4.535579    -5.885585
H       -4.117085     3.873594    -7.027393
H       -4.796622     4.019754    -5.364408
H       -4.079560     5.449165    -6.197030
H       -3.881350     2.478683    -2.040420
H       -4.541709     5.449028    -1.619580
H       -4.504150     4.554772    -3.180727
H       -5.712315     4.102161    -1.932826
H       -3.996252     4.189021     0.540674
H       -3.197050     2.594199     0.465136
H       -4.962367     2.750334     0.135500
H       -2.335931     5.345161    -0.193134
H        1.240421     6.514822    -0.299403
H       -1.664836     7.526274     0.062382
H       -0.483888     8.073013    -1.186111
H       -0.170553     8.384941     0.560721
H        0.624959     6.484877     2.067214
H       -0.916411     5.614860     1.713460
H        0.670924     4.805224     1.421766
H        1.473529     4.988312    -1.992978
H        0.431686     2.627927    -4.709413
H        1.456598     1.101845    -3.281385
H        2.882916     2.049601    -3.737297
H        2.092234     2.353885    -2.150292
H        2.361531     3.837892    -5.405756
H        1.196322     5.103219    -4.878271
H        2.571094     4.663224    -3.837070
H        0.029379    -0.488763    -4.705580
H        1.160645    -1.800768    -6.635078
H       -0.553090    -1.421714    -6.755867
H       -0.038646    -3.109726    -6.292987
H        1.763815    -2.953136    -4.132491
H        1.424256    -1.632409    -2.949322
H        2.264126    -1.286279    -4.501554
H        0.008993    -4.102628    -3.728776
112
ex_0078 frame64 see-saw N-O2-ax-conf17
C       -1.353578    -0.840318     5.467707
C       -2.534991     0.156826     5.272447
C       -3.658153    -0.241541     6.228547
C       -3.088476     0.219963     3.842424
C       -3.442691    -0.962348     3.201134
C       -3.915464    -0.982083     1.880764
C       -4.205783    -2.335290     1.257181
C       -5.419934    -2.998310     1.917165
C       -2.976386    -3.266011     1.358666
C       -4.109685     0.246366     1.165040
C       -4.652646     0.282176    -0.271771
C       -6.052163     0.363896    -0.529023
C       -7.069594     0.447978     0.598155
C       -7.922439    -0.820186     0.665511
C       -7.973904     1.687623     0.436833
C       -6.523817     0.368309    -1.847580
C       -5.658446     0.405161    -2.943478
C       -6.240079     0.574001    -4.352525
C       -6.820487    -0.709415    -4.940069
C       -7.290777     1.695644    -4.365212
C       -4.272167     0.292936    -2.719255
C       -3.274909     0.227551    -3.800002
C       -2.788122    -1.007861    -4.351370
C       -3.115450    -2.458823    -3.905640
C       -1.962326    -2.930135    -2.996983
C       -4.446982    -2.799448    -3.228667
C       -1.901278    -0.934350    -5.432246
C       -1.409233     0.282464    -5.907827
C       -0.352192     0.310980    -6.986729
C        0.874030    -0.505635    -6.545442
C       -0.934436    -0.200424    -8.305745
C       -1.896314     1.474022    -5.384006
C       -2.780473     1.476019    -4.299427
C       -3.176910     2.836387    -3.696620
C       -4.212624     3.610046    -4.518383
C       -1.929065     3.713918    -3.441456
C       -3.749737     0.242354    -1.395619
N       -2.333787     0.154380    -1.181730
N       -1.422182     0.156906    -2.257873
O       -0.110316     0.012351    -1.942363
Co       0.000000     0.000000     0.000000
N        0.000000     0.000000     2.000000
O        0.000000     0.000000     3.208710
N        1.982342    -0.125563    -0.126235
O        2.519497    -0.074190     1.137092
O       -1.939997     0.070698     0.092631
C       -3.780327     1.475731     1.828890
C       -3.993274     2.823392     1.125104
C       -5.204128     3.547616     1.732087
C       -2.751613     3.737047     1.104404
C       -3.253078     1.436546     3.148842
H       -1.119792    -1.431224     4.562997
H       -1.589970    -1.635470     6.205833
H       -0.450104    -0.314704     5.850873
H       -2.191482     1.170162     5.582197
H       -4.049034    -1.247160     5.962652
H       -4.480453     0.499311     6.180220
H       -3.268940    -0.278945     7.269427
H       -3.307485    -1.892571     3.734864
H       -4.434246    -2.170717     0.188154
H       -5.854435    -3.753869     1.228132
H       -6.181364    -2.238615     2.168665
H       -5.164058    -3.477631     2.882250
H       -2.845485    -3.638243     2.401012
H       -3.095719    -4.154028     0.707050
H       -2.043297    -2.730078     1.082951
H       -6.522135     0.545921     1.553996
H       -7.291515    -1.709715     0.497838
H       -8.420028    -0.889526     1.656119
H       -8.681060    -0.848596    -0.140284
H       -8.491298     1.922419     1.389260
H       -7.388201     2.571928     0.114682
H       -8.750644     1.516592    -0.340976
H       -7.586161     0.450022    -2.017086
H       -5.444737     0.918317    -5.045064
H       -7.452690    -0.494558    -5.823922
H       -5.994127    -1.340170    -5.313538
H       -7.422964    -1.253504    -4.179833
H       -7.428418     2.061704    -5.405000
H       -8.266050     1.340127    -3.980326
H       -6.982970     2.545613    -3.730649
H       -3.088261    -3.116814    -4.803914
H       -1.979737    -2.404430    -2.020854
H       -0.973982    -2.770592    -3.477772
H       -2.058302    -4.018892    -2.790595
H       -4.621550    -2.234802    -2.298662
H       -5.282242    -2.677182    -3.922272
H       -4.456252    -3.877683    -2.959757
H       -1.487830    -1.850303    -5.833568
H       -0.002492     1.356219    -7.145621
H        1.194762    -0.201092    -5.524660
H        1.719117    -0.326853    -7.242121
H        0.656823    -1.594364    -6.537847
H       -1.705558     0.516267    -8.663862
H       -1.418327    -1.191354    -8.169620
H       -0.143949    -0.291182    -9.077011
H       -1.484967     2.402697    -5.752422
H       -3.594550     2.682836    -2.678357
H       -5.178093     3.556558    -3.996415
H       -3.978882     4.691545    -4.590683
H       -4.327378     3.191364    -5.539989
H       -1.502415     4.108226    -4.387597
H       -1.144183     3.150011    -2.895391
H       -2.208713     4.598568    -2.827288
H       -4.263280     2.643243     0.066510
H       -4.912790     4.319275     2.471392
H       -5.899933     2.829405     2.216694
H       -5.770825     4.047924     0.916421
H       -2.382556     3.941500     2.132477
H       -1.928134     3.280641     0.517676
H       -3.005908     4.719557     0.649455
H       -2.987749     2.358505     3.649302
112
ex_0078 frame65 see-saw N-O1-ax-conf18
C        4.596966     3.069270     2.785928
C        3.236386     2.367675     2.757303
C        3.411474     0.863939     3.012313
C        2.471842     2.613411     1.451339
C        1.221814     3.230230     1.498434
C        0.427681     3.424384     0.345114
C       -0.977699     4.041315     0.532327
C       -0.955613     5.573788     0.585317
C       -1.697379     3.512564     1.792558
C        0.958974     3.042236    -0.939865
C        0.161833     3.262916    -2.210550
C        0.342445     4.404108    -3.053594
C        1.372498     5.549136    -2.883800
C        2.432891     5.366252    -3.987129
C        2.052442     5.793133    -1.520544
C       -0.498776     4.532326    -4.179158
C       -1.473150     3.578387    -4.551147
C       -2.225116     3.857353    -5.862707
C       -1.179160     3.792945    -6.995115
C       -3.401475     2.937500    -6.239977
C       -1.667621     2.460597    -3.707062
C       -2.689060     1.360180    -3.802033
C       -3.954053     1.471864    -3.125259
C       -4.297080     2.680018    -2.229327
C       -5.086666     3.784676    -2.919778
C       -5.019680     2.235443    -0.935038
C       -4.910607     0.449922    -3.282683
C       -4.610479    -0.714638    -3.985586
C       -5.579727    -1.885348    -4.008063
C       -6.089023    -2.176060    -5.424425
C       -4.894365    -3.121233    -3.394897
C       -3.402957    -0.801359    -4.675888
C       -2.409383     0.181841    -4.565903
C       -1.080691    -0.091803    -5.286501
C       -1.231154    -0.179414    -6.814874
C       -0.482261    -1.425203    -4.775084
C       -0.811366     2.297733    -2.609467
N       -1.000459     1.088482    -1.934004
N       -2.165803     0.725230    -1.278827
O       -1.885737     0.482717     0.017095
Co       0.000000     0.000000     0.000000
N        0.000000     0.000000     2.000000
O        0.000000     0.000000     3.169552
N        1.940677    -0.479784    -0.000950
O        2.047364    -1.746642     0.452735
O        0.013741     0.242347    -1.929133
C        2.268172     2.442114    -0.998390
C        2.921598     2.010800    -2.323399
C        4.233354     2.778408    -2.547953
C        3.244927     0.509348    -2.421566
C        2.988203     2.237602     0.203790
H        5.254407     2.701362     1.971708
H        5.101914     2.869780     3.757813
H        4.462544     4.166139     2.687590
H        2.651467     2.765386     3.618369
H        3.930119     0.692699     3.980797
H        2.425143     0.372789     3.082116
H        3.993612     0.377208     2.203662
H        0.854883     3.522536     2.470123
H       -1.620443     3.751097    -0.319795
H       -0.225276     5.940366     1.340234
H       -0.725988     5.981742    -0.414843
H       -1.959062     5.974647     0.843374
H       -2.749732     3.867817     1.804824
H       -1.701358     2.405433     1.810319
H       -1.234244     3.889655     2.729564
H        0.871328     6.526800    -3.065684
H        3.335466     5.987911    -3.804492
H        2.739222     4.309160    -4.066392
H        2.021665     5.636930    -4.978755
H        2.746301     6.657776    -1.611314
H        1.326876     6.104056    -0.758480
H        2.644503     4.957346    -1.133080
H       -0.348321     5.388894    -4.823484
H       -2.662163     4.877792    -5.819375
H       -1.653703     3.880338    -7.993184
H       -0.432303     4.606460    -6.908045
H       -0.619010     2.836233    -6.945021
H       -4.200391     2.953964    -5.481060
H       -3.860904     3.288847    -7.185951
H       -3.092990     1.898672    -6.413740
H       -3.347831     3.129675    -1.879073
H       -6.031980     3.379694    -3.337464
H       -4.476221     4.233889    -3.726171
H       -5.320588     4.595227    -2.197638
H       -4.498512     1.386209    -0.447675
H       -6.070286     1.936973    -1.130426
H       -5.047828     3.073655    -0.206488
H       -5.847883     0.488193    -2.749042
H       -6.463725    -1.672695    -3.366350
H       -5.255684    -2.239983    -6.155067
H       -6.776211    -1.363802    -5.741607
H       -6.645150    -3.136657    -5.448742
H       -4.031272    -3.465370    -4.002225
H       -4.534426    -2.887736    -2.368692
H       -5.617863    -3.960530    -3.318528
H       -3.190680    -1.712108    -5.213315
H       -0.339549     0.701712    -5.054145
H       -2.071948    -0.844195    -7.103168
H       -1.418883     0.813118    -7.251535
H       -0.302489    -0.567099    -7.282717
H       -1.088826    -2.303318    -5.082639
H        0.533005    -1.576013    -5.200529
H       -0.399437    -1.440959    -3.672363
H        2.234910     2.242055    -3.160166
H        4.096666     3.865701    -2.428845
H        4.602478     2.581421    -3.577838
H        5.015678     2.467843    -1.826576
H        3.714695     0.282263    -3.401265
H        2.337317    -0.112543    -2.371863
H        3.955617     0.197519    -1.625108
H        3.964755     1.774505     0.170810
112
ex_0078 frame66 square-planar cis-conf3
C        0.259642     2.850322     5.919513
C        0.703080     2.392809     4.528290
C        0.142741     3.339071     3.451262
C        0.274307     0.957950     4.247258
C       -1.078362     0.621419     4.252417
C       -1.524281    -0.666616     3.935066
C       -3.038216    -0.935826     4.019271
C       -3.483813    -0.859378     5.491486
C       -3.925374     0.063848     3.241146
C       -0.557134    -1.661970     3.549126
C       -1.013902    -3.013273     3.103837
C       -1.180473    -4.081631     4.036923
C       -0.995553    -4.045358     5.578068
C       -2.372460    -4.286010     6.233584
C       -0.323235    -2.832331     6.254975
C       -1.557514    -5.335394     3.538967
C       -1.802920    -5.601947     2.186424
C       -2.180966    -7.042304     1.800248
C       -3.645858    -7.296088     2.145842
C       -1.314593    -8.115032     2.490674
C       -1.689862    -4.537265     1.250375
C       -1.990139    -4.786083    -0.200795
C       -1.041636    -5.284618    -1.164283
C        0.435799    -5.670236    -0.923646
C        0.561585    -7.194883    -0.815375
C        1.197938    -4.998447     0.225223
C       -1.469889    -5.457314    -2.501241
C       -2.776481    -5.173483    -2.908865
C       -3.247453    -5.389970    -4.339138
C       -2.530412    -4.460933    -5.322260
C       -3.089158    -6.858980    -4.754791
C       -3.682109    -4.675168    -1.977344
C       -3.338656    -4.495929    -0.633166
C       -4.439680    -3.991641     0.317342
C       -4.793242    -2.524125     0.054706
C       -5.756200    -4.805643     0.210703
C       -1.290821    -3.242630     1.703065
N       -1.117629    -2.072085     0.910885
N       -2.063136    -1.076772     1.057459
O       -1.937680    -0.109108     0.102288
Co       0.000000     0.000000     0.000000
N        2.000000     0.000000     0.000000
O        3.175464     0.000000     0.000000
N        0.000000     2.000000     0.000000
O        0.000000     3.186056     0.000000
O       -0.092144    -1.941756     0.067493
C        0.849140    -1.347166     3.594475
C        1.970792    -2.379386     3.238151
C        2.696498    -3.079383     4.392922
C        3.073144    -1.710314     2.438709
C        1.224113    -0.037066     3.981583
H        0.617626     3.885345     6.106575
H       -0.846449     2.844961     6.014216
H        0.694834     2.180504     6.689223
H        1.811950     2.471247     4.486204
H        0.450755     4.388136     3.648233
H        0.542617     3.049354     2.460676
H       -0.967730     3.309116     3.409476
H       -1.798653     1.384447     4.504402
H       -3.251330    -1.959951     3.649148
H       -2.892027    -1.510198     6.144329
H       -3.369815     0.167668     5.895065
H       -4.543992    -1.172272     5.588195
H       -3.844689     1.087796     3.661542
H       -3.698643     0.138975     2.171195
H       -4.988935    -0.244910     3.324911
H       -0.331613    -4.891932     5.864772
H       -3.127790    -3.587180     5.832781
H       -2.754425    -5.303275     6.023027
H       -2.320458    -4.176638     7.337399
H        0.709705    -2.698858     5.937958
H       -0.827030    -1.874154     6.111078
H       -0.259503    -3.010549     7.349451
H       -1.691411    -6.133081     4.250620
H       -2.080414    -7.195442     0.706687
H       -3.894448    -6.993508     3.183442
H       -4.250180    -6.705383     1.464186
H       -3.922221    -8.361166     1.990756
H       -0.236075    -7.931201     2.321592
H       -1.575778    -9.118633     2.092193
H       -1.498990    -8.157471     3.584375
H        1.003139    -5.360245    -1.831327
H        1.630202    -7.496194    -0.785471
H        0.082579    -7.698935    -1.680206
H        0.083217    -7.555600     0.109669
H        2.259777    -5.327311     0.206251
H        0.801709    -5.266268     1.220533
H        1.213258    -3.905238     0.086695
H       -0.774933    -5.841768    -3.238950
H       -4.331941    -5.146954    -4.395981
H       -2.988332    -4.556068    -6.330647
H       -2.637950    -3.405490    -4.991854
H       -1.450565    -4.708025    -5.394371
H       -3.576545    -7.030822    -5.738202
H       -2.017061    -7.137170    -4.841599
H       -3.569373    -7.524964    -4.006158
H       -4.689241    -4.455381    -2.302165
H       -4.055892    -4.064953     1.353324
H       -5.441806    -2.408446    -0.838001
H       -3.891130    -1.935579    -0.146796
H       -5.317186    -2.102430     0.940550
H       -6.445477    -4.526814     1.035314
H       -6.282195    -4.597372    -0.744259
H       -5.617763    -5.895966     0.210870
H        1.528379    -3.148599     2.573158
H        3.058636    -2.325997     5.128227
H        3.583891    -3.634829     4.011958
H        2.064020    -3.845657     4.868632
H        3.621764    -2.428959     1.791216
H        2.559405    -0.990346     1.868224
H        3.797144    -1.139750     3.059194
H        2.267903     0.242722     4.008143
112
ex_0078 frame67 square-planar cis-conf4
C       -6.438662     1.599804    -1.365468
C       -7.079927     0.304502    -0.843593
C       -8.262353    -0.117789    -1.724872
C       -6.048217    -0.807270    -0.765545
C       -5.447675    -1.291524    -1.923238
C       -4.454002    -2.277594    -1.885303
C       -3.796359    -2.661667    -3.223184
C       -4.760252    -3.337232    -4.208348
C       -3.192349    -1.394958    -3.871621
C       -4.104426    -2.867249    -0.628705
C       -3.104679    -3.960972    -0.660078
C       -3.503489    -5.317026    -0.864489
C       -4.987791    -5.757464    -1.131594
C       -6.041856    -5.377856    -0.075008
C       -5.164724    -7.272835    -1.384054
C       -2.495870    -6.293001    -0.819799
C       -1.132770    -6.021487    -0.628659
C       -0.257512    -7.309304    -0.639668
C       -0.210749    -7.963337    -2.032569
C        1.167255    -7.252143    -0.088459
C       -0.725538    -4.655281    -0.467901
C        0.708853    -4.265429    -0.282025
C        1.281659    -4.288916     1.035599
C        0.457095    -4.603451     2.293278
C        0.167594    -3.293785     3.048446
C        1.123336    -5.625217     3.248504
C        2.647352    -4.016442     1.202637
C        3.475321    -3.715512     0.124251
C        4.963850    -3.485043     0.366553
C        5.805218    -4.436155    -0.492469
C        5.381793    -2.035727     0.126793
C        2.914820    -3.632975    -1.156159
C        1.540589    -3.860493    -1.395343
C        1.093972    -3.638296    -2.867238
C        0.321352    -4.754703    -3.562660
C        0.343656    -2.312215    -3.007029
C       -1.717146    -3.611964    -0.497171
N       -1.292659    -2.236335    -0.366057
N       -2.173269    -1.198446    -0.676479
O       -1.944135    -0.073249     0.044034
Co       0.000000     0.000000     0.000000
N        2.000000     0.000000     0.000000
O        3.186401     0.000000     0.000000
N        0.000000     2.000000     0.000000
O        0.000000     3.189888     0.000000
O       -0.050941    -1.944571     0.054328
C       -4.725862    -2.380397     0.581898
C       -4.475431    -2.839035     2.041654
C       -3.861012    -1.688102     2.865349
C       -3.617973    -4.086627     2.290845
C       -5.690025    -1.356064     0.464051
H       -5.989207     1.458517    -2.371057
H       -7.199925     2.405843    -1.433929
H       -5.642218     1.935328    -0.666398
H       -7.480712     0.522897     0.171243
H       -8.717723    -1.047777    -1.322901
H       -7.942221    -0.302487    -2.772127
H       -9.035324     0.678459    -1.735710
H       -5.717584    -0.842111    -2.866111
H       -2.941815    -3.353190    -3.073070
H       -4.907813    -4.395636    -3.937044
H       -4.335720    -3.340846    -5.233594
H       -5.746126    -2.828998    -4.232832
H       -3.970328    -0.668957    -4.184734
H       -2.614452    -1.670985    -4.778499
H       -2.499385    -0.879289    -3.178444
H       -5.298940    -5.256745    -2.058816
H       -7.045184    -5.725222    -0.405720
H       -6.168446    -4.295763     0.031847
H       -5.833573    -5.846725     0.904817
H       -4.535644    -7.615405    -2.231992
H       -6.216061    -7.511071    -1.653199
H       -4.914016    -7.849290    -0.465127
H       -2.753065    -7.329003    -0.955833
H       -0.779516    -8.021124     0.040099
H        0.467972    -7.413989    -2.696671
H        0.194481    -8.994099    -1.958450
H       -1.207963    -8.019537    -2.512760
H        1.613907    -8.269875    -0.090061
H        1.831982    -6.600754    -0.687370
H        1.132876    -6.940162     0.961902
H       -0.528525    -5.017674     2.008238
H       -0.400939    -2.589370     2.410934
H        1.111545    -2.797653     3.362620
H       -0.449183    -3.493566     3.949924
H        2.018830    -6.107387     2.806207
H        0.399498    -6.422832     3.516733
H        1.460847    -5.145082     4.193218
H        3.072912    -4.031240     2.197979
H        5.202583    -3.705610     1.430735
H        5.669751    -4.227244    -1.574849
H        5.516240    -5.488587    -0.289059
H        6.882088    -4.313394    -0.249641
H        5.155613    -1.709698    -0.910858
H        6.470099    -1.913264     0.311878
H        4.863330    -1.391726     0.861950
H        3.560891    -3.341259    -1.974006
H        2.002007    -3.484436    -3.492282
H       -0.638406    -4.978363    -3.059372
H        0.074389    -4.451803    -4.604154
H        0.969396    -5.639355    -3.640656
H        0.193733    -2.068825    -4.081549
H       -0.651814    -2.361925    -2.552340
H        0.936563    -1.486783    -2.556347
H       -5.476423    -3.080849     2.466034
H       -3.820175    -1.965516     3.941276
H       -4.451655    -0.753233     2.794886
H       -2.828261    -1.474153     2.515912
H       -3.612094    -4.323193     3.377605
H       -2.571708    -3.921131     1.990219
H       -4.024099    -4.974162     1.783320
H       -6.170605    -0.966822     1.353744
