49
ex_0027 frame0 see-saw N0-N0-ax-conf3
C        3.903730    -1.536377     0.710994
C        2.690252    -0.722068     1.036419
C        2.161201    -0.656052     2.429044
C        0.942114    -0.238626     2.883165
C        0.768083    -0.154011     4.383034
N       -0.133982     0.107219     1.986959
C       -1.394631     0.756978     2.225908
C       -1.679882     1.526539     3.365232
C       -2.943383     2.092206     3.538661
Br      -3.223871     3.210045     5.073532
C       -3.964837     1.840576     2.603598
Br      -5.727209     2.543746     2.860430
C       -3.703945     1.064800     1.461101
C       -2.404881     0.598751     1.225065
N       -1.991791    -0.048328     0.015157
C       -2.694789    -0.827797    -0.911765
C       -3.922568    -1.573098    -0.486417
C       -2.146256    -0.860902    -2.316584
C       -0.910713    -0.502733    -2.822225
C       -0.746382    -0.566732    -4.318651
N        0.184178    -0.084812    -1.983390
C        1.460620     0.561208    -2.217858
C        1.794934     1.260306    -3.389880
C        3.058839     1.853605    -3.526783
Br       3.449386     2.787080    -5.142013
C        4.011829     1.760158    -2.496049
Br       5.748282     2.555905    -2.643512
C        3.700789     1.071931    -1.325416
C        2.421779     0.566671    -1.173283
N        1.991926     0.016226     0.056576
Ni       0.000000     0.000000     0.000000
H        4.703895    -0.814062     0.960158
H        4.032716    -2.445571     1.339814
H        3.978129    -1.855962    -0.349633
H        2.923335    -0.901660     3.165416
H        1.295784     0.723419     4.811233
H        1.158769    -1.082504     4.849489
H       -0.298917    -0.162636     4.671240
H       -0.914876     1.773077     4.085087
H       -4.481407     0.933995     0.725017
H       -4.097996    -2.532648    -1.015829
H       -3.962413    -1.788171     0.605220
H       -4.711642    -0.846962    -0.756769
H       -2.910742    -1.165255    -3.026364
H        0.305005    -0.458944    -4.629385
H       -1.388978     0.164222    -4.847193
H       -1.009265    -1.597419    -4.639977
H        1.100596     1.356992    -4.200836
H        4.433146     1.000602    -0.534327
49
ex_0027 frame1 see-saw N0-N0-ax-conf4
C        3.913714     1.531365     0.697374
C        2.688915     0.734752     1.026672
C        2.149357     0.704501     2.419893
C        0.934178     0.278304     2.877995
C        0.744635     0.225677     4.377558
N       -0.128972    -0.107104     1.986709
C       -1.389701    -0.747237     2.237473
C       -1.669747    -1.503514     3.386271
C       -2.934482    -2.061964     3.572162
Br      -3.213411    -3.161450     5.120767
C       -3.958990    -1.815960     2.638545
Br      -5.723294    -2.508385     2.911254
C       -3.700191    -1.053904     1.485672
C       -2.401494    -0.591503     1.238708
N       -1.991814     0.048103     0.020977
C       -2.696883     0.829854    -0.902299
C       -3.940220     1.550142    -0.482467
C       -2.138223     0.895964    -2.303501
C       -0.905514     0.534209    -2.813505
C       -0.727644     0.627183    -4.305189
N        0.179676     0.084851    -1.983852
C        1.453921    -0.558694    -2.224037
C        1.781586    -1.255015    -3.398626
C        3.046424    -1.843730    -3.544162
Br       3.430024    -2.771756    -5.163901
C        4.005118    -1.749464    -2.518231
Br       5.743143    -2.539544    -2.678525
C        3.698447    -1.064706    -1.343480
C        2.418306    -0.563204    -1.182594
N        1.992112    -0.016814     0.052717
Ni       0.000000     0.000000     0.000000
H        4.041366     2.457486     1.301228
H        4.704112     0.809876     0.979533
H        4.006873     1.818547    -0.370817
H        2.900081     0.983023     3.156679
H        1.248381    -0.654414     4.828046
H       -0.328390     0.254156     4.646365
H        1.142803     1.155985     4.834274
H       -0.900152    -1.739711     4.106058
H       -4.481650    -0.925701     0.753538
H       -4.117451     2.524628    -0.982959
H       -4.011272     1.726518     0.614415
H       -4.708943     0.820298    -0.798367
H       -2.892038     1.232076    -3.009763
H       -1.370663    -0.085337    -4.856324
H        0.327606     0.512144    -4.603041
H       -0.973602     1.669048    -4.603679
H        1.078429    -1.349238    -4.203830
H        4.435345    -0.992897    -0.556262
49
ex_0027 frame2 see-saw N0-N0-ax-conf5
C        3.898772    -1.549980     0.710905
C        2.688659    -0.731080     1.035853
C        2.160655    -0.662998     2.428830
C        0.943985    -0.238038     2.883015
C        0.768961    -0.142360     4.381598
N       -0.131520     0.106317     1.985997
C       -1.395730     0.751444     2.232300
C       -1.668554     1.543972     3.358404
C       -2.942786     2.077822     3.552739
Br      -3.251727     3.109068     5.136816
C       -3.956171     1.854099     2.602414
Br      -5.711871     2.577137     2.848830
C       -3.692459     1.092027     1.451693
C       -2.401062     0.610775     1.230447
N       -1.991859    -0.043691     0.016654
C       -2.691288    -0.831315    -0.907202
C       -3.913228    -1.584401    -0.475369
C       -2.142997    -0.862867    -2.314375
C       -0.908039    -0.501963    -2.820643
C       -0.735795    -0.563503    -4.314907
N        0.184670    -0.081633    -1.983407
C        1.459037     0.568786    -2.213371
C        1.787849     1.281774    -3.378052
C        3.052580     1.873365    -3.514726
Br       3.437453     2.822160    -5.121493
C        4.010523     1.767031    -2.489468
Br       5.748025     2.560436    -2.637878
C        3.703323     1.067225    -1.324054
C        2.423051     0.565966    -1.171908
N        1.991992     0.010020     0.056384
Ni       0.000000     0.000000     0.000000
H        4.023932    -2.460729     1.338493
H        3.974063    -1.868004    -0.350066
H        4.700741    -0.830706     0.963066
H        2.923269    -0.908022     3.165165
H        1.281128     0.749413     4.798946
H       -0.299701    -0.161502     4.665115
H        1.171918    -1.058901     4.860719
H       -0.919404     1.736930     4.107923
H       -4.480520     0.930497     0.733886
H       -3.949519    -1.792601     0.617908
H       -4.710563    -0.868544    -0.748682
H       -4.078829    -2.549811    -0.997302
H       -2.905255    -1.173294    -3.023336
H        0.319549    -0.453682    -4.614029
H       -1.372203     0.170705    -4.845492
H       -0.995736    -1.594034    -4.638619
H        1.086852     1.386542    -4.183188
H        4.439327     0.985962    -0.537216
49
ex_0027 frame3 see-saw N0-N0-ax-conf6
C        3.903432    -1.552444     0.699149
C        2.686454    -0.743430     1.029004
C        2.151281    -0.701010     2.424167
C        0.936974    -0.271253     2.880562
C        0.746200    -0.207479     4.379035
N       -0.125857     0.108287     1.987633
C       -1.391582     0.741486     2.243665
C       -1.661267     1.520227     3.379594
C       -2.937136     2.044425     3.586330
Br      -3.243624     3.057390     5.183172
C       -3.953746     1.824160     2.638350
Br      -5.712169     2.534303     2.901793
C       -3.691517     1.075349     1.477700
C       -2.398873     0.601192     1.243983
N       -1.991821    -0.043496     0.021969
C       -2.691046    -0.837763    -0.897434
C       -3.917541    -1.581882    -0.461320
C       -2.138862    -0.886575    -2.305302
C       -0.904522    -0.525125    -2.814365
C       -0.716367    -0.605756    -4.303982
N        0.181062    -0.084365    -1.983837
C        1.453986     0.563013    -2.218962
C        1.777868     1.269772    -3.388117
C        3.042485     1.860144    -3.531031
Br       3.423467     2.801472    -5.142965
C        4.003447     1.757832    -2.507511
Br       5.740981     2.549742    -2.664336
C        3.699379     1.063274    -1.337579
C        2.419547     0.562353    -1.179075
N        1.992046     0.009939     0.053293
Ni       0.000000     0.000000     0.000000
H        4.703378    -0.835923     0.966066
H        3.984667    -1.854603    -0.365863
H        4.026096    -2.472114     1.314108
H        2.902603    -0.976659     3.161331
H       -0.327712    -0.244390     4.644114
H        1.238315     0.683034     4.821746
H        1.152630    -1.129060     4.845408
H       -0.906465     1.708215     4.126084
H       -4.482531     0.916851     0.762566
H       -3.963478    -1.769249     0.635495
H       -4.709923    -0.868177    -0.754023
H       -4.081969    -2.556694    -0.965622
H       -2.893730    -1.220022    -3.011273
H       -1.002988    -1.630492    -4.623965
H       -1.312500     0.148374    -4.851545
H        0.351935    -0.535575    -4.575618
H        1.070166     1.368486    -4.189904
H        4.437534     0.985051    -0.552127
49
ex_0027 frame4 see-saw N0-N0-ax-conf7
C        3.903062     1.548125     0.706295
C        2.685670     0.739315     1.032733
C        2.149136     0.693992     2.426448
C        0.935305     0.261786     2.881546
C        0.745504     0.191199     4.379556
N       -0.129566    -0.114659     1.988105
C       -1.393858    -0.748376     2.239678
C       -1.664799    -1.531580     3.372453
C       -2.940826    -2.057608     3.575579
Br      -3.248738    -3.076911     5.168108
C       -3.956411    -1.834531     2.627241
Br      -5.714747    -2.546897     2.885542
C       -3.693128    -1.081141     1.469940
C       -2.400198    -0.605069     1.239633
N       -1.991762     0.044752     0.020679
C       -2.691653     0.837206    -0.897649
C       -3.925142     1.570144    -0.467966
C       -2.134763     0.898203    -2.301055
C       -0.902144     0.533652    -2.812221
C       -0.722573     0.619466    -4.303392
N        0.182441     0.087375    -1.982095
C        1.455857    -0.562093    -2.216759
C        1.780824    -1.270853    -3.384497
C        3.045616    -1.861520    -3.526067
Br       3.427371    -2.804678    -5.136424
C        4.006022    -1.758154    -2.502472
Br       5.743533    -2.550404    -2.657642
C        3.701277    -1.062237    -1.333749
C        2.420953    -0.562302    -1.176865
N        1.991983    -0.011175     0.055336
Ni       0.000000     0.000000     0.000000
H        4.024555     2.469588     1.318705
H        3.989692     1.846472    -0.359394
H        4.700456     0.830922     0.979064
H        2.900523     0.966157     3.164337
H        1.239085    -0.701033     4.817114
H        1.152648     1.110636     4.849471
H       -0.328065     0.226290     4.646352
H       -0.911058    -1.722004     4.119288
H       -4.483827    -0.920864     0.754778
H       -3.982450     1.755360     0.628560
H       -4.704718     0.845732    -0.768872
H       -4.098985     2.542665    -0.973452
H       -2.890380     1.231667    -3.006214
H       -0.964020     1.660542    -4.608014
H        0.333167     0.496116    -4.597140
H       -1.366540    -0.095597    -4.849636
H        1.075230    -1.371404    -4.186952
H        4.439053    -0.983173    -0.548132
49
ex_0027 frame5 tetrahedral-conf4
C        3.157247     2.358172    -1.541015
C        2.588658     1.216516    -0.708860
C        3.251503    -0.145739    -0.660674
C        2.715619    -1.333374    -0.277041
C        3.586936    -2.557082    -0.289656
N        1.366581    -1.445460     0.131242
C        0.635741    -2.545997     0.755997
C        1.223535    -3.576592     1.521966
C        0.432874    -4.599501     2.077840
Br       1.271910    -5.894530     3.217763
C       -0.945771    -4.662776     1.801313
Br      -2.050653    -6.083833     2.465942
C       -1.542920    -3.669976     1.021738
C       -0.778519    -2.579803     0.583515
N       -1.358978    -1.453063    -0.052795
C       -2.566575    -1.177079    -0.720582
C       -3.203847    -2.307981    -1.511384
C       -3.219430     0.180995    -0.666446
C       -2.628274     1.389804    -0.365621
C       -3.461258     2.628803    -0.543179
N       -1.277029     1.526641     0.102130
C       -0.591411     2.599897     0.749550
C       -1.209520     3.597293     1.515502
C       -0.434769     4.636477     2.047356
Br      -1.314783     6.003551     3.047842
C        0.960996     4.661028     1.841745
Br       2.060172     6.058085     2.547632
C        1.581130     3.646829     1.104692
C        0.813154     2.590354     0.648955
N        1.389949     1.433984     0.053243
Ni       0.000000     0.000000     0.000000
H        3.959332     2.820302    -0.939186
H        2.379948     3.111952    -1.797643
H        3.579179     1.990701    -2.502971
H        4.262711    -0.159578    -1.046391
H        2.964664    -3.473512    -0.348296
H        4.247456    -2.594834     0.598320
H        4.179840    -2.566456    -1.225996
H        2.269592    -3.540143     1.785329
H       -2.614391    -3.694982     0.864832
H       -2.444962    -3.103216    -1.708202
H       -4.082501    -2.812750    -1.062054
H       -3.511099    -1.887823    -2.494804
H       -4.218423     0.227050    -1.100553
H       -3.913439     2.640783    -1.553527
H       -4.257284     2.665883     0.232914
H       -2.838859     3.538416    -0.468443
H       -2.278432     3.588609     1.679338
H        2.648730     3.664881     0.946965
49
ex_0027 frame6 trans
C        3.880929     0.570341     1.561271
C        2.683301     0.974016     0.710443
C        2.191445     2.404922     0.645136
C        0.969566     2.863622     0.253523
C        0.733594     4.346968     0.250006
N       -0.077898     1.986829    -0.147854
C       -1.360863     2.246430    -0.767634
C       -1.655049     3.368707    -1.567619
C       -2.946348     3.551971    -2.089543
Br      -3.296200     5.108927    -3.142942
C       -3.956270     2.605012    -1.838060
Br      -5.733857     2.809721    -2.527754
C       -3.673674     1.476631    -1.065379
C       -2.373165     1.267576    -0.601742
N       -1.991501     0.063186     0.061777
C       -2.645395    -0.995091     0.702115
C       -3.881287    -0.652708     1.507047
C       -2.164798    -2.414474     0.611664
C       -0.894418    -2.846620     0.307188
C       -0.603251    -4.311741     0.487510
N        0.145435    -1.981314    -0.165223
C        1.409463    -2.239206    -0.791665
C        1.691777    -3.370661    -1.566605
C        2.979687    -3.550413    -2.089132
Br       3.331503    -5.125214    -3.107854
C        3.983389    -2.585390    -1.861849
Br       5.755043    -2.788074    -2.555040
C        3.699037    -1.440525    -1.111940
C        2.404515    -1.242338    -0.667151
N        1.992335    -0.025128    -0.057131
Ni       0.000000     0.000000     0.000000
H        4.781398     0.806558     0.967484
H        3.911310     1.134075     2.520816
H        3.860564    -0.510710     1.824787
H        2.906443     3.132027     1.013564
H        1.191918     4.824899    -0.638113
H        1.137565     4.781924     1.186474
H       -0.352316     4.563807     0.289882
H       -0.903075     4.111586    -1.777732
H       -4.457107     0.754441    -0.877798
H       -3.778712    -1.195568     2.471835
H       -3.879934     0.440720     1.732260
H       -4.880405    -0.883243     1.085354
H       -2.841741    -3.161310     1.023886
H        0.468954    -4.536864     0.350926
H       -1.194172    -4.899572    -0.246823
H       -0.857732    -4.625495     1.519189
H        0.931890    -4.117356    -1.747916
H        4.466835    -0.701143    -0.937404
49
ex_0027 frame7 trans-conf5
C        3.879756     0.565656     1.563057
C        2.682846     0.970193     0.715203
C        2.187458     2.399509     0.649826
C        0.967439     2.862220     0.250803
C        0.740950     4.347889     0.236648
N       -0.084878     1.986208    -0.147956
C       -1.365296     2.245265    -0.770594
C       -1.659971     3.366496    -1.572066
C       -2.951382     3.546819    -2.095834
Br      -3.304247     5.101797    -3.151302
C       -3.959894     2.598203    -1.844742
Br      -5.737621     2.798860    -2.536925
C       -3.675793     1.471163    -1.070647
C       -2.374985     1.264856    -0.606770
N       -1.991908     0.060604     0.055080
C       -2.645117    -0.997214     0.699182
C       -3.878233    -0.654517     1.510335
C       -2.169892    -2.417548     0.609454
C       -0.899749    -2.848840     0.302732
C       -0.603912    -4.315131     0.484876
N        0.136341    -1.980680    -0.173973
C        1.405098    -2.239171    -0.794439
C        1.689595    -3.370937    -1.568856
C        2.978348    -3.552221    -2.088993
Br       3.329574    -5.126711    -3.108606
C        3.983268    -2.589595    -1.859107
Br       5.756371    -2.796016    -2.549978
C        3.699102    -1.444833    -1.108486
C        2.403354    -1.243383    -0.665121
N        1.991884    -0.026400    -0.052609
Ni       0.000000     0.000000     0.000000
H        3.918144     1.129506     2.521724
H        3.862190    -0.515233     1.827881
H        4.774518     0.801649     0.960797
H        2.906460     3.125290     1.013759
H        1.195949     4.814695    -0.659183
H       -0.343486     4.571505     0.281657
H        1.156471     4.791943     1.164277
H       -0.909527     4.110961    -1.782289
H       -4.458566     0.747902    -0.883648
H       -3.878670     0.439929     1.731103
H       -4.884049    -0.885258     1.105140
H       -3.769096    -1.191787     2.479423
H       -2.843857    -3.165630     1.025321
H        0.468304    -4.541970     0.345895
H       -1.192819    -4.900974    -0.252539
H       -0.860169    -4.637794     1.513606
H        0.929556    -4.116356    -1.752720
H        4.469257    -0.708414    -0.933067
49
ex_0027 frame8 trans-SQ N0+N0|N1+N1
C        0.571353     3.883149    -1.560646
C        0.975257     2.684748    -0.712960
C        2.406820     2.195422    -0.642223
C        2.864821     0.973270    -0.254293
C        4.348170     0.735058    -0.250607
N        1.987061    -0.072259     0.143077
C        2.244571    -1.356455     0.769405
C        3.365300    -1.652470     1.571397
C        3.550173    -2.944979     2.089819
Br       5.109787    -3.295936     3.139852
C        2.604635    -3.955927     1.838614
Br       2.812541    -5.734892     2.524114
C        1.475232    -3.672808     1.069103
C        1.267293    -2.371562     0.608600
N        0.062609    -1.991660    -0.047935
C       -0.995084    -2.644467    -0.695632
C       -0.653524    -3.879487    -1.505335
C       -2.415064    -2.163354    -0.608547
C       -2.846795    -0.890474    -0.310573
C       -4.312820    -0.602800    -0.489179
N       -1.980986     0.155049     0.153522
C       -2.238362     1.412066     0.790482
C       -3.367356     1.691327     1.570914
C       -3.547555     2.978688     2.092762
Br      -5.123016     3.329697     3.113045
C       -2.583910     3.983369     1.864804
Br      -2.787838     5.754953     2.557598
C       -1.438958     3.699707     1.114042
C       -1.241475     2.406298     0.664000
N       -0.028155     1.991171     0.046620
Ni       0.000000     0.000000     0.000000
H        0.806226     4.784054    -0.967321
H        1.135012     3.911423    -2.519515
H       -0.509942     3.860500    -1.823104
H        3.134298     2.909390    -1.009831
H        4.826888     1.194042     0.636668
H        4.782792     1.138013    -1.187499
H        4.565554    -0.350986    -0.289497
H        4.108214    -0.901271     1.782346
H        0.753107    -4.456581     0.880936
H       -1.196326    -3.775276    -2.470495
H        0.439666    -3.878650    -1.730431
H       -0.884309    -4.880680    -1.087317
H       -3.162978    -2.842876    -1.015758
H       -4.539693     0.468766    -0.352132
H       -4.899979    -1.194979     0.245099
H       -4.626472    -0.858117    -1.520568
H       -4.113587     0.930648     1.753071
H       -0.700748     4.467911     0.938944
49
ex_0027 frame9 tetrahedral
C        3.152167     2.336861    -1.560478
C        2.587354     1.206181    -0.711435
C        3.252764    -0.152308    -0.635467
C        2.711915    -1.339660    -0.243356
C        3.593712    -2.555917    -0.234135
N        1.350317    -1.458490     0.153244
C        0.624466    -2.548107     0.775924
C        1.207687    -3.548029     1.579297
C        0.422961    -4.589484     2.102176
Br       1.274511    -5.935890     3.159399
C       -0.960398    -4.634365     1.848997
Br      -2.073536    -6.034464     2.540054
C       -1.556967    -3.638471     1.073806
C       -0.783202    -2.572646     0.613322
N       -1.364587    -1.451364    -0.045017
C       -2.572815    -1.169515    -0.699049
C       -3.202566    -2.286804    -1.507203
C       -3.237165     0.175314    -0.618889
C       -2.644242     1.380381    -0.318633
C       -3.474720     2.621394    -0.504283
N       -1.296444     1.505852     0.154256
C       -0.588406     2.583937     0.780533
C       -1.191328     3.585310     1.552134
C       -0.408914     4.623941     2.074956
Br      -1.275701     5.988482     3.089585
C        0.983682     4.650635     1.850978
Br       2.091908     6.047627     2.544528
C        1.593910     3.638491     1.104038
C        0.820478     2.582071     0.655353
N        1.388234     1.429796     0.041470
Ni       0.000000     0.000000     0.000000
H        3.954194     2.808800    -0.966400
H        3.573548     1.955924    -2.517281
H        2.373130     3.085442    -1.827515
H        4.273095    -0.162339    -1.001022
H        4.254019    -2.567155     0.655346
H        4.189209    -2.580625    -1.169016
H        2.979699    -3.477604    -0.272315
H        2.264047    -3.541902     1.791092
H       -2.621564    -3.681555     0.884571
H       -3.511548    -1.833075    -2.474545
H       -2.427917    -3.059142    -1.728181
H       -4.073636    -2.830574    -1.087927
H       -4.243847     0.223463    -1.032707
H       -2.876741     3.539417    -0.368378
H       -4.310614     2.621097     0.227480
H       -3.873862     2.660386    -1.537101
H       -2.257162     3.576731     1.731069
H        2.659828     3.658401     0.932270
49
ex_0027 frame10 tetrahedral-conf3
C        3.147871     2.343092    -1.558793
C        2.585503     1.211654    -0.712598
C        3.246369    -0.148030    -0.643257
C        2.710492    -1.336499    -0.243680
C        3.598150    -2.547308    -0.226413
N        1.348286    -1.460319     0.153175
C        0.623338    -2.550201     0.774497
C        1.205289    -3.550856     1.577310
C        0.418404    -4.592110     2.098157
Br       1.266284    -5.940666     3.155188
C       -0.964918    -4.635287     1.843054
Br      -2.082003    -6.033885     2.530326
C       -1.559287    -3.638304     1.068245
C       -0.784037    -2.573713     0.608711
N       -1.363628    -1.451740    -0.052334
C       -2.570790    -1.166214    -0.704085
C       -3.198491    -2.278744    -1.518835
C       -3.237757     0.176031    -0.617204
C       -2.646047     1.379481    -0.311418
C       -3.475096     2.621709    -0.491984
N       -1.299681     1.501981     0.162949
C       -0.589496     2.579211     0.788923
C       -1.191827     3.577511     1.564536
C       -0.410292     4.616719     2.086778
Br      -1.277694     5.976971     3.106411
C        0.981569     4.646926     1.858564
Br       2.088322     6.045235     2.551463
C        1.592048     3.637502     1.107813
C        0.819536     2.579915     0.661974
N        1.389055     1.429210     0.049496
Ni       0.000000     0.000000     0.000000
H        3.576375     1.970610    -2.515841
H        2.371464     3.094698    -1.825346
H        3.945331     2.808195    -0.953496
H        4.268004    -0.153678    -1.005812
H        4.247893    -2.554477     0.670714
H        2.987401    -3.470838    -0.271187
H        4.204034    -2.569077    -1.154804
H        2.261486    -3.545520     1.790185
H       -2.623636    -3.679104     0.876930
H       -2.427840    -3.056322    -1.735362
H       -4.078316    -2.815964    -1.109959
H       -3.494851    -1.818782    -2.487310
H       -4.243777     0.225698    -1.031815
H       -2.874412     3.538376    -0.357608
H       -4.305908     2.620530     0.245382
H       -3.879740     2.663215    -1.522515
H       -2.257171     3.565575     1.746329
H        2.657318     3.660291     0.932938
49
ex_0027 frame11 tetrahedral-conf5
C        3.121448     2.348430     1.604080
C        2.554739     1.215359     0.773000
C        3.186322    -0.159678     0.749815
C        2.672065    -1.341860     0.291067
C        3.540432    -2.551589     0.289972
N        1.338673    -1.464019    -0.186277
C        0.616234    -2.551249    -0.796338
C        1.205022    -3.534957    -1.600912
C        0.424761    -4.587647    -2.098950
Br       1.282331    -5.927568    -3.155400
C       -0.957155    -4.644853    -1.820206
Br      -2.065939    -6.058563    -2.475136
C       -1.558686    -3.650850    -1.044402
C       -0.792464    -2.581115    -0.617806
N       -1.367330    -1.448571     0.024112
C       -2.565786    -1.207691     0.776229
C       -3.206898    -2.360203     1.538885
C       -3.164571     0.191557     0.792392
C       -2.624271     1.377073     0.369108
C       -3.448783     2.609048     0.490448
N       -1.316697     1.484290    -0.178850
C       -0.598456     2.558347    -0.800828
C       -1.194618     3.539549    -1.596174
C       -0.413284     4.585073    -2.104295
Br      -1.276655     5.929032    -3.147249
C        0.974161     4.631145    -1.844311
Br       2.084130     6.034720    -2.513700
C        1.580027     3.632729    -1.076922
C        0.810372     2.572651    -0.646606
N        1.385098     1.431485    -0.022796
Ni       0.000000     0.000000     0.000000
H        3.538680     1.998083     2.574599
H        2.363288     3.128551     1.839075
H        3.931177     2.763471     0.980162
H        4.186404    -0.173083     1.169112
H        4.154643    -2.588327    -0.630316
H        4.152406    -2.561335     1.212964
H        2.894207    -3.449449     0.364997
H        2.261399    -3.503499    -1.821875
H       -2.616120    -3.693983    -0.830696
H       -2.469910    -3.164678     1.761009
H       -4.031941    -2.747202     0.915774
H       -3.609646    -2.007631     2.514231
H       -4.134171     0.233386     1.278591
H       -3.837600     2.654160     1.526819
H       -2.809186     3.502630     0.376180
H       -4.259412     2.610842    -0.263571
H       -2.256935     3.506957    -1.796957
H        2.640299     3.661828    -0.874324
49
ex_0027 frame12 trans-conf7
C        3.869543     0.542887     1.606775
C        2.666613     0.946240     0.776088
C        2.140049     2.366216     0.753874
C        0.938246     2.837706     0.298257
C        0.695572     4.306816     0.303046
N       -0.092161     1.982296    -0.181123
C       -1.369401     2.245366    -0.791657
C       -1.646804     3.360360    -1.591925
C       -2.942871     3.556513    -2.088274
Br      -3.282093     5.115011    -3.137749
C       -3.961489     2.619894    -1.812850
Br      -5.744924     2.840552    -2.465792
C       -3.684392     1.488300    -1.041897
C       -2.385985     1.271628    -0.615540
N       -1.991509     0.063943     0.023246
C       -2.662577    -0.956800     0.775856
C       -3.923261    -0.588939     1.554179
C       -2.109789    -2.374676     0.784008
C       -0.889049    -2.829171     0.363206
C       -0.588023    -4.279889     0.490285
N        0.106516    -1.980180    -0.190302
C        1.378604    -2.232930    -0.802572
C        1.652611    -3.352346    -1.590919
C        2.944447    -3.540667    -2.098439
Br       3.284185    -5.105031    -3.136569
C        3.958191    -2.591249    -1.841459
Br       5.735846    -2.801374    -2.510568
C        3.681029    -1.454379    -1.077764
C        2.387759    -1.247090    -0.646679
N        1.991443    -0.034054    -0.021475
Ni       0.000000     0.000000     0.000000
H        4.740204     0.808961     0.983480
H        3.874696    -0.543592     1.849115
H        3.918297     1.091653     2.573310
H        2.836739     3.082920     1.174705
H       -0.396289     4.484054     0.377973
H        1.104156     4.770088    -0.615673
H        1.120631     4.743653     1.227686
H       -0.876653     4.084739    -1.810066
H       -4.462206     0.769648    -0.829478
H       -3.957238     0.502500     1.772923
H       -4.808428    -0.889827     0.964925
H       -3.931994    -1.120996     2.531054
H       -2.759613    -3.086240     1.284001
H       -0.919082    -4.624502     1.489381
H       -1.065869    -4.844925    -0.334096
H        0.509173    -4.423222     0.473352
H        0.878554    -4.081157    -1.789450
H        4.451914    -0.724990    -0.877917
49
ex_0027 frame13 trans-conf9
C        3.867286     0.546967    -1.607237
C        2.665082     0.946107    -0.778544
C        2.137484     2.363843    -0.754059
C        0.939470     2.836156    -0.290286
C        0.697313     4.303706    -0.286684
N       -0.088558     1.981304     0.190469
C       -1.367415     2.238489     0.801186
C       -1.645601     3.348487     1.607639
C       -2.942449     3.541479     2.103245
Br      -3.283689     5.093827     3.160821
C       -3.960494     2.605922     1.821080
Br      -5.745201     2.820646     2.471715
C       -3.682737     1.478841     1.044519
C       -2.384729     1.264170     0.622475
N       -1.991486     0.054939    -0.015602
C       -2.667316    -0.956835    -0.777242
C       -3.932985    -0.595060    -1.542580
C       -2.099347    -2.368004    -0.799620
C       -0.881819    -2.826357    -0.371291
C       -0.592590    -4.278479    -0.491845
N        0.115962    -1.980346     0.181911
C        1.383388    -2.230793     0.802786
C        1.654255    -3.344311     1.600134
C        2.946070    -3.531371     2.107236
Br       3.284265    -5.090455     3.153354
C        3.960553    -2.584400     1.843866
Br       5.737904    -2.792294     2.511642
C        3.683965    -1.451286     1.074175
C        2.390836    -1.245618     0.643314
N        1.991795    -0.034644     0.014303
Ni       0.000000     0.000000     0.000000
H        3.915680     1.089736    -2.577413
H        3.883821    -0.541030    -1.841071
H        4.730216     0.827501    -0.979878
H        2.834015     3.080397    -1.174960
H        1.103543     4.760323     0.636243
H        1.123093     4.743607    -1.209157
H       -0.395069     4.478455    -0.362883
H       -0.875129     4.071467     1.830409
H       -4.459751     0.761547     0.827159
H       -3.983451     0.494538    -1.765065
H       -4.786780    -0.908671    -0.917155
H       -3.970003    -1.129559    -2.517954
H       -2.753899    -3.081129    -1.290234
H       -0.836060    -4.584165    -1.528314
H        0.492791    -4.453591    -0.380256
H       -1.161282    -4.851308     0.265291
H        0.878488    -4.070545     1.802797
H        4.454240    -0.723037     0.868619
49
ex_0027 frame14 trans-conf3
C        3.869243     0.536400    -1.603706
C        2.662877     0.939522    -0.785209
C        2.127485     2.353748    -0.779777
C        0.933472     2.828471    -0.307805
C        0.682519     4.289607    -0.316739
N       -0.086019     1.980727     0.194713
C       -1.363557     2.239813     0.801404
C       -1.637469     3.350573     1.604947
C       -2.934012     3.548570     2.095955
Br      -3.268987     5.104679     3.149486
C       -3.954356     2.615380     1.811810
Br      -5.738824     2.837735     2.456716
C       -3.678881     1.485654     1.037762
C       -2.381793     1.267109     0.619488
N       -1.990939     0.055937    -0.017288
C       -2.667583    -0.949404    -0.783962
C       -3.939105    -0.598071    -1.534408
C       -2.088885    -2.353883    -0.825845
C       -0.878865    -2.817875    -0.384014
C       -0.585839    -4.264793    -0.505155
N        0.111091    -1.979962     0.185594
C        1.377392    -2.230468     0.804508
C        1.644328    -3.344344     1.598731
C        2.935352    -3.535693     2.102740
Br       3.266770    -5.098816     3.143802
C        3.952042    -2.590596     1.839807
Br       5.728208    -2.805951     2.504370
C        3.678101    -1.454691     1.073309
C        2.386017    -1.245750     0.643978
N        1.991601    -0.034158     0.017251
Ni       0.000000     0.000000     0.000000
H        3.922433     1.061081    -2.583612
H        4.724574     0.836370    -0.974824
H        3.895348    -0.555625    -1.815687
H        2.817441     3.066618    -1.217067
H        1.083912     4.751797     0.605255
H       -0.412421     4.449380    -0.395110
H        1.102081     4.717767    -1.246184
H       -0.862863     4.069767     1.827280
H       -4.455460     0.768947     0.817522
H       -3.979262    -1.112480    -2.520633
H       -4.020967     0.494275    -1.728879
H       -4.765297    -0.953899    -0.895189
H       -2.739601    -3.062722    -1.325978
H       -1.136872    -4.834026     0.266535
H        0.504387    -4.425632    -0.412118
H       -0.839447    -4.569620    -1.538840
H        0.865176    -4.067470     1.799534
H        4.448007    -0.726236     0.866513
49
ex_0027 frame15 tetrahedral-conf2
C        3.104501     2.354497     1.618444
C        2.537549     1.220513     0.798506
C        3.151088    -0.158656     0.801565
C        2.649685    -1.336226     0.314848
C        3.496584    -2.543376     0.318402
N        1.339350    -1.460327    -0.200763
C        0.620409    -2.541893    -0.810266
C        1.212035    -3.511946    -1.619843
C        0.435867    -4.570005    -2.105547
Br       1.298635    -5.901287    -3.164174
C       -0.943924    -4.635997    -1.811929
Br      -2.048684    -6.055321    -2.448005
C       -1.546799    -3.646005    -1.034112
C       -0.785700    -2.576373    -0.622023
N       -1.369766    -1.448785     0.014627
C       -2.549024    -1.218225     0.789918
C       -3.199827    -2.359159     1.541379
C       -3.124840     0.183133     0.839628
C       -2.606408     1.363417     0.380409
C       -3.412470     2.591499     0.496449
N       -1.327061     1.470340    -0.205127
C       -0.604338     2.539897    -0.819219
C       -1.199561     3.508454    -1.619571
C       -0.421087     4.557987    -2.115321
Br      -1.288905     5.890993    -3.164339
C        0.963622     4.613865    -1.838290
Br       2.067227     6.023621    -2.491104
C        1.570199     3.621322    -1.066143
C        0.804618     2.561423    -0.645505
N        1.383970     1.432571    -0.015071
Ni       0.000000     0.000000     0.000000
H        3.514146     2.025464     2.599861
H        3.923240     2.735787     0.984573
H        2.353532     3.148617     1.824330
H        4.138226    -0.175315     1.247932
H        4.097635    -2.579680    -0.609771
H        2.824701    -3.423607     0.398299
H        4.089459    -2.547088     1.249463
H        2.267494    -3.465094    -1.846757
H       -2.600081    -3.685756    -0.803201
H       -3.596898    -2.024816     2.526204
H       -2.490455    -3.193956     1.734121
H       -4.034081    -2.674905     0.891635
H       -4.078618     0.224255     1.351122
H       -4.188637     2.603876    -0.289632
H       -2.741019     3.467843     0.413973
H       -3.808633     2.623362     1.528441
H       -2.259978     3.460467    -1.828398
H        2.627006     3.649043    -0.845164
49
ex_0027 frame16 tetrahedral-Δ-conf2
C       -1.606171     2.335968     3.123268
C       -0.795101     1.190660     2.553334
C       -0.768314    -0.179462     3.162973
C       -0.398925    -1.372595     2.622048
C       -0.332177    -2.563251     3.475383
N       -0.071917    -1.533257     1.269629
C        0.675830    -2.575999     0.578426
C        1.542015    -3.516580     1.192015
C        2.086618    -4.562888     0.425607
Br       3.170631    -5.882240     1.290122
C        1.828054    -4.624587    -0.959183
Br       2.526406    -6.006914    -2.069185
C        1.034183    -3.650265    -1.566937
C        0.596236    -2.601310    -0.799016
N        0.017830    -1.442330    -1.375207
C       -0.784013    -1.229243    -2.548499
C       -1.547579    -2.366864    -3.182127
C       -0.855923     0.154259    -3.145983
C       -0.430857     1.336803    -2.632750
C       -0.514454     2.570129    -3.417928
N        0.103239     1.458578    -1.351147
C        0.757894     2.519964    -0.629354
C        1.588516     3.480251    -1.222729
C        2.098118     4.527663    -0.441706
Br       3.170434     5.857020    -1.294217
C        1.819662     4.589183     0.940344
Br       2.487680     5.992120     2.049548
C        1.034607     3.608295     1.542644
C        0.603598     2.551959     0.780683
N       -0.022932     1.432969     1.382091
Ni       0.000000     0.000000     0.000000
H       -2.592582     2.006408     3.517068
H       -0.982827     2.736017     3.938538
H       -1.808481     3.118281     2.354790
H       -1.130929    -0.180751     4.176346
H        0.603361    -2.535130     4.074174
H       -0.369046    -3.459859     2.825711
H       -1.253420    -2.570123     4.071576
H        1.754556    -3.490262     2.253926
H        0.823977    -3.677991    -2.622493
H       -2.532456    -2.020702    -3.568855
H       -1.735903    -3.198279    -2.469689
H       -0.907865    -2.675919    -4.026867
H       -1.393355     0.195507    -4.082742
H        0.286063     2.604756    -4.174414
H       -0.441789     3.432190    -2.720726
H       -1.545943     2.603531    -3.802824
H        1.810011     3.445597    -2.281310
H        0.813575     3.642599     2.598222
49
ex_0027 frame17 tetrahedral-Δ
C        1.629436     2.313826     3.121385
C        0.787062     1.181409     2.558395
C        0.731038    -0.183636     3.179286
C        0.371512    -1.376033     2.629877
C        0.282044    -2.562746     3.495272
N        0.077590    -1.537408     1.264800
C       -0.683488    -2.576767     0.573382
C       -1.568074    -3.508046     1.180153
C       -2.118178    -4.550559     0.408715
Br      -3.225130    -5.859242     1.260667
C       -1.847779    -4.616391    -0.973959
Br      -2.549220    -5.990494    -2.094082
C       -1.037932    -3.651212    -1.573648
C       -0.596213    -2.605982    -0.800679
N       -0.003742    -1.451545    -1.366996
C        0.773257    -1.219718    -2.555815
C        1.577513    -2.355194    -3.169321
C        0.785415     0.153566    -3.188840
C        0.377501     1.334090    -2.659091
C        0.436770     2.572132    -3.446258
N       -0.116083     1.451971    -1.357767
C       -0.780877     2.509484    -0.624015
C       -1.634305     3.464800    -1.200615
C       -2.146244     4.506690    -0.407408
Br      -3.245945     5.828870    -1.236029
C       -1.850454     4.569042     0.971200
Br      -2.516307     5.959545     2.100679
C       -1.046901     3.596214     1.558124
C       -0.619449     2.545260     0.786838
N        0.014429     1.429597     1.385152
Ni       0.000000     0.000000     0.000000
H        1.025905     2.759429     3.928883
H        2.598072     1.945967     3.525632
H        1.873475     3.077497     2.345966
H        1.070070    -0.184334     4.202543
H       -0.656808    -2.515723     4.090473
H        1.194255    -2.582833     4.107411
H        0.304682    -3.467761     2.859791
H       -1.790260    -3.478940     2.240155
H       -0.819642    -3.683991    -2.627810
H        2.531112    -1.953431    -3.578801
H        1.835017    -3.128581    -2.412271
H        0.979426    -2.781861    -3.993472
H        1.312171     0.202192    -4.131883
H        0.362750     3.436335    -2.753469
H       -0.381761     2.599920    -4.186076
H        1.454980     2.619014    -3.863672
H       -1.871353     3.432923    -2.255413
H       -0.812854     3.632143     2.611887
49
ex_0027 frame18 tetrahedral-Δ-conf3
C        1.634856     2.315273     3.116887
C        0.792575     1.183902     2.555641
C        0.741341    -0.181408     3.170556
C        0.369703    -1.373524     2.626313
C        0.264054    -2.551550     3.498712
N        0.078635    -1.540210     1.261264
C       -0.690300    -2.575113     0.570948
C       -1.580104    -3.501796     1.177289
C       -2.132466    -4.541155     0.403194
Br      -3.245010    -5.847573     1.249988
C       -1.859938    -4.605533    -0.979359
Br      -2.562889    -5.973886    -2.104005
C       -1.046253    -3.642893    -1.576786
C       -0.600863    -2.601518    -0.803435
N       -0.002504    -1.449369    -1.367990
C        0.775124    -1.218056    -2.554764
C        1.580260    -2.351500    -3.167365
C        0.786920     0.153023    -3.186511
C        0.375158     1.331496    -2.659121
C        0.434514     2.569080    -3.443847
N       -0.122997     1.447527    -1.361599
C       -0.781960     2.507210    -0.626038
C       -1.633634     3.463228    -1.201675
C       -2.139263     4.508325    -0.409529
Br      -3.236243     5.831787    -1.239102
C       -1.839233     4.572577     0.967988
Br      -2.497214     5.968112     2.094755
C       -1.037601     3.598444     1.555320
C       -0.617107     2.544495     0.785348
N        0.012036     1.428949     1.387984
Ni       0.000000     0.000000     0.000000
H        2.601988     1.953080     3.529794
H        1.881153     3.079884     2.343263
H        1.021648     2.756003     3.919675
H        1.077594    -0.178212     4.194837
H       -0.681335    -2.484886     4.081581
H        0.283542    -3.461925     2.870667
H        1.169222    -2.572987     4.121232
H       -1.803314    -3.472646     2.237567
H       -0.824972    -3.672495    -2.630058
H        1.831854    -3.130373    -2.413859
H        0.987968    -2.770966    -3.999384
H        2.536235    -1.945580    -3.566603
H        1.318397     0.201636    -4.125200
H        0.365769     3.434045    -2.750363
H       -0.388840     2.594983    -4.177632
H        1.450209     2.611808    -3.866684
H       -1.872850     3.428452    -2.255568
H       -0.800264     3.635646     2.608221
49
ex_0027 frame19 tetrahedral-Λ-conf3
C        2.314383    -1.626907     3.122349
C        1.183953    -0.789856     2.555855
C       -0.181978    -0.731606     3.170725
C       -1.373991    -0.360018     2.625725
C       -2.551189    -0.249363     3.498226
N       -1.541437    -0.073601     1.260057
C       -2.575998     0.696706     0.569113
C       -3.500262     1.589703     1.172399
C       -4.539719     2.138870     0.395979
Br      -5.845150     3.254804     1.238565
C       -4.604646     1.860548    -0.985671
Br      -5.972322     2.558297    -2.113111
C       -3.643006     1.044749    -1.579709
C       -2.603657     0.606236    -0.803037
N       -1.449909     0.011640    -1.367486
C       -1.221698    -0.778572    -2.549468
C       -2.352887    -1.589577    -3.160780
C        0.150737    -0.798782    -3.181996
C        1.329368    -0.384227    -2.658223
C        2.567840    -0.447598    -3.441010
N        1.444743     0.121310    -1.364685
C        2.506128     0.780025    -0.630464
C        3.462885     1.629501    -1.207525
C        4.508332     2.136640    -0.416481
Br       5.831497     3.231739    -1.249257
C        4.573146     1.839599     0.961698
Br       5.969292     2.499965     2.086458
C        3.599097     1.039343     1.550863
C        2.544970     0.613534     0.782012
N        1.432249    -0.021822     1.382667
Ni       0.000000     0.000000     0.000000
H        1.951475    -2.591879     3.538411
H        3.078942    -1.875796     2.349454
H        2.754553    -1.010102     3.922512
H       -0.179244    -1.065619     4.196013
H       -2.483945     0.698495     4.077495
H       -3.461164    -0.271110     2.869882
H       -2.572478    -1.152288     4.123888
H       -3.469905     1.816760     2.231727
H       -3.671118     0.817711    -2.632220
H       -3.132016    -1.838850    -2.407519
H       -2.770569    -0.999584    -3.995356
H       -1.946971    -2.547384    -3.557662
H        0.200807    -1.336660    -4.117348
H        3.432602    -0.377568    -2.746664
H        2.594783     0.373545    -4.176805
H        2.609959    -1.464806    -3.859985
H        3.427835     1.866469    -2.261690
H        3.636715     0.804212     2.604578
49
ex_0027 frame20 tetrahedral-Λ
C        2.306029    -1.634115     3.123010
C        1.179094    -0.791210     2.554671
C       -0.187856    -0.726156     3.168227
C       -1.379690    -0.353504     2.618801
C       -2.558647    -0.247780     3.486920
N       -1.547818    -0.060953     1.252745
C       -2.580120     0.715272     0.569221
C       -3.494507     1.612297     1.175975
C       -4.535044     2.155979     0.400629
Br      -5.833992     3.275180     1.244907
C       -4.604434     1.869244    -0.979838
Br      -5.975246     2.560329    -2.104821
C       -3.645566     1.050080    -1.574208
C       -2.605127     0.615194    -0.800654
N       -1.451358     0.016539    -1.365866
C       -1.227607    -0.777688    -2.546357
C       -2.362258    -1.580849    -3.158978
C        0.146477    -0.808213    -3.174828
C        1.322795    -0.388135    -2.657804
C        2.564887    -0.458702    -3.431968
N        1.432269     0.131196    -1.376622
C        2.500900     0.782219    -0.635164
C        3.463958     1.628290    -1.205844
C        4.510720     2.130140    -0.412236
Br       5.835844     3.221747    -1.245142
C        4.574508     1.830603     0.965532
Br       5.972721     2.484702     2.091019
C        3.597862     1.032723     1.552584
C        2.542636     0.610651     0.780823
N        1.433008    -0.025096     1.381610
Ni       0.000000     0.000000     0.000000
H        2.748494    -1.024999     3.927719
H        1.934087    -2.598741     3.532461
H        3.070450    -1.884083     2.350155
H       -0.189829    -1.076359     4.189720
H       -2.509561     0.695784     4.075880
H       -2.577254    -1.159020     4.099857
H       -3.458788    -0.276390     2.845792
H       -3.455635     1.842357     2.234948
H       -3.675931     0.816132    -2.624549
H       -1.964745    -2.537004    -3.568455
H       -3.138432    -1.833712    -2.404094
H       -2.777703    -0.978039    -3.985228
H        0.198120    -1.352656    -4.103676
H        3.428014    -0.389911    -2.733810
H        2.595053     0.359316    -4.169742
H        2.605243    -1.478241    -3.845061
H        3.429201     1.866500    -2.258584
H        3.633603     0.794790     2.606855
49
ex_0027 frame21 tetrahedral-Λ-conf5
C        2.324393     1.628949     3.110570
C        1.188660     0.808705     2.543253
C       -0.181796     0.774629     3.144618
C       -1.376031     0.392002     2.606799
C       -2.553431     0.303041     3.470511
N       -1.547515     0.072831     1.251884
C       -2.583055    -0.697907     0.573101
C       -3.504381    -1.578736     1.189111
C       -4.549055    -2.115541     0.417981
Br      -5.860604    -3.211459     1.271702
C       -4.612963    -1.839053    -0.964672
Br      -5.989978    -2.523062    -2.082877
C       -3.644896    -1.036688    -1.566563
C       -2.602106    -0.606905    -0.799134
N       -1.443936    -0.025744    -1.373283
C       -1.230053     0.782969    -2.543064
C       -2.361738     1.561994    -3.170382
C        0.150532     0.846644    -3.144405
C        1.323856     0.405860    -2.639218
C        2.562954     0.483889    -3.407123
N        1.431833    -0.143125    -1.375361
C        2.500263    -0.786419    -0.636704
C        3.462858    -1.626131    -1.211535
C        4.512480    -2.123154    -0.422206
Br       5.839349    -3.208071    -1.260800
C        4.577282    -1.823498     0.955102
Br       5.980982    -2.472647     2.073192
C        3.598622    -1.030137     1.546101
C        2.541075    -0.608261     0.778627
N        1.434061     0.030490     1.380231
Ni       0.000000     0.000000     0.000000
H        1.980248     2.605390     3.514725
H        3.104625     1.849554     2.344406
H        2.728800     1.000919     3.920117
H       -0.178857     1.147520     4.156808
H       -2.517157    -0.638690     4.061402
H       -2.556299     1.219369     4.073773
H       -3.448380     0.346078     2.820795
H       -3.468006    -1.799697     2.250627
H       -3.668778    -0.809639    -2.617428
H       -3.170493     1.782695    -2.441617
H       -2.701184     0.918236    -3.999992
H       -2.000172     2.533023    -3.579422
H        0.201103     1.395580    -4.068261
H        2.599159     1.515646    -3.787253
H        3.424628     0.405444    -2.705840
H        2.585791    -0.316206    -4.161189
H        3.423445    -1.861936    -2.264601
H        3.634531    -0.791947     2.599453
49
ex_0027 frame22 tetrahedral-Δ-conf5
C       -1.625367     2.323421     3.111417
C       -0.803027     1.188125     2.543702
C       -0.771578    -0.182482     3.142601
C       -0.385458    -1.376743     2.604419
C       -0.293981    -2.551985     3.468401
N       -0.064734    -1.550660     1.248380
C        0.705448    -2.585086     0.572405
C        1.588607    -3.502280     1.187227
C        2.122117    -4.546105     0.414334
Br       3.222479    -5.854749     1.264756
C        1.839056    -4.611052    -0.967236
Br       2.518805    -5.987660    -2.087098
C        1.033045    -3.644371    -1.566695
C        0.602153    -2.602636    -0.798944
N        0.009450    -1.448960    -1.367973
C       -0.792634    -1.230500    -2.538671
C       -1.567888    -2.361694    -3.167320
C       -0.853976     0.150112    -3.139170
C       -0.406624     1.320893    -2.637776
C       -0.489403     2.561525    -3.401730
N        0.153204     1.423472    -1.382762
C        0.791371     2.495547    -0.639711
C        1.627375     3.460754    -1.213245
C        2.121848     4.511802    -0.424829
Br       3.202883     5.839778    -1.265988
C        1.822552     4.576872     0.952426
Br       2.469078     5.983176     2.068048
C        1.032061     3.597128     1.544554
C        0.614189     2.538122     0.777591
N       -0.019659     1.430961     1.383618
Ni       0.000000     0.000000     0.000000
H       -2.601354     1.979726     3.518118
H       -1.847388     3.104223     2.346283
H       -0.995440     2.726640     3.920396
H       -1.147621    -0.179180     4.154309
H        0.648988    -2.516042     4.057031
H       -1.209936    -2.553234     4.071974
H       -0.340407    -3.445361     2.816749
H        1.812978    -3.462675     2.247957
H        0.800644    -3.668371    -2.616098
H       -1.786680    -3.170614    -2.437959
H       -0.923789    -2.698597    -3.997392
H       -2.539188    -2.000204    -3.574746
H       -1.407020     0.201372    -4.059225
H       -1.521433     2.596460    -3.780663
H       -0.410909     3.423051    -2.699714
H        0.309923     2.583311    -4.156370
H        1.862153     3.420141    -2.266029
H        0.793884     3.632884     2.598181
49
ex_0027 frame23 tetrahedral-Λ-conf4
C        2.328331    -1.620064     3.113880
C        1.191313    -0.800194     2.542459
C       -0.180943    -0.765148     3.142938
C       -1.375956    -0.379366     2.603331
C       -2.552316    -0.294094     3.465281
N       -1.552024    -0.052662     1.247179
C       -2.589206     0.710772     0.575326
C       -3.506765     1.588498     1.189817
C       -4.553369     2.113640     0.417563
Br      -5.863983     3.207713     1.270345
C       -4.619739     1.827514    -0.963266
Br      -6.004060     2.500106    -2.076446
C       -3.650206     1.025571    -1.563244
C       -2.606547     0.603193    -0.794978
N       -1.452251     0.016242    -1.364400
C       -1.231711    -0.799785    -2.529229
C       -2.362087    -1.588266    -3.149601
C        0.147723    -0.865288    -3.134734
C        1.315296    -0.408721    -2.638897
C        2.561433    -0.497572    -3.392656
N        1.410392     0.169284    -1.394203
C        2.490360     0.795381    -0.647789
C        3.461147     1.620861    -1.222331
C        4.512632     2.115705    -0.435501
Br       5.840457     3.189269    -1.283953
C        4.577839     1.822501     0.943061
Br       5.986350     2.471454     2.054173
C        3.596646     1.036887     1.538432
C        2.537404     0.615269     0.771875
N        1.436587    -0.024154     1.377693
Ni       0.000000     0.000000     0.000000
H        2.747632    -0.991619     3.915897
H        3.099269    -1.854440     2.342645
H        1.978165    -2.589750     3.529283
H       -0.181155    -1.149962     4.151867
H       -3.444094    -0.345070     2.811245
H       -2.520926     0.649213     4.053265
H       -2.549913    -1.210827     4.067029
H       -3.465222     1.814418     2.249358
H       -3.672442     0.789027    -2.612446
H       -3.162590    -1.807201    -2.411773
H       -2.721642    -0.969861    -3.990487
H       -1.981778    -2.560594    -3.538300
H        0.198523    -1.430266    -4.047445
H        2.569432    -1.489602    -3.865360
H        2.633079     0.364316    -4.073732
H        3.403150    -0.506886    -2.660339
H        3.419923     1.850304    -2.274834
H        3.631595     0.802685     2.593653
49
ex_0027 frame24 see-saw N1-N1-ax-conf2
C        0.521429     1.730683     3.916336
C        0.897956     0.866632     2.709612
C        2.310595     0.800862     2.239139
C        2.795892     0.294070     1.073554
C        4.237743     0.245922     0.855283
N        1.980173    -0.198865     0.039055
C        2.215059    -0.861287    -1.203296
C        3.293401    -1.711718    -1.402119
C        3.499701    -2.245115    -2.673450
Br       5.016144    -3.353945    -2.942306
C        2.598077    -1.960412    -3.722593
Br       2.804855    -2.642682    -5.473402
C        1.496543    -1.150157    -3.511779
C        1.267230    -0.712296    -2.263392
N        0.038426    -0.078337    -1.986869
C       -0.992513     0.703830    -2.566130
C       -0.626091     1.490862    -3.797924
C       -2.387982     0.744761    -1.976291
C       -2.823749     0.367655    -0.742767
C       -4.238826     0.438047    -0.398896
N       -1.973547    -0.097850     0.247335
C       -2.212547    -0.753480     1.513613
C       -3.282757    -1.605754     1.816787
C       -3.445638    -2.068638     3.133680
Br      -4.963668    -3.159501     3.531933
C       -2.502830    -1.728031     4.127564
Br      -2.682856    -2.334760     5.933526
C       -1.403157    -0.927127     3.799739
C       -1.238275    -0.542160     2.476350
N       -0.071787     0.095854     1.990335
Ni       0.000000     0.000000     0.000000
H        0.815201     1.148949     4.812635
H        1.089185     2.689468     3.939093
H       -0.557896     1.996051     3.951487
H        3.005415     1.262206     2.929718
H        4.652895    -0.675141     1.299474
H        4.650080     1.188054     1.250335
H        4.390384     0.295639    -0.244019
H        3.978900    -1.924147    -0.591456
H        0.787399    -0.910177    -4.285129
H       -1.185802     2.450966    -3.818916
H        0.464826     1.733428    -3.782018
H       -0.883042     0.853857    -4.657722
H       -3.101003     1.243389    -2.608935
H       -4.355365     0.378176     0.703158
H       -4.737410    -0.416569    -0.899348
H       -4.572965     1.435615    -0.700537
H       -4.007337    -1.869921     1.061791
H       -0.677199    -0.662059     4.554703
49
ex_0027 frame25 see-saw N1-N1-ax-conf6
C        0.510084    -1.710349     3.926051
C        0.888810    -0.861861     2.712210
C        2.300454    -0.825975     2.231714
C        2.792388    -0.316404     1.069267
C        4.236979    -0.288457     0.849477
N        1.980350     0.197559     0.040798
C        2.223034     0.846876    -1.205561
C        3.313203     1.680749    -1.410097
C        3.521417     2.212770    -2.681359
Br       5.050292     3.305262    -2.952392
C        2.613426     1.938846    -3.727892
Br       2.825094     2.622026    -5.478673
C        1.502943     1.140045    -3.514022
C        1.272598     0.698732    -2.264718
N        0.045535     0.064620    -1.987068
C       -0.988493    -0.714744    -2.567800
C       -0.628719    -1.475992    -3.811239
C       -2.378385    -0.774091    -1.964752
C       -2.817493    -0.387755    -0.736215
C       -4.229713    -0.486713    -0.389153
N       -1.973504     0.112578     0.241711
C       -2.222272     0.753543     1.511258
C       -3.304180     1.587296     1.815079
C       -3.475353     2.044807     3.131584
Br      -5.008359     3.114639     3.526773
C       -2.530109     1.714222     4.126469
Br      -2.723261     2.315593     5.932373
C       -1.419255     0.928229     3.799582
C       -1.246641     0.548447     2.475124
N       -0.073117    -0.075788     1.991346
Ni       0.000000     0.000000     0.000000
H        1.057676    -2.680721     3.966486
H       -0.573667    -1.952581     3.976637
H        0.826889    -1.113617     4.804003
H        2.991669    -1.296092     2.921785
H        4.663228     0.630071     1.287635
H        4.644436    -1.231231     1.250042
H        4.390128    -0.345724    -0.249751
H        4.004047     1.885567    -0.602259
H        0.789771     0.909516    -4.286480
H        0.469982    -1.679414    -3.827191
H       -0.938729    -0.815498    -4.631471
H       -1.155906    -2.454463    -3.842181
H       -3.084113    -1.289140    -2.592455
H       -4.533545    -1.501665    -0.669693
H       -4.347638    -0.414396     0.711630
H       -4.752610     0.341605    -0.905994
H       -4.028193     1.841499     1.056767
H       -0.692117     0.671708     4.556567
49
ex_0027 frame26 see-saw N1-N1-ax-conf5
C        0.505503     1.714981     3.929218
C        0.884783     0.866794     2.712107
C        2.296195     0.833369     2.230903
C        2.787677     0.320617     1.069633
C        4.228692     0.300955     0.842218
N        1.979315    -0.205562     0.046764
C        2.224262    -0.847340    -1.200022
C        3.316326    -1.674682    -1.404325
C        3.527968    -2.199885    -2.675754
Br       5.060811    -3.284404    -2.947166
C        2.621376    -1.925716    -3.722246
Br       2.844242    -2.603494    -5.471001
C        1.507714    -1.132708    -3.508398
C        1.274702    -0.696598    -2.260225
N        0.047218    -0.066724    -1.986760
C       -0.980467     0.721754    -2.562065
C       -0.617389     1.491321    -3.797068
C       -2.368997     0.782060    -1.960270
C       -2.812315     0.384639    -0.737311
C       -4.220042     0.478511    -0.383816
N       -1.973157    -0.126252     0.236369
C       -2.221211    -0.758973     1.508206
C       -3.303344    -1.587685     1.812729
C       -3.475416    -2.044065     3.128373
Br      -5.010194    -3.110880     3.518463
C       -2.530916    -1.714727     4.123977
Br      -2.728644    -2.316640     5.928424
C       -1.418893    -0.930240     3.797805
C       -1.246573    -0.548835     2.473360
N       -0.077971     0.080511     1.991589
Ni       0.000000     0.000000     0.000000
H        0.809386     1.122541     4.815421
H       -0.576128     1.967275     3.967805
H        1.061811     2.680798     3.970054
H        2.985690     1.312071     2.915777
H        4.377814     0.359038    -0.258422
H        4.655144    -0.616560     1.280994
H        4.630467     1.244458     1.242629
H        4.006199    -1.879879    -0.596715
H        0.792347    -0.899264    -4.277941
H        0.480499     1.696089    -3.805315
H       -0.921175     0.843429    -4.630998
H       -1.147332     2.468153    -3.807247
H       -3.068979     1.304238    -2.586473
H       -4.566336     1.452980    -0.742944
H       -4.721925    -0.408074    -0.818013
H       -4.301931     0.493619     0.724536
H       -4.025245    -1.839945     1.053808
H       -0.691460    -0.673966     4.554684
49
ex_0027 frame27 see-saw N1-N1-ax-conf3
C        0.505609    -1.703480     3.938205
C        0.887025    -0.869389     2.714788
C        2.293429    -0.845490     2.228203
C        2.783293    -0.329173     1.067440
C        4.219147    -0.315622     0.833207
N        1.978637     0.207598     0.048845
C        2.222409     0.848847    -1.195716
C        3.314682     1.673619    -1.397821
C        3.526436     2.197761    -2.668246
Br       5.060253     3.278986    -2.940184
C        2.618928     1.924863    -3.713770
Br       2.840798     2.600595    -5.461085
C        1.504707     1.134629    -3.500462
C        1.271952     0.700029    -2.254870
N        0.042997     0.073341    -1.982926
C       -0.982039    -0.718973    -2.564946
C       -0.629026    -1.465521    -3.809694
C       -2.359339    -0.795208    -1.945810
C       -2.806710    -0.395963    -0.726284
C       -4.212762    -0.493915    -0.378981
N       -1.972488     0.118649     0.243897
C       -2.219323     0.754077     1.512907
C       -3.302466     1.582366     1.813386
C       -3.479319     2.038446     3.125967
Br      -5.019317     3.101902     3.507410
C       -2.536655     1.711296     4.122730
Br      -2.748266     2.317450     5.922902
C       -1.420449     0.928266     3.799805
C       -1.242849     0.544361     2.475700
N       -0.072375    -0.085017     1.990785
Ni       0.000000     0.000000     0.000000
H        1.030653    -2.686693     3.987372
H        0.839983    -1.107673     4.810819
H       -0.583527    -1.916245     3.987695
H        2.980598    -1.328614     2.911363
H        4.652304     0.597642     1.272574
H        4.357157    -0.375399    -0.269320
H        4.610977    -1.263706     1.228745
H        4.004454     1.876988    -0.589818
H        0.787652     0.900982    -4.267301
H       -1.135844    -2.454860    -3.842780
H        0.473513    -1.634623    -3.857860
H       -0.988559    -0.789066    -4.593949
H       -3.056262    -1.315492    -2.574340
H       -4.730401     0.338519    -0.889428
H       -4.322497    -0.438801     0.725424
H       -4.510414    -1.505547    -0.670533
H       -4.023915     1.833489     1.053365
H       -0.694843     0.674127     4.558245
49
ex_0027 frame28 see-saw N1-N1-ax-conf4
C        0.517039     1.730214     3.918229
C        0.893919     0.866420     2.711655
C        2.303974     0.812656     2.236572
C        2.791586     0.289529     1.077389
C        4.232488     0.236623     0.864833
N        1.978123    -0.215855     0.045511
C        2.211242    -0.869529    -1.197766
C        3.288121    -1.718069    -1.398439
C        3.490825    -2.249774    -2.670171
Br       5.003058    -3.361536    -2.945126
C        2.588378    -1.961637    -3.717222
Br       2.790091    -2.641203    -5.468257
C        1.489600    -1.149948    -3.504889
C        1.263559    -0.710917    -2.258577
N        0.041390    -0.067330    -1.985902
C       -0.990759     0.710947    -2.561743
C       -0.627688     1.497804    -3.791966
C       -2.382720     0.746326    -1.968245
C       -2.819708     0.350182    -0.741113
C       -4.232836     0.426334    -0.397749
N       -1.971999    -0.139387     0.238478
C       -2.209596    -0.773935     1.511281
C       -3.279756    -1.617950     1.817072
C       -3.447726    -2.070123     3.134508
Br      -4.968419    -3.155429     3.529824
C       -2.508666    -1.723111     4.129250
Br      -2.699502    -2.317778     5.936286
C       -1.406596    -0.925707     3.801105
C       -1.235766    -0.552037     2.475870
N       -0.071161     0.080337     1.990958
Ni       0.000000     0.000000     0.000000
H        1.085159     2.689104     3.951670
H       -0.561503     1.997018     3.953056
H        0.810676     1.142713     4.811462
H        2.998081     1.273509     2.929311
H        4.621154    -0.691165     1.316883
H        4.398430     0.282135    -0.233515
H        4.653765     1.170435     1.269279
H        3.973167    -1.931993    -0.588138
H        0.779263    -0.906442    -4.275134
H        0.464836     1.734792    -3.782138
H       -0.895882     0.862579    -4.649530
H       -1.184417     2.458853    -3.799502
H       -3.090885     1.253725    -2.597549
H       -4.350795     0.373387     0.704794
H       -4.727272    -0.429379    -0.898250
H       -4.565778     1.422031    -0.707429
H       -3.997138    -1.883056     1.057196
H       -0.683972    -0.656367     4.557731
49
ex_0027 frame29 tetrahedral-Λ-conf2
C        2.335847     1.624033     3.104422
C        1.194662     0.812501     2.536208
C       -0.178677     0.795620     3.127166
C       -1.373976     0.398237     2.593367
C       -2.549169     0.325271     3.448971
N       -1.553902     0.046463     1.244580
C       -2.588649    -0.715550     0.580551
C       -3.502123    -1.586936     1.201285
C       -4.548506    -2.111405     0.432060
Br      -5.857210    -3.199264     1.291544
C       -4.615457    -1.829018    -0.949627
Br      -6.000283    -2.501700    -2.057992
C       -3.646379    -1.031014    -1.554256
C       -2.603454    -0.604101    -0.791053
N       -1.452452    -0.010738    -1.363949
C       -1.233800     0.787846    -2.533252
C       -2.359839     1.547671    -3.178887
C        0.150172     0.863190    -3.120728
C        1.316035     0.397950    -2.629256
C        2.559880     0.493064    -3.383659
N        1.405559    -0.190787    -1.395922
C        2.486783    -0.806634    -0.642271
C        3.457708    -1.630468    -1.213037
C        4.510829    -2.117085    -0.427999
Br       5.837051    -3.189501    -1.279211
C        4.577971    -1.816842     0.948135
Br       5.993179    -2.458861     2.050755
C        3.595738    -1.031407     1.543243
C        2.534484    -0.617117     0.776961
N        1.433444     0.022967     1.380870
Ni       0.000000     0.000000     0.000000
H        2.012866     2.611741     3.500796
H        2.720105     0.994511     3.922973
H        3.121413     1.817968     2.337508
H       -0.177610     1.198400     4.128843
H       -2.526406    -0.610908     4.046624
H       -3.433270     0.380434     2.783409
H       -2.538809     1.251638     4.033003
H       -3.455971    -1.807202     2.261726
H       -3.667112    -0.796329    -2.603087
H       -2.011465     2.530141    -3.572730
H       -3.192353     1.735242    -2.468999
H       -2.649331     0.895902    -4.020184
H        0.201563     1.420919    -4.035689
H        2.583310    -0.313742    -4.129540
H        3.419528     0.428928    -2.675952
H        2.586619     1.519922    -3.773797
H        3.413503    -1.864352    -2.264005
H        3.629885    -0.790386     2.596678
49
ex_0027 frame30 tetrahedral-Δ-conf4
C        1.642173     2.329296     3.098567
C        0.819826     1.192881     2.533058
C        0.792632    -0.179181     3.129848
C        0.389246    -1.373507     2.596457
C        0.313760    -2.547272     3.456310
N        0.033522    -1.554143     1.244888
C       -0.722787    -2.588909     0.582879
C       -1.592582    -3.502174     1.201801
C       -2.113329    -4.549519     0.431860
Br      -3.200895    -5.858626     1.289698
C       -1.827909    -4.617643    -0.949153
Br      -2.497004    -6.005399    -2.056494
C       -1.030010    -3.648078    -1.552875
C       -0.608381    -2.604080    -0.788872
N       -0.017835    -1.452705    -1.363600
C        0.788372    -1.231661    -2.529759
C        1.571455    -2.359100    -3.158739
C        0.848861     0.148529    -3.129041
C        0.376432     1.310589    -2.636129
C        0.469649     2.558812    -3.383829
N       -0.220080     1.393158    -1.404169
C       -0.820895     2.479286    -0.642068
C       -1.643082     3.453280    -1.207342
C       -2.125882     4.506221    -0.418296
Br      -3.203174     5.833106    -1.261009
C       -1.818396     4.573102     0.956677
Br      -2.452445     5.985525     2.068324
C       -1.030008     3.591548     1.546645
C       -0.618449     2.531132     0.778023
N        0.031316     1.434867     1.376637
Ni       0.000000     0.000000     0.000000
H        1.016206     2.743940     3.905521
H        1.869819     3.101584     2.326765
H        2.614590     1.981158     3.509114
H        1.196447    -0.178802     4.131800
H        0.367684    -3.435390     2.796072
H       -0.625505    -2.518095     4.048600
H        1.236059    -2.539439     4.047874
H       -1.814598    -3.454419     2.261334
H       -0.792649    -3.669153    -2.601463
H        1.795724    -3.159367    -2.422718
H        0.943314    -2.713496    -3.994272
H        2.540250    -1.976970    -3.555016
H        1.410424     0.200415    -4.041654
H        1.456835     2.565606    -3.865520
H       -0.397587     2.623608    -4.058686
H        0.483728     3.399912    -2.650743
H       -1.881058     3.407251    -2.256896
H       -0.784012     3.626362     2.599068
49
ex_0027 frame31 tetrahedral-conf6
C        3.589741     2.076311    -0.962144
C        2.779175     0.961885    -0.318995
C        3.324520    -0.428691    -0.200558
C        2.601410    -1.579529    -0.067873
C        3.361343    -2.877267    -0.132555
N        1.183281    -1.599290     0.125632
C        0.302596    -2.559824     0.726292
C        0.724599    -3.588391     1.587220
C       -0.218122    -4.464564     2.150517
Br       0.390250    -5.830789     3.327173
C       -1.584637    -4.334073     1.850341
Br      -2.920160    -5.494754     2.584109
C       -2.008523    -3.332443     0.990869
C       -1.083248    -2.416695     0.534500
N       -1.530827    -1.265275    -0.166117
C       -2.715312    -0.755941    -0.701983
C       -3.395288    -1.612674    -1.725040
C       -3.310178     0.543952    -0.321060
C       -2.582401     1.619826     0.092027
C       -3.301056     2.930166     0.271825
N       -1.184728     1.561754     0.359187
C       -0.381516     2.153879     1.390795
C       -0.882112     2.718591     2.577925
C        0.010570     3.271652     3.517160
Br      -0.683493     4.030782     5.115388
C        1.398915     3.265224     3.281033
Br       2.666606     4.000293     4.516282
C        1.895784     2.708109     2.110127
C        1.014794     2.081454     1.252159
N        1.495263     1.310508     0.155418
Ni       0.000000     0.000000     0.000000
H        3.937410     1.678328    -1.939261
H        4.469189     2.448836    -0.396936
H        2.936793     2.958454    -1.161680
H        4.388572    -0.532270    -0.396417
H        4.035964    -2.954417     0.746949
H        3.959372    -2.919992    -1.065321
H        2.682478    -3.749782    -0.150460
H        1.763447    -3.711264     1.834292
H       -3.062582    -3.243903     0.768987
H       -3.079031    -2.680526    -1.741368
H       -4.504460    -1.609234    -1.779002
H       -2.990203    -1.130189    -2.640904
H       -4.362321     0.721091    -0.537773
H       -2.645903     3.687934     0.744043
H       -4.187167     2.783138     0.925932
H       -3.626913     3.323072    -0.713075
H       -1.941722     2.732080     2.774949
H        2.962492     2.704540     1.931386
49
ex_0027 frame32 Isomer 1
C        1.796441     3.178136     1.819422
C        2.004823     1.894161     0.988369
C        3.233191     1.752804     0.159270
C        3.352292     0.971137    -0.933100
C        4.655545     0.897427    -1.628642
N        2.283446     0.213831    -1.448323
C        2.279025    -0.913436    -2.351105
C        3.377852    -1.773951    -2.595755
C        3.275778    -2.788459    -3.566436
Br       4.790971    -3.899634    -3.924487
C        2.068240    -2.978486    -4.263300
Br       1.847256    -4.333204    -5.596193
C        0.975546    -2.161333    -3.990641
C        1.076269    -1.235115    -2.973915
N       -0.073421    -0.549023    -2.503534
C       -1.360584    -0.274102    -2.950832
C       -1.529662    -0.037553    -4.437298
C       -2.546390    -0.206144    -2.042913
C       -2.552602     0.033338    -0.695449
C       -3.852017     0.205354    -0.001429
N       -1.390360     0.129278     0.090664
C       -1.140284     0.019671     1.503783
C       -1.975621    -0.662247     2.405793
C       -1.644993    -0.710697     3.767746
Br      -2.733045    -1.775712     4.939385
C       -0.532082    -0.004752     4.260120
Br      -0.113370     0.100008     6.121960
C        0.309691     0.650785     3.365176
C        0.034247     0.513417     2.029682
N        0.986972     0.889076     1.060468
Ni       0.432302     0.166408    -0.712099
H        2.365189     3.123088     2.765725
H        2.141999     4.081009     1.262210
H        0.718011     3.353187     2.060948
H        4.045932     2.433065     0.393874
H        5.327321     0.226050    -1.044089
H        5.049079     1.915539    -1.761209
H        4.501200     0.480516    -2.639060
H        4.302521    -1.624152    -2.058219
H        0.050980    -2.307135    -4.524482
H       -2.200429     0.843182    -4.569642
H       -0.544890     0.223028    -4.903647
H       -1.946362    -0.877444    -5.021306
H       -3.505072    -0.116188    -2.540691
H       -3.706472     0.546070     1.041488
H       -4.353561    -0.782770     0.004309
H       -4.429157     0.993467    -0.513096
H       -2.854517    -1.166650     2.032270
H        1.203645     1.144207     3.716579
49
ex_0027 frame33 trans-conf2
C        3.827082     0.543800     1.667194
C        2.654185     0.874935     0.840758
C        2.067589     2.266699     0.817045
C        0.901555     2.760938     0.308011
C        0.619352     4.127699     0.205871
N       -0.011306     1.985361    -0.110128
C       -1.326668     2.196356    -0.821098
C       -1.575343     3.221352    -1.706711
C       -2.852836     3.414603    -2.175712
Br      -3.200430     4.902259    -3.307227
C       -3.863948     2.516418    -1.811595
Br      -5.638256     2.743388    -2.434002
C       -3.597844     1.443988    -0.991844
C       -2.339244     1.271080    -0.604131
N       -1.978359     0.179889     0.024616
C       -2.642621    -0.873534     0.839025
C       -3.877777    -0.579002     1.605122
C       -2.037231    -2.258156     0.875387
C       -0.870969    -2.750492     0.378789
C       -0.543406    -4.112580     0.406735
N       -0.026040    -1.982679    -0.134820
C        1.316707    -2.179277    -0.831280
C        1.579897    -3.216877    -1.700481
C        2.855591    -3.401099    -2.178922
Br       3.203356    -4.901830    -3.296633
C        3.861801    -2.486817    -1.835089
Br       5.629896    -2.708800    -2.475503
C        3.592683    -1.404646    -1.024034
C        2.333879    -1.236429    -0.632044
N        1.982950    -0.103507    -0.003315
Ni       0.000000     0.000000     0.000000
H        4.666303     0.843335     1.033104
H        3.823683     1.100986     2.602863
H        3.797939    -0.535769     1.897250
H        2.737922     2.956489     1.245228
H        1.067057     4.523436    -0.704274
H        1.049848     4.511960     1.088743
H       -0.486959     4.271780     0.293795
H       -0.797666     3.892241    -1.972821
H       -4.357672     0.765256    -0.715583
H       -3.899321    -1.147760     2.535444
H       -3.869252     0.496289     1.851875
H       -4.693568    -0.896451     0.950430
H       -2.680639    -2.920897     1.380833
H        0.564421    -4.235273     0.359144
H       -1.086307    -4.589562    -0.403453
H       -0.846400    -4.428843     1.373787
H        0.802960    -3.896130    -1.947794
H        4.339919    -0.706408    -0.755580
49
ex_0027 frame34 trans-conf6
C        3.828797     0.539425     1.666486
C        2.652560     0.874824     0.841221
C        2.066166     2.265270     0.819653
C        0.903401     2.763446     0.305142
C        0.629484     4.134026     0.202045
N       -0.024540     1.986360    -0.122436
C       -1.326923     2.194315    -0.823180
C       -1.578827     3.220180    -1.707151
C       -2.856747     3.411136    -2.178607
Br      -3.210030     4.898597    -3.310700
C       -3.866905     2.509440    -1.816273
Br      -5.640773     2.731015    -2.440330
C       -3.599428     1.437128    -0.996761
C       -2.341582     1.270672    -0.610564
N       -1.980628     0.178739     0.017595
C       -2.639635    -0.871312     0.833907
C       -3.874879    -0.582531     1.608268
C       -2.036727    -2.260235     0.873823
C       -0.873676    -2.753965     0.375388
C       -0.545590    -4.118238     0.399352
N       -0.013966    -1.983463    -0.145587
C        1.314205    -2.181121    -0.831780
C        1.578269    -3.219264    -1.700808
C        2.854654    -3.406655    -2.178126
Br       3.204993    -4.907474    -3.296112
C        3.861926    -2.493914    -1.832563
Br       5.631533    -2.717369    -2.469575
C        3.592733    -1.411358    -1.021630
C        2.334165    -1.240077    -0.631543
N        1.982984    -0.098215     0.000471
Ni       0.000000     0.000000     0.000000
H        3.840667     1.096276     2.603115
H        3.799029    -0.540008     1.898168
H        4.664337     0.837617     1.028162
H        2.740279     2.952909     1.246416
H        1.088026     4.488648    -0.717943
H       -0.472923     4.308193     0.283157
H        1.068225     4.532419     1.076217
H       -0.801163     3.892760    -1.971019
H       -4.357676     0.755278    -0.721282
H       -3.876158     0.493354     1.852360
H       -4.696520    -0.906795     0.963299
H       -3.877521    -1.150399     2.538902
H       -2.680993    -2.923537     1.379673
H        0.561188    -4.247465     0.355091
H       -1.087330    -4.592514    -0.412143
H       -0.856481    -4.431854     1.365367
H        0.798897    -3.896658    -1.948550
H        4.340957    -0.714722    -0.752251
49
ex_0027 frame35 trans-conf10
C        3.826340     0.533650    -1.652411
C        2.648137     0.882789    -0.846924
C        2.057084     2.256720    -0.837951
C        0.893451     2.752589    -0.320405
C        0.613723     4.126324    -0.251962
N       -0.015812     1.985278     0.135525
C       -1.330755     2.198739     0.817962
C       -1.583320     3.238104     1.678572
C       -2.859528     3.436735     2.145975
Br      -3.207138     4.943386     3.255388
C       -3.866443     2.531569     1.796786
Br      -5.639373     2.766940     2.418681
C       -3.595031     1.446349     0.992202
C       -2.337581     1.265998     0.601620
N       -1.980934     0.175158    -0.019838
C       -2.641239    -0.876610    -0.842387
C       -3.876874    -0.583886    -1.590900
C       -2.026232    -2.246230    -0.897889
C       -0.862307    -2.735126    -0.390949
C       -0.531098    -4.095092    -0.453848
N       -0.013116    -1.980998     0.167397
C        1.318785    -2.183920     0.830718
C        1.578557    -3.236061     1.677356
C        2.853921    -3.431756     2.152317
Br       3.206347    -4.946752     3.250917
C        3.860203    -2.516514     1.818797
Br       5.631129    -2.747486     2.451319
C        3.588918    -1.421755     1.020431
C        2.331540    -1.238337     0.625692
N        1.982928    -0.104488    -0.001784
Ni       0.000000     0.000000     0.000000
H        3.856671     1.065795    -2.603102
H        3.815538    -0.553199    -1.857395
H        4.641592     0.859738    -1.004851
H        2.732402     2.937051    -1.276882
H        1.059213     4.532532     0.655481
H        1.045184     4.516637    -1.133928
H       -0.490906     4.281113    -0.343085
H       -0.812117     3.918146     1.937072
H       -4.353146     0.762410     0.727650
H       -3.910689     0.501578    -1.791509
H       -4.637428    -0.958176    -0.908156
H       -3.937470    -1.113478    -2.543264
H       -2.670611    -2.905806    -1.413370
H       -0.817500    -4.384199    -1.435136
H        0.577024    -4.224031    -0.395642
H       -1.088418    -4.601996     0.330100
H        0.801440    -3.918756     1.918954
H        4.336757    -0.722489     0.759932
49
ex_0027 frame36 tetrahedral-Λ-conf6
C        2.094892    -1.000080     3.594445
C        0.954177    -0.352439     2.787744
C       -0.462722    -0.331698     3.297577
C       -1.610193    -0.212195     2.560081
C       -2.893900    -0.172591     3.335493
N       -1.645532    -0.125108     1.118586
C       -2.546227     0.619089     0.278606
C       -3.504157     1.558325     0.714524
C       -4.343165     2.189093    -0.228625
Br      -5.646362     3.436739     0.371198
C       -4.219419     1.899818    -1.602020
Br      -5.307336     2.700871    -2.954808
C       -3.267938     0.990806    -2.025223
C       -2.409707     0.476663    -1.091612
N       -1.289599    -0.259266    -1.498562
C       -0.815334    -0.845779    -2.695690
C       -1.710381    -1.854339    -3.400855
C        0.520723    -0.505684    -3.276183
C        1.545708     0.096230    -2.614789
C        2.854107     0.304197    -3.300182
N        1.422340     0.540190    -1.284761
C        2.067066     1.494184    -0.404136
C        2.633155     2.688170    -0.856787
C        3.218758     3.577950     0.063633
Br       3.957795     5.196018    -0.593071
C        3.258123     3.279269     1.441954
Br       4.038196     4.444507     2.741570
C        2.714465     2.093661     1.907813
C        2.045950     1.315555     1.016115
N        1.265298     0.242701     1.518922
Ni       0.000000     0.000000     0.000000
H        1.752801    -1.947340     4.073594
H        2.442327    -0.318012     4.393721
H        2.960292    -1.258691     2.941366
H       -0.551593    -0.470626     4.374657
H       -2.913796     0.766461     3.937935
H       -2.973578    -1.047592     4.007614
H       -3.763679    -0.185702     2.656254
H       -3.617578     1.795506     1.757844
H       -3.161543     0.759108    -3.074901
H       -2.774706    -1.848765    -3.071334
H       -1.721499    -1.797487    -4.509514
H       -1.273970    -2.838309    -3.113713
H        0.731403    -0.901812    -4.264399
H        3.538203     0.899650    -2.663814
H        2.703156     0.846226    -4.254976
H        3.317987    -0.686820    -3.470495
H        2.608454     2.925720    -1.905754
H        2.738294     1.852471     2.963912
49
ex_0027 frame37 tetrahedral-Δ-conf6
C        1.349387     1.906823     3.587343
C        0.523357     0.884811     2.785286
C        0.278532    -0.511084     3.295519
C       -0.031596    -1.623829     2.560325
C       -0.273085    -2.884654     3.335958
N       -0.134715    -1.643928     1.119775
C       -1.019414    -2.412884     0.284673
C       -2.097483    -3.206863     0.726799
C       -2.859794    -3.933896    -0.212282
Br      -4.296609    -5.020068     0.395273
C       -2.562189    -3.858247    -1.587590
Br      -3.533799    -4.802948    -2.935574
C       -1.515350    -3.065275    -2.016814
C       -0.867289    -2.301464    -1.086692
N        0.032387    -1.313822    -1.498673
C        0.685828    -0.940274    -2.700018
C        1.535069    -1.985412    -3.411865
C        0.564142     0.434689    -3.277995
C        0.135329     1.542049    -2.614189
C        0.134818     2.866999    -3.298371
N       -0.317118     1.490127    -1.282290
C       -1.147937     2.278164    -0.394868
C       -2.239369     3.027060    -0.839327
C       -3.016837     3.747120     0.086903
Br      -4.501068     4.734408    -0.559402
C       -2.704731     3.738453     1.462905
Br      -3.720257     4.694621     2.770158
C       -1.617254     3.012538     1.920599
C       -0.961912     2.228319     1.024207
N       -0.021820     1.287176     1.518990
Ni       0.000000     0.000000     0.000000
H        2.232614     1.418556     4.061986
H        0.733217     2.356058     4.389005
H        1.739449     2.720291     2.932889
H        0.410572    -0.621268     4.371624
H       -1.199793    -2.754389     3.943513
H        0.582127    -3.104349     4.002386
H       -0.403049    -3.744035     2.655737
H       -2.343446    -3.280359     1.771633
H       -1.274216    -2.996373    -3.067497
H        1.361406    -3.035299    -3.081812
H        1.467232    -1.986304    -4.520146
H        2.579824    -1.713748    -3.135231
H        0.985995     0.579698    -4.267325
H       -0.341215     3.636091    -2.658602
H       -0.429636     2.804625    -4.250070
H        1.186070     3.167498    -3.473593
H       -2.485331     3.039833    -1.886675
H       -1.366855     2.997592     2.974727
49
ex_0027 frame38 trans-conf4
C        3.834580     0.530418    -1.643305
C        2.650832     0.885048    -0.848828
C        2.054753     2.254000    -0.847417
C        0.889009     2.748813    -0.334384
C        0.603748     4.118317    -0.279228
N       -0.005254     1.985145     0.123628
C       -1.331506     2.204503     0.809780
C       -1.583516     3.249828     1.661386
C       -2.856690     3.452318     2.128696
Br      -3.197917     4.969092     3.226797
C       -3.863991     2.545269     1.788484
Br      -5.629482     2.796325     2.416716
C       -3.594721     1.452241     0.991057
C       -2.336628     1.267588     0.598244
N       -1.977858     0.171113    -0.019459
C       -2.643396    -0.878678    -0.841125
C       -3.882077    -0.590485    -1.576072
C       -2.023654    -2.242461    -0.905495
C       -0.858557    -2.734580    -0.401446
C       -0.526921    -4.093728    -0.470217
N       -0.025996    -1.981494     0.151081
C        1.321077    -2.188400     0.822569
C        1.581478    -3.243806     1.661344
C        2.852646    -3.441909     2.137529
Br       3.190474    -4.967509     3.225562
C        3.858388    -2.525555     1.813816
Br       5.618345    -2.776375     2.457793
C        3.589035    -1.424521     1.021608
C        2.331172    -1.238500     0.622382
N        1.981718    -0.104832    -0.001114
Ni       0.000000     0.000000     0.000000
H        3.885108     1.036468    -2.608464
H        4.647696     0.867479    -1.000209
H        3.817166    -0.562344    -1.811102
H        2.727912     2.931863    -1.291879
H        1.048612     4.543975     0.621465
H       -0.502885     4.262113    -0.371056
H        1.032527     4.494332    -1.169091
H       -0.814013     3.933684     1.915255
H       -4.351926     0.764633     0.731479
H       -3.941016    -1.105817    -2.539264
H       -3.952898     0.501224    -1.730698
H       -4.621983    -0.999501    -0.896364
H       -2.668699    -2.899371    -1.423155
H       -1.075988    -4.606347     0.316302
H        0.581969    -4.220381    -0.420183
H       -0.819380    -4.386860    -1.448415
H        0.810306    -3.931310     1.899682
H        4.336749    -0.723017     0.767729
49
ex_0027 frame39 trans-conf8
C        3.827766     0.530037     1.652336
C        2.647280     0.885438     0.852097
C        2.054024     2.254438     0.842574
C        0.889652     2.746488     0.320706
C        0.608677     4.120516     0.263579
N       -0.015131     1.983532    -0.147591
C       -1.332602     2.199268    -0.816789
C       -1.585003     3.244371    -1.667355
C       -2.859156     3.447816    -2.130519
Br      -3.204517     4.962332    -3.230807
C       -3.865758     2.544172    -1.785511
Br      -5.631101     2.800614    -2.410240
C       -3.594642     1.452156    -0.986490
C       -2.335813     1.263707    -0.596068
N       -1.980105     0.168132     0.024849
C       -2.638552    -0.880531     0.847891
C       -3.869843    -0.578642     1.595018
C       -2.027086    -2.242138     0.900924
C       -0.865751    -2.732069     0.389474
C       -0.536757    -4.090154     0.455910
N       -0.022554    -1.979429    -0.173966
C        1.319813    -2.181346    -0.831800
C        1.578567    -3.235458    -1.670077
C        2.851226    -3.433157    -2.146415
Br       3.198286    -4.951789    -3.239290
C        3.858672    -2.518160    -1.819035
Br       5.627519    -2.752705    -2.454636
C        3.586740    -1.420048    -1.023076
C        2.330550    -1.233595    -0.622712
N        1.981581    -0.115034     0.004725
Ni       0.000000     0.000000     0.000000
H        4.660184     0.835833     1.015007
H        3.805335    -0.553907     1.870984
H        3.859095     1.069227     2.597693
H        2.729169     2.934690     1.284645
H       -0.496053     4.281054     0.354600
H        1.055671     4.533641    -0.641105
H        1.041764     4.507477     1.146719
H       -0.816968     3.927574    -1.926403
H       -4.352069     0.766771    -0.723259
H       -3.896685     0.503770     1.801321
H       -4.666628    -0.930007     0.936165
H       -3.889840    -1.110529     2.547684
H       -2.674772    -2.901124     1.414999
H       -0.885241    -4.437911     1.398630
H       -1.013983    -4.590198    -0.388455
H        0.576731    -4.176349     0.462841
H        0.802976    -3.920738    -1.909532
H        4.335034    -0.721396    -0.767401
49
ex_0027 frame40 see-saw N0-N0-ax-conf3
C        3.903730    -1.536377     0.710994
C        2.690252    -0.722068     1.036419
C        2.161201    -0.656052     2.429044
C        0.942114    -0.238626     2.883165
C        0.768083    -0.154011     4.383034
N       -0.133982     0.107219     1.986959
C       -1.394194     0.758048     2.225296
C       -1.679882     1.526539     3.365232
C       -2.943035     2.093179     3.538017
Br      -3.223871     3.210045     5.073532
C       -3.964722     1.840947     2.603372
Br      -5.727209     2.543746     2.860430
C       -3.703945     1.064800     1.461101
C       -2.404780     0.599115     1.224905
N       -1.991791    -0.048328     0.015157
C       -2.694789    -0.827797    -0.911765
C       -3.922568    -1.573098    -0.486417
C       -2.146256    -0.860902    -2.316584
C       -0.910713    -0.502733    -2.822225
C       -0.746382    -0.566732    -4.318651
N        0.184178    -0.084812    -1.983390
C        1.457245     0.568524    -2.215428
C        1.790032     1.272545    -3.384027
C        3.055043     1.859996    -3.522128
Br       3.445836     2.793014    -5.139264
C        4.010435     1.763249    -2.494258
Br       5.749579     2.552321    -2.645237
C        3.699323     1.076105    -1.323404
C        2.420301     0.570506    -1.171549
N        1.991926     0.016226     0.056576
Ni       0.000000     0.000000     0.000000
H        4.703895    -0.814062     0.960158
H        4.032716    -2.445571     1.339814
H        3.978129    -1.855962    -0.349633
H        2.923335    -0.901660     3.165416
H        1.295784     0.723419     4.811233
H        1.158769    -1.082504     4.849489
H       -0.298917    -0.162636     4.671240
H       -0.914876     1.773077     4.085087
H       -4.481407     0.933995     0.725017
H       -4.097996    -2.532648    -1.015829
H       -3.962413    -1.788171     0.605220
H       -4.711642    -0.846962    -0.756769
H       -2.910742    -1.165255    -3.026364
H        0.305005    -0.458944    -4.629385
H       -1.388978     0.164222    -4.847193
H       -1.009265    -1.597419    -4.639977
H        1.094033     1.372066    -4.193668
H        4.432726     1.001594    -0.533854
49
ex_0027 frame41 see-saw N0-N0-ax-conf4
C        3.913714     1.531365     0.697374
C        2.688915     0.734752     1.026672
C        2.149357     0.704501     2.419893
C        0.934178     0.278304     2.877995
C        0.744635     0.225677     4.377558
N       -0.128972    -0.107104     1.986709
C       -1.389299    -0.748248     2.236907
C       -1.669747    -1.503514     3.386271
C       -2.934167    -2.062869     3.571577
Br      -3.213411    -3.161450     5.120767
C       -3.958886    -1.816305     2.638340
Br      -5.723294    -2.508385     2.911254
C       -3.700191    -1.053904     1.485672
C       -2.401400    -0.591847     1.238559
N       -1.991814     0.048103     0.020977
C       -2.696883     0.829854    -0.902299
C       -3.940220     1.550142    -0.482467
C       -2.138223     0.895964    -2.303501
C       -0.905514     0.534209    -2.813505
C       -0.727644     0.627183    -4.305189
N        0.179676     0.084851    -1.983852
C        1.450631    -0.565818    -2.221657
C        1.776883    -1.266955    -3.392932
C        3.042793    -1.849953    -3.539622
Br       3.426610    -2.777506    -5.161238
C        4.003810    -1.752473    -2.516500
Br       5.744433    -2.536012    -2.680216
C        3.697041    -1.068776    -1.341526
C        2.416882    -0.566943    -1.180907
N        1.992112    -0.016814     0.052717
Ni       0.000000     0.000000     0.000000
H        4.041366     2.457486     1.301228
H        4.704112     0.809876     0.979533
H        4.006873     1.818547    -0.370817
H        2.900081     0.983023     3.156679
H        1.248381    -0.654414     4.828046
H       -0.328390     0.254156     4.646365
H        1.142803     1.155985     4.834274
H       -0.900152    -1.739711     4.106058
H       -4.481650    -0.925701     0.753538
H       -4.117451     2.524628    -0.982959
H       -4.011272     1.726518     0.614415
H       -4.708943     0.820298    -0.798367
H       -2.892038     1.232076    -3.009763
H       -1.370663    -0.085337    -4.856324
H        0.327606     0.512144    -4.603041
H       -0.973602     1.669048    -4.603679
H        1.072130    -1.363964    -4.196843
H        4.434948    -0.993865    -0.555802
49
ex_0027 frame42 see-saw N0-N0-ax-conf5
C        3.898772    -1.549980     0.710905
C        2.688659    -0.731080     1.035853
C        2.160655    -0.662998     2.428830
C        0.943985    -0.238038     2.883015
C        0.768961    -0.142360     4.381598
N       -0.131520     0.106317     1.985997
C       -1.394032     0.754901     2.230454
C       -1.666536     1.550184     3.354755
C       -2.941316     2.081486     3.549963
Br      -3.250145     3.112870     5.134635
C       -3.955632     1.855984     2.601225
Br      -5.712326     2.575970     2.849504
C       -3.691848     1.094097     1.450468
C       -2.400458     0.612650     1.229414
N       -1.991859    -0.043691     0.016654
C       -2.691288    -0.831315    -0.907202
C       -3.913228    -1.584401    -0.475369
C       -2.142997    -0.862867    -2.314375
C       -0.908039    -0.501963    -2.820643
C       -0.735795    -0.563503    -4.314907
N        0.184670    -0.081633    -1.983407
C        1.455620     0.576041    -2.210869
C        1.783018     1.293928    -3.372067
C        3.048839     1.879645    -3.509964
Br       3.433924     2.827985    -5.118709
C        4.009194     1.770079    -2.487657
Br       5.749369     2.556822    -2.639664
C        3.701886     1.071362    -1.322002
C        2.421588     0.569774    -1.170134
N        1.991992     0.010020     0.056384
Ni       0.000000     0.000000     0.000000
H        4.023932    -2.460729     1.338493
H        3.974063    -1.868004    -0.350066
H        4.700741    -0.830706     0.963066
H        2.923269    -0.908022     3.165165
H        1.281128     0.749413     4.798946
H       -0.299701    -0.161502     4.665115
H        1.171918    -1.058901     4.860719
H       -0.916738     1.744665     4.103402
H       -4.480371     0.930946     0.733622
H       -3.949519    -1.792601     0.617908
H       -4.710563    -0.868544    -0.748682
H       -4.078829    -2.549811    -0.997302
H       -2.905255    -1.173294    -3.023336
H        0.319549    -0.453682    -4.614029
H       -1.372203     0.170705    -4.845492
H       -0.995736    -1.594034    -4.638619
H        1.080371     1.401524    -4.175848
H        4.438922     0.986938    -0.536737
49
ex_0027 frame43 see-saw N0-N0-ax-conf6
C        3.903432    -1.552444     0.699149
C        2.686454    -0.743430     1.029004
C        2.151281    -0.701010     2.424167
C        0.936974    -0.271253     2.880562
C        0.746200    -0.207479     4.379035
N       -0.125857     0.108287     1.987633
C       -1.385055     0.753548     2.236157
C       -1.662576     1.516111     3.381954
C       -2.927401     2.074444     3.568471
Br      -3.203178     3.184597     5.110241
C       -3.955584     1.818598     2.641459
Br      -5.721699     2.504331     2.918977
C       -3.699169     1.051284     1.491497
C       -2.399726     0.594267     1.240990
N       -1.991821    -0.043496     0.021969
C       -2.691046    -0.837763    -0.897434
C       -3.917541    -1.581882    -0.461320
C       -2.138862    -0.886575    -2.305302
C       -0.904522    -0.525125    -2.814365
C       -0.716367    -0.605756    -4.303982
N        0.181062    -0.084365    -1.983837
C        1.450647     0.570156    -2.216524
C        1.773163     1.281701    -3.382301
C        3.038869     1.866250    -3.526424
Br       3.420077     2.807015    -5.140326
C        4.002186     1.760761    -2.505785
Br       5.742365     2.546038    -2.666146
C        3.697979     1.067338    -1.335587
C        2.418114     0.566093    -1.177340
N        1.992046     0.009939     0.053293
Ni       0.000000     0.000000     0.000000
H        4.703378    -0.835923     0.966066
H        3.984667    -1.854603    -0.365863
H        4.026096    -2.472114     1.314108
H        2.902603    -0.976659     3.161331
H       -0.327712    -0.244390     4.644114
H        1.238315     0.683034     4.821746
H        1.152630    -1.129060     4.845408
H       -0.890569     1.758209     4.097421
H       -4.482631     0.916535     0.762747
H       -3.963478    -1.769249     0.635495
H       -4.709923    -0.868177    -0.754023
H       -4.081969    -2.556694    -0.965622
H       -2.893730    -1.220022    -3.011273
H       -1.002988    -1.630492    -4.623965
H       -1.312500     0.148374    -4.851545
H        0.351935    -0.535575    -4.575618
H        1.063859     1.383204    -4.182754
H        4.437142     0.986015    -0.551657
49
ex_0027 frame44 see-saw N0-N0-ax-conf7
C        3.903062     1.548125     0.706295
C        2.685670     0.739315     1.032733
C        2.149136     0.693992     2.426448
C        0.935305     0.261786     2.881546
C        0.745504     0.191199     4.379556
N       -0.129566    -0.114659     1.988105
C       -1.387366    -0.760345     2.232179
C       -1.666175    -1.527284     3.374937
C       -2.930995    -2.087697     3.557521
Br      -3.207901    -3.204444     5.094376
C       -3.958211    -1.829125     2.630283
Br      -5.724162    -2.517494     2.902541
C       -3.700855    -1.057010     1.483891
C       -2.401070    -0.598064     1.236704
N       -1.991762     0.044752     0.020679
C       -2.691653     0.837206    -0.897649
C       -3.925142     1.570144    -0.467966
C       -2.134763     0.898203    -2.301055
C       -0.902144     0.533652    -2.812221
C       -0.722573     0.619466    -4.303392
N        0.182441     0.087375    -1.982095
C        1.452443    -0.569352    -2.214283
C        1.776048    -1.282952    -3.378585
C        3.041961    -1.867650    -3.521401
Br       3.423958    -2.810169    -5.133797
C        4.004768    -1.761072    -2.500743
Br       5.744994    -2.546525    -2.659541
C        3.699859    -1.066357    -1.331726
C        2.419494    -0.566098    -1.175092
N        1.991983    -0.011175     0.055336
Ni       0.000000     0.000000     0.000000
H        4.024555     2.469588     1.318705
H        3.989692     1.846472    -0.359394
H        4.700456     0.830922     0.979064
H        2.900523     0.966157     3.164337
H        1.239085    -0.701033     4.817114
H        1.152648     1.110636     4.849471
H       -0.328065     0.226290     4.646352
H       -0.895160    -1.771654     4.090583
H       -4.483961    -0.920444     0.755021
H       -3.982450     1.755360     0.628560
H       -4.704718     0.845732    -0.768872
H       -4.098985     2.542665    -0.973452
H       -2.890380     1.231667    -3.006214
H       -0.964020     1.660542    -4.608014
H        0.333167     0.496116    -4.597140
H       -1.366540    -0.095597    -4.849636
H        1.068811    -1.386318    -4.179687
H        4.438654    -0.984145    -0.547658
49
ex_0027 frame45 tetrahedral-conf4
C        3.157247     2.358172    -1.541015
C        2.588658     1.216516    -0.708860
C        3.251503    -0.145739    -0.660674
C        2.715619    -1.333374    -0.277041
C        3.586936    -2.557082    -0.289656
N        1.366581    -1.445460     0.131242
C        0.635551    -2.545095     0.757360
C        1.223535    -3.576592     1.521966
C        0.432638    -4.598771     2.078845
Br       1.271910    -5.894530     3.217763
C       -0.945860    -4.662526     1.801699
Br      -2.050653    -6.083833     2.465942
C       -1.542920    -3.669976     1.021738
C       -0.778582    -2.579570     0.583984
N       -1.358978    -1.453063    -0.052795
C       -2.566575    -1.177079    -0.720582
C       -3.203847    -2.307981    -1.511384
C       -3.219430     0.180995    -0.666446
C       -2.628274     1.389804    -0.365621
C       -3.461258     2.628803    -0.543179
N       -1.277029     1.526641     0.102130
C       -0.591470     2.596799     0.754022
C       -1.208229     3.592374     1.523370
C       -0.433745     4.632772     2.051759
Br      -1.314501     6.000524     3.052126
C        0.961497     4.659588     1.843961
Br       2.059916     6.059305     2.545750
C        1.581647     3.645215     1.107375
C        0.813501     2.588899     0.651395
N        1.389949     1.433984     0.053243
Ni       0.000000     0.000000     0.000000
H        3.959332     2.820302    -0.939186
H        2.379948     3.111952    -1.797643
H        3.579179     1.990701    -2.502971
H        4.262711    -0.159578    -1.046391
H        2.964664    -3.473512    -0.348296
H        4.247456    -2.594834     0.598320
H        4.179840    -2.566456    -1.225996
H        2.269592    -3.540143     1.785329
H       -2.614391    -3.694982     0.864832
H       -2.444962    -3.103216    -1.708202
H       -4.082501    -2.812750    -1.062054
H       -3.511099    -1.887823    -2.494804
H       -4.218423     0.227050    -1.100553
H       -3.913439     2.640783    -1.553527
H       -4.257284     2.665883     0.232914
H       -2.838859     3.538416    -0.468443
H       -2.276978     3.582351     1.689144
H        2.648853     3.664467     0.947642
49
ex_0027 frame46 trans
C        3.880929     0.570341     1.561271
C        2.683301     0.974016     0.710443
C        2.191445     2.404922     0.645136
C        0.969566     2.863622     0.253523
C        0.733594     4.346968     0.250006
N       -0.077898     1.986829    -0.147854
C       -1.355855     2.239948    -0.778361
C       -1.658401     3.375079    -1.557088
C       -2.935392     3.530875    -2.122992
Br      -3.249758     5.020650    -3.288843
C       -3.957373     2.606873    -1.834793
Br      -5.740894     2.823097    -2.505647
C       -3.682404     1.493225    -1.037953
C       -2.374246     1.265589    -0.592960
N       -1.991501     0.063186     0.061777
C       -2.645395    -0.995091     0.702115
C       -3.881287    -0.652708     1.507047
C       -2.164798    -2.414474     0.611664
C       -0.894418    -2.846620     0.307188
C       -0.603251    -4.311741     0.487510
N        0.145435    -1.981314    -0.165223
C        1.407207    -2.236878    -0.796488
C        1.689147    -3.365883    -1.574918
C        2.977729    -3.546862    -2.093610
Br       3.329545    -5.122844    -3.112044
C        3.982740    -2.583983    -1.864032
Br       5.755838    -2.789409    -2.552711
C        3.698257    -1.438896    -1.114763
C        2.403709    -1.240928    -0.669734
N        1.992335    -0.025128    -0.057131
Ni       0.000000     0.000000     0.000000
H        4.781398     0.806558     0.967484
H        3.911310     1.134075     2.520816
H        3.860564    -0.510710     1.824787
H        2.906443     3.132027     1.013564
H        1.191918     4.824899    -0.638113
H        1.137565     4.781924     1.186474
H       -0.352316     4.563807     0.289882
H       -0.887638     4.082244    -1.826228
H       -4.458251     0.756615    -0.874205
H       -3.778712    -1.195568     2.471835
H       -3.879934     0.440720     1.732260
H       -4.880405    -0.883243     1.085354
H       -2.841741    -3.161310     1.023886
H        0.468954    -4.536864     0.350926
H       -1.194172    -4.899572    -0.246823
H       -0.857732    -4.625495     1.519189
H        0.928384    -4.111417    -1.758273
H        4.466630    -0.700744    -0.938097
49
ex_0027 frame47 trans-conf5
C        3.879756     0.565656     1.563057
C        2.682846     0.970193     0.715203
C        2.187458     2.399509     0.649826
C        0.967439     2.862220     0.250803
C        0.740950     4.347889     0.236648
N       -0.084878     1.986208    -0.147956
C       -1.363397     2.242996    -0.774953
C       -1.657707     3.362098    -1.579329
C       -2.949847     3.543877    -2.099408
Br      -3.302823     5.100102    -3.154051
C       -3.959473     2.597162    -1.846291
Br      -5.738625     2.800623    -2.534023
C       -3.675113     1.469672    -1.073117
C       -2.374265     1.263495    -0.609044
N       -1.991908     0.060604     0.055080
C       -2.645117    -0.997214     0.699182
C       -3.878233    -0.654517     1.510335
C       -2.169892    -2.417548     0.609454
C       -0.899749    -2.848840     0.302732
C       -0.603912    -4.315131     0.484876
N        0.136341    -1.980680    -0.173973
C        1.402850    -2.236810    -0.799355
C        1.686952    -3.366070    -1.577302
C        2.976358    -3.548584    -2.093534
Br       3.327578    -5.124288    -3.112881
C        3.982614    -2.588157    -1.861327
Br       5.757167    -2.797369    -2.547625
C        3.698321    -1.443176    -1.111349
C        2.402546    -1.241947    -0.667742
N        1.991884    -0.026400    -0.052609
Ni       0.000000     0.000000     0.000000
H        3.918144     1.129506     2.521724
H        3.862190    -0.515233     1.827881
H        4.774518     0.801649     0.960797
H        2.906460     3.125290     1.013759
H        1.195949     4.814695    -0.659183
H       -0.343486     4.571505     0.281657
H        1.156471     4.791943     1.164277
H       -0.906497     4.105502    -1.791286
H       -4.458399     0.747552    -0.884229
H       -3.878670     0.439929     1.731103
H       -4.884049    -0.885258     1.105140
H       -3.769096    -1.191787     2.479423
H       -2.843857    -3.165630     1.025321
H        0.468304    -4.541970     0.345895
H       -1.192819    -4.900974    -0.252539
H       -0.860169    -4.637794     1.513606
H        0.926033    -4.110307    -1.763244
H        4.469053    -0.708013    -0.933761
49
ex_0027 frame48 trans-SQ N0+N0|N1+N1
C        0.571353     3.883149    -1.560646
C        0.975257     2.684748    -0.712960
C        2.406820     2.195422    -0.642223
C        2.864821     0.973270    -0.254293
C        4.348170     0.735058    -0.250607
N        1.987061    -0.072259     0.143077
C        2.244331    -1.356247     0.769875
C        3.364786    -1.652208     1.572247
C        3.549742    -2.944754     2.090362
Br       5.109417    -3.295690     3.140493
C        2.604431    -3.955836     1.838926
Br       2.812559    -5.734908     2.524080
C        1.475054    -3.672727     1.069393
C        1.267153    -2.371485     0.608861
N        0.062609    -1.991660    -0.047935
C       -0.995084    -2.644467    -0.695632
C       -0.653524    -3.879487    -1.505335
C       -2.415064    -2.163354    -0.608547
C       -2.846795    -0.890474    -0.310573
C       -4.312820    -0.602800    -0.489179
N       -1.980986     0.155049     0.153522
C       -2.238126     1.411828     0.790972
C       -3.366823     1.691034     1.571835
C       -3.547070     2.978420     2.093393
Br      -5.122577     3.329391     3.113852
C       -2.583670     3.983252     1.865188
Br      -2.787794     5.754934     2.557670
C       -1.438772     3.699616     1.114355
C       -1.241341     2.406216     0.664281
N       -0.028155     1.991171     0.046620
Ni       0.000000     0.000000     0.000000
H        0.806226     4.784054    -0.967321
H        1.135012     3.911423    -2.519515
H       -0.509942     3.860500    -1.823104
H        3.134298     2.909390    -1.009831
H        4.826888     1.194042     0.636668
H        4.782792     1.138013    -1.187499
H        4.565554    -0.350986    -0.289497
H        4.107579    -0.900925     1.783406
H        0.753063    -4.456560     0.881008
H       -1.196326    -3.775276    -2.470495
H        0.439666    -3.878650    -1.730431
H       -0.884309    -4.880680    -1.087317
H       -3.162978    -2.842876    -1.015758
H       -4.539693     0.468766    -0.352132
H       -4.899979    -1.194979     0.245099
H       -4.626472    -0.858117    -1.520568
H       -4.112930     0.930264     1.754224
H       -0.700701     4.467886     0.939025
49
ex_0027 frame49 tetrahedral
C        3.152167     2.336861    -1.560478
C        2.587354     1.206181    -0.711435
C        3.252764    -0.152308    -0.635467
C        2.711915    -1.339660    -0.243356
C        3.593712    -2.555917    -0.234135
N        1.350317    -1.458490     0.153244
C        0.624194    -2.545038     0.780452
C        1.206106    -3.543155     1.586809
C        0.421942    -4.586264     2.105801
Br       1.274340    -5.933711     3.162061
C       -0.960835    -4.633342     1.850518
Br      -2.072930    -6.036602     2.536872
C       -1.557568    -3.636890     1.076357
C       -0.783683    -2.571113     0.615677
N       -1.364587    -1.451364    -0.045017
C       -2.572815    -1.169515    -0.699049
C       -3.202566    -2.286804    -1.507203
C       -3.237165     0.175314    -0.618889
C       -2.644242     1.380381    -0.318633
C       -3.474720     2.621394    -0.504283
N       -1.296444     1.505852     0.154256
C       -0.588346     2.580850     0.785139
C       -1.189888     3.580272     1.560152
C       -0.407808     4.620108     2.079428
Br      -1.275360     5.985354     3.093983
C        0.984223     4.649148     1.853236
Br       2.091613     6.048859     2.542628
C        1.594477     3.636843     1.106761
C        0.820872     2.580584     0.657835
N        1.388234     1.429796     0.041470
Ni       0.000000     0.000000     0.000000
H        3.954194     2.808800    -0.966400
H        3.573548     1.955924    -2.517281
H        2.373130     3.085442    -1.827515
H        4.273095    -0.162339    -1.001022
H        4.254019    -2.567155     0.655346
H        4.189209    -2.580625    -1.169016
H        2.979699    -3.477604    -0.272315
H        2.262249    -3.535683     1.800392
H       -2.621699    -3.681181     0.885165
H       -3.511548    -1.833075    -2.474545
H       -2.427917    -3.059142    -1.728181
H       -4.073636    -2.830574    -1.087927
H       -4.243847     0.223463    -1.032707
H       -2.876741     3.539417    -0.368378
H       -4.310614     2.621097     0.227480
H       -3.873862     2.660386    -1.537101
H       -2.255530     3.570320     1.741062
H        2.659956     3.657983     0.932944
49
ex_0027 frame50 tetrahedral-conf3
C        3.147871     2.343092    -1.558793
C        2.585503     1.211654    -0.712598
C        3.246369    -0.148030    -0.643257
C        2.710492    -1.336499    -0.243680
C        3.598150    -2.547308    -0.226413
N        1.348286    -1.460319     0.153175
C        0.623061    -2.547224     0.778890
C        1.203742    -3.546101     1.584644
C        0.417385    -4.588912     2.101785
Br       1.266067    -5.938424     3.158003
C       -0.965368    -4.634231     1.844631
Br      -2.081455    -6.035832     2.527430
C       -1.559874    -3.636755     1.070739
C       -0.784500    -2.572231     0.611008
N       -1.363628    -1.451740    -0.052334
C       -2.570790    -1.166214    -0.704085
C       -3.198491    -2.278744    -1.518835
C       -3.237757     0.176031    -0.617204
C       -2.646047     1.379481    -0.311418
C       -3.475096     2.621709    -0.491984
N       -1.299681     1.501981     0.162949
C       -0.589429     2.575952     0.793768
C       -1.190294     3.572277     1.572845
C       -0.409173     4.612891     2.091180
Br      -1.277426     5.974020     3.110402
C        0.982095     4.645530     1.860665
Br       2.087905     6.046868     2.548944
C        1.592651     3.635805     1.110631
C        0.819973     2.578335     0.664554
N        1.389055     1.429210     0.049496
Ni       0.000000     0.000000     0.000000
H        3.576375     1.970610    -2.515841
H        2.371464     3.094698    -1.825346
H        3.945331     2.808195    -0.953496
H        4.268004    -0.153678    -1.005812
H        4.247893    -2.554477     0.670714
H        2.987401    -3.470838    -0.271187
H        4.204034    -2.569077    -1.154804
H        2.259725    -3.539458     1.799270
H       -2.623768    -3.678730     0.877520
H       -2.427840    -3.056322    -1.735362
H       -4.078316    -2.815964    -1.109959
H       -3.494851    -1.818782    -2.487310
H       -4.243777     0.225698    -1.031815
H       -2.874412     3.538376    -0.357608
H       -4.305908     2.620530     0.245382
H       -3.879740     2.663215    -1.522515
H       -2.255432     3.558896     1.756679
H        2.657453     3.659866     0.933625
49
ex_0027 frame51 tetrahedral-conf5
C        3.121448     2.348430     1.604080
C        2.554739     1.215359     0.773000
C        3.186322    -0.159678     0.749815
C        2.672065    -1.341860     0.291067
C        3.540432    -2.551589     0.289972
N        1.338673    -1.464019    -0.186277
C        0.615926    -2.548039    -0.800954
C        1.203232    -3.530079    -1.608581
C        0.423656    -4.584539    -2.102555
Br       1.282134    -5.925551    -3.157842
C       -0.957609    -4.643920    -1.821625
Br      -2.065172    -6.060902    -2.471582
C       -1.559362    -3.649289    -1.046994
C       -0.793015    -2.579566    -0.620203
N       -1.367330    -1.448571     0.024112
C       -2.565786    -1.207691     0.776229
C       -3.206898    -2.360203     1.538885
C       -3.164571     0.191557     0.792392
C       -2.624271     1.377073     0.369108
C       -3.448783     2.609048     0.490448
N       -1.316697     1.484290    -0.178850
C       -0.598273     2.554919    -0.805708
C       -1.192894     3.534428    -1.604237
C       -0.412240     4.581907    -2.107920
Br      -1.276596     5.927125    -3.149409
C        0.974576     4.630272    -1.845641
Br       2.083322     6.037428    -2.509585
C        1.580688     3.631098    -1.079652
C        0.810914     2.570995    -0.649137
N        1.385098     1.431485    -0.022796
Ni       0.000000     0.000000     0.000000
H        3.538680     1.998083     2.574599
H        2.363288     3.128551     1.839075
H        3.931177     2.763471     0.980162
H        4.186404    -0.173083     1.169112
H        4.154643    -2.588327    -0.630316
H        4.152406    -2.561335     1.212964
H        2.894207    -3.449449     0.364997
H        2.259331    -3.497241    -1.831407
H       -2.616266    -3.693594    -0.831311
H       -2.469910    -3.164678     1.761009
H       -4.031941    -2.747202     0.915774
H       -3.609646    -2.007631     2.514231
H       -4.134171     0.233386     1.278591
H       -3.837600     2.654160     1.526819
H       -2.809186     3.502630     0.376180
H       -4.259412     2.610842    -0.263571
H       -2.254950     3.500366    -1.806996
H        2.640443     3.661411    -0.874986
49
ex_0027 frame52 trans-conf7
C        3.869543     0.542887     1.606775
C        2.666613     0.946240     0.776088
C        2.140049     2.366216     0.753874
C        0.938246     2.837706     0.298257
C        0.695572     4.306816     0.303046
N       -0.092161     1.982296    -0.181123
C       -1.367474     2.243036    -0.795984
C       -1.644733     3.355906    -1.599230
C       -2.941479     3.553561    -2.091904
Br      -3.280766     5.113267    -3.140559
C       -3.961117     2.618844    -1.814405
Br      -5.745849     2.842337    -2.462873
C       -3.683789     1.486799    -1.044368
C       -2.385326     1.270256    -0.617816
N       -1.991509     0.063943     0.023246
C       -2.662577    -0.956800     0.775856
C       -3.923261    -0.588939     1.554179
C       -2.109789    -2.374676     0.784008
C       -0.889049    -2.829171     0.363206
C       -0.588023    -4.279889     0.490285
N        0.106516    -1.980180    -0.190302
C        1.376362    -2.230385    -0.807523
C        1.650206    -3.347514    -1.599029
C        2.942944    -3.537727    -2.102049
Br       3.282902    -5.103696    -3.138641
C        3.957863    -2.590363    -1.842751
Br       5.737200    -2.803916    -2.506325
C        3.680344    -1.452762    -1.080510
C        2.386973    -1.245530    -0.649228
N        1.991443    -0.034054    -0.021475
Ni       0.000000     0.000000     0.000000
H        4.740204     0.808961     0.983480
H        3.874696    -0.543592     1.849115
H        3.918297     1.091653     2.573310
H        2.836739     3.082920     1.174705
H       -0.396289     4.484054     0.377973
H        1.104156     4.770088    -0.615673
H        1.120631     4.743653     1.227686
H       -0.873855     4.079185    -1.819155
H       -4.462044     0.769284    -0.830076
H       -3.957238     0.502500     1.772923
H       -4.808428    -0.889827     0.964925
H       -3.931994    -1.120996     2.531054
H       -2.759613    -3.086240     1.284001
H       -0.919082    -4.624502     1.489381
H       -1.065869    -4.844925    -0.334096
H        0.509173    -4.423222     0.473352
H        0.875296    -4.075102    -1.799547
H        4.451723    -0.724595    -0.878582
49
ex_0027 frame53 trans-conf9
C        3.867286     0.546967    -1.607237
C        2.665082     0.946107    -0.778544
C        2.137484     2.363843    -0.754059
C        0.939470     2.836156    -0.290286
C        0.697313     4.303706    -0.286684
N       -0.088558     1.981304     0.190469
C       -1.365308     2.235948     0.805877
C       -1.643405     3.343692     1.615416
C       -2.941045     3.538496     2.106838
Br      -3.282427     5.092323     3.163140
C       -3.960173     2.604966     1.822455
Br      -5.746364     2.822973     2.467961
C       -3.682112     1.477234     1.047149
C       -2.384016     1.262649     0.624910
N       -1.991486     0.054939    -0.015602
C       -2.667316    -0.956835    -0.777242
C       -3.932985    -0.595060    -1.542580
C       -2.099347    -2.368004    -0.799620
C       -0.881819    -2.826357    -0.371291
C       -0.592590    -4.278479    -0.491845
N        0.115962    -1.980346     0.181911
C        1.381139    -2.228252     0.807583
C        1.651916    -3.339555     1.608015
C        2.944652    -3.528534     2.110694
Br       3.283068    -5.089222     3.155223
C        3.960269    -2.583573     1.845066
Br       5.739289    -2.794885     2.507381
C        3.683298    -1.449697     1.076843
C        2.390063    -1.244076     0.645791
N        1.991795    -0.034644     0.014303
Ni       0.000000     0.000000     0.000000
H        3.915680     1.089736    -2.577413
H        3.883821    -0.541030    -1.841071
H        4.730216     0.827501    -0.979878
H        2.834015     3.080397    -1.174960
H        1.103543     4.760323     0.636243
H        1.123093     4.743607    -1.209157
H       -0.395069     4.478455    -0.362883
H       -0.872143     4.065477     1.840074
H       -4.459580     0.761160     0.827789
H       -3.983451     0.494538    -1.765065
H       -4.786780    -0.908671    -0.917155
H       -3.970003    -1.129559    -2.517954
H       -2.753899    -3.081129    -1.290234
H       -0.836060    -4.584165    -1.528314
H        0.492791    -4.453591    -0.380256
H       -1.161282    -4.851308     0.265291
H        0.875312    -4.064579     1.812611
H        4.454050    -0.722647     0.869266
49
ex_0027 frame54 trans-conf3
C        3.869243     0.536400    -1.603706
C        2.662877     0.939522    -0.785209
C        2.127485     2.353748    -0.779777
C        0.933472     2.828471    -0.307805
C        0.682519     4.289607    -0.316739
N       -0.086019     1.980727     0.194713
C       -1.361446     2.237232     0.806129
C       -1.635340     3.345857     1.612624
C       -2.932774     3.545913     2.099199
Br      -3.267987     5.103666     3.150944
C       -3.954142     2.614670     1.812815
Br      -5.740187     2.840541     2.452181
C       -3.678285     1.484086     1.040355
C       -2.381083     1.265558     0.621905
N       -1.990939     0.055937    -0.017288
C       -2.667583    -0.949404    -0.783962
C       -3.939105    -0.598071    -1.534408
C       -2.088885    -2.353883    -0.825845
C       -0.878865    -2.817875    -0.384014
C       -0.585839    -4.264793    -0.505155
N        0.111091    -1.979962     0.185594
C        1.375213    -2.227989     0.809145
C        1.642087    -3.339765     1.606351
C        2.934028    -3.533015     2.106060
Br       3.265674    -5.097684     3.145513
C        3.951787    -2.589834     1.840920
Br       5.729571    -2.808516     2.500136
C        3.677463    -1.453164     1.075885
C        2.385275    -1.244260     0.646371
N        1.991601    -0.034158     0.017251
Ni       0.000000     0.000000     0.000000
H        3.922433     1.061081    -2.583612
H        4.724574     0.836370    -0.974824
H        3.895348    -0.555625    -1.815687
H        2.817441     3.066618    -1.217067
H        1.083912     4.751797     0.605255
H       -0.412421     4.449380    -0.395110
H        1.102081     4.717767    -1.246184
H       -0.859948     4.063854     1.836818
H       -4.455292     0.768568     0.818139
H       -3.979262    -1.112480    -2.520633
H       -4.020967     0.494275    -1.728879
H       -4.765297    -0.953899    -0.895189
H       -2.739601    -3.062722    -1.325978
H       -1.136872    -4.834026     0.266535
H        0.504387    -4.425632    -0.412118
H       -0.839447    -4.569620    -1.538840
H        0.862133    -4.061719     1.809030
H        4.447826    -0.725859     0.867142
49
ex_0027 frame55 tetrahedral-conf2
C        3.104501     2.354497     1.618444
C        2.537549     1.220513     0.798506
C        3.151088    -0.158656     0.801565
C        2.649685    -1.336226     0.314848
C        3.496584    -2.543376     0.318402
N        1.339350    -1.460327    -0.200763
C        0.620063    -2.538574    -0.814852
C        1.210222    -3.507289    -1.627206
C        0.434965    -4.567616    -2.108398
Br       1.298756    -5.900364    -3.164857
C       -0.944189    -4.635571    -1.812597
Br      -2.047498    -6.058614    -2.442953
C       -1.547478    -3.644540    -1.036603
C       -0.786311    -2.574792    -0.624355
N       -1.369766    -1.448785     0.014627
C       -2.549024    -1.218225     0.789918
C       -3.199827    -2.359159     1.541379
C       -3.124840     0.183133     0.839628
C       -2.606408     1.363417     0.380409
C       -3.412470     2.591499     0.496449
N       -1.327061     1.470340    -0.205127
C       -0.604072     2.536591    -0.823793
C       -1.197871     3.503777    -1.626943
C       -0.420221     4.555533    -2.118223
Br      -1.289019     5.889972    -3.165163
C        0.963891     4.613401    -1.839017
Br       2.066162     6.026845    -2.486185
C        1.570836     3.619850    -1.068635
C        0.805184     2.559841    -0.647835
N        1.383970     1.432571    -0.015071
Ni       0.000000     0.000000     0.000000
H        3.514146     2.025464     2.599861
H        3.923240     2.735787     0.984573
H        2.353532     3.148617     1.824330
H        4.138226    -0.175315     1.247932
H        4.097635    -2.579680    -0.609771
H        2.824701    -3.423607     0.398299
H        4.089459    -2.547088     1.249463
H        2.265384    -3.459067    -1.855904
H       -2.600237    -3.685375    -0.803815
H       -3.596898    -2.024816     2.526204
H       -2.490455    -3.193956     1.734121
H       -4.034081    -2.674905     0.891635
H       -4.078618     0.224255     1.351122
H       -4.188637     2.603876    -0.289632
H       -2.741019     3.467843     0.413973
H       -3.808633     2.623362     1.528441
H       -2.258008     3.454411    -1.837588
H        2.627155     3.648657    -0.845787
49
ex_0027 frame56 tetrahedral-Δ-conf2
C       -1.606171     2.335968     3.123268
C       -0.795101     1.190660     2.553334
C       -0.768314    -0.179462     3.162973
C       -0.398925    -1.372595     2.622048
C       -0.332177    -2.563251     3.475383
N       -0.071917    -1.533257     1.269629
C        0.681244    -2.571055     0.578667
C        1.550447    -3.510823     1.190195
C        2.088044    -4.561349     0.425094
Br       3.166717    -5.883853     1.291337
C        1.827035    -4.625477    -0.959109
Br       2.516486    -6.014249    -2.067240
C        1.037085    -3.648508    -1.567641
C        0.598949    -2.598924    -0.799815
N        0.017830    -1.442330    -1.375207
C       -0.784013    -1.229243    -2.548499
C       -1.547579    -2.366864    -3.182127
C       -0.855923     0.154259    -3.145983
C       -0.430857     1.336803    -2.632750
C       -0.514454     2.570129    -3.417928
N        0.103239     1.458578    -1.351147
C        0.763135     2.515808    -0.629103
C        1.596746     3.474842    -1.220824
C        2.100518     4.525595    -0.440965
Br       3.169082     5.857291    -1.294808
C        1.819579     4.589286     0.940430
Br       2.480063     5.997299     2.047863
C        1.037409     3.606617     1.543365
C        0.606236     2.549984     0.781392
N       -0.022932     1.432969     1.382091
Ni       0.000000     0.000000     0.000000
H       -2.592582     2.006408     3.517068
H       -0.982827     2.736017     3.938538
H       -1.808481     3.118281     2.354790
H       -1.130929    -0.180751     4.176346
H        0.603361    -2.535130     4.074174
H       -0.369046    -3.459859     2.825711
H       -1.253420    -2.570123     4.071576
H        1.746160    -3.455311     2.250825
H        0.824760    -3.677456    -2.622662
H       -2.532456    -2.020702    -3.568855
H       -1.735903    -3.198279    -2.469689
H       -0.907865    -2.675919    -4.026867
H       -1.393355     0.195507    -4.082742
H        0.286063     2.604756    -4.174414
H       -0.441789     3.432190    -2.720726
H       -1.545943     2.603531    -3.802824
H        1.820140     3.438550    -2.279142
H        0.814266     3.642106     2.598364
49
ex_0027 frame57 tetrahedral-Δ
C        1.629436     2.313826     3.121385
C        0.787062     1.181409     2.558395
C        0.731038    -0.183636     3.179286
C        0.371512    -1.376033     2.629877
C        0.282044    -2.562746     3.495272
N        0.077590    -1.537408     1.264800
C       -0.686259    -2.581842     0.569712
C       -1.560251    -3.513556     1.181825
C       -2.121106    -4.545329     0.405780
Br      -3.227956    -5.858293     1.257942
C       -1.866111    -4.602892    -0.977179
Br      -2.585115    -5.964538    -2.100377
C       -1.057669    -3.637311    -1.577866
C       -0.609977    -2.613081    -0.792214
N       -0.003742    -1.451545    -1.366996
C        0.773257    -1.219718    -2.555815
C        1.577513    -2.355194    -3.169321
C        0.785415     0.153566    -3.188840
C        0.377501     1.334090    -2.659091
C        0.436770     2.572132    -3.446258
N       -0.116083     1.451971    -1.357767
C       -0.786230     2.505129    -0.623763
C       -1.642944     3.458964    -1.198485
C       -2.149186     4.504063    -0.406433
Br      -3.245660     5.828409    -1.236436
C       -1.850856     4.568810     0.971432
Br      -2.509474     5.964341     2.099087
C       -1.049850     3.594386     1.558936
C       -0.622199     2.543201     0.787586
N        0.014429     1.429597     1.385152
Ni       0.000000     0.000000     0.000000
H        1.025905     2.759429     3.928883
H        2.598072     1.945967     3.525632
H        1.873475     3.077497     2.345966
H        1.070070    -0.184334     4.202543
H       -0.656808    -2.515723     4.090473
H        1.194255    -2.582833     4.107411
H        0.304682    -3.467761     2.859791
H       -1.751841    -3.463471     2.243432
H       -0.849824    -3.662734    -2.634260
H        2.531112    -1.953431    -3.578801
H        1.835017    -3.128581    -2.412271
H        0.979426    -2.781861    -3.993472
H        1.312171     0.202192    -4.131883
H        0.362750     3.436335    -2.753469
H       -0.381761     2.599920    -4.186076
H        1.454980     2.619014    -3.863672
H       -1.881983     3.425356    -2.252991
H       -0.813592     3.631619     2.612056
49
ex_0027 frame58 tetrahedral-Δ-conf3
C        1.634856     2.315273     3.116887
C        0.792575     1.183902     2.555641
C        0.741341    -0.181408     3.170556
C        0.369703    -1.373524     2.626313
C        0.264054    -2.551550     3.498712
N        0.078635    -1.540210     1.261264
C       -0.692631    -2.580798     0.567237
C       -1.571282    -3.508061     1.179182
C       -2.134669    -4.536675     0.400568
Br      -3.246961    -5.847196     1.247504
C       -1.877549    -4.592386    -0.982394
Br      -2.598279    -5.948067    -2.110188
C       -1.065313    -3.629359    -1.580875
C       -0.614169    -2.608684    -0.794994
N       -0.002504    -1.449369    -1.367990
C        0.775124    -1.218056    -2.554764
C        1.580260    -2.351500    -3.167365
C        0.786920     0.153023    -3.186511
C        0.375158     1.331496    -2.659121
C        0.434514     2.569080    -3.443847
N       -0.122997     1.447527    -1.361599
C       -0.787384     2.502817    -0.625767
C       -1.642323     3.457402    -1.199500
C       -2.142100     4.505804    -0.408578
Br      -3.235642     5.831522    -1.239584
C       -1.839502     4.572437     0.968185
Br      -2.490023     5.973111     2.093044
C       -1.040566     3.596630     1.556148
C       -0.619877     2.542416     0.786123
N        0.012036     1.428949     1.387984
Ni       0.000000     0.000000     0.000000
H        2.601988     1.953080     3.529794
H        1.881153     3.079884     2.343263
H        1.021648     2.756003     3.919675
H        1.077594    -0.178212     4.194837
H       -0.681335    -2.484886     4.081581
H        0.283542    -3.461925     2.870667
H        1.169222    -2.572987     4.121232
H       -1.764037    -3.458843     2.240616
H       -0.854576    -3.651470    -2.636404
H        1.831854    -3.130373    -2.413859
H        0.987968    -2.770966    -3.999384
H        2.536235    -1.945580    -3.566603
H        1.318397     0.201636    -4.125200
H        0.365769     3.434045    -2.750363
H       -0.388840     2.594983    -4.177632
H        1.450209     2.611808    -3.866684
H       -1.883545     3.420887    -2.253087
H       -0.801004     3.635127     2.608395
49
ex_0027 frame59 tetrahedral-Λ-conf3
C        2.314383    -1.626907     3.122349
C        1.183953    -0.789856     2.555855
C       -0.181978    -0.731606     3.170725
C       -1.373991    -0.360018     2.625725
C       -2.551189    -0.249363     3.498226
N       -1.541437    -0.073601     1.260057
C       -2.581950     0.699052     0.565272
C       -3.506837     1.580453     1.174422
C       -4.535443     2.140828     0.393404
Br      -5.845148     3.256199     1.236150
C       -4.591403     1.878276    -0.988799
Br      -5.946219     2.594061    -2.119486
C       -3.629236     1.064119    -1.583946
C       -2.611265     0.619874    -0.794287
N       -1.449909     0.011640    -1.367486
C       -1.221698    -0.778572    -2.549468
C       -2.352887    -1.589577    -3.160780
C        0.150737    -0.798782    -3.181996
C        1.329368    -0.384227    -2.658223
C        2.567840    -0.447598    -3.441010
N        1.444743     0.121310    -1.364685
C        2.501953     0.785186    -0.630179
C        3.457291     1.637846    -1.205455
C        4.505812     2.139531    -0.415527
Br       5.831022     3.231561    -1.249609
C        4.572904     1.840019     0.961928
Br       5.973835     2.493435     2.084925
C        3.597343     1.042187     1.551648
C        2.543008     0.616188     0.782734
N        1.432249    -0.021822     1.382667
Ni       0.000000     0.000000     0.000000
H        1.951475    -2.591879     3.538411
H        3.078942    -1.875796     2.349454
H        2.754553    -1.010102     3.922512
H       -0.179244    -1.065619     4.196013
H       -2.483945     0.698495     4.077495
H       -3.461164    -0.271110     2.869882
H       -2.572478    -1.152288     4.123888
H       -3.456839     1.776923     2.235135
H       -3.649648     0.847899    -2.638802
H       -3.132016    -1.838850    -2.407519
H       -2.770569    -0.999584    -3.995356
H       -1.946971    -2.547384    -3.557662
H        0.200807    -1.336660    -4.117348
H        3.432602    -0.377568    -2.746664
H        2.594783     0.373545    -4.176805
H        2.609959    -1.464806    -3.859985
H        3.420587     1.876750    -2.259324
H        3.636213     0.804922     2.604740
49
ex_0027 frame60 tetrahedral-Λ
C        2.306029    -1.634115     3.123010
C        1.179094    -0.791210     2.554671
C       -0.187856    -0.726156     3.168227
C       -1.379690    -0.353504     2.618801
C       -2.558647    -0.247780     3.486920
N       -1.547818    -0.060953     1.252745
C       -2.587221     0.716998     0.565221
C       -3.502280     1.601371     1.178452
C       -4.531797     2.156983     0.398437
Br      -5.834822     3.275392     1.242797
C       -4.591569     1.886372    -0.982945
Br      -5.948979     2.596254    -2.111473
C       -3.632205     1.068861    -1.578465
C       -2.613009     0.628360    -0.791805
N       -1.451358     0.016539    -1.365866
C       -1.227607    -0.777688    -2.546357
C       -2.362258    -1.580849    -3.158978
C        0.146477    -0.808213    -3.174828
C        1.322795    -0.388135    -2.657804
C        2.564887    -0.458702    -3.431968
N        1.432269     0.131196    -1.376622
C        2.496833     0.787330    -0.634842
C        3.458454     1.636558    -1.203783
C        4.508202     2.133080    -0.411277
Br       5.835284     3.221759    -1.245435
C        4.574217     1.831079     0.965768
Br       5.977067     2.478380     2.089516
C        3.596137     1.035534     1.553363
C        2.540724     0.613278     0.781536
N        1.433008    -0.025096     1.381610
Ni       0.000000     0.000000     0.000000
H        2.748494    -1.024999     3.927719
H        1.934087    -2.598741     3.532461
H        3.070450    -1.884083     2.350155
H       -0.189829    -1.076359     4.189720
H       -2.509561     0.695784     4.075880
H       -2.577254    -1.159020     4.099857
H       -3.458788    -0.276390     2.845792
H       -3.448990     1.803619     2.237910
H       -3.654576     0.846118    -2.631301
H       -1.964745    -2.537004    -3.568455
H       -3.138432    -1.833712    -2.404094
H       -2.777703    -0.978039    -3.985228
H        0.198120    -1.352656    -4.103676
H        3.428014    -0.389911    -2.733810
H        2.595053     0.359316    -4.169742
H        2.605243    -1.478241    -3.845061
H        3.422078     1.876696    -2.256220
H        3.633110     0.795488     2.607014
49
ex_0027 frame61 tetrahedral-Λ-conf5
C        2.324393     1.628949     3.110570
C        1.188660     0.808705     2.543253
C       -0.181796     0.774629     3.144618
C       -1.376031     0.392002     2.606799
C       -2.553431     0.303041     3.470511
N       -1.547515     0.072831     1.251884
C       -2.590901    -0.699073     0.569060
C       -3.513249    -1.565915     1.191863
C       -4.547528    -2.114895     0.416503
Br      -5.863477    -3.208426     1.270438
C       -4.601238    -1.855014    -0.967318
Br      -5.965325    -2.557820    -2.088829
C       -3.632101    -1.055187    -1.570534
C       -2.610099    -0.619358    -0.790295
N       -1.443936    -0.025744    -1.373283
C       -1.230053     0.782969    -2.543064
C       -2.361738     1.561994    -3.170382
C        0.150532     0.846644    -3.144405
C        1.323856     0.405860    -2.639218
C        2.562954     0.483889    -3.407123
N        1.431833    -0.143125    -1.375361
C        2.496386    -0.791306    -0.636351
C        3.457712    -1.633930    -1.209593
C        4.510342    -2.125726    -0.421383
Br       5.839219    -3.207516    -1.261183
C        4.577177    -1.823703     0.955251
Br       5.985425    -2.466102     2.071623
C        3.597015    -1.032784     1.546830
C        2.539256    -0.610748     0.779316
N        1.434061     0.030490     1.380231
Ni       0.000000     0.000000     0.000000
H        1.980248     2.605390     3.514725
H        3.104625     1.849554     2.344406
H        2.728800     1.000919     3.920117
H       -0.178857     1.147520     4.156808
H       -2.517157    -0.638690     4.061402
H       -2.556299     1.219369     4.073773
H       -3.448380     0.346078     2.820795
H       -3.463975    -1.759623     2.253101
H       -3.647796    -0.839945    -2.623886
H       -3.170493     1.782695    -2.441617
H       -2.701184     0.918236    -3.999992
H       -2.000172     2.533023    -3.579422
H        0.201103     1.395580    -4.068261
H        2.599159     1.515646    -3.787253
H        3.424628     0.405444    -2.705840
H        2.585791    -0.316206    -4.161189
H        3.416773    -1.871565    -2.262361
H        3.634070    -0.792603     2.599603
49
ex_0027 frame62 tetrahedral-Δ-conf5
C       -1.625367     2.323421     3.111417
C       -0.803027     1.188125     2.543702
C       -0.771578    -0.182482     3.142601
C       -0.385458    -1.376743     2.604419
C       -0.293981    -2.551985     3.468401
N       -0.064734    -1.550660     1.248380
C        0.706029    -2.593347     0.568481
C        1.575104    -3.511645     1.190203
C        2.120753    -4.545332     0.413196
Br       3.218718    -5.858078     1.263823
C        1.853873    -4.600045    -0.969697
Br       2.552187    -5.963901    -2.092970
C        1.050317    -3.632392    -1.570502
C        0.613696    -2.610227    -0.790608
N        0.009450    -1.448960    -1.367973
C       -0.792634    -1.230500    -2.538671
C       -1.567888    -2.361694    -3.167320
C       -0.853976     0.150112    -3.139170
C       -0.406624     1.320893    -2.637776
C       -0.489403     2.561525    -3.401730
N        0.153204     1.423472    -1.382762
C        0.796379     2.491625    -0.639350
C        1.635314     3.455550    -1.211268
C        2.124397     4.509679    -0.424016
Br       3.202158     5.839736    -1.266419
C        1.822686     4.576807     0.952555
Br       2.462245     5.987765     2.066400
C        1.034752     3.595514     1.545296
C        0.616724     2.536273     0.778299
N       -0.019659     1.430961     1.383618
Ni       0.000000     0.000000     0.000000
H       -2.601354     1.979726     3.518118
H       -1.847388     3.104223     2.346283
H       -0.995440     2.726640     3.920396
H       -1.147621    -0.179180     4.154309
H        0.648988    -2.516042     4.057031
H       -1.209936    -2.553234     4.071974
H       -0.340407    -3.445361     2.816749
H        1.774005    -3.461462     2.250442
H        0.829506    -3.648342    -2.622429
H       -1.786680    -3.170614    -2.437959
H       -0.923789    -2.698597    -3.997392
H       -2.539188    -2.000204    -3.574746
H       -1.407020     0.201372    -4.059225
H       -1.521433     2.596460    -3.780663
H       -0.410909     3.423051    -2.699714
H        0.309923     2.583311    -4.156370
H        1.871958     3.413386    -2.263747
H        0.794547     3.632425     2.598334
49
ex_0027 frame63 tetrahedral-Λ-conf4
C        2.328331    -1.620064     3.113880
C        1.191313    -0.800194     2.542459
C       -0.180943    -0.765148     3.142938
C       -1.375956    -0.379366     2.603331
C       -2.552316    -0.294094     3.465281
N       -1.552024    -0.052662     1.247179
C       -2.584986     0.715045     0.575470
C       -3.502023     1.595377     1.188193
C       -4.552106     2.114974     0.417079
Br      -5.865259     3.204872     1.271259
C       -4.620382     1.826815    -0.963217
Br      -6.009855     2.492278    -2.074740
C       -3.648733     1.027956    -1.563868
C       -2.604618     0.605397    -0.795663
N       -1.452251     0.016242    -1.364400
C       -1.231711    -0.799785    -2.529229
C       -2.362087    -1.588266    -3.149601
C        0.147723    -0.865288    -3.134734
C        1.315296    -0.408721    -2.638897
C        2.561433    -0.497572    -3.392656
N        1.410392     0.169284    -1.394203
C        2.486552     0.800423    -0.647374
C        3.456024     1.628738    -1.220403
C        4.510594     2.118163    -0.434743
Br       5.840529     3.188378    -1.284411
C        4.577817     1.822547     0.943156
Br       5.990973     2.464475     2.052504
C        3.595059     1.039553     1.539153
C        2.535579     0.617793     0.772572
N        1.436587    -0.024154     1.377693
Ni       0.000000     0.000000     0.000000
H        2.747632    -0.991619     3.915897
H        3.099269    -1.854440     2.342645
H        1.978165    -2.589750     3.529283
H       -0.181155    -1.149962     4.151867
H       -3.444094    -0.345070     2.811245
H       -2.520926     0.649213     4.053265
H       -2.549913    -1.210827     4.067029
H       -3.441493     1.810384     2.244730
H       -3.671973     0.789752    -2.612628
H       -3.162590    -1.807201    -2.411773
H       -2.721642    -0.969861    -3.990487
H       -1.981778    -2.560594    -3.538300
H        0.198523    -1.430266    -4.047445
H        2.569432    -1.489602    -3.865360
H        2.633079     0.364316    -4.073732
H        3.403150    -0.506886    -2.660339
H        3.413271     1.860034    -2.272606
H        3.631137     0.803335     2.593796
49
ex_0027 frame64 see-saw N1-N1-ax-conf2
C        0.521429     1.730683     3.916336
C        0.897956     0.866632     2.709612
C        2.310595     0.800862     2.239139
C        2.795892     0.294070     1.073554
C        4.237743     0.245922     0.855283
N        1.980173    -0.198865     0.039055
C        2.210959    -0.867801    -1.199805
C        3.286766    -1.721565    -1.399115
C        3.497744    -2.247145    -2.672520
Br       5.018150    -3.350266    -2.942491
C        2.598631    -1.959518    -3.722972
Br       2.812314    -2.631748    -5.476917
C        1.494389    -1.153554    -3.511011
C        1.264635    -0.715487    -2.262261
N        0.038426    -0.078337    -1.986869
C       -0.992513     0.703830    -2.566130
C       -0.626091     1.490862    -3.797924
C       -2.387982     0.744761    -1.976291
C       -2.823749     0.367655    -0.742767
C       -4.238826     0.438047    -0.398896
N       -1.973547    -0.097850     0.247335
C       -2.210528    -0.756690     1.511853
C       -3.279489    -1.610793     1.815403
C       -3.444455    -2.070051     3.133188
Br      -4.964149    -3.158559     3.531822
C       -2.502903    -1.727907     4.127698
Br      -2.686052    -2.329930     5.935036
C       -1.402083    -0.928831     3.799359
C       -1.237063    -0.543770     2.475830
N       -0.071787     0.095854     1.990335
Ni       0.000000     0.000000     0.000000
H        0.815201     1.148949     4.812635
H        1.089185     2.689468     3.939093
H       -0.557896     1.996051     3.951487
H        3.005415     1.262206     2.929718
H        4.652895    -0.675141     1.299474
H        4.650080     1.188054     1.250335
H        4.390384     0.295639    -0.244019
H        3.970419    -1.936274    -0.587144
H        0.786699    -0.911175    -4.284771
H       -1.185802     2.450966    -3.818916
H        0.464826     1.733428    -3.782018
H       -0.883042     0.853857    -4.657722
H       -3.101003     1.243389    -2.608935
H       -4.355365     0.378176     0.703158
H       -4.737410    -0.416569    -0.899348
H       -4.572965     1.435615    -0.700537
H       -4.003216    -1.876169     1.059881
H       -0.676942    -0.662473     4.554621
49
ex_0027 frame65 see-saw N1-N1-ax-conf6
C        0.510084    -1.710349     3.926051
C        0.888810    -0.861861     2.712210
C        2.300454    -0.825975     2.231714
C        2.792388    -0.316404     1.069267
C        4.236979    -0.288457     0.849477
N        1.980350     0.197559     0.040798
C        2.218994     0.853516    -1.202189
C        3.306717     1.690627    -1.407086
C        3.519620     2.214688    -2.680474
Br       5.052469     3.301251    -2.952718
C        2.614065     1.937798    -3.728296
Br       2.832608     2.610691    -5.482266
C        1.500839     1.143451    -3.513245
C        1.270048     0.701955    -2.263587
N        0.045535     0.064620    -1.987068
C       -0.988493    -0.714744    -2.567800
C       -0.628719    -1.475992    -3.811239
C       -2.378385    -0.774091    -1.964752
C       -2.817493    -0.387755    -0.736215
C       -4.229713    -0.486713    -0.389153
N       -1.973504     0.112578     0.241711
C       -2.220209     0.756955     1.509463
C       -3.300799     1.592662     1.813644
C       -3.474048     2.046419     3.131036
Br      -5.008695     3.113908     3.526590
C       -2.530112     1.714193     4.126571
Br      -2.726403     2.310691     5.933848
C       -1.418144     0.930040     3.799190
C       -1.245402     0.550160     2.474592
N       -0.073117    -0.075788     1.991346
Ni       0.000000     0.000000     0.000000
H        1.057676    -2.680721     3.966486
H       -0.573667    -1.952581     3.976637
H        0.826889    -1.113617     4.804003
H        2.991669    -1.296092     2.921785
H        4.663228     0.630071     1.287635
H        4.644436    -1.231231     1.250042
H        4.390128    -0.345724    -0.249751
H        3.995750     1.897729    -0.597943
H        0.789081     0.910496    -4.286090
H        0.469982    -1.679414    -3.827191
H       -0.938729    -0.815498    -4.631471
H       -1.155906    -2.454463    -3.842181
H       -3.084113    -1.289140    -2.592455
H       -4.533545    -1.501665    -0.669693
H       -4.347638    -0.414396     0.711630
H       -4.752610     0.341605    -0.905994
H       -4.023928     1.848170     1.054793
H       -0.691855     0.672140     4.556483
49
ex_0027 frame66 see-saw N1-N1-ax-conf5
C        0.505503     1.714981     3.929218
C        0.884783     0.866794     2.712107
C        2.296195     0.833369     2.230903
C        2.787677     0.320617     1.069633
C        4.228692     0.300955     0.842218
N        1.979315    -0.205562     0.046764
C        2.220278    -0.853902    -1.196743
C        3.310063    -1.684302    -1.401444
C        3.526493    -2.201447    -2.675020
Br       5.063418    -3.279704    -2.947726
C        2.622224    -1.924358    -3.722731
Br       2.852017    -2.591654    -5.474670
C        1.505694    -1.136022    -3.507663
C        1.272190    -0.699754    -2.259128
N        0.047218    -0.066724    -1.986760
C       -0.980467     0.721754    -2.562065
C       -0.617389     1.491321    -3.797068
C       -2.368997     0.782060    -1.960270
C       -2.812315     0.384639    -0.737311
C       -4.220042     0.478511    -0.383816
N       -1.973157    -0.126252     0.236369
C       -2.219257    -0.762214     1.506549
C       -3.300193    -1.592699     1.811393
C       -3.474301    -2.045451     3.127899
Br      -5.010690    -3.109896     3.518380
C       -2.531007    -1.714563     4.124100
Br      -2.731774    -2.311740     5.929873
C       -1.417862    -0.931931     3.797442
C       -1.245401    -0.550444     2.472861
N       -0.077971     0.080511     1.991589
Ni       0.000000     0.000000     0.000000
H        0.809386     1.122541     4.815421
H       -0.576128     1.967275     3.967805
H        1.061811     2.680798     3.970054
H        2.985690     1.312071     2.915777
H        4.377814     0.359038    -0.258422
H        4.655144    -0.616560     1.280994
H        4.630467     1.244458     1.242629
H        3.998172    -1.891723    -0.592578
H        0.791660    -0.900249    -4.277562
H        0.480499     1.696089    -3.805315
H       -0.921175     0.843429    -4.630998
H       -1.147332     2.468153    -3.807247
H       -3.068979     1.304238    -2.586473
H       -4.566336     1.452980    -0.742944
H       -4.721925    -0.408074    -0.818013
H       -4.301931     0.493619     0.724536
H       -4.021263    -1.846181     1.051967
H       -0.691219    -0.674368     4.554610
49
ex_0027 frame67 see-saw N1-N1-ax-conf3
C        0.505609    -1.703480     3.938205
C        0.887025    -0.869389     2.714788
C        2.293429    -0.845490     2.228203
C        2.783293    -0.329173     1.067440
C        4.219147    -0.315622     0.833207
N        1.978637     0.207598     0.048845
C        2.218366     0.855490    -1.192380
C        3.308446     1.683231    -1.394936
C        3.525227     2.198998    -2.667626
Br       5.063372     3.273458    -2.941005
C        2.620005     1.923162    -3.714357
Br       2.849062     2.587953    -5.464990
C        1.502705     1.137944    -3.499735
C        1.269390     0.703197    -2.253756
N        0.042997     0.073341    -1.982926
C       -0.982039    -0.718973    -2.564946
C       -0.629026    -1.465521    -3.809694
C       -2.359339    -0.795208    -1.945810
C       -2.806710    -0.395963    -0.726284
C       -4.212762    -0.493915    -0.378981
N       -1.972488     0.118649     0.243897
C       -2.217444     0.757158     1.511304
C       -3.299503     1.587094     1.812125
C       -3.478378     2.039627     3.125569
Br      -5.019976     3.100658     3.507425
C       -2.536838     1.710996     4.122886
Br      -2.751428     2.312488     5.924364
C       -1.419487     0.929851     3.799466
C       -1.241728     0.545878     2.475225
N       -0.072375    -0.085017     1.990785
Ni       0.000000     0.000000     0.000000
H        1.030653    -2.686693     3.987372
H        0.839983    -1.107673     4.810819
H       -0.583527    -1.916245     3.987695
H        2.980598    -1.328614     2.911363
H        4.652304     0.597642     1.272574
H        4.357157    -0.375399    -0.269320
H        4.610977    -1.263706     1.228745
H        3.996442     1.888825    -0.585671
H        0.786951     0.901992    -4.266915
H       -1.135844    -2.454860    -3.842780
H        0.473513    -1.634623    -3.857860
H       -0.988559    -0.789066    -4.593949
H       -3.056262    -1.315492    -2.574340
H       -4.730401     0.338519    -0.889428
H       -4.322497    -0.438801     0.725424
H       -4.510414    -1.505547    -0.670533
H       -4.020164     1.839372     1.051628
H       -0.694628     0.674492     4.558182
49
ex_0027 frame68 see-saw N1-N1-ax-conf4
C        0.517039     1.730214     3.918229
C        0.893919     0.866420     2.711655
C        2.303974     0.812656     2.236572
C        2.791586     0.289529     1.077389
C        4.232488     0.236623     0.864833
N        1.978123    -0.215855     0.045511
C        2.207148    -0.876019    -1.194389
C        3.281607    -1.727703    -1.395501
C        3.489145    -2.251492    -2.669356
Br       5.005501    -3.357223    -2.945543
C        2.589124    -1.960472    -3.717668
Br       2.797870    -2.629819    -5.471882
C        1.487489    -1.153276    -3.504139
C        1.260977    -0.714058    -2.257461
N        0.041390    -0.067330    -1.985902
C       -0.990759     0.710947    -2.561743
C       -0.627688     1.497804    -3.791966
C       -2.382720     0.746326    -1.968245
C       -2.819708     0.350182    -0.741113
C       -4.232836     0.426334    -0.397749
N       -1.971999    -0.139387     0.238478
C       -2.207507    -0.777313     1.509512
C       -3.276352    -1.623216     1.815689
C       -3.446479    -2.071618     3.133996
Br      -4.968879    -3.154513     3.529680
C       -2.508730    -1.722990     4.129372
Br      -2.702802    -2.312758     5.937764
C       -1.405484    -0.927478     3.800736
C       -1.234508    -0.553713     2.475352
N       -0.071161     0.080337     1.990958
Ni       0.000000     0.000000     0.000000
H        1.085159     2.689104     3.951670
H       -0.561503     1.997018     3.953056
H        0.810676     1.142713     4.811462
H        2.998081     1.273509     2.929311
H        4.621154    -0.691165     1.316883
H        4.398430     0.282135    -0.233515
H        4.653765     1.170435     1.269279
H        3.964824    -1.943860    -0.583915
H        0.778556    -0.907437    -4.274765
H        0.464836     1.734792    -3.782138
H       -0.895882     0.862579    -4.649530
H       -1.184417     2.458853    -3.799502
H       -3.090885     1.253725    -2.597549
H       -4.350795     0.373387     0.704794
H       -4.727272    -0.429379    -0.898250
H       -4.565778     1.422031    -0.707429
H       -3.992835    -1.889611     1.055283
H       -0.683717    -0.656783     4.557662
49
ex_0027 frame69 tetrahedral-Λ-conf2
C        2.335847     1.624033     3.104422
C        1.194662     0.812501     2.536208
C       -0.178677     0.795620     3.127166
C       -1.373976     0.398237     2.593367
C       -2.549169     0.325271     3.448971
N       -1.553902     0.046463     1.244580
C       -2.584656    -0.719574     0.580654
C       -3.497733    -1.593307     1.199803
C       -4.547566    -2.112392     0.431705
Br      -5.858853    -3.195987     1.292507
C       -4.616239    -1.828094    -0.949503
Br      -6.006084    -2.493800    -2.056270
C       -3.645017    -1.033225    -1.554824
C       -2.601634    -0.606155    -0.791704
N       -1.452452    -0.010738    -1.363949
C       -1.233800     0.787846    -2.533252
C       -2.359839     1.547671    -3.178887
C        0.150172     0.863190    -3.120728
C        1.316035     0.397950    -2.629256
C        2.559880     0.493064    -3.383659
N        1.405559    -0.190787    -1.395922
C        2.483007    -0.811661    -0.641812
C        3.452709    -1.638206    -1.211097
C        4.509016    -2.119283    -0.427313
Br       5.837461    -3.188091    -1.279787
C        4.578108    -1.816642     0.948160
Br       5.998053    -2.451433     2.048925
C        3.594206    -1.034014     1.543964
C        2.532673    -0.619603     0.777678
N        1.433444     0.022967     1.380870
Ni       0.000000     0.000000     0.000000
H        2.012866     2.611741     3.500796
H        2.720105     0.994511     3.922973
H        3.121413     1.817968     2.337508
H       -0.177610     1.198400     4.128843
H       -2.526406    -0.610908     4.046624
H       -3.433270     0.380434     2.783409
H       -2.538809     1.251638     4.033003
H       -3.436653    -1.805191     2.256913
H       -3.666664    -0.797019    -2.603257
H       -2.011465     2.530141    -3.572730
H       -3.192353     1.735242    -2.468999
H       -2.649331     0.895902    -4.020184
H        0.201563     1.420919    -4.035689
H        2.583310    -0.313742    -4.129540
H        3.419528     0.428928    -2.675952
H        2.586619     1.519922    -3.773797
H        3.406999    -1.873919    -2.261749
H        3.629450    -0.791018     2.596824
49
ex_0027 frame70 tetrahedral-Δ-conf4
C        1.642173     2.329296     3.098567
C        0.819826     1.192881     2.533058
C        0.792632    -0.179181     3.129848
C        0.389246    -1.373507     2.596457
C        0.313760    -2.547272     3.456310
N        0.033522    -1.554143     1.244888
C       -0.726859    -2.584900     0.582981
C       -1.599032    -3.497750     1.200280
C       -2.114364    -4.548530     0.431486
Br      -3.197676    -5.860205     1.290665
C       -1.827012    -4.618400    -0.949035
Br      -2.489093    -6.011175    -2.054744
C       -1.032249    -3.646710    -1.553458
C       -0.610459    -2.602248    -0.789535
N       -0.017835    -1.452705    -1.363600
C        0.788372    -1.231661    -2.529759
C        1.571455    -2.359100    -3.158739
C        0.848861     0.148529    -3.129041
C        0.376432     1.310589    -2.636129
C        0.469649     2.558812    -3.383829
N       -0.220080     1.393158    -1.404169
C       -0.826007     2.475555    -0.641532
C       -1.650914     3.448223    -1.205329
C       -2.128181     4.504306    -0.417571
Br      -3.201946     5.833386    -1.261558
C       -1.818277     4.573169     0.956719
Br      -2.445132     5.990304     2.066470
C       -1.032646     3.589994     1.547391
C       -0.620964     2.529317     0.778756
N        0.031316     1.434867     1.376637
Ni       0.000000     0.000000     0.000000
H        1.016206     2.743940     3.905521
H        1.869819     3.101584     2.326765
H        2.614590     1.981158     3.509114
H        1.196447    -0.178802     4.131800
H        0.367684    -3.435390     2.796072
H       -0.625505    -2.518095     4.048600
H        1.236059    -2.539439     4.047874
H       -1.813324    -3.435831     2.256871
H       -0.793348    -3.668709    -2.601640
H        1.795724    -3.159367    -2.422718
H        0.943314    -2.713496    -3.994272
H        2.540250    -1.976970    -3.555016
H        1.410424     0.200415    -4.041654
H        1.456835     2.565606    -3.865520
H       -0.397587     2.623608    -4.058686
H        0.483728     3.399912    -2.650743
H       -1.890750     3.400671    -2.254551
H       -0.784649     3.625920     2.599218
49
ex_0027 frame71 tetrahedral-conf6
C        3.589741     2.076311    -0.962144
C        2.779175     0.961885    -0.318995
C        3.324520    -0.428691    -0.200558
C        2.601410    -1.579529    -0.067873
C        3.361343    -2.877267    -0.132555
N        1.183281    -1.599290     0.125632
C        0.300006    -2.544400     0.745780
C        0.721725    -3.571083     1.609036
C       -0.224306    -4.438502     2.172607
Br       0.385471    -5.815524     3.345408
C       -1.590131    -4.303429     1.885542
Br      -2.926752    -5.460223     2.627247
C       -2.014059    -3.299097     1.032901
C       -1.082471    -2.409231     0.561525
N       -1.530827    -1.265275    -0.166117
C       -2.715312    -0.755941    -0.701983
C       -3.395288    -1.612674    -1.725040
C       -3.310178     0.543952    -0.321060
C       -2.582401     1.619826     0.092027
C       -3.301056     2.930166     0.271825
N       -1.184728     1.561754     0.359187
C       -0.382470     2.148742     1.394181
C       -0.881230     2.709024     2.582813
C        0.011578     3.262721     3.519426
Br      -0.683280     4.021618     5.120054
C        1.399588     3.259409     3.283670
Br       2.666836     3.996791     4.518070
C        1.896323     2.703210     2.112632
C        1.014914     2.078465     1.254770
N        1.495263     1.310508     0.155418
Ni       0.000000     0.000000     0.000000
H        3.937410     1.678328    -1.939261
H        4.469189     2.448836    -0.396936
H        2.936793     2.958454    -1.161680
H        4.388572    -0.532270    -0.396417
H        4.035964    -2.954417     0.746949
H        3.959372    -2.919992    -1.065321
H        2.682478    -3.749782    -0.150460
H        1.761002    -3.700013     1.848215
H       -3.069166    -3.204386     0.818785
H       -3.079031    -2.680526    -1.741368
H       -4.504460    -1.609234    -1.779002
H       -2.990203    -1.130189    -2.640904
H       -4.362321     0.721091    -0.537773
H       -2.645903     3.687934     0.744043
H       -4.187167     2.783138     0.925932
H       -3.626913     3.323072    -0.713075
H       -1.940881     2.720720     2.780748
H        2.962785     2.701425     1.932978
49
ex_0027 frame72 Isomer 1
C        1.796441     3.178136     1.819422
C        2.004823     1.894161     0.988369
C        3.233191     1.752804     0.159270
C        3.352292     0.971137    -0.933100
C        4.655545     0.897427    -1.628642
N        2.283446     0.213831    -1.448323
C        2.277214    -0.918705    -2.343345
C        3.373599    -1.782978    -2.586010
C        3.274107    -2.790326    -3.563520
Br       4.792127    -3.896286    -3.926207
C        2.068385    -2.978016    -4.264014
Br       1.851717    -4.323987    -5.606676
C        0.974108    -2.164584    -3.987555
C        1.074470    -1.237989    -2.970400
N       -0.073421    -0.549023    -2.503534
C       -1.360584    -0.274102    -2.950832
C       -1.529662    -0.037553    -4.437298
C       -2.546390    -0.206144    -2.042913
C       -2.552602     0.033338    -0.695449
C       -3.852017     0.205354    -0.001429
N       -1.390360     0.129278     0.090664
C       -1.132932     0.008360     1.504397
C       -1.969403    -0.672354     2.404454
C       -1.670272    -0.669610     3.773188
Br      -2.864268    -1.562429     4.967636
C       -0.519266    -0.025583     4.257361
Br      -0.059234     0.012019     6.110305
C        0.330922     0.616277     3.360605
C        0.029624     0.491258     2.038839
N        0.986972     0.889076     1.060468
Ni       0.432302     0.166408    -0.712099
H        2.365189     3.123088     2.765725
H        2.141999     4.081009     1.262210
H        0.718011     3.353187     2.060948
H        4.045932     2.433065     0.393874
H        5.327321     0.226050    -1.044089
H        5.049079     1.915539    -1.761209
H        4.501200     0.480516    -2.639060
H        4.297181    -1.635484    -2.045980
H        0.050625    -2.307788    -4.523564
H       -2.200429     0.843182    -4.569642
H       -0.544890     0.223028    -4.903647
H       -1.946362    -0.877444    -5.021306
H       -3.505072    -0.116188    -2.540691
H       -3.706472     0.546070     1.041488
H       -4.353561    -0.782770     0.004309
H       -4.429157     0.993467    -0.513096
H       -2.854088    -1.167348     2.032178
H        1.220452     1.116890     3.712961
49
ex_0027 frame73 trans-conf2
C        3.827082     0.543800     1.667194
C        2.654185     0.874935     0.840758
C        2.067589     2.266699     0.817045
C        0.901555     2.760938     0.308011
C        0.619352     4.127699     0.205871
N       -0.011306     1.985361    -0.110128
C       -1.325578     2.194932    -0.822883
C       -1.574580     3.219458    -1.709359
C       -2.852805     3.414485    -2.175858
Br      -3.200941     4.903686    -3.305165
C       -3.864190     2.516947    -1.810877
Br      -5.639487     2.746371    -2.429862
C       -3.597638     1.443382    -0.992732
C       -2.338946     1.270296    -0.604989
N       -1.978359     0.179889     0.024616
C       -2.642621    -0.873534     0.839025
C       -3.877777    -0.579002     1.605122
C       -2.037231    -2.258156     0.875387
C       -0.870969    -2.750492     0.378789
C       -0.543406    -4.112580     0.406735
N       -0.026040    -1.982679    -0.134820
C        1.314923    -2.176978    -0.834413
C        1.578650    -3.213990    -1.704625
C        2.855732    -3.401523    -2.178252
Br       3.204709    -4.905384    -3.291290
C        3.862423    -2.488228    -1.833076
Br       5.632469    -2.714771    -2.466923
C        3.592373    -1.403744    -1.025435
C        2.333343    -1.235068    -0.633452
N        1.982950    -0.103507    -0.003315
Ni       0.000000     0.000000     0.000000
H        4.666303     0.843335     1.033104
H        3.823683     1.100986     2.602863
H        3.797939    -0.535769     1.897250
H        2.737922     2.956489     1.245228
H        1.067057     4.523436    -0.704274
H        1.049848     4.511960     1.088743
H       -0.486959     4.271780     0.293795
H       -0.796658     3.889834    -1.976146
H       -4.357660     0.765122    -0.715816
H       -3.899321    -1.147760     2.535444
H       -3.869252     0.496289     1.851875
H       -4.693568    -0.896451     0.950430
H       -2.680639    -2.920897     1.380833
H        0.564421    -4.235273     0.359144
H       -1.086307    -4.589562    -0.403453
H       -0.846400    -4.428843     1.373787
H        0.801290    -3.892426    -1.953017
H        4.339913    -0.706192    -0.756006
49
ex_0027 frame74 trans-conf6
C        3.828797     0.539425     1.666486
C        2.652560     0.874824     0.841221
C        2.066166     2.265270     0.819653
C        0.903401     2.763446     0.305142
C        0.629484     4.134026     0.202045
N       -0.024540     1.986360    -0.122436
C       -1.325787     2.192828    -0.825066
C       -1.578023     3.218209    -1.709910
C       -2.856732     3.411076    -2.178665
Br      -3.210623     4.900235    -3.308322
C       -3.867182     2.510052    -1.815437
Br      -5.642126     2.734265    -2.435809
C       -3.599211     1.436496    -0.997691
C       -2.341263     1.269842    -0.611464
N       -1.980628     0.178739     0.017595
C       -2.639635    -0.871312     0.833907
C       -3.874879    -0.582531     1.608268
C       -2.036727    -2.260235     0.873823
C       -0.873676    -2.753965     0.375388
C       -0.545590    -4.118238     0.399352
N       -0.013966    -1.983463    -0.145587
C        1.312433    -2.178827    -0.834913
C        1.577029    -3.216361    -1.704975
C        2.854786    -3.407062    -2.177479
Br       3.206319    -4.911008    -3.290796
C        3.862537    -2.495313    -1.830569
Br       5.634073    -2.723325    -2.461019
C        3.592426    -1.410449    -1.023041
C        2.333635    -1.238714    -0.632957
N        1.982984    -0.098215     0.000471
Ni       0.000000     0.000000     0.000000
H        3.840667     1.096276     2.603115
H        3.799029    -0.540008     1.898168
H        4.664337     0.837617     1.028162
H        2.740279     2.952909     1.246416
H        1.088026     4.488648    -0.717943
H       -0.472923     4.308193     0.283157
H        1.068225     4.532419     1.076217
H       -0.800098     3.890252    -1.974483
H       -4.357663     0.755134    -0.721535
H       -3.876158     0.493354     1.852360
H       -4.696520    -0.906795     0.963299
H       -3.877521    -1.150399     2.538902
H       -2.680993    -2.923537     1.379673
H        0.561188    -4.247465     0.355091
H       -1.087330    -4.592514    -0.412143
H       -0.856481    -4.431854     1.365367
H        0.797232    -3.892930    -1.953807
H        4.340951    -0.714504    -0.752680
49
ex_0027 frame75 trans-conf10
C        3.826340     0.533650    -1.652411
C        2.648137     0.882789    -0.846924
C        2.057084     2.256720    -0.837951
C        0.893451     2.752589    -0.320405
C        0.613723     4.126324    -0.251962
N       -0.015812     1.985278     0.135525
C       -1.329576     2.197174     0.820036
C       -1.582487     3.236091     1.681483
C       -2.859548     3.436791     2.145864
Br      -3.207850     4.945313     3.252499
C       -3.866771     2.532315     1.795722
Br      -5.640877     2.770542     2.413487
C       -3.594811     1.445713     0.993173
C       -2.337249     1.265129     0.602579
N       -1.980934     0.175158    -0.019838
C       -2.641239    -0.876610    -0.842387
C       -3.876874    -0.583886    -1.590900
C       -2.026232    -2.246230    -0.897889
C       -0.862307    -2.735126    -0.390949
C       -0.531098    -4.095092    -0.453848
N       -0.013116    -1.980998     0.167397
C        1.305557    -2.168378     0.849864
C        1.573032    -3.222552     1.697758
C        2.851728    -3.426388     2.160422
Br       3.201126    -4.933987     3.270195
C        3.863524    -2.524632     1.806536
Br       5.641573    -2.773023     2.412752
C        3.592632    -1.430836     1.006716
C        2.330705    -1.230858     0.624804
N        1.982928    -0.104488    -0.001784
Ni       0.000000     0.000000     0.000000
H        3.856671     1.065795    -2.603102
H        3.815538    -0.553199    -1.857395
H        4.641592     0.859738    -1.004851
H        2.732402     2.937051    -1.276882
H        1.059213     4.532532     0.655481
H        1.045184     4.516637    -1.133928
H       -0.490906     4.281113    -0.343085
H       -0.811019     3.915589     1.940722
H       -4.353139     0.762280     0.727894
H       -3.910689     0.501578    -1.791509
H       -4.637428    -0.958176    -0.908156
H       -3.937470    -1.113478    -2.543264
H       -2.670611    -2.905806    -1.413370
H       -0.817500    -4.384199    -1.435136
H        0.577024    -4.224031    -0.395642
H       -1.088418    -4.601996     0.330100
H        0.790011    -3.890810     1.961158
H        4.342104    -0.735564     0.740186
49
ex_0027 frame76 tetrahedral-Λ-conf6
C        2.094892    -1.000080     3.594445
C        0.954177    -0.352439     2.787744
C       -0.462722    -0.331698     3.297577
C       -1.610193    -0.212195     2.560081
C       -2.893900    -0.172591     3.335493
N       -1.645532    -0.125108     1.118586
C       -2.539872     0.626711     0.279205
C       -3.493595     1.570320     0.712792
C       -4.336640     2.193746    -0.229511
Br      -5.642984     3.439124     0.371950
C       -4.217533     1.901595    -1.602452
Br      -5.312993     2.694469    -2.953901
C       -3.264445     0.995050    -2.026045
C       -2.406181     0.480581    -1.092183
N       -1.289599    -0.259266    -1.498562
C       -0.815334    -0.845779    -2.695690
C       -1.710381    -1.854339    -3.400855
C        0.520723    -0.505684    -3.276183
C        1.545708     0.096230    -2.614789
C        2.854107     0.304197    -3.300182
N        1.422340     0.540190    -1.284761
C        2.048436     1.503884    -0.401508
C        2.612087     2.699410    -0.853564
C        3.183570     3.586378     0.071877
Br       3.929381     5.211220    -0.586362
C        3.214100     3.301209     1.449208
Br       3.979703     4.474403     2.749122
C        2.669015     2.117687     1.914261
C        2.031811     1.339021     1.013592
N        1.265298     0.242701     1.518922
Ni       0.000000     0.000000     0.000000
H        1.752801    -1.947340     4.073594
H        2.442327    -0.318012     4.393721
H        2.960292    -1.258691     2.941366
H       -0.551593    -0.470626     4.374657
H       -2.913796     0.766461     3.937935
H       -2.973578    -1.047592     4.007614
H       -3.763679    -0.185702     2.656254
H       -3.604080     1.810145     1.756250
H       -3.160482     0.760285    -3.075049
H       -2.774706    -1.848765    -3.071334
H       -1.721499    -1.797487    -4.509514
H       -1.273970    -2.838309    -3.113713
H        0.731403    -0.901812    -4.264399
H        3.538203     0.899650    -2.663814
H        2.703156     0.846226    -4.254976
H        3.317987    -0.686820    -3.470495
H        2.596625     2.932002    -1.903171
H        2.683092     1.880639     2.970835
49
ex_0027 frame77 tetrahedral-Δ-conf6
C        1.349387     1.906823     3.587343
C        0.523357     0.884811     2.785286
C        0.278532    -0.511084     3.295519
C       -0.031596    -1.623829     2.560325
C       -0.273085    -2.884654     3.335958
N       -0.134715    -1.643928     1.119775
C       -1.025945    -2.405342     0.285332
C       -2.107679    -3.194468     0.725118
C       -2.863320    -3.926747    -0.213143
Br      -4.298299    -5.016468     0.396057
C       -2.563603    -3.856150    -1.588008
Br      -3.528254    -4.809715    -2.934678
C       -1.519000    -3.061136    -2.017620
C       -0.870605    -2.297326    -1.087249
N        0.032387    -1.313822    -1.498673
C        0.685828    -0.940274    -2.700018
C        1.535069    -1.985412    -3.411865
C        0.564142     0.434689    -3.277995
C        0.135329     1.542049    -2.614189
C        0.134818     2.866999    -3.298371
N       -0.317118     1.490127    -1.282290
C       -1.160424     2.261377    -0.392146
C       -2.253754     3.008117    -0.835997
C       -3.030619     3.713977     0.095194
Br      -4.520338     4.709044    -0.552617
C       -2.733155     3.698811     1.470337
Br      -3.758682     4.642147     2.777946
C       -1.647986     2.971761     1.927260
C       -0.987147     2.218086     1.021942
N       -0.021820     1.287176     1.518990
Ni       0.000000     0.000000     0.000000
H        2.232614     1.418556     4.061986
H        0.733217     2.356058     4.389005
H        1.739449     2.720291     2.932889
H        0.410572    -0.621268     4.371624
H       -1.199793    -2.754389     3.943513
H        0.582127    -3.104349     4.002386
H       -0.403049    -3.744035     2.655737
H       -2.355782    -3.264625     1.770105
H       -1.275218    -2.995125    -3.067642
H        1.361406    -3.035299    -3.081812
H        1.467232    -1.986304    -4.520146
H        2.579824    -1.713748    -3.135231
H        0.985995     0.579698    -4.267325
H       -0.341215     3.636091    -2.658602
H       -0.429636     2.804625    -4.250070
H        1.186070     3.167498    -3.473593
H       -2.493399     3.029148    -1.884033
H       -1.403180     2.947927     2.981909
49
ex_0027 frame78 trans-conf4
C        3.834580     0.530418    -1.643305
C        2.650832     0.885048    -0.848828
C        2.054753     2.254000    -0.847417
C        0.889009     2.748813    -0.334384
C        0.603748     4.118317    -0.279228
N       -0.005254     1.985145     0.123628
C       -1.330300     2.202913     0.811924
C       -1.582662     3.247798     1.664371
C       -2.856716     3.452387     2.128565
Br      -3.198659     4.971060     3.223802
C       -3.864332     2.546037     1.787368
Br      -5.631036     2.799995     2.411334
C       -3.594497     1.451603     0.992047
C       -2.336288     1.266707     0.599231
N       -1.977858     0.171113    -0.019459
C       -2.643396    -0.878678    -0.841125
C       -3.882077    -0.590485    -1.576072
C       -2.023654    -2.242461    -0.905495
C       -0.858557    -2.734580    -0.401446
C       -0.526921    -4.093728    -0.470217
N       -0.025996    -1.981494     0.151081
C        1.307944    -2.173137     0.841648
C        1.575870    -3.230391     1.681895
C        2.850522    -3.436829     2.145313
Br       3.185545    -4.955717     3.243626
C        3.861739    -2.533572     1.801535
Br       5.628890    -2.801600     2.419150
C        3.592654    -1.433177     1.008347
C        2.330331    -1.231211     0.621779
N        1.981718    -0.104832    -0.001114
Ni       0.000000     0.000000     0.000000
H        3.885108     1.036468    -2.608464
H        4.647696     0.867479    -1.000209
H        3.817166    -0.562344    -1.811102
H        2.727912     2.931863    -1.291879
H        1.048612     4.543975     0.621465
H       -0.502885     4.262113    -0.371056
H        1.032527     4.494332    -1.169091
H       -0.812890     3.931107     1.918994
H       -4.351918     0.764503     0.731725
H       -3.941016    -1.105817    -2.539264
H       -3.952898     0.501224    -1.730698
H       -4.621983    -0.999501    -0.896364
H       -2.668699    -2.899371    -1.423155
H       -1.075988    -4.606347     0.316302
H        0.581969    -4.220381    -0.420183
H       -0.819380    -4.386860    -1.448415
H        0.798868    -3.903949     1.941598
H        4.342015    -0.735614     0.748431
49
ex_0027 frame79 trans-conf8
C        3.827766     0.530037     1.652336
C        2.647280     0.885438     0.852097
C        2.054024     2.254438     0.842574
C        0.889652     2.746488     0.320706
C        0.608677     4.120516     0.263579
N       -0.015131     1.983532    -0.147591
C       -1.331372     2.197618    -0.819022
C       -1.584135     3.242258    -1.670452
C       -2.859182     3.447891    -2.130378
Br      -3.205270     4.964388    -3.227684
C       -3.866106     2.544975    -1.784348
Br      -5.632684     2.804442    -2.404641
C       -3.594415     1.451492    -0.987518
C       -2.335468     1.262792    -0.597091
N       -1.980105     0.168132     0.024849
C       -2.638552    -0.880531     0.847891
C       -3.869843    -0.578642     1.595018
C       -2.027086    -2.242138     0.900924
C       -0.865751    -2.732069     0.389474
C       -0.536757    -4.090154     0.455910
N       -0.022554    -1.979429    -0.173966
C        1.307575    -2.166690    -0.850211
C        1.573380    -3.222928    -1.689135
C        2.849076    -3.427965    -2.154313
Br       3.192995    -4.939009    -3.258729
C        3.861831    -2.525792    -1.807426
Br       5.637416    -2.776613    -2.418271
C        3.590354    -1.428778    -1.009798
C        2.329800    -1.226878    -0.621916
N        1.981581    -0.115034     0.004725
Ni       0.000000     0.000000     0.000000
H        4.660184     0.835833     1.015007
H        3.805335    -0.553907     1.870984
H        3.859095     1.069227     2.597693
H        2.729169     2.934690     1.284645
H       -0.496053     4.281054     0.354600
H        1.055671     4.533641    -0.641105
H        1.041764     4.507477     1.146719
H       -0.815824     3.924894    -1.930279
H       -4.352065     0.766638    -0.723513
H       -3.896685     0.503770     1.801321
H       -4.666628    -0.930007     0.936165
H       -3.889840    -1.110529     2.547684
H       -2.674772    -2.901124     1.414999
H       -0.885241    -4.437911     1.398630
H       -1.013983    -4.590198    -0.388455
H        0.576731    -4.176349     0.462841
H        0.792184    -3.894668    -1.949185
H        4.340355    -0.734251    -0.747849
