51
ex_0238 frame0 trans-OC-6-1
Co       0.000000     0.000000     0.000000
Cl       2.400000     0.000000     0.000000
Cl      -2.400000     0.000000     0.000000
C       -1.706575     5.332843     0.249632
C       -0.749531     4.279511     0.109638
C        0.660214     4.270048    -0.096571
Br       1.794568     5.723306    -0.262496
C        1.083997     2.901436    -0.158560
N        0.000000     2.090000     0.000000
N       -1.083588     2.912786     0.158500
H       -1.720225     5.963092    -0.645264
H       -1.463422     5.962990     1.111043
H       -2.716188     4.935866     0.397232
H        2.027559     2.498745    -0.296578
H       -1.966250     2.513166     0.287609
C        1.344067    -5.332843     1.080833
C        0.590317    -4.279511     0.474703
C       -0.519974    -4.270048    -0.418133
Br      -1.413372    -5.723306    -1.136555
C       -0.853738    -2.901436    -0.686529
N        0.000000    -2.090000     0.000000
N        0.853415    -2.912786     0.686270
H        1.809789    -5.963092     0.316550
H        0.697549    -5.962990     1.699837
H        2.139260    -4.935866     1.720184
H       -1.596871    -2.498745    -1.284117
H        1.548585    -2.513166     1.245287
C       -1.149146    -1.286149     5.332843
C       -0.504708    -0.564878     4.279511
C        0.444566     0.497563     4.270048
Br       1.208401     1.352458     5.723306
C        0.729927     0.816944     2.901436
N        0.000000     0.000000     2.090000
N       -0.729651    -0.816636     2.912786
H       -1.733623    -0.608351     5.963092
H       -0.410074    -1.791049     5.962990
H       -1.829035    -2.046974     4.935866
H        1.365289     1.528051     2.498745
H       -1.324006    -1.481845     2.513166
C       -1.558088    -0.739646    -5.332843
C       -0.684315    -0.324855    -4.279511
C        0.602768     0.286146    -4.270048
Br       1.638420     0.777789    -5.723306
C        0.989678     0.469818    -2.901436
N        0.000000     0.000000    -2.090000
N       -0.989304    -0.469640    -2.912786
H       -1.072702    -1.491593    -5.963092
H       -1.833987     0.111842    -5.962990
H       -2.479810    -1.177290    -4.935866
H        1.851140     0.878769    -2.498745
H       -1.795165    -0.852198    -2.513166
51
ex_0238 frame1 trans-OC-6-1-conf2
Co       0.000000     0.000000     0.000000
Cl       2.400000     0.000000     0.000000
Cl      -2.400000     0.000000     0.000000
C       -1.706575     5.332843     0.249632
C       -0.749531     4.279511     0.109638
C        0.660214     4.270048    -0.096571
Br       1.794568     5.723306    -0.262496
C        1.083997     2.901436    -0.158560
N        0.000000     2.090000     0.000000
N       -1.083588     2.912786     0.158500
H       -1.720225     5.963092    -0.645264
H       -1.463422     5.962990     1.111043
H       -2.716188     4.935866     0.397232
H        2.027559     2.498745    -0.296578
H       -1.966250     2.513166     0.287609
C       -1.538009    -5.332843     0.780541
C       -0.675496    -4.279511     0.342815
C        0.595002    -4.270049    -0.301962
Br       1.617310    -5.723308    -0.820783
C        0.976926    -2.901436    -0.495789
N        0.000000    -2.090000     0.000000
N       -0.976557    -2.912786     0.495601
H       -1.032958    -5.963040     1.519468
H       -2.447888    -4.935866     1.242302
H       -1.836235    -5.963043    -0.063348
H        1.827288    -2.498745    -0.927347
H       -1.772034    -2.513167     0.899304
C       -1.149146    -1.286149     5.332843
C       -0.504708    -0.564878     4.279511
C        0.444566     0.497563     4.270048
Br       1.208401     1.352458     5.723306
C        0.729927     0.816944     2.901436
N        0.000000     0.000000     2.090000
N       -0.729651    -0.816636     2.912786
H       -1.733623    -0.608351     5.963092
H       -0.410074    -1.791049     5.962990
H       -1.829035    -2.046974     4.935866
H        1.365289     1.528051     2.498745
H       -1.324006    -1.481845     2.513166
C       -1.426692    -0.969157    -5.332843
C       -0.626606    -0.425655    -4.279511
C        0.551937     0.374933    -4.270049
Br       1.500252     1.019127    -5.723307
C        0.906218     0.615597    -2.901436
N        0.000000     0.000000    -2.090000
N       -0.905876    -0.615364    -2.912786
H       -1.829456    -0.169866    -5.963045
H       -2.270718    -1.542501    -4.935866
H       -0.832070    -1.638125    -5.963038
H        1.695033     1.151441    -2.498745
H       -1.643778    -1.116624    -2.513166
51
ex_0238 frame2 cis-OC-6-2
Co       0.000000     0.000000     0.000000
Cl       2.400000     0.000000     0.000000
C       -5.332843    -1.657404     0.477207
C       -4.279511    -0.727935     0.209589
C       -4.270048     0.641192    -0.184611
Br      -5.723306     1.742862    -0.501805
C       -2.901436     1.052765    -0.303112
N       -2.090000     0.000000     0.000000
N       -2.912786    -1.052367     0.302998
H       -5.963092    -1.791459    -0.407697
H       -5.962990    -1.300448     1.298019
H       -4.935866    -2.637938     0.759441
H       -2.498745     1.969141    -0.566956
H       -2.513166    -1.909598     0.549811
Cl       0.000000     2.400000     0.000000
C        1.344067    -5.332843     1.080833
C        0.590317    -4.279511     0.474703
C       -0.519974    -4.270048    -0.418133
Br      -1.413372    -5.723306    -1.136555
C       -0.853738    -2.901436    -0.686529
N        0.000000    -2.090000     0.000000
N        0.853415    -2.912786     0.686270
H        1.809789    -5.963092     0.316550
H        0.697549    -5.962990     1.699837
H        2.139260    -4.935866     1.720184
H       -1.596871    -2.498745    -1.284117
H        1.548585    -2.513166     1.245287
C       -1.149146    -1.286149     5.332843
C       -0.504708    -0.564878     4.279511
C        0.444566     0.497563     4.270048
Br       1.208401     1.352458     5.723306
C        0.729927     0.816944     2.901436
N        0.000000     0.000000     2.090000
N       -0.729651    -0.816636     2.912786
H       -1.733623    -0.608351     5.963092
H       -0.410074    -1.791049     5.962990
H       -1.829035    -2.046974     4.935866
H        1.365289     1.528051     2.498745
H       -1.324006    -1.481845     2.513166
C       -1.558088    -0.739646    -5.332843
C       -0.684315    -0.324855    -4.279511
C        0.602768     0.286146    -4.270048
Br       1.638420     0.777789    -5.723306
C        0.989678     0.469818    -2.901436
N        0.000000     0.000000    -2.090000
N       -0.989304    -0.469640    -2.912786
H       -1.072702    -1.491593    -5.963092
H       -1.833987     0.111842    -5.962990
H       -2.479810    -1.177290    -4.935866
H        1.851140     0.878769    -2.498745
H       -1.795165    -0.852198    -2.513166
51
ex_0238 frame3 cis-OC-6-2-conf2
Co       0.000000     0.000000     0.000000
Cl       2.400000     0.000000     0.000000
C       -5.332843    -1.657404     0.477207
C       -4.279511    -0.727935     0.209589
C       -4.270048     0.641192    -0.184611
Br      -5.723306     1.742862    -0.501805
C       -2.901436     1.052765    -0.303112
N       -2.090000     0.000000     0.000000
N       -2.912786    -1.052367     0.302998
H       -5.963092    -1.791459    -0.407697
H       -5.962990    -1.300448     1.298019
H       -4.935866    -2.637938     0.759441
H       -2.498745     1.969141    -0.566956
H       -2.513166    -1.909598     0.549811
Cl       0.000000     2.400000     0.000000
C       -1.152011    -5.332843    -1.283584
C       -0.505966    -4.279511    -0.563752
C        0.445671    -4.270049     0.496574
Br       1.211407    -5.723308     1.349767
C        0.731742    -2.901436     0.815318
N        0.000000    -2.090000     0.000000
N       -0.731466    -2.912786    -0.815010
H       -1.735043    -5.963040    -0.604494
H       -1.833532    -4.935866    -2.042947
H       -0.414063    -5.963043    -1.790062
H        1.368686    -2.498745     1.525009
H       -1.327297    -2.513167    -1.478897
C       -1.149146    -1.286149     5.332843
C       -0.504708    -0.564878     4.279511
C        0.444566     0.497563     4.270048
Br       1.208401     1.352458     5.723306
C        0.729927     0.816944     2.901436
N        0.000000     0.000000     2.090000
N       -0.729651    -0.816636     2.912786
H       -1.733623    -0.608351     5.963092
H       -0.410074    -1.791049     5.962990
H       -1.829035    -2.046974     4.935866
H        1.365289     1.528051     2.498745
H       -1.324006    -1.481845     2.513166
C       -1.628915    -0.566879    -5.332843
C       -0.715422    -0.248974    -4.279511
C        0.630169     0.219306    -4.270049
Br       1.712902     0.596108    -5.723307
C        1.034668     0.360074    -2.901436
N        0.000000     0.000000    -2.090000
N       -1.034277    -0.359938    -2.912786
H       -1.811083     0.309420    -5.963045
H       -2.592574    -0.902236    -4.935866
H       -1.227696    -1.366951    -5.963038
H        1.935291     0.673500    -2.498745
H       -1.876771    -0.653135    -2.513166
