50
ex_0085 frame0 TBP-5-1
Fe       0.000000     0.000000     0.000000
N        0.000000     0.000000     2.130000
C       -0.868572     0.749414     2.838890
C       -0.905707     0.783996     4.224380
C        0.000004     0.000002     4.948779
C        0.000004     0.000005     6.419280
C        0.106709     1.193144     7.143676
C        0.104027     1.142474     8.529165
N        0.000004     0.000015     9.238059
C       -0.104011    -1.142450     8.529171
C       -0.106695    -1.193127     7.143682
C        0.905711    -0.783994     4.224380
C        0.868573    -0.749415     2.838891
H       -1.560398     1.341308     2.246322
H       -1.641452     1.404849     4.725459
H        0.204524     2.150851     6.642594
H        0.190372     2.048844     9.121731
H       -0.190339    -2.048820     9.121742
H       -0.204495    -2.150841     6.642605
H        1.641461    -1.404839     4.725460
H        1.560398    -1.341307     2.246323
N        0.000000     0.000000    -2.130000
C        0.891414     0.722095    -2.838890
C        0.929604     0.755508    -4.224380
C       -0.000004     0.000002    -4.948779
C       -0.000004     0.000006    -6.419280
C       -0.069625     1.195881    -7.143676
C       -0.068517     1.145153    -8.529165
N       -0.000004     0.000015    -9.238059
C        0.068502    -1.145128    -8.529171
C        0.069612    -1.195864    -7.143682
C       -0.929608    -0.755506    -4.224380
C       -0.891415    -0.722095    -2.838891
H        1.601277     1.292231    -2.246322
H        1.684264     1.353226    -4.725459
H       -0.137669     2.156163    -6.642594
H       -0.126689     2.053765    -9.121731
H        0.126657    -2.053740    -9.121742
H        0.137640    -2.156152    -6.642605
H       -1.684272    -1.353216    -4.725460
H       -1.601277    -1.292230    -2.246323
S        5.389651    -0.000002     0.000000
C        3.591306    -0.000000     0.000000
N        2.130000     0.000000     0.000000
S       -2.694824     4.667575     0.000000
C       -1.795653     3.110162     0.000000
N       -1.065000     1.844634     0.000000
S       -2.694827    -4.667573     0.000000
C       -1.795653    -3.110162     0.000000
N       -1.065000    -1.844634     0.000000
50
ex_0085 frame1 TBP-5-1-conf2
Fe       0.000000     0.000000     0.000000
N        0.000000     0.000000     2.130000
C       -0.868572     0.749414     2.838890
C       -0.905707     0.783996     4.224380
C        0.000004     0.000002     4.948779
C        0.000004     0.000005     6.419280
C        0.106709     1.193144     7.143676
C        0.104027     1.142474     8.529165
N        0.000004     0.000015     9.238059
C       -0.104011    -1.142450     8.529171
C       -0.106695    -1.193127     7.143682
C        0.905711    -0.783994     4.224380
C        0.868573    -0.749415     2.838891
H       -1.560398     1.341308     2.246322
H       -1.641452     1.404849     4.725459
H        0.204524     2.150851     6.642594
H        0.190372     2.048844     9.121731
H       -0.190339    -2.048820     9.121742
H       -0.204495    -2.150841     6.642605
H        1.641461    -1.404839     4.725460
H        1.560398    -1.341307     2.246323
N        0.000000     0.000000    -2.130000
C       -0.838154    -0.772551    -2.842451
C       -0.873301    -0.804954    -4.232444
C        0.000007    -0.000013    -4.984825
C        0.000016    -0.000022    -6.482924
C       -0.873216    -0.805048    -7.235305
C       -0.838065    -0.772658    -8.625297
N        0.000020    -0.000032    -9.337746
C        0.838097     0.772602    -8.625297
C        0.873246     0.805004    -7.235306
C        0.873305     0.804940    -4.232443
C        0.838153     0.772551    -2.842450
H       -1.509855    -1.391660    -2.254117
H       -1.594733    -1.469905    -4.690919
H       -1.594576    -1.470078    -6.776831
H       -1.509698    -1.391841    -9.213630
H        1.509730     1.391786    -9.213630
H        1.594593     1.470051    -6.776837
H        1.594737     1.469888    -4.690921
H        1.509849     1.391669    -2.254119
S        5.389651    -0.000002     0.000000
C        3.591306    -0.000000     0.000000
N        2.130000     0.000000     0.000000
S       -2.694824     4.667575     0.000000
C       -1.795653     3.110162     0.000000
N       -1.065000     1.844634     0.000000
S       -2.694827    -4.667573     0.000000
C       -1.795653    -3.110162     0.000000
N       -1.065000    -1.844634     0.000000
50
ex_0085 frame2 TBP-5-1-conf3
Fe       0.000000     0.000000     0.000000
N        0.000000     0.000000     2.130000
C        0.946780    -0.634779     2.842451
C        0.986484    -0.661405     4.232444
C       -0.000005    -0.000014     4.984825
C       -0.000012    -0.000024     6.482924
C        0.986415    -0.661511     7.235305
C        0.946708    -0.634898     8.625297
N       -0.000014    -0.000034     9.337746
C       -0.946732     0.634838     8.625297
C       -0.986437     0.661463     7.235306
C       -0.986486     0.661390     4.232443
C       -0.946780     0.634778     2.842450
H        1.705533    -1.143477     2.254117
H        1.801412    -1.207769     4.690919
H        1.801284    -1.207964     6.776831
H        1.705405    -1.143679     9.213630
H       -1.705428     1.143620     9.213630
H       -1.801296     1.207935     6.776837
H       -1.801414     1.207752     4.690921
H       -1.705528     1.143486     2.254119
N        0.000000     0.000000    -2.130000
C        0.891414     0.722095    -2.838890
C        0.929604     0.755508    -4.224380
C       -0.000004     0.000002    -4.948779
C       -0.000004     0.000006    -6.419280
C       -0.069625     1.195881    -7.143676
C       -0.068517     1.145153    -8.529165
N       -0.000004     0.000015    -9.238059
C        0.068502    -1.145128    -8.529171
C        0.069612    -1.195864    -7.143682
C       -0.929608    -0.755506    -4.224380
C       -0.891415    -0.722095    -2.838891
H        1.601277     1.292231    -2.246322
H        1.684264     1.353226    -4.725459
H       -0.137669     2.156163    -6.642594
H       -0.126689     2.053765    -9.121731
H        0.126657    -2.053740    -9.121742
H        0.137640    -2.156152    -6.642605
H       -1.684272    -1.353216    -4.725460
H       -1.601277    -1.292230    -2.246323
S        5.389651    -0.000002     0.000000
C        3.591306    -0.000000     0.000000
N        2.130000     0.000000     0.000000
S       -2.694824     4.667575     0.000000
C       -1.795653     3.110162     0.000000
N       -1.065000     1.844634     0.000000
S       -2.694827    -4.667573     0.000000
C       -1.795653    -3.110162     0.000000
N       -1.065000    -1.844634     0.000000
50
ex_0085 frame3 TBP-5-1-conf4
Fe       0.000000     0.000000     0.000000
N        0.000000     0.000000     2.130000
C       -0.868572     0.749414     2.838890
C       -0.905707     0.783996     4.224380
C        0.000004     0.000002     4.948779
C        0.000004     0.000005     6.419280
C        0.106709     1.193144     7.143676
C        0.104027     1.142474     8.529165
N        0.000004     0.000015     9.238059
C       -0.104011    -1.142450     8.529171
C       -0.106695    -1.193127     7.143682
C        0.905711    -0.783994     4.224380
C        0.868573    -0.749415     2.838891
H       -1.560398     1.341308     2.246322
H       -1.641452     1.404849     4.725459
H        0.204524     2.150851     6.642594
H        0.190372     2.048844     9.121731
H       -0.190339    -2.048820     9.121742
H       -0.204495    -2.150841     6.642605
H        1.641461    -1.404839     4.725460
H        1.560398    -1.341307     2.246323
N        0.000000     0.000000    -2.130000
C        0.418045    -1.060460    -2.842449
C        0.435581    -1.104927    -4.232442
C        0.000005     0.000003    -4.984825
C        0.000007     0.000005    -6.482923
C       -0.435585     1.104930    -7.235302
C       -0.418051     1.060460    -8.625295
N        0.000008     0.000007    -9.337748
C        0.418066    -1.060449    -8.625301
C        0.435598    -1.104919    -7.235308
C       -0.435577     1.104931    -4.232442
C       -0.418045     1.060460    -2.842450
H        0.753063    -1.910311    -2.254120
H        0.795418    -2.017693    -4.690914
H       -0.795422     2.017697    -6.776828
H       -0.753077     1.910308    -9.213623
H        0.753090    -1.910298    -9.213629
H        0.795429    -2.017688    -6.776837
H       -0.795412     2.017698    -4.690916
H       -0.753057     1.910311    -2.254116
S        5.389651    -0.000002     0.000000
C        3.591306    -0.000000     0.000000
N        2.130000     0.000000     0.000000
S       -2.694824     4.667575     0.000000
C       -1.795653     3.110162     0.000000
N       -1.065000     1.844634     0.000000
S       -2.694827    -4.667573     0.000000
C       -1.795653    -3.110162     0.000000
N       -1.065000    -1.844634     0.000000
50
ex_0085 frame4 TBP-5-1-conf5
Fe       0.000000     0.000000     0.000000
N        0.000000     0.000000     2.130000
C        0.946780    -0.634779     2.842451
C        0.986484    -0.661405     4.232444
C       -0.000005    -0.000014     4.984825
C       -0.000012    -0.000024     6.482924
C        0.986415    -0.661511     7.235305
C        0.946708    -0.634898     8.625297
N       -0.000014    -0.000034     9.337746
C       -0.946732     0.634838     8.625297
C       -0.986437     0.661463     7.235306
C       -0.986486     0.661390     4.232443
C       -0.946780     0.634778     2.842450
H        1.705533    -1.143477     2.254117
H        1.801412    -1.207769     4.690919
H        1.801284    -1.207964     6.776831
H        1.705405    -1.143679     9.213630
H       -1.705428     1.143620     9.213630
H       -1.801296     1.207935     6.776837
H       -1.801414     1.207752     4.690921
H       -1.705528     1.143486     2.254119
N        0.000000     0.000000    -2.130000
C       -0.838154    -0.772551    -2.842451
C       -0.873301    -0.804954    -4.232444
C        0.000007    -0.000013    -4.984825
C        0.000016    -0.000022    -6.482924
C       -0.873216    -0.805048    -7.235305
C       -0.838065    -0.772658    -8.625297
N        0.000020    -0.000032    -9.337746
C        0.838097     0.772602    -8.625297
C        0.873246     0.805004    -7.235306
C        0.873305     0.804940    -4.232443
C        0.838153     0.772551    -2.842450
H       -1.509855    -1.391660    -2.254117
H       -1.594733    -1.469905    -4.690919
H       -1.594576    -1.470078    -6.776831
H       -1.509698    -1.391841    -9.213630
H        1.509730     1.391786    -9.213630
H        1.594593     1.470051    -6.776837
H        1.594737     1.469888    -4.690921
H        1.509849     1.391669    -2.254119
S        5.389651    -0.000002     0.000000
C        3.591306    -0.000000     0.000000
N        2.130000     0.000000     0.000000
S       -2.694824     4.667575     0.000000
C       -1.795653     3.110162     0.000000
N       -1.065000     1.844634     0.000000
S       -2.694827    -4.667573     0.000000
C       -1.795653    -3.110162     0.000000
N       -1.065000    -1.844634     0.000000
50
ex_0085 frame5 TBP-5-1-conf6
Fe       0.000000     0.000000     0.000000
N        0.000000     0.000000     2.130000
C        0.035128    -1.139343     2.842449
C        0.036594    -1.187121     4.232442
C       -0.000006     0.000001     4.984825
C       -0.000009     0.000002     6.482923
C       -0.036592     1.187125     7.235302
C       -0.035122     1.139346     8.625295
N       -0.000010     0.000003     9.337748
C        0.035104    -1.139341     8.625301
C        0.036576    -1.187120     7.235308
C       -0.036600     1.187123     4.232442
C       -0.035128     1.139344     2.842450
H        0.063281    -2.052410     2.254120
H        0.066817    -2.167790     4.690914
H       -0.066814     2.167794     6.776828
H       -0.063267     2.052413     9.213623
H        0.063251    -2.052409     9.213629
H        0.066804    -2.167789     6.776837
H       -0.066823     2.167791     4.690916
H       -0.063286     2.052408     2.254116
N        0.000000     0.000000    -2.130000
C        0.891414     0.722095    -2.838890
C        0.929604     0.755508    -4.224380
C       -0.000004     0.000002    -4.948779
C       -0.000004     0.000006    -6.419280
C       -0.069625     1.195881    -7.143676
C       -0.068517     1.145153    -8.529165
N       -0.000004     0.000015    -9.238059
C        0.068502    -1.145128    -8.529171
C        0.069612    -1.195864    -7.143682
C       -0.929608    -0.755506    -4.224380
C       -0.891415    -0.722095    -2.838891
H        1.601277     1.292231    -2.246322
H        1.684264     1.353226    -4.725459
H       -0.137669     2.156163    -6.642594
H       -0.126689     2.053765    -9.121731
H        0.126657    -2.053740    -9.121742
H        0.137640    -2.156152    -6.642605
H       -1.684272    -1.353216    -4.725460
H       -1.601277    -1.292230    -2.246323
S        5.389651    -0.000002     0.000000
C        3.591306    -0.000000     0.000000
N        2.130000     0.000000     0.000000
S       -2.694824     4.667575     0.000000
C       -1.795653     3.110162     0.000000
N       -1.065000     1.844634     0.000000
S       -2.694827    -4.667573     0.000000
C       -1.795653    -3.110162     0.000000
N       -1.065000    -1.844634     0.000000
50
ex_0085 frame6 TBP-5-1-conf7
Fe       0.000000     0.000000     0.000000
N        0.000000     0.000000     2.130000
C       -0.868572     0.749414     2.838890
C       -0.905707     0.783996     4.224380
C        0.000004     0.000002     4.948779
C        0.000004     0.000005     6.419280
C        0.106709     1.193144     7.143676
C        0.104027     1.142474     8.529165
N        0.000004     0.000015     9.238059
C       -0.104011    -1.142450     8.529171
C       -0.106695    -1.193127     7.143682
C        0.905711    -0.783994     4.224380
C        0.868573    -0.749415     2.838891
H       -1.560398     1.341308     2.246322
H       -1.641452     1.404849     4.725459
H        0.204524     2.150851     6.642594
H        0.190372     2.048844     9.121731
H       -0.190339    -2.048820     9.121742
H       -0.204495    -2.150841     6.642605
H        1.641461    -1.404839     4.725460
H        1.560398    -1.341307     2.246323
N        0.000000     0.000000    -2.130000
C       -1.147162     0.007807    -2.838890
C       -1.197880     0.006226    -4.224379
C        0.000001    -0.000010    -4.948778
C        0.000001    -0.000028    -6.419278
C        0.705247     0.968252    -7.143690
C        0.673910     0.928323    -8.529178
N        0.000011    -0.000074    -9.238056
C       -0.673893    -0.928447    -8.529153
C       -0.705241    -0.968331    -7.143664
C        1.197882    -0.006236    -4.224380
C        1.147163    -0.007807    -2.838891
H       -2.057580     0.017800    -2.246322
H       -2.160420     0.023342    -4.725460
H        1.262186     1.753495    -6.642620
H        1.205683     1.667354    -9.121757
H       -1.205662    -1.667497    -9.121711
H       -1.262183    -1.753558    -6.642572
H        2.160422    -0.023355    -4.725460
H        2.057581    -0.017799    -2.246323
S        5.389651    -0.000002     0.000000
C        3.591306    -0.000000     0.000000
N        2.130000     0.000000     0.000000
S       -2.694824     4.667575     0.000000
C       -1.795653     3.110162     0.000000
N       -1.065000     1.844634     0.000000
S       -2.694827    -4.667573     0.000000
C       -1.795653    -3.110162     0.000000
N       -1.065000    -1.844634     0.000000
50
ex_0085 frame7 TBP-5-1-conf8
Fe       0.000000     0.000000     0.000000
N        0.000000     0.000000     2.130000
C        0.946780    -0.634779     2.842451
C        0.986484    -0.661405     4.232444
C       -0.000005    -0.000014     4.984825
C       -0.000012    -0.000024     6.482924
C        0.986415    -0.661511     7.235305
C        0.946708    -0.634898     8.625297
N       -0.000014    -0.000034     9.337746
C       -0.946732     0.634838     8.625297
C       -0.986437     0.661463     7.235306
C       -0.986486     0.661390     4.232443
C       -0.946780     0.634778     2.842450
H        1.705533    -1.143477     2.254117
H        1.801412    -1.207769     4.690919
H        1.801284    -1.207964     6.776831
H        1.705405    -1.143679     9.213630
H       -1.705428     1.143620     9.213630
H       -1.801296     1.207935     6.776837
H       -1.801414     1.207752     4.690921
H       -1.705528     1.143486     2.254119
N        0.000000     0.000000    -2.130000
C        0.418045    -1.060460    -2.842449
C        0.435581    -1.104927    -4.232442
C        0.000005     0.000003    -4.984825
C        0.000007     0.000005    -6.482923
C       -0.435585     1.104930    -7.235302
C       -0.418051     1.060460    -8.625295
N        0.000008     0.000007    -9.337748
C        0.418066    -1.060449    -8.625301
C        0.435598    -1.104919    -7.235308
C       -0.435577     1.104931    -4.232442
C       -0.418045     1.060460    -2.842450
H        0.753063    -1.910311    -2.254120
H        0.795418    -2.017693    -4.690914
H       -0.795422     2.017697    -6.776828
H       -0.753077     1.910308    -9.213623
H        0.753090    -1.910298    -9.213629
H        0.795429    -2.017688    -6.776837
H       -0.795412     2.017698    -4.690916
H       -0.753057     1.910311    -2.254116
S        5.389651    -0.000002     0.000000
C        3.591306    -0.000000     0.000000
N        2.130000     0.000000     0.000000
S       -2.694824     4.667575     0.000000
C       -1.795653     3.110162     0.000000
N       -1.065000     1.844634     0.000000
S       -2.694827    -4.667573     0.000000
C       -1.795653    -3.110162     0.000000
N       -1.065000    -1.844634     0.000000
50
ex_0085 frame8 TBP-5-1-conf9
Fe       0.000000     0.000000     0.000000
N        0.000000     0.000000     2.130000
C        0.035128    -1.139343     2.842449
C        0.036594    -1.187121     4.232442
C       -0.000006     0.000001     4.984825
C       -0.000009     0.000002     6.482923
C       -0.036592     1.187125     7.235302
C       -0.035122     1.139346     8.625295
N       -0.000010     0.000003     9.337748
C        0.035104    -1.139341     8.625301
C        0.036576    -1.187120     7.235308
C       -0.036600     1.187123     4.232442
C       -0.035128     1.139344     2.842450
H        0.063281    -2.052410     2.254120
H        0.066817    -2.167790     4.690914
H       -0.066814     2.167794     6.776828
H       -0.063267     2.052413     9.213623
H        0.063251    -2.052409     9.213629
H        0.066804    -2.167789     6.776837
H       -0.066823     2.167791     4.690916
H       -0.063286     2.052408     2.254116
N        0.000000     0.000000    -2.130000
C       -0.838154    -0.772551    -2.842451
C       -0.873301    -0.804954    -4.232444
C        0.000007    -0.000013    -4.984825
C        0.000016    -0.000022    -6.482924
C       -0.873216    -0.805048    -7.235305
C       -0.838065    -0.772658    -8.625297
N        0.000020    -0.000032    -9.337746
C        0.838097     0.772602    -8.625297
C        0.873246     0.805004    -7.235306
C        0.873305     0.804940    -4.232443
C        0.838153     0.772551    -2.842450
H       -1.509855    -1.391660    -2.254117
H       -1.594733    -1.469905    -4.690919
H       -1.594576    -1.470078    -6.776831
H       -1.509698    -1.391841    -9.213630
H        1.509730     1.391786    -9.213630
H        1.594593     1.470051    -6.776837
H        1.594737     1.469888    -4.690921
H        1.509849     1.391669    -2.254119
S        5.389651    -0.000002     0.000000
C        3.591306    -0.000000     0.000000
N        2.130000     0.000000     0.000000
S       -2.694824     4.667575     0.000000
C       -1.795653     3.110162     0.000000
N       -1.065000     1.844634     0.000000
S       -2.694827    -4.667573     0.000000
C       -1.795653    -3.110162     0.000000
N       -1.065000    -1.844634     0.000000
50
ex_0085 frame9 TBP-5-1-conf10
Fe       0.000000     0.000000     0.000000
N        0.000000     0.000000     2.130000
C        1.132581    -0.182485     2.838890
C        1.182336    -0.192452     4.224379
C       -0.000003    -0.000010     4.948778
C       -0.000006    -0.000027     6.419278
C       -0.534964     1.071774     7.143690
C       -0.510680     1.027202     8.529178
N       -0.000024    -0.000071     9.238056
C        0.510643    -1.027321     8.529153
C        0.534945    -1.071850     7.143664
C       -1.182339     0.192443     4.224380
C       -1.132582     0.182485     2.838891
H        2.032058    -0.323565     2.246322
H        2.134393    -0.335150     4.725460
H       -0.954013     1.938483     6.642620
H       -0.912573     1.844167     9.121757
H        0.912528    -1.844304     9.121711
H        0.954000    -1.938545     6.642572
H       -2.134397     0.335138     4.725460
H       -2.032058     0.323567     2.246323
N        0.000000     0.000000    -2.130000
C        0.891414     0.722095    -2.838890
C        0.929604     0.755508    -4.224380
C       -0.000004     0.000002    -4.948779
C       -0.000004     0.000006    -6.419280
C       -0.069625     1.195881    -7.143676
C       -0.068517     1.145153    -8.529165
N       -0.000004     0.000015    -9.238059
C        0.068502    -1.145128    -8.529171
C        0.069612    -1.195864    -7.143682
C       -0.929608    -0.755506    -4.224380
C       -0.891415    -0.722095    -2.838891
H        1.601277     1.292231    -2.246322
H        1.684264     1.353226    -4.725459
H       -0.137669     2.156163    -6.642594
H       -0.126689     2.053765    -9.121731
H        0.126657    -2.053740    -9.121742
H        0.137640    -2.156152    -6.642605
H       -1.684272    -1.353216    -4.725460
H       -1.601277    -1.292230    -2.246323
S        5.389651    -0.000002     0.000000
C        3.591306    -0.000000     0.000000
N        2.130000     0.000000     0.000000
S       -2.694824     4.667575     0.000000
C       -1.795653     3.110162     0.000000
N       -1.065000     1.844634     0.000000
S       -2.694827    -4.667573     0.000000
C       -1.795653    -3.110162     0.000000
N       -1.065000    -1.844634     0.000000
50
ex_0085 frame10 TBP-5-2
Fe       0.000000     0.000000     0.000000
N        0.000000     0.000000     2.130000
C       -0.868572     0.749414     2.838890
C       -0.905707     0.783996     4.224380
C        0.000004     0.000002     4.948779
C        0.000004     0.000005     6.419280
C        0.106709     1.193144     7.143676
C        0.104027     1.142474     8.529165
N        0.000004     0.000015     9.238059
C       -0.104011    -1.142450     8.529171
C       -0.106695    -1.193127     7.143682
C        0.905711    -0.783994     4.224380
C        0.868573    -0.749415     2.838891
H       -1.560398     1.341308     2.246322
H       -1.641452     1.404849     4.725459
H        0.204524     2.150851     6.642594
H        0.190372     2.048844     9.121731
H       -0.190339    -2.048820     9.121742
H       -0.204495    -2.150841     6.642605
H        1.641461    -1.404839     4.725460
H        1.560398    -1.341307     2.246323
S        0.000001    -0.000002    -5.389651
C       -0.000000    -0.000000    -3.591306
N        0.000000     0.000000    -2.130000
N        2.130000     0.000000     0.000000
C        2.842451    -0.705428    -0.895382
C        4.232444    -0.735016    -0.932929
C        4.984825    -0.000013     0.000006
C        6.482924    -0.000023     0.000014
C        7.235305    -0.735117    -0.932852
C        8.625297    -0.705541    -0.895301
N        9.337746    -0.000033     0.000017
C        8.625297     0.705483     0.895330
C        7.235306     0.735070     0.932878
C        4.232443     0.735002     0.932933
C        2.842450     0.705427     0.895381
H        2.254117    -1.270744    -1.612945
H        4.690919    -1.342191    -1.703618
H        6.776831    -1.342375    -1.703475
H        9.213630    -1.270936    -1.612802
H        9.213630     1.270879     1.612830
H        6.776837     1.342348     1.703490
H        4.690921     1.342174     1.703622
H        2.254119     1.270753     1.612939
S       -2.694824     4.667575     0.000000
C       -1.795653     3.110162     0.000000
N       -1.065000     1.844634     0.000000
S       -2.694827    -4.667573     0.000000
C       -1.795653    -3.110162     0.000000
N       -1.065000    -1.844634     0.000000
50
ex_0085 frame11 TBP-5-2-conf1
Fe       0.000000     0.000000     0.000000
N        0.000000     0.000000     2.130000
C       -1.083298    -0.377499     2.838890
C       -1.131815    -0.392367     4.224380
C        0.000000     0.000004     4.948779
C       -0.000003     0.000006     6.419280
C       -0.979938     0.688985     7.143676
C       -0.937398     0.661327     8.529165
N       -0.000011     0.000011     9.238059
C        0.937385    -0.661302     8.529171
C        0.979931    -0.688964     7.143682
C        1.131814     0.392371     4.224380
C        1.083299     0.377499     2.838891
H       -1.941806    -0.680690     2.246322
H       -2.037361    -0.719115     4.725459
H       -1.760430     1.252549     6.642594
H       -1.679165     1.189289     9.121731
H        1.679161    -1.189248     9.121742
H        1.760435    -1.252518     6.642605
H        2.037357     0.719127     4.725460
H        1.941806     0.680691     2.246323
S        0.000001    -0.000002    -5.389651
C       -0.000000    -0.000000    -3.591306
N        0.000000     0.000000    -2.130000
N        2.130000     0.000000     0.000000
C        2.838890    -0.952105     0.639949
C        4.224380    -0.993116     0.669833
C        4.948779     0.000004     0.000003
C        6.419280     0.000004     0.000006
C        7.143676    -0.037014     1.197334
C        8.529165    -0.033606     1.146708
N        9.238059     0.000002     0.000015
C        8.529171     0.033619    -1.146682
C        7.143682     0.037027    -1.197316
C        4.224380     0.993119    -0.669831
C        2.838891     0.952106    -0.639950
H        2.246322    -1.709864     1.144689
H        4.725459    -1.797948     1.198061
H        6.642594    -0.054650     2.159862
H        9.121731    -0.056478     2.056894
H        9.121742     0.056508    -2.056866
H        6.642605     0.054678    -2.159848
H        4.725460     1.797955    -1.198051
H        2.246323     1.709865    -1.144689
S       -2.694824     4.667575     0.000000
C       -1.795653     3.110162     0.000000
N       -1.065000     1.844634     0.000000
S       -2.694827    -4.667573     0.000000
C       -1.795653    -3.110162     0.000000
N       -1.065000    -1.844634     0.000000
50
ex_0085 frame12 TBP-5-2-conf3
Fe       0.000000     0.000000     0.000000
N        0.000000     0.000000     2.130000
C        1.165485     0.229921     2.842451
C        1.167410     0.230295     4.232444
C        0.000006    -0.000013     4.984825
C        0.000009    -0.000025     6.485505
C        1.166853     0.230056     7.234014
C        1.155257     0.227758     8.628788
N        0.000014    -0.000035     9.330764
C       -1.155232    -0.227817     8.628788
C       -1.166835    -0.230106     7.234015
C       -1.167401    -0.230307     4.232443
C       -1.165485    -0.229921     2.842450
H        1.940098     0.395488     2.362209
H        2.127813     0.419769     4.690919
H        2.127859     0.419540     6.776831
H        2.014607     0.397200     9.213630
H       -2.014582    -0.397258     9.213630
H       -2.127848    -0.419570     6.776837
H       -2.127801    -0.419783     4.690921
H       -2.014557    -0.397423     2.254119
S        0.000001    -0.000002    -5.389651
C       -0.000000    -0.000000    -3.591306
N        0.000000     0.000000    -2.130000
N        2.130000     0.000000     0.000000
C        2.843085    -0.981072     0.653921
C        4.224380    -0.993116     0.669833
C        4.948779     0.000004     0.000003
C        6.419280     0.000004     0.000006
C        7.143676    -0.037014     1.197334
C        8.532643    -0.034528     1.178178
N        9.231104     0.000002     0.000015
C        8.532649     0.034541    -1.178152
C        7.143682     0.037027    -1.197316
C        4.224380     0.993119    -0.669831
C        2.838850     0.992434    -0.667002
H        2.315429    -1.781985     1.003050
H        4.725459    -1.797948     1.198061
H        6.642594    -0.054650     2.159862
H        9.121731    -0.056478     2.056894
H        9.121742     0.056508    -2.056866
H        6.642605     0.054678    -2.159848
H        4.725460     1.797955    -1.198051
H        2.246323     1.709865    -1.144689
S       -2.694824     4.667575     0.000000
C       -1.795653     3.110162     0.000000
N       -1.065000     1.844634     0.000000
S       -2.694827    -4.667573     0.000000
C       -1.795653    -3.110162     0.000000
N       -1.065000    -1.844634     0.000000
50
ex_0085 frame13 TBP-5-2-conf4
Fe       0.000000     0.000000     0.000000
N        0.000000     0.000000     2.130000
C       -1.083298    -0.377499     2.838890
C       -1.131815    -0.392367     4.224380
C        0.000000     0.000004     4.948779
C       -0.000003     0.000006     6.419280
C       -0.979938     0.688985     7.143676
C       -0.937398     0.661327     8.529165
N       -0.000011     0.000011     9.238059
C        0.937385    -0.661302     8.529171
C        0.979931    -0.688964     7.143682
C        1.131814     0.392371     4.224380
C        1.083299     0.377499     2.838891
H       -1.941806    -0.680690     2.246322
H       -2.037361    -0.719115     4.725459
H       -1.760430     1.252549     6.642594
H       -1.679165     1.189289     9.121731
H        1.679161    -1.189248     9.121742
H        1.760435    -1.252518     6.642605
H        2.037357     0.719127     4.725460
H        1.941806     0.680691     2.246323
S        0.000001    -0.000002    -5.389651
C       -0.000000    -0.000000    -3.591306
N        0.000000     0.000000    -2.130000
N        2.130000     0.000000     0.000000
C        2.842449     0.904154    -0.694149
C        4.232442     0.942065    -0.723263
C        4.984825    -0.000005    -0.000004
C        6.482923    -0.000007    -0.000006
C        7.235302    -0.942067     0.723268
C        8.625295    -0.904152     0.694155
N        9.337748    -0.000009    -0.000006
C        8.625301     0.904137    -0.694166
C        7.235308     0.942052    -0.723276
C        4.232442    -0.942070     0.723260
C        2.842450    -0.904154     0.694149
H        2.254120     1.628742    -1.250437
H        4.690914     1.720290    -1.320749
H        6.776828    -1.720292     1.320754
H        9.213623    -1.628735     1.250449
H        9.213629     1.628721    -1.250459
H        6.776837     1.720282    -1.320758
H        4.690916    -1.720296     1.320745
H        2.254116    -1.628743     1.250431
S       -2.694824     4.667575     0.000000
C       -1.795653     3.110162     0.000000
N       -1.065000     1.844634     0.000000
S       -2.694827    -4.667573     0.000000
C       -1.795653    -3.110162     0.000000
N       -1.065000    -1.844634     0.000000
50
ex_0085 frame14 TBP-5-2-conf5
Fe       0.000000     0.000000     0.000000
N        0.000000     0.000000     2.130000
C        0.946780    -0.634779     2.842451
C        0.986484    -0.661405     4.232444
C       -0.000005    -0.000014     4.984825
C       -0.000012    -0.000024     6.482924
C        0.986415    -0.661511     7.235305
C        0.946708    -0.634898     8.625297
N       -0.000014    -0.000034     9.337746
C       -0.946732     0.634838     8.625297
C       -0.986437     0.661463     7.235306
C       -0.986486     0.661390     4.232443
C       -0.946780     0.634778     2.842450
H        1.705533    -1.143477     2.254117
H        1.801412    -1.207769     4.690919
H        1.801284    -1.207964     6.776831
H        1.705405    -1.143679     9.213630
H       -1.705428     1.143620     9.213630
H       -1.801296     1.207935     6.776837
H       -1.801414     1.207752     4.690921
H       -1.705528     1.143486     2.254119
S        0.000001    -0.000002    -5.389651
C       -0.000000    -0.000000    -3.591306
N        0.000000     0.000000    -2.130000
N        2.130000     0.000000     0.000000
C        2.842451    -0.705428    -0.895382
C        4.232444    -0.735016    -0.932929
C        4.984825    -0.000013     0.000006
C        6.482924    -0.000023     0.000014
C        7.235305    -0.735117    -0.932852
C        8.625297    -0.705541    -0.895301
N        9.337746    -0.000033     0.000017
C        8.625297     0.705483     0.895330
C        7.235306     0.735070     0.932878
C        4.232443     0.735002     0.932933
C        2.842450     0.705427     0.895381
H        2.254117    -1.270744    -1.612945
H        4.690919    -1.342191    -1.703618
H        6.776831    -1.342375    -1.703475
H        9.213630    -1.270936    -1.612802
H        9.213630     1.270879     1.612830
H        6.776837     1.342348     1.703490
H        4.690921     1.342174     1.703622
H        2.254119     1.270753     1.612939
S       -2.694824     4.667575     0.000000
C       -1.795653     3.110162     0.000000
N       -1.065000     1.844634     0.000000
S       -2.694827    -4.667573     0.000000
C       -1.795653    -3.110162     0.000000
N       -1.065000    -1.844634     0.000000
50
ex_0085 frame15 TBP-5-2-conf6
Fe       0.000000     0.000000     0.000000
N        0.000000     0.000000     2.130000
C        0.035128    -1.139343     2.842449
C        0.036594    -1.187121     4.232442
C       -0.000006     0.000001     4.984825
C       -0.000009     0.000002     6.482923
C       -0.036592     1.187125     7.235302
C       -0.035122     1.139346     8.625295
N       -0.000010     0.000003     9.337748
C        0.035104    -1.139341     8.625301
C        0.036576    -1.187120     7.235308
C       -0.036600     1.187123     4.232442
C       -0.035128     1.139344     2.842450
H        0.063281    -2.052410     2.254120
H        0.066817    -2.167790     4.690914
H       -0.066814     2.167794     6.776828
H       -0.063267     2.052413     9.213623
H        0.063251    -2.052409     9.213629
H        0.066804    -2.167789     6.776837
H       -0.066823     2.167791     4.690916
H       -0.063286     2.052408     2.254116
S        0.000001    -0.000002    -5.389651
C       -0.000000    -0.000000    -3.591306
N        0.000000     0.000000    -2.130000
N        2.130000     0.000000     0.000000
C        2.838890    -0.952105     0.639949
C        4.224380    -0.993116     0.669833
C        4.948779     0.000004     0.000003
C        6.419280     0.000004     0.000006
C        7.143676    -0.037014     1.197334
C        8.529165    -0.033606     1.146708
N        9.238059     0.000002     0.000015
C        8.529171     0.033619    -1.146682
C        7.143682     0.037027    -1.197316
C        4.224380     0.993119    -0.669831
C        2.838891     0.952106    -0.639950
H        2.246322    -1.709864     1.144689
H        4.725459    -1.797948     1.198061
H        6.642594    -0.054650     2.159862
H        9.121731    -0.056478     2.056894
H        9.121742     0.056508    -2.056866
H        6.642605     0.054678    -2.159848
H        4.725460     1.797955    -1.198051
H        2.246323     1.709865    -1.144689
S       -2.694824     4.667575     0.000000
C       -1.795653     3.110162     0.000000
N       -1.065000     1.844634     0.000000
S       -2.694827    -4.667573     0.000000
C       -1.795653    -3.110162     0.000000
N       -1.065000    -1.844634     0.000000
50
ex_0085 frame16 TBP-5-2-conf7
Fe       0.000000     0.000000     0.000000
N        0.000000     0.000000     2.130000
C       -0.868572     0.749414     2.838890
C       -0.905707     0.783996     4.224380
C        0.000004     0.000002     4.948779
C        0.000004     0.000005     6.419280
C        0.106709     1.193144     7.143676
C        0.104027     1.142474     8.529165
N        0.000004     0.000015     9.238059
C       -0.104011    -1.142450     8.529171
C       -0.106695    -1.193127     7.143682
C        0.905711    -0.783994     4.224380
C        0.868573    -0.749415     2.838891
H       -1.560398     1.341308     2.246322
H       -1.641452     1.404849     4.725459
H        0.204524     2.150851     6.642594
H        0.190372     2.048844     9.121731
H       -0.190339    -2.048820     9.121742
H       -0.204495    -2.150841     6.642605
H        1.641461    -1.404839     4.725460
H        1.560398    -1.341307     2.246323
S        0.000001    -0.000002    -5.389651
C       -0.000000    -0.000000    -3.591306
N        0.000000     0.000000    -2.130000
N        2.130000     0.000000     0.000000
C        2.838890     1.048574     0.465332
C        4.224379     1.095703     0.484140
C        4.948778     0.000003    -0.000010
C        6.419278     0.000010    -0.000026
C        7.143690    -1.033273     0.605997
C        8.529178    -0.988596     0.581908
N        9.238056     0.000019    -0.000072
C        8.529153     0.988630    -0.582027
C        7.143664     1.033298    -0.606072
C        4.224380    -1.095701    -0.484149
C        2.838891    -1.048575    -0.465332
H        2.246322     1.879234     0.838113
H        4.725460     1.971301     0.884268
H        6.642620    -1.857487     1.103450
H        9.121757    -1.771282     1.047045
H        9.121711     1.771319    -1.047184
H        6.642572     1.857509    -1.103508
H        4.725460    -1.971299    -0.884280
H        2.246323    -1.879235    -0.838112
S       -2.694824     4.667575     0.000000
C       -1.795653     3.110162     0.000000
N       -1.065000     1.844634     0.000000
S       -2.694827    -4.667573     0.000000
C       -1.795653    -3.110162     0.000000
N       -1.065000    -1.844634     0.000000
50
ex_0085 frame17 TBP-5-2-conf8
Fe       0.000000     0.000000     0.000000
N        0.000000     0.000000     2.130000
C        1.118331     0.220619     2.842451
C        1.165233     0.229866     4.232444
C        0.000006    -0.000013     4.984825
C        0.000008    -0.000025     6.482924
C        1.165259     0.229742     7.235305
C        1.118365     0.220483     8.625297
N        0.000014    -0.000035     9.337746
C       -1.118339    -0.220542     8.625297
C       -1.165241    -0.229791     7.235306
C       -1.165224    -0.229877     4.232443
C       -1.118330    -0.220618     2.842450
H        2.014554     0.397434     2.254117
H        2.127813     0.419769     4.690919
H        2.127859     0.419540     6.776831
H        2.014607     0.397200     9.213630
H       -2.014582    -0.397258     9.213630
H       -2.127848    -0.419570     6.776837
H       -2.127801    -0.419783     4.690921
H       -2.014557    -0.397423     2.254119
S        0.000001    -0.000002    -5.389651
C       -0.000000    -0.000000    -3.591306
N        0.000000     0.000000    -2.130000
N        2.130000     0.000000     0.000000
C        2.842449     0.904154    -0.694149
C        4.232442     0.942065    -0.723263
C        4.984825    -0.000005    -0.000004
C        6.482923    -0.000007    -0.000006
C        7.235302    -0.942067     0.723268
C        8.625295    -0.904152     0.694155
N        9.337748    -0.000009    -0.000006
C        8.625301     0.904137    -0.694166
C        7.235308     0.942052    -0.723276
C        4.232442    -0.942070     0.723260
C        2.842450    -0.904154     0.694149
H        2.254120     1.628742    -1.250437
H        4.690914     1.720290    -1.320749
H        6.776828    -1.720292     1.320754
H        9.213623    -1.628735     1.250449
H        9.213629     1.628721    -1.250459
H        6.776837     1.720282    -1.320758
H        4.690916    -1.720296     1.320745
H        2.254116    -1.628743     1.250431
S       -2.694824     4.667575     0.000000
C       -1.795653     3.110162     0.000000
N       -1.065000     1.844634     0.000000
S       -2.694827    -4.667573     0.000000
C       -1.795653    -3.110162     0.000000
N       -1.065000    -1.844634     0.000000
50
ex_0085 frame18 TBP-5-2-conf9
Fe       0.000000     0.000000     0.000000
N        0.000000     0.000000     2.130000
C        0.035128    -1.139343     2.842449
C        0.036594    -1.187121     4.232442
C       -0.000006     0.000001     4.984825
C       -0.000009     0.000002     6.482923
C       -0.036592     1.187125     7.235302
C       -0.035122     1.139346     8.625295
N       -0.000010     0.000003     9.337748
C        0.035104    -1.139341     8.625301
C        0.036576    -1.187120     7.235308
C       -0.036600     1.187123     4.232442
C       -0.035128     1.139344     2.842450
H        0.063281    -2.052410     2.254120
H        0.066817    -2.167790     4.690914
H       -0.066814     2.167794     6.776828
H       -0.063267     2.052413     9.213623
H        0.063251    -2.052409     9.213629
H        0.066804    -2.167789     6.776837
H       -0.066823     2.167791     4.690916
H       -0.063286     2.052408     2.254116
S        0.000001    -0.000002    -5.389651
C       -0.000000    -0.000000    -3.591306
N        0.000000     0.000000    -2.130000
N        2.130000     0.000000     0.000000
C        2.842451    -0.705428    -0.895382
C        4.232444    -0.735016    -0.932929
C        4.984825    -0.000013     0.000006
C        6.482924    -0.000023     0.000014
C        7.235305    -0.735117    -0.932852
C        8.625297    -0.705541    -0.895301
N        9.337746    -0.000033     0.000017
C        8.625297     0.705483     0.895330
C        7.235306     0.735070     0.932878
C        4.232443     0.735002     0.932933
C        2.842450     0.705427     0.895381
H        2.254117    -1.270744    -1.612945
H        4.690919    -1.342191    -1.703618
H        6.776831    -1.342375    -1.703475
H        9.213630    -1.270936    -1.612802
H        9.213630     1.270879     1.612830
H        6.776837     1.342348     1.703490
H        4.690921     1.342174     1.703622
H        2.254119     1.270753     1.612939
S       -2.694824     4.667575     0.000000
C       -1.795653     3.110162     0.000000
N       -1.065000     1.844634     0.000000
S       -2.694827    -4.667573     0.000000
C       -1.795653    -3.110162     0.000000
N       -1.065000    -1.844634     0.000000
50
ex_0085 frame19 TBP-5-2-conf10
Fe       0.000000     0.000000     0.000000
N        0.000000     0.000000     2.130000
C        1.072087     0.408254     2.838890
C        1.120159     0.424499     4.224379
C        0.000003    -0.000010     4.948778
C        0.000009    -0.000027     6.419278
C       -0.999179     0.660701     7.143690
C       -0.955863     0.634243     8.529178
N        0.000015    -0.000073     9.238056
C        0.955891    -0.634365     8.529153
C        0.999201    -0.660777     7.143664
C       -1.120157    -0.424509     4.224380
C       -1.072088    -0.408254     2.838891
H        1.921596     0.735813     2.246322
H        2.016013     0.776948     4.725460
H       -1.795441     1.201769     6.642620
H       -1.712395     1.140809     9.121757
H        1.712425    -1.140950     9.121711
H        1.795461    -1.201829     6.642572
H       -2.016011    -0.776961     4.725460
H       -1.921598    -0.735812     2.246323
S        0.000001    -0.000002    -5.389651
C       -0.000000    -0.000000    -3.591306
N        0.000000     0.000000    -2.130000
N        2.130000     0.000000     0.000000
C        2.838890    -0.952105     0.639949
C        4.224380    -0.993116     0.669833
C        4.948779     0.000004     0.000003
C        6.419280     0.000004     0.000006
C        7.143676    -0.037014     1.197334
C        8.529165    -0.033606     1.146708
N        9.238059     0.000002     0.000015
C        8.529171     0.033619    -1.146682
C        7.143682     0.037027    -1.197316
C        4.224380     0.993119    -0.669831
C        2.838891     0.952106    -0.639950
H        2.246322    -1.709864     1.144689
H        4.725459    -1.797948     1.198061
H        6.642594    -0.054650     2.159862
H        9.121731    -0.056478     2.056894
H        9.121742     0.056508    -2.056866
H        6.642605     0.054678    -2.159848
H        4.725460     1.797955    -1.198051
H        2.246323     1.709865    -1.144689
S       -2.694824     4.667575     0.000000
C       -1.795653     3.110162     0.000000
N       -1.065000     1.844634     0.000000
S       -2.694827    -4.667573     0.000000
C       -1.795653    -3.110162     0.000000
N       -1.065000    -1.844634     0.000000
50
ex_0085 frame20 TBP-5-3
Fe       0.000000     0.000000     0.000000
S        0.000001    -0.000002     5.389651
C       -0.000000    -0.000000     3.591306
N        0.000000     0.000000     2.130000
S        0.000001    -0.000002    -5.389651
C       -0.000000    -0.000000    -3.591306
N        0.000000     0.000000    -2.130000
N        2.130000     0.000000     0.000000
C        2.838890    -0.952105     0.639949
C        4.224380    -0.993116     0.669833
C        4.948779     0.000004     0.000003
C        6.419280     0.000004     0.000006
C        7.143676    -0.037014     1.197334
C        8.529165    -0.033606     1.146708
N        9.238059     0.000002     0.000015
C        8.529171     0.033619    -1.146682
C        7.143682     0.037027    -1.197316
C        4.224380     0.993119    -0.669831
C        2.838891     0.952106    -0.639950
H        2.246322    -1.709864     1.144689
H        4.725459    -1.797948     1.198061
H        6.642594    -0.054650     2.159862
H        9.121731    -0.056478     2.056894
H        9.121742     0.056508    -2.056866
H        6.642605     0.054678    -2.159848
H        4.725460     1.797955    -1.198051
H        2.246323     1.709865    -1.144689
N       -1.065000     1.844634     0.000000
C       -0.776166     2.829949    -0.874239
C       -1.439206     4.046967    -0.911636
C       -2.474388     4.285770     0.000004
C       -3.209635     5.559262     0.000004
C       -2.537873     6.783565     0.097644
C       -3.274515     7.958089     0.095347
N       -4.619017     8.000401     0.000004
C       -5.254632     6.814875    -0.095331
C       -4.605792     5.589659    -0.097630
C       -2.785172     3.269874     0.911639
C       -2.062726     2.087154     0.874240
H        0.028149     2.610081    -1.570540
H       -1.156927     4.788538    -1.652075
H       -1.457314     6.828826     0.188182
H       -2.785313     8.924766     0.174805
H       -6.336402     6.874557    -0.174772
H       -5.185277     4.676499    -0.188153
H       -3.568524     3.396202     1.652083
H       -2.274471     1.280665     1.570541
S       -2.694827    -4.667573     0.000000
C       -1.795653    -3.110162     0.000000
N       -1.065000    -1.844634     0.000000
50
ex_0085 frame21 TBP-5-3-conf2
Fe       0.000000     0.000000     0.000000
S        0.000001    -0.000002     5.389651
C       -0.000000    -0.000000     3.591306
N        0.000000     0.000000     2.130000
S        0.000001    -0.000002    -5.389651
C       -0.000000    -0.000000    -3.591306
N        0.000000     0.000000    -2.130000
N        2.130000     0.000000     0.000000
C        2.842451    -0.705428    -0.895382
C        4.232444    -0.735016    -0.932929
C        4.984825    -0.000013     0.000006
C        6.482924    -0.000023     0.000014
C        7.235305    -0.735117    -0.932852
C        8.625297    -0.705541    -0.895301
N        9.337746    -0.000033     0.000017
C        8.625297     0.705483     0.895330
C        7.235306     0.735070     0.932878
C        4.232443     0.735002     0.932933
C        2.842450     0.705427     0.895381
H        2.254117    -1.270744    -1.612945
H        4.690919    -1.342191    -1.703618
H        6.776831    -1.342375    -1.703475
H        9.213630    -1.270936    -1.612802
H        9.213630     1.270879     1.612830
H        6.776837     1.342348     1.703490
H        4.690921     1.342174     1.703622
H        2.254119     1.270753     1.612939
N       -1.065000     1.844634     0.000000
C       -0.776166     2.829949    -0.874239
C       -1.439206     4.046967    -0.911636
C       -2.474388     4.285770     0.000004
C       -3.209635     5.559262     0.000004
C       -2.537873     6.783565     0.097644
C       -3.274515     7.958089     0.095347
N       -4.619017     8.000401     0.000004
C       -5.254632     6.814875    -0.095331
C       -4.605792     5.589659    -0.097630
C       -2.785172     3.269874     0.911639
C       -2.062726     2.087154     0.874240
H        0.028149     2.610081    -1.570540
H       -1.156927     4.788538    -1.652075
H       -1.457314     6.828826     0.188182
H       -2.785313     8.924766     0.174805
H       -6.336402     6.874557    -0.174772
H       -5.185277     4.676499    -0.188153
H       -3.568524     3.396202     1.652083
H       -2.274471     1.280665     1.570541
S       -2.694827    -4.667573     0.000000
C       -1.795653    -3.110162     0.000000
N       -1.065000    -1.844634     0.000000
50
ex_0085 frame22 TBP-5-3-conf3
Fe       0.000000     0.000000     0.000000
S        0.000001    -0.000002     5.389651
C       -0.000000    -0.000000     3.591306
N        0.000000     0.000000     2.130000
S        0.000001    -0.000002    -5.389651
C       -0.000000    -0.000000    -3.591306
N        0.000000     0.000000    -2.130000
N        2.130000     0.000000     0.000000
C        2.838890    -0.952105     0.639949
C        4.224380    -0.993116     0.669833
C        4.948779     0.000004     0.000003
C        6.419280     0.000004     0.000006
C        7.143676    -0.037014     1.197334
C        8.529165    -0.033606     1.146708
N        9.238059     0.000002     0.000015
C        8.529171     0.033619    -1.146682
C        7.143682     0.037027    -1.197316
C        4.224380     0.993119    -0.669831
C        2.838891     0.952106    -0.639950
H        2.246322    -1.709864     1.144689
H        4.725459    -1.797948     1.198061
H        6.642594    -0.054650     2.159862
H        9.121731    -0.056478     2.056894
H        9.121742     0.056508    -2.056866
H        6.642605     0.054678    -2.159848
H        4.725460     1.797955    -1.198051
H        2.246323     1.709865    -1.144689
N       -1.065000     1.844634     0.000000
C       -2.399258     1.896965    -0.154716
C       -3.135267     3.077056    -0.161210
C       -2.492410     4.316986    -0.000006
C       -3.241459     5.614378    -0.000008
C       -2.598602     6.854304     0.161214
C       -3.334612     8.034393     0.154722
N       -4.668870     8.086729    -0.000010
C       -5.290679     6.905064    -0.154739
C       -4.636697     5.677616    -0.161228
C       -1.097172     4.253751     0.161206
C       -0.443191     3.026302     0.154716
H       -2.888888     0.934933    -0.278703
H       -4.206326     2.988078    -0.294392
H       -1.527542     6.943280     0.294395
H       -2.844984     8.996423     0.278717
H       -6.368637     6.962048    -0.278733
H       -5.249284     4.794541    -0.294404
H       -0.484587     5.136827     0.294386
H        0.634768     2.969313     0.278697
S       -2.694827    -4.667573     0.000000
C       -1.795653    -3.110162     0.000000
N       -1.065000    -1.844634     0.000000
50
ex_0085 frame23 TBP-5-3-conf4
Fe       0.000000     0.000000     0.000000
S        0.000001    -0.000002     5.389651
C       -0.000000    -0.000000     3.591306
N        0.000000     0.000000     2.130000
S        0.000001    -0.000002    -5.389651
C       -0.000000    -0.000000    -3.591306
N        0.000000     0.000000    -2.130000
N        2.130000     0.000000     0.000000
C        2.842449     0.904154    -0.694149
C        4.232442     0.942065    -0.723263
C        4.984825    -0.000005    -0.000004
C        6.482923    -0.000007    -0.000006
C        7.235302    -0.942067     0.723268
C        8.625295    -0.904152     0.694155
N        9.337748    -0.000009    -0.000006
C        8.625301     0.904137    -0.694166
C        7.235308     0.942052    -0.723276
C        4.232442    -0.942070     0.723260
C        2.842450    -0.904154     0.694149
H        2.254120     1.628742    -1.250437
H        4.690914     1.720290    -1.320749
H        6.776828    -1.720292     1.320754
H        9.213623    -1.628735     1.250449
H        9.213629     1.628721    -1.250459
H        6.776837     1.720282    -1.320758
H        4.690916    -1.720296     1.320745
H        2.254116    -1.628743     1.250431
N       -1.065000     1.844634     0.000000
C       -0.776166     2.829949    -0.874239
C       -1.439206     4.046967    -0.911636
C       -2.474388     4.285770     0.000004
C       -3.209635     5.559262     0.000004
C       -2.537873     6.783565     0.097644
C       -3.274515     7.958089     0.095347
N       -4.619017     8.000401     0.000004
C       -5.254632     6.814875    -0.095331
C       -4.605792     5.589659    -0.097630
C       -2.785172     3.269874     0.911639
C       -2.062726     2.087154     0.874240
H        0.028149     2.610081    -1.570540
H       -1.156927     4.788538    -1.652075
H       -1.457314     6.828826     0.188182
H       -2.785313     8.924766     0.174805
H       -6.336402     6.874557    -0.174772
H       -5.185277     4.676499    -0.188153
H       -3.568524     3.396202     1.652083
H       -2.274471     1.280665     1.570541
S       -2.694827    -4.667573     0.000000
C       -1.795653    -3.110162     0.000000
N       -1.065000    -1.844634     0.000000
50
ex_0085 frame24 TBP-5-3-conf5
Fe       0.000000     0.000000     0.000000
S        0.000001    -0.000002     5.389651
C       -0.000000    -0.000000     3.591306
N        0.000000     0.000000     2.130000
S        0.000001    -0.000002    -5.389651
C       -0.000000    -0.000000    -3.591306
N        0.000000     0.000000    -2.130000
N        2.130000     0.000000     0.000000
C        2.838890    -0.952105     0.639949
C        4.224380    -0.993116     0.669833
C        4.948779     0.000004     0.000003
C        6.419280     0.000004     0.000006
C        7.143676    -0.037014     1.197334
C        8.529165    -0.033606     1.146708
N        9.238059     0.000002     0.000015
C        8.529171     0.033619    -1.146682
C        7.143682     0.037027    -1.197316
C        4.224380     0.993119    -0.669831
C        2.838891     0.952106    -0.639950
H        2.246322    -1.709864     1.144689
H        4.725459    -1.797948     1.198061
H        6.642594    -0.054650     2.159862
H        9.121731    -0.056478     2.056894
H        9.121742     0.056508    -2.056866
H        6.642605     0.054678    -2.159848
H        4.725460     1.797955    -1.198051
H        2.246323     1.709865    -1.144689
N       -1.065000     1.844634     0.000000
C       -1.521100     2.399861     1.141167
C       -2.219997     3.596177     1.191411
C       -2.474398     4.285762    -0.000002
C       -3.209663     5.559244    -0.000004
C       -2.671691     6.706321    -0.595413
C       -3.401769     7.884635    -0.568619
N       -4.619090     8.000355    -0.000019
C       -5.127501     6.888253     0.568589
C       -4.472053     5.666852     0.595398
C       -2.004391     3.720658    -1.191413
C       -1.317790     2.517242    -1.141168
H       -1.302223     1.841990     2.047242
H       -2.546737     3.986132     2.150073
H       -1.692559     6.693038    -1.063368
H       -3.011621     8.794138    -1.016599
H       -6.110235     7.005099     1.016562
H       -4.950091     4.812245     1.063359
H       -2.178734     4.198599    -2.150077
H       -0.944098     2.048755    -2.047243
S       -2.694827    -4.667573     0.000000
C       -1.795653    -3.110162     0.000000
N       -1.065000    -1.844634     0.000000
50
ex_0085 frame25 TBP-5-3-conf6
Fe       0.000000     0.000000     0.000000
S        0.000001    -0.000002     5.389651
C       -0.000000    -0.000000     3.591306
N        0.000000     0.000000     2.130000
S        0.000001    -0.000002    -5.389651
C       -0.000000    -0.000000    -3.591306
N        0.000000     0.000000    -2.130000
N        2.130000     0.000000     0.000000
C        2.842451    -0.705428    -0.895382
C        4.232444    -0.735016    -0.932929
C        4.984825    -0.000013     0.000006
C        6.482924    -0.000023     0.000014
C        7.235305    -0.735117    -0.932852
C        8.625297    -0.705541    -0.895301
N        9.337746    -0.000033     0.000017
C        8.625297     0.705483     0.895330
C        7.235306     0.735070     0.932878
C        4.232443     0.735002     0.932933
C        2.842450     0.705427     0.895381
H        2.254117    -1.270744    -1.612945
H        4.690919    -1.342191    -1.703618
H        6.776831    -1.342375    -1.703475
H        9.213630    -1.270936    -1.612802
H        9.213630     1.270879     1.612830
H        6.776837     1.342348     1.703490
H        4.690921     1.342174     1.703622
H        2.254119     1.270753     1.612939
N       -1.065000     1.844634     0.000000
C       -2.399258     1.896965    -0.154716
C       -3.135267     3.077056    -0.161210
C       -2.492410     4.316986    -0.000006
C       -3.241459     5.614378    -0.000008
C       -2.598602     6.854304     0.161214
C       -3.334612     8.034393     0.154722
N       -4.668870     8.086729    -0.000010
C       -5.290679     6.905064    -0.154739
C       -4.636697     5.677616    -0.161228
C       -1.097172     4.253751     0.161206
C       -0.443191     3.026302     0.154716
H       -2.888888     0.934933    -0.278703
H       -4.206326     2.988078    -0.294392
H       -1.527542     6.943280     0.294395
H       -2.844984     8.996423     0.278717
H       -6.368637     6.962048    -0.278733
H       -5.249284     4.794541    -0.294404
H       -0.484587     5.136827     0.294386
H        0.634768     2.969313     0.278697
S       -2.694827    -4.667573     0.000000
C       -1.795653    -3.110162     0.000000
N       -1.065000    -1.844634     0.000000
50
ex_0085 frame26 TBP-5-3-conf7
Fe       0.000000     0.000000     0.000000
S        0.000001    -0.000002     5.389651
C       -0.000000    -0.000000     3.591306
N        0.000000     0.000000     2.130000
S        0.000001    -0.000002    -5.389651
C       -0.000000    -0.000000    -3.591306
N        0.000000     0.000000    -2.130000
N        2.130000     0.000000     0.000000
C        2.838890    -0.952105     0.639949
C        4.224380    -0.993116     0.669833
C        4.948779     0.000004     0.000003
C        6.419280     0.000004     0.000006
C        7.143676    -0.037014     1.197334
C        8.529165    -0.033606     1.146708
N        9.238059     0.000002     0.000015
C        8.529171     0.033619    -1.146682
C        7.143682     0.037027    -1.197316
C        4.224380     0.993119    -0.669831
C        2.838891     0.952106    -0.639950
H        2.246322    -1.709864     1.144689
H        4.725459    -1.797948     1.198061
H        6.642594    -0.054650     2.159862
H        9.121731    -0.056478     2.056894
H        9.121742     0.056508    -2.056866
H        6.642605     0.054678    -2.159848
H        4.725460     1.797955    -1.198051
H        2.246323     1.709865    -1.144689
N       -1.065000     1.844634     0.000000
C       -2.386816     1.904149    -0.237024
C       -3.122310     3.084537    -0.246948
C       -2.492415     4.316982     0.000012
C       -3.241467     5.614372     0.000020
C       -4.623705     5.685111    -0.247140
C       -5.278213     6.912256    -0.237173
N       -4.668882     8.086721     0.000042
C       -3.347098     8.027187     0.237244
C       -2.611612     6.846795     0.247192
C       -1.110137     4.246265     0.246962
C       -0.455633     3.019118     0.237024
H       -2.866469     0.947873    -0.426983
H       -4.182664     3.001741    -0.450943
H       -5.225549     4.808236    -0.451333
H       -6.346173     6.975016    -0.427269
H       -2.867467     8.983448     0.427335
H       -1.551293     6.929570     0.451379
H       -0.508257     5.123160     0.450965
H        0.612354     2.956373     0.426973
S       -2.694827    -4.667573     0.000000
C       -1.795653    -3.110162     0.000000
N       -1.065000    -1.844634     0.000000
50
ex_0085 frame27 TBP-5-3-conf8
Fe       0.000000     0.000000     0.000000
S        0.000001    -0.000002     5.389651
C       -0.000000    -0.000000     3.591306
N        0.000000     0.000000     2.130000
S        0.000001    -0.000002    -5.389651
C       -0.000000    -0.000000    -3.591306
N        0.000000     0.000000    -2.130000
N        2.130000     0.000000     0.000000
C        2.842451    -0.705428    -0.895382
C        4.232444    -0.735016    -0.932929
C        4.984825    -0.000013     0.000006
C        6.482924    -0.000023     0.000014
C        7.235305    -0.735117    -0.932852
C        8.625297    -0.705541    -0.895301
N        9.337746    -0.000033     0.000017
C        8.625297     0.705483     0.895330
C        7.235306     0.735070     0.932878
C        4.232443     0.735002     0.932933
C        2.842450     0.705427     0.895381
H        2.254117    -1.270744    -1.612945
H        4.690919    -1.342191    -1.703618
H        6.776831    -1.342375    -1.703475
H        9.213630    -1.270936    -1.612802
H        9.213630     1.270879     1.612830
H        6.776837     1.342348     1.703490
H        4.690921     1.342174     1.703622
H        2.254119     1.270753     1.612939
N       -1.065000     1.844634     0.000000
C       -1.521100     2.399861     1.141167
C       -2.219997     3.596177     1.191411
C       -2.474398     4.285762    -0.000002
C       -3.209663     5.559244    -0.000004
C       -2.671691     6.706321    -0.595413
C       -3.401769     7.884635    -0.568619
N       -4.619090     8.000355    -0.000019
C       -5.127501     6.888253     0.568589
C       -4.472053     5.666852     0.595398
C       -2.004391     3.720658    -1.191413
C       -1.317790     2.517242    -1.141168
H       -1.302223     1.841990     2.047242
H       -2.546737     3.986132     2.150073
H       -1.692559     6.693038    -1.063368
H       -3.011621     8.794138    -1.016599
H       -6.110235     7.005099     1.016562
H       -4.950091     4.812245     1.063359
H       -2.178734     4.198599    -2.150077
H       -0.944098     2.048755    -2.047243
S       -2.694827    -4.667573     0.000000
C       -1.795653    -3.110162     0.000000
N       -1.065000    -1.844634     0.000000
50
ex_0085 frame28 TBP-5-3-conf9
Fe       0.000000     0.000000     0.000000
S        0.000001    -0.000002     5.389651
C       -0.000000    -0.000000     3.591306
N        0.000000     0.000000     2.130000
S        0.000001    -0.000002    -5.389651
C       -0.000000    -0.000000    -3.591306
N        0.000000     0.000000    -2.130000
N        2.130000     0.000000     0.000000
C        2.842449     0.904154    -0.694149
C        4.232442     0.942065    -0.723263
C        4.984825    -0.000005    -0.000004
C        6.482923    -0.000007    -0.000006
C        7.235302    -0.942067     0.723268
C        8.625295    -0.904152     0.694155
N        9.337748    -0.000009    -0.000006
C        8.625301     0.904137    -0.694166
C        7.235308     0.942052    -0.723276
C        4.232442    -0.942070     0.723260
C        2.842450    -0.904154     0.694149
H        2.254120     1.628742    -1.250437
H        4.690914     1.720290    -1.320749
H        6.776828    -1.720292     1.320754
H        9.213623    -1.628735     1.250449
H        9.213629     1.628721    -1.250459
H        6.776837     1.720282    -1.320758
H        4.690916    -1.720296     1.320745
H        2.254116    -1.628743     1.250431
N       -1.065000     1.844634     0.000000
C       -2.399258     1.896965    -0.154716
C       -3.135267     3.077056    -0.161210
C       -2.492410     4.316986    -0.000006
C       -3.241459     5.614378    -0.000008
C       -2.598602     6.854304     0.161214
C       -3.334612     8.034393     0.154722
N       -4.668870     8.086729    -0.000010
C       -5.290679     6.905064    -0.154739
C       -4.636697     5.677616    -0.161228
C       -1.097172     4.253751     0.161206
C       -0.443191     3.026302     0.154716
H       -2.888888     0.934933    -0.278703
H       -4.206326     2.988078    -0.294392
H       -1.527542     6.943280     0.294395
H       -2.844984     8.996423     0.278717
H       -6.368637     6.962048    -0.278733
H       -5.249284     4.794541    -0.294404
H       -0.484587     5.136827     0.294386
H        0.634768     2.969313     0.278697
S       -2.694827    -4.667573     0.000000
C       -1.795653    -3.110162     0.000000
N       -1.065000    -1.844634     0.000000
50
ex_0085 frame29 TBP-5-3-conf10
Fe       0.000000     0.000000     0.000000
S        0.000001    -0.000002     5.389651
C       -0.000000    -0.000000     3.591306
N        0.000000     0.000000     2.130000
S        0.000001    -0.000002    -5.389651
C       -0.000000    -0.000000    -3.591306
N        0.000000     0.000000    -2.130000
N        2.130000     0.000000     0.000000
C        2.838890     1.048574     0.465332
C        4.224379     1.095703     0.484140
C        4.948778     0.000003    -0.000010
C        6.419278     0.000010    -0.000026
C        7.143690    -1.033273     0.605997
C        8.529178    -0.988596     0.581908
N        9.238056     0.000019    -0.000072
C        8.529153     0.988630    -0.582027
C        7.143664     1.033298    -0.606072
C        4.224380    -1.095701    -0.484149
C        2.838891    -1.048575    -0.465332
H        2.246322     1.879234     0.838113
H        4.725460     1.971301     0.884268
H        6.642620    -1.857487     1.103450
H        9.121757    -1.771282     1.047045
H        9.121711     1.771319    -1.047184
H        6.642572     1.857509    -1.103508
H        4.725460    -1.971299    -0.884280
H        2.246323    -1.879235    -0.838112
N       -1.065000     1.844634     0.000000
C       -0.798313     2.821273    -0.884295
C       -1.467182     4.040127    -0.921377
C       -2.492401     4.316992     0.000006
C       -3.241442     5.614388     0.000014
C       -2.968527     6.640731    -0.921298
C       -3.689639     7.829421    -0.884212
N       -4.668844     8.086742     0.000018
C       -4.935609     7.110061     0.884241
C       -4.266739     5.891208     0.921325
C       -2.765249     3.290687     0.921380
C       -2.044137     2.101995     0.884294
H       -0.004956     2.599969    -1.592972
H       -1.160267     4.746726    -1.682523
H       -2.203065     6.553270    -1.682377
H       -3.484547     8.627180    -1.592826
H       -5.729034     7.331324     1.592855
H       -4.573745     5.184565     1.682392
H       -3.530638     3.378194     1.682527
H       -2.249171     1.304273     1.592966
S       -2.694827    -4.667573     0.000000
C       -1.795653    -3.110162     0.000000
N       -1.065000    -1.844634     0.000000
50
ex_0085 frame30 SPY-5-1
Fe       0.000000     0.000000     0.000000
N        0.000000     0.000000     2.130000
C       -1.032939     0.499075     2.838890
C       -1.077759     0.522868     4.224380
C        0.000003     0.000003     4.948779
C        0.000003     0.000006     6.419280
C       -0.205735     1.180107     7.143676
C       -0.195212     1.130470     8.529165
N        0.000000     0.000015     9.238059
C        0.195221    -1.130442     8.529171
C        0.205745    -1.180087     7.143682
C        1.077762    -0.522865     4.224380
C        1.032940    -0.499076     2.838891
H       -1.854384     0.891743     2.246322
H       -1.949123     0.932141     4.725459
H       -0.359126     2.130497     6.642594
H       -0.346395     2.028303     9.121731
H        0.346421    -2.028271     9.121742
H        0.359152    -2.130480     6.642605
H        1.949128    -0.932129     4.725460
H        1.854385    -0.891743     2.246323
N        1.491298     1.491298     0.298260
C        2.407453     1.777118    -0.649122
C        3.397227     2.736522    -0.500638
C        3.464840     3.464836     0.692971
C        4.494399     4.494390     0.898881
C        5.853831     4.201930     0.737244
C        6.787903     5.205348     0.944166
N        6.467946     6.467924     1.293586
C        5.155340     6.737856     1.444486
C        4.149334     5.801206     1.263395
C        2.518090     3.178791     1.683704
C        1.567789     2.198124     1.444172
H        2.323441     1.197795    -1.564231
H        4.093866     2.918001    -1.312807
H        6.188591     3.205456     0.467376
H        7.850850     5.011132     0.832278
H        4.922157     7.761828     1.722343
H        3.112920     6.096029     1.392948
H        2.523108     3.698957     2.636205
H        0.822040     1.947686     2.193328
S       -3.773509     3.773512     0.754702
C       -2.514417     2.514417     0.502883
N       -1.491298     1.491298     0.298260
S       -3.773512    -3.773509     0.754701
C       -2.514417    -2.514417     0.502883
N       -1.491298    -1.491298     0.298260
S        3.773509    -3.773512     0.754702
C        2.514417    -2.514417     0.502883
N        1.491298    -1.491298     0.298260
50
ex_0085 frame31 SPY-5-2
Fe       0.000000     0.000000     0.000000
S        0.000001    -0.000002     5.389651
C       -0.000000    -0.000000     3.591306
N        0.000000     0.000000     2.130000
N        1.491298     1.491298     0.298260
C        2.407453     1.777118    -0.649122
C        3.397227     2.736522    -0.500638
C        3.464840     3.464836     0.692971
C        4.494399     4.494390     0.898881
C        5.853831     4.201930     0.737244
C        6.787903     5.205348     0.944166
N        6.467946     6.467924     1.293586
C        5.155340     6.737856     1.444486
C        4.149334     5.801206     1.263395
C        2.518090     3.178791     1.683704
C        1.567789     2.198124     1.444172
H        2.323441     1.197795    -1.564231
H        4.093866     2.918001    -1.312807
H        6.188591     3.205456     0.467376
H        7.850850     5.011132     0.832278
H        4.922157     7.761828     1.722343
H        3.112920     6.096029     1.392948
H        2.523108     3.698957     2.636205
H        0.822040     1.947686     2.193328
N       -1.491298     1.491298     0.298260
C       -1.590707     2.566072    -0.510162
C       -2.541997     3.562649    -0.355130
C       -3.464836     3.464840     0.692971
C       -4.494390     4.494398     0.898883
C       -4.152091     5.845764     1.026777
C       -5.157932     6.779855     1.221488
N       -6.467924     6.467945     1.293590
C       -6.785273     5.163386     1.167171
C       -5.851047     4.157399     0.973866
C       -3.373316     2.352667     1.538196
C       -2.384535     1.409170     1.305211
H       -0.863190     2.608356    -1.315785
H       -2.566362     4.393527    -1.052918
H       -3.117628     6.171921     0.989868
H       -4.926731     7.835749     1.329786
H       -7.846233     4.937252     1.224842
H       -6.183861     3.129585     0.870460
H       -4.050596     2.223446     2.376319
H       -2.282290     0.537125     1.944882
S       -3.773512    -3.773509     0.754701
C       -2.514417    -2.514417     0.502883
N       -1.491298    -1.491298     0.298260
S        3.773509    -3.773512     0.754702
C        2.514417    -2.514417     0.502883
N        1.491298    -1.491298     0.298260
50
ex_0085 frame32 SPY-5-3
Fe       0.000000     0.000000     0.000000
S        0.000001    -0.000002     5.389651
C       -0.000000    -0.000000     3.591306
N        0.000000     0.000000     2.130000
N        1.491298     1.491298     0.298260
C        2.407453     1.777118    -0.649122
C        3.397227     2.736522    -0.500638
C        3.464840     3.464836     0.692971
C        4.494399     4.494390     0.898881
C        5.853831     4.201930     0.737244
C        6.787903     5.205348     0.944166
N        6.467946     6.467924     1.293586
C        5.155340     6.737856     1.444486
C        4.149334     5.801206     1.263395
C        2.518090     3.178791     1.683704
C        1.567789     2.198124     1.444172
H        2.323441     1.197795    -1.564231
H        4.093866     2.918001    -1.312807
H        6.188591     3.205456     0.467376
H        7.850850     5.011132     0.832278
H        4.922157     7.761828     1.722343
H        3.112920     6.096029     1.392948
H        2.523108     3.698957     2.636205
H        0.822040     1.947686     2.193328
S       -3.773509     3.773512     0.754702
C       -2.514417     2.514417     0.502883
N       -1.491298     1.491298     0.298260
N       -1.491298    -1.491298     0.298260
C       -2.623683    -1.517776    -0.433565
C       -3.622701    -2.465919    -0.274995
C       -3.464840    -3.464837     0.692972
C       -4.494398    -4.494391     0.898883
C       -5.826698    -4.146321     1.150951
C       -6.761461    -5.152545     1.340392
N       -6.467945    -6.467924     1.293592
C       -5.181778    -6.790661     1.048270
C       -4.176463    -5.856817     0.849694
C       -2.292616    -3.449394     1.458061
C       -1.351558    -2.457467     1.228615
H       -2.711903    -0.732227    -1.178701
H       -4.502509    -2.428666    -0.909350
H       -6.136647    -3.108128     1.213732
H       -7.802480    -4.917352     1.543026
H       -4.970519    -7.855614     1.011605
H       -3.164856    -6.193362     0.646597
H       -2.114463    -4.188293     2.232753
H       -0.433578    -2.413254     1.807798
S        3.773509    -3.773512     0.754702
C        2.514417    -2.514417     0.502883
N        1.491298    -1.491298     0.298260
