105
ex_0298 frame0 As-trans-conf3
C        8.897756     0.282638     0.081201
C        7.566498    -0.401088     0.043468
C        6.657142    -0.205282     1.078007
C        5.437883    -0.879735     1.089121
C        4.549207    -0.692825     2.259489
C        5.079889    -1.716825     0.005614
N        3.826293    -2.388940    -0.030577
C        2.525270    -1.807085    -0.010133
S        2.351790    -0.000845     0.012503
Ru       0.000000     0.000000     0.000000
Cl      -2.399673     0.074337    -0.013875
C        0.000000     2.020000     0.000000
O        0.000000     3.119520     0.000000
As       0.000000     0.000000     2.650000
C       -1.488573    -0.972099     3.550988
C       -2.310781    -0.349352     4.512186
C       -3.318481    -1.075714     5.154202
C       -3.531996    -2.416888     4.833136
C       -2.742467    -3.033558     3.861556
C       -1.729069    -2.313732     3.223063
C       -0.085177     1.695305     3.769330
C       -0.294864     2.931289     3.158348
C       -0.285004     4.122423     3.877441
C       -0.104790     4.094089     5.254441
C        0.057637     2.867218     5.906042
C        0.063360     1.667427     5.173616
C        1.442724    -0.717757     3.810239
C        2.473192     0.131110     4.252237
C        3.487390    -0.355762     5.082135
C        3.492987    -1.697992     5.463951
C        2.477250    -2.550921     5.026589
C        1.455796    -2.066776     4.202056
As       0.000000     0.000000    -2.650000
C        0.135137    -1.671008    -3.757768
C        0.800504    -2.774039    -3.225971
C        0.907713    -3.976492    -3.916321
C        0.330514    -4.096978    -5.175395
C       -0.319834    -2.997458    -5.747593
C       -0.412482    -1.779920    -5.049737
C        1.433456     0.822912    -3.762374
C        1.297354     2.105655    -4.324609
C        2.328602     2.652618    -5.094793
C        3.496593     1.925151    -5.325562
C        3.641073     0.649785    -4.777893
C        2.619449     0.103334    -3.995452
C       -1.632202     0.894882    -3.364929
C       -2.631415     0.170263    -4.041040
C       -3.736834     0.831197    -4.587345
C       -3.867777     2.213896    -4.447577
C       -2.906444     2.934617    -3.737390
C       -1.797648     2.278372    -3.195148
N        0.136202    -2.056459     0.012309
C       -1.004529    -2.913004    -0.126096
C       -0.843728    -4.244659    -0.225257
C        0.507170    -4.852900    -0.189871
C        1.596621    -4.089214    -0.048527
C        1.440585    -2.611581    -0.014849
C        5.985839    -1.889064    -1.060094
C        5.636674    -2.764397    -2.235772
C        7.229441    -1.238121    -1.028121
H        9.043919     0.887484    -0.836031
H        9.692862    -0.487476     0.157315
H        8.981860     0.955438     0.963170
H        6.915148     0.433098     1.916548
H        5.126975    -1.004374     3.152200
H        4.275341     0.380001     2.344295
H        3.640294    -1.316015     2.238424
H       -2.201091     0.680626     4.792030
H       -3.933430    -0.596762     5.905578
H       -4.310387    -2.976376     5.335554
H       -2.910168    -4.072223     3.608221
H       -1.120428    -2.809413     2.485460
H       -0.455320     3.001534     2.136873
H       -0.414968     5.065516     3.357835
H       -0.096609     5.023561     5.809351
H        0.187593     2.851917     6.978631
H        0.201907     0.735367     5.701113
H        2.501025     1.169534     3.950014
H        4.282199     0.303667     5.406698
H        4.289028    -2.077969     6.090880
H        2.482652    -3.590840     5.325741
H        0.694069    -2.754068     3.886750
H        1.270723    -2.688701    -2.291608
H        1.441075    -4.808445    -3.470504
H        0.404742    -5.035814    -5.709176
H       -0.749601    -3.092901    -6.734820
H       -0.895781    -0.949854    -5.535454
H        0.430188     2.710323    -4.185426
H        2.220501     3.645004    -5.514224
H        4.289271     2.351291    -5.927041
H        4.546069     0.084376    -4.958962
H        2.757550    -0.883348    -3.577731
H       -2.583386    -0.899399    -4.149039
H       -4.492561     0.270105    -5.122283
H       -4.720165     2.724171    -4.877577
H       -3.016974     4.003826    -3.611387
H       -1.069491     2.854063    -2.641915
H       -2.002587    -2.510053    -0.163050
H       -1.710112    -4.886376    -0.340894
H        0.612100    -5.928703    -0.296061
H        2.575367    -4.563281    -0.051062
H        5.692319    -2.166950    -3.169512
H        4.612744    -3.188969    -2.177338
H        6.353925    -3.608004    -2.291951
H        7.934999    -1.387012    -1.835260
105
ex_0298 frame1 As-trans-conf4
C        8.848443     0.271951     0.129521
C        7.518520    -0.399287     0.075746
C        6.604220    -0.191882     1.097455
C        5.392213    -0.867854     1.103237
C        4.509951    -0.681649     2.262425
C        5.038978    -1.705820     0.024071
N        3.792752    -2.377612    -0.014948
C        2.502489    -1.789442    -0.006410
S        2.347385     0.021978     0.031762
Ru       0.000000     0.000000     0.000000
Cl      -2.398037     0.016430    -0.041857
C        0.000000     2.020000     0.000000
O        0.000000     3.119520     0.000000
As      -0.021602     0.035276     2.652332
C       -1.489968    -0.958181     3.554574
C       -2.296818    -0.348404     4.529868
C       -3.291699    -1.079606     5.180834
C       -3.511605    -2.417331     4.851146
C       -2.737516    -3.026460     3.862079
C       -1.732607    -2.299869     3.215073
C       -0.076535     1.728671     3.738055
C       -0.240945     2.959199     3.111224
C       -0.226570     4.157586     3.804509
C       -0.088628     4.140297     5.183722
C        0.039437     2.915962     5.852422
C        0.048002     1.709864     5.135347
C        1.435967    -0.696332     3.807998
C        2.490220     0.138569     4.219468
C        3.524048    -0.362048     5.021977
C        3.520913    -1.701764     5.413095
C        2.473018    -2.536789     5.021905
C        1.433677    -2.040615     4.224800
As       0.023357    -0.024150    -2.651831
C        0.156015    -1.698510    -3.739760
C        0.835797    -2.789336    -3.206542
C        0.933088    -4.001717    -3.877863
C        0.333047    -4.140274    -5.123980
C       -0.325462    -3.047948    -5.701071
C       -0.406809    -1.823147    -5.019498
C        1.445018     0.808851    -3.771419
C        1.307869     2.101552    -4.311634
C        2.335001     2.659320    -5.079174
C        3.498570     1.932331    -5.331540
C        3.640872     0.645287    -4.811486
C        2.623148     0.087476    -4.032766
C       -1.615851     0.877734    -3.375855
C       -2.613318     0.160979    -4.067395
C       -3.708352     0.830419    -4.626508
C       -3.837659     2.211888    -4.478914
C       -2.886019     2.923485    -3.747472
C       -1.785296     2.260307    -3.195011
N        0.099556    -2.058243     0.006697
C       -1.025027    -2.937403    -0.119633
C       -0.844047    -4.265320    -0.252597
C        0.514484    -4.849814    -0.265990
C        1.590034    -4.073274    -0.111085
C        1.416825    -2.596475    -0.034945
C        5.940751    -1.880503    -1.034163
C        5.584436    -2.751527    -2.207110
C        7.185727    -1.236844    -0.997530
H        9.049689     0.800122    -0.822362
H        9.616728    -0.506202     0.314684
H        8.890467     1.009161     0.962007
H        6.857436     0.443518     1.940620
H        5.104189    -0.996634     3.142074
H        4.245052     0.394319     2.340381
H        3.602292    -1.306932     2.246726
H       -2.179201     0.677853     4.813418
H       -3.890400    -0.603996     5.945867
H       -4.282726    -2.978716     5.361920
H       -2.911301    -4.063726     3.604170
H       -1.133003    -2.793089     2.467858
H       -0.375032     3.025204     2.100827
H       -0.325574     5.091536     3.259995
H       -0.087290     5.075863     5.723524
H        0.136773     2.902433     6.925230
H        0.158888     0.774915     5.662770
H        2.533378     1.170055     3.896870
H        4.350581     0.279230     5.303134
H        4.336902    -2.094975     6.007231
H        2.470902    -3.574322     5.331175
H        0.653512    -2.720315     3.943592
H        1.325635    -2.683557    -2.288274
H        1.476386    -4.825121    -3.427795
H        0.398548    -5.085411    -5.645658
H       -0.771092    -3.151023    -6.679177
H       -0.891808    -0.998253    -5.508840
H        0.446179     2.708839    -4.153975
H        2.228076     3.660556    -5.477661
H        4.289954     2.368031    -5.927587
H        4.542161     0.079966    -5.009014
H        2.761129    -0.907106    -3.635439
H       -2.575686    -0.907221    -4.183821
H       -4.457718     0.276946    -5.178776
H       -4.681950     2.727879    -4.919064
H       -2.997217     3.991931    -3.614662
H       -1.064712     2.831779    -2.628534
H       -2.036403    -2.561968    -0.122151
H       -1.698127    -4.926156    -0.360777
H        0.643604    -5.916764    -0.421510
H        2.574737    -4.528715    -0.157631
H        5.677534    -2.166001    -3.144591
H        4.543295    -3.137989    -2.167655
H        6.272033    -3.618948    -2.226408
H        7.891855    -1.390923    -1.800868
105
ex_0298 frame2 As-trans-conf7-2
C        8.265453     1.602535    -1.942134
C        7.077265     0.714705    -1.750698
C        7.173519    -0.482416    -1.024786
C        6.044138    -1.310068    -0.852411
C        6.168530    -2.582609    -0.061245
C        4.811428    -0.936123    -1.421395
N        3.672917    -1.807424    -1.278829
C        2.552709    -1.527165    -0.693418
S        2.346076     0.029974     0.166622
Ru       0.000000     0.000000     0.000000
Cl      -0.096439     2.380539     0.290516
C       -2.020000     0.000000     0.000000
O       -3.126757     0.000000     0.000000
As       0.000000     0.000000     2.650000
C        1.772216    -0.149619     3.563653
C        2.070355    -1.211937     4.439938
C        3.301354    -1.253650     5.104187
C        4.252740    -0.255489     4.887431
C        3.982870     0.778888     3.991255
C        2.753069     0.828760     3.329996
C       -0.744683     1.494936     3.730848
C        0.055534     2.587863     4.108358
C       -0.474577     3.617095     4.890903
C       -1.808169     3.572635     5.297993
C       -2.617784     2.501276     4.914686
C       -2.092664     1.468951     4.129740
C       -1.020120    -1.358715     3.674197
C       -1.807414    -2.283024     2.988095
C       -2.533612    -3.256500     3.676616
C       -2.466376    -3.319510     5.069454
C       -1.686733    -2.395218     5.771972
C       -0.967837    -1.411858     5.080202
As       0.000000     0.000000    -2.650000
C       -1.681834     0.344657    -3.646564
C       -2.632537     1.216569    -3.099943
C       -3.823073     1.485261    -3.784454
C       -4.077478     0.876047    -5.015699
C       -3.138570     0.004223    -5.568170
C       -1.946640    -0.264245    -4.890619
C        0.840024     1.334115    -3.844699
C        1.227799     2.575949    -3.319383
C        1.922113     3.493409    -4.114051
C        2.180426     3.200183    -5.454393
C        1.733906     1.994771    -6.003999
C        1.056295     1.064536    -5.206878
C        0.595485    -1.712958    -3.582828
C        1.939318    -1.919318    -3.972910
C        2.349195    -3.122340    -4.549420
C        1.422557    -4.127073    -4.799445
C        0.080807    -3.930535    -4.464557
C       -0.334562    -2.732696    -3.857725
N        0.117067    -2.033670    -0.317064
C       -1.045564    -2.889780    -0.416406
C       -0.801227    -4.297400    -0.867190
C        0.428535    -4.700137    -1.200569
C        1.584296    -3.772677    -1.125067
C        1.411913    -2.489331    -0.723292
C        4.737809     0.307057    -2.125163
C        3.498725     0.831660    -2.694864
C        5.868842     1.083177    -2.298811
H        7.990554     2.515219    -2.520954
H        8.639669     1.929994    -0.952948
H        9.053043     1.066144    -2.505816
H        8.120461    -0.765896    -0.588561
H        5.243003    -3.195529    -0.069129
H        6.991902    -3.205126    -0.463066
H        6.381168    -2.314158     0.994332
H        1.381890    -2.013571     4.630476
H        3.517174    -2.061273     5.791977
H        5.201534    -0.288029     5.407552
H        4.724752     1.546493     3.812280
H        2.568192     1.637062     2.636482
H        1.082288     2.669039     3.820509
H        0.152702     4.449542     5.184502
H       -2.213136     4.369577     5.908357
H       -3.652511     2.469601     5.229590
H       -2.737917     0.649355     3.846092
H       -1.872468    -2.231991     1.924171
H       -3.147594    -3.960114     3.128674
H       -3.023346    -4.079692     5.602143
H       -1.640165    -2.442765     6.851998
H       -0.374282    -0.700434     5.638744
H       -2.443481     1.702979    -2.153559
H       -4.547969     2.168869    -3.362733
H       -4.997941     1.083972    -5.545975
H       -3.331219    -0.461841    -6.526487
H       -1.247418    -0.928202    -5.366636
H        1.063278     2.799899    -2.275354
H        2.281872     4.419436    -3.683127
H        2.733894     3.903099    -6.064051
H        1.933822     1.771965    -7.043777
H        0.752395     0.129767    -5.648700
H        2.712955    -1.216369    -3.827285
H        3.394525    -3.275219    -4.796503
H        1.750202    -5.057179    -5.248602
H       -0.632874    -4.717461    -4.665577
H       -1.373007    -2.617684    -3.586007
H       -2.031395    -2.537830    -0.150570
H       -1.642774    -4.981201    -0.934778
H        0.575221    -5.716856    -1.547657
H        2.555017    -4.142134    -1.434199
H        3.357102     1.834306    -2.249238
H        3.584370     0.914343    -3.800666
H        2.635274     0.249287    -2.419893
H        5.782806     2.011168    -2.857756
105
ex_0298 frame3 As-trans-conf8-2
C        8.190020     1.618406    -1.973017
C        7.016031     0.713907    -1.785873
C        7.120293    -0.478737    -1.052294
C        5.994141    -1.312282    -0.876292
C        6.120775    -2.576297    -0.072570
C        4.760543    -0.948374    -1.450170
N        3.621403    -1.822292    -1.300536
C        2.516908    -1.529948    -0.688897
S        2.348476     0.035880     0.120356
Ru       0.000000     0.000000     0.000000
Cl      -0.092686     2.396243     0.159772
C       -2.020000     0.000000     0.000000
O       -3.126757     0.000000     0.000000
As      -0.023474    -0.013445     2.651942
C        1.754817    -0.150838     3.560775
C        2.055518    -1.208366     4.445442
C        3.285904    -1.242953     5.112986
C        4.236413    -0.245567     4.890720
C        3.967304     0.780521     3.984942
C        2.737992     0.824042     3.320566
C       -0.757053     1.495330     3.738765
C        0.051133     2.583534     4.110183
C       -0.470675     3.615030     4.895545
C       -1.802646     3.576775     5.308503
C       -2.618647     2.509012     4.928972
C       -2.102035     1.474603     4.141773
C       -1.048490    -1.354723     3.687129
C       -1.871490    -2.252717     3.010696
C       -2.576340    -3.242223     3.693186
C       -2.470451    -3.335189     5.080305
C       -1.676453    -2.420707     5.780882
C       -0.969387    -1.427214     5.090103
As      -0.044332    -0.005002    -2.654288
C       -1.730572     0.347214    -3.663416
C       -2.673205     1.222321    -3.121986
C       -3.854865     1.492413    -3.813897
C       -4.103339     0.878392    -5.044155
C       -3.163733     0.000898    -5.587242
C       -1.978802    -0.268769    -4.900593
C        0.815814     1.330741    -3.843625
C        1.236099     2.564356    -3.313708
C        1.965201     3.464783    -4.100741
C        2.215956     3.174496    -5.441760
C        1.727165     1.990600    -6.001596
C        1.017379     1.073855    -5.212270
C        0.566534    -1.721086    -3.580249
C        1.930927    -1.925492    -3.940860
C        2.360867    -3.128163    -4.510692
C        1.444974    -4.132641    -4.788665
C        0.094781    -3.938513    -4.488810
C       -0.340588    -2.745334    -3.886452
N        0.113268    -2.060214    -0.078293
C       -1.054659    -2.926247    -0.074440
C       -0.823924    -4.287626    -0.674837
C        0.356541    -4.651510    -1.180587
C        1.506192    -3.734549    -1.142323
C        1.371197    -2.489672    -0.651214
C        4.686785     0.287440    -2.163701
C        3.454469     0.806918    -2.735512
C        5.812065     1.063276    -2.346502
H        7.892334     2.540958    -2.525756
H        8.570513     1.930630    -0.981768
H        8.972888     1.105659    -2.563300
H        8.065153    -0.746139    -0.602340
H        5.216396    -3.218297    -0.122233
H        6.983339    -3.176289    -0.422465
H        6.268198    -2.289075     0.989581
H        1.370217    -2.009457     4.642659
H        3.501012    -2.044168     5.808598
H        5.183876    -0.272887     5.414289
H        4.709702     1.547251     3.802764
H        2.553826     1.628256     2.621775
H        1.077097     2.661327     3.818529
H        0.161352     4.444791     5.186965
H       -2.201491     4.375426     5.920701
H       -3.651996     2.481852     5.248602
H       -2.752414     0.658043     3.861418
H       -1.984606    -2.167588     1.959770
H       -3.203489    -3.932550     3.142877
H       -3.012519    -4.107930     5.609125
H       -1.606878    -2.486124     6.858018
H       -0.361068    -0.726617     5.646007
H       -2.484709     1.709942    -2.174200
H       -4.579180     2.180527    -3.399539
H       -5.019237     1.086972    -5.581158
H       -3.350788    -0.468787    -6.544430
H       -1.278159    -0.937513    -5.368627
H        1.088779     2.790889    -2.271275
H        2.361689     4.372236    -3.660773
H        2.799616     3.861379    -6.042570
H        1.922549     1.772196    -7.043124
H        0.687220     0.154112    -5.663961
H        2.710417    -1.243127    -3.785687
H        3.414452    -3.277521    -4.728255
H        1.789618    -5.059658    -5.231820
H       -0.610754    -4.725737    -4.713967
H       -1.386008    -2.632921    -3.641895
H       -2.003509    -2.610703     0.333623
H       -1.653473    -4.984480    -0.712363
H        0.470328    -5.637748    -1.625422
H        2.433689    -4.071120    -1.590859
H        3.336516     1.810042    -2.286919
H        3.532258     0.881573    -3.842774
H        2.583051     0.245424    -2.440559
H        5.718834     1.988343    -2.909632
105
ex_0298 frame4 As-trans-conf4-2
C        8.855227     0.273713     0.131451
C        7.525381    -0.395169     0.074944
C        6.608991    -0.186453     1.095095
C        5.395883    -0.860085     1.096364
C        4.510540    -0.674635     2.255136
C        5.045318    -1.695673     0.013420
N        3.802060    -2.362024    -0.034732
C        2.515052    -1.784155    -0.017649
S        2.350791     0.060364    -0.027294
Ru       0.000000     0.000000     0.000000
Cl       0.004704     2.396234    -0.105131
C       -2.020000     0.000000     0.000000
O       -3.119520     0.000000     0.000000
As      -0.013089     0.067878     2.651469
C       -1.484745    -0.939547     3.556836
C       -2.296354    -0.334312     4.530258
C       -3.290396    -1.070406     5.180262
C       -3.507002    -2.408865     4.850543
C       -2.728717    -3.015560     3.864520
C       -1.723414    -2.285164     3.220802
C       -0.067673     1.758552     3.714277
C       -0.217279     2.994300     3.078183
C       -0.213298     4.185424     3.784833
C       -0.091949     4.159860     5.166865
C        0.030494     2.934677     5.832006
C        0.042655     1.735648     5.111247
C        1.440760    -0.679855     3.807330
C        2.497557     0.147692     4.221810
C        3.529179    -0.359468     5.022550
C        3.521083    -1.699953     5.410762
C        2.470269    -2.530011     5.017462
C        1.432937    -2.027353     4.220752
As       0.014477    -0.048212    -2.651612
C        0.151281    -1.713033    -3.731820
C        0.826062    -2.803073    -3.190909
C        0.930082    -4.012232    -3.867390
C        0.338463    -4.147261    -5.119299
C       -0.318568    -3.055133    -5.698005
C       -0.403617    -1.833521    -5.014642
C        1.440469     0.795564    -3.769675
C        1.302766     2.090951    -4.307865
C        2.330020     2.652715    -5.073715
C        3.494938     1.928798    -5.326683
C        3.639027     0.641216    -4.808505
C        2.621453     0.078874    -4.031352
C       -1.620890     0.864983    -3.379427
C       -2.619856     0.152482    -4.070906
C       -3.713039     0.825735    -4.629637
C       -3.839286     2.207634    -4.481894
C       -2.885240     2.916713    -3.752652
C       -1.786351     2.250182    -3.201805
N        0.110288    -2.053143     0.070978
C       -1.010068    -2.931409    -0.037690
C       -0.827282    -4.249985    -0.202731
C        0.530902    -4.833028    -0.235350
C        1.610813    -4.061582    -0.068180
C        1.431596    -2.590265    -0.004110
C        5.948822    -1.872986    -1.039681
C        5.592327    -2.745307    -2.212130
C        7.194205    -1.232223    -0.999549
H        9.056471     0.801124    -0.820881
H        9.622013    -0.505416     0.317780
H        8.895100     1.011676     0.963226
H        6.862068     0.445705     1.940985
H        5.103795    -0.992585     3.135004
H        4.244947     0.400510     2.336618
H        3.604159    -1.300859     2.241409
H       -2.181230     0.691782     4.813678
H       -3.891883    -0.598395     5.945078
H       -4.277785    -2.973330     5.359575
H       -2.899295    -4.054349     3.607292
H       -1.121783    -2.782761     2.482523
H       -0.326641     3.088834     2.052253
H       -0.305005     5.122943     3.247210
H       -0.095439     5.090628     5.713087
H        0.120238     2.912619     6.905463
H        0.147234     0.797579     5.636499
H        2.543298     1.179255     3.901389
H        4.357607     0.278197     5.305022
H        4.335558    -2.097308     6.004388
H        2.465017    -3.568494     5.325040
H        0.652780    -2.706444     3.939498
H        1.303256    -2.697228    -2.259987
H        1.470543    -4.836481    -3.416748
H        0.407177    -5.090083    -5.644038
H       -0.760265    -3.154879    -6.678402
H       -0.886490    -1.006456    -5.503632
H        0.442126     2.699010    -4.152724
H        2.222414     3.654730    -5.471230
H        4.285894     2.367284    -5.921958
H        4.541940     0.078872    -5.007076
H        2.761187    -0.916121    -3.636376
H       -2.583170    -0.915600    -4.187297
H       -4.463736     0.274657    -5.181636
H       -4.682381     2.726415    -4.920940
H       -2.992702     3.986020    -3.620241
H       -1.067333     2.826252    -2.642128
H       -2.014311    -2.543152    -0.034078
H       -1.682729    -4.904923    -0.341695
H        0.660156    -5.894937    -0.421029
H        2.591337    -4.511125    -0.141396
H        5.686221    -2.163344    -3.151076
H        4.550820    -3.131935    -2.173264
H        6.276937    -3.614997    -2.226803
H        7.902218    -1.390127    -1.800357
105
ex_0298 frame5 As-trans-conf3-2
C        8.844559     0.271091     0.140252
C        7.515653    -0.394805     0.081669
C        6.599962    -0.185054     1.100676
C        5.388460    -0.857515     1.100264
C        4.505122    -0.672654     2.257119
C        5.038082    -1.691352     0.017259
N        3.794852    -2.355929    -0.032535
C        2.489740    -1.819958     0.037681
S        2.351181     0.032314    -0.000943
Ru       0.000000     0.000000     0.000000
Cl      -0.049060     2.389117    -0.222319
C       -2.020000     0.000000     0.000000
O       -3.119520     0.000000     0.000000
As       0.000000     0.000000     2.650000
C       -1.481847    -0.973318     3.558466
C       -2.287843    -0.353310     4.528398
C       -3.286209    -1.078510     5.183043
C       -3.513660    -2.416533     4.857836
C       -2.743363    -3.032428     3.871429
C       -1.733824    -2.313816     3.226547
C       -0.047174     1.724972     3.689958
C       -0.166132     2.961742     3.040648
C       -0.178630     4.160585     3.741072
C       -0.090384     4.143954     5.125679
C        0.018966     2.923014     5.799280
C        0.038530     1.718757     5.087677
C        1.446496    -0.710926     3.808904
C        2.498026     0.129077     4.213950
C        3.535407    -0.368103     5.012282
C        3.532791    -1.706558     5.408516
C        2.480849    -2.541939     5.029047
C        1.440073    -2.048728     4.236066
As       0.000000     0.000000    -2.650000
C        0.144286    -1.687714    -3.719039
C        0.822053    -2.776947    -3.171575
C        0.929584    -3.990871    -3.846191
C        0.337858    -4.133483    -5.097582
C       -0.322421    -3.046038    -5.679408
C       -0.410288    -1.821196    -5.001506
C        1.432595     0.819421    -3.771862
C        1.304828     2.111931    -4.313158
C        2.335765     2.664369    -5.078612
C        3.495738     1.931807    -5.329491
C        3.629969     0.643325    -4.810702
C        2.607357     0.089827    -4.033583
C       -1.631541     0.891167    -3.390907
C       -2.625543     0.167511    -4.078497
C       -3.720564     0.832619    -4.642096
C       -3.852847     2.214959    -4.500565
C       -2.901424     2.932351    -3.776843
C       -1.800344     2.274955    -3.226703
N        0.151181    -2.048222     0.177580
C       -0.990158    -2.929324     0.008003
C       -0.819988    -4.248193    -0.196229
C        0.537739    -4.826069    -0.251839
C        1.612158    -4.048085    -0.100349
C        1.429890    -2.585206     0.042230
C        5.939762    -1.869575    -1.033994
C        5.581773    -2.741692    -2.204965
C        7.184303    -1.230355    -0.993776
H        9.055283     0.781216    -0.818976
H        9.604869    -0.508801     0.348397
H        8.876246     1.022576     0.960136
H        6.852884     0.444633     1.948579
H        5.102254    -0.990480     3.133970
H        4.240930     0.403255     2.337251
H        3.599592    -1.299784     2.246198
H       -2.166718     0.672961     4.807993
H       -3.881613    -0.598813     5.947847
H       -4.286396    -2.973897     5.370145
H       -2.920711    -4.069356     3.614265
H       -1.135494    -2.814987     2.489030
H       -0.236462     3.056648     2.012969
H       -0.256457     5.098521     3.199546
H       -0.105140     5.077464     5.668502
H        0.090728     2.906412     6.873840
H        0.128673     0.785155     5.620609
H        2.541637     1.158130     3.881386
H        4.365851     0.273169     5.281283
H        4.352661    -2.099266     5.996101
H        2.476436    -3.577978     5.340720
H        0.655874    -2.725545     3.958457
H        1.301138    -2.668595    -2.240667
H        1.473178    -4.814845    -3.397350
H        0.409056    -5.078019    -5.620914
H       -0.764092    -3.151159    -6.659583
H       -0.893878    -0.999732    -5.497142
H        0.447329     2.723928    -4.156656
H        2.234140     3.666511    -5.475931
H        4.290420     2.364831    -5.923302
H        4.529456     0.074602    -5.007970
H        2.741639    -0.905853    -3.637723
H       -2.586683    -0.901780    -4.186746
H       -4.468244     0.274946    -5.191255
H       -4.698070     2.728487    -4.939582
H       -3.010233     4.001065    -3.645951
H       -1.083124     2.857124    -2.673093
H       -2.013191    -2.556710     0.039965
H       -1.672953    -4.909449    -0.323399
H        0.669342    -5.890533    -0.416828
H        2.594881    -4.503456    -0.146471
H        5.683943    -2.162853    -3.144696
H        4.537302    -3.121795    -2.170429
H        6.261243    -3.615009    -2.208940
H        7.890873    -1.388669    -1.794729
105
ex_0298 frame6 As-trans-conf8
C        8.059487     1.656638    -2.022384
C        6.918464     0.726332    -1.835970
C        7.040561    -0.452166    -1.078996
C        5.927643    -1.298519    -0.900462
C        6.053545    -2.547779    -0.076983
C        4.704063    -0.960214    -1.486844
N        3.584104    -1.838534    -1.327592
C        2.494161    -1.528374    -0.711228
S        2.349650     0.048807     0.083367
Ru       0.000000     0.000000     0.000000
Cl      -2.400020    -0.039910    -0.003942
C        0.000000     2.020000     0.000000
O        0.000000     3.126757     0.000000
As      -0.042482     0.030637     2.661229
C        1.756000    -0.129345     3.578425
C        2.050941    -1.184365     4.466675
C        3.273816    -1.217961     5.143528
C        4.230494    -0.228054     4.919446
C        3.973332     0.791817     4.002882
C        2.748681     0.835991     3.329015
C       -0.750801     1.502520     3.745772
C        0.059059     2.589403     4.123727
C       -0.460951     3.620634     4.911745
C       -1.792453     3.583390     5.326009
C       -2.609344     2.515268     4.948682
C       -2.093644     1.480476     4.158953
C       -1.053759    -1.341191     3.677847
C       -1.864961    -2.240037     2.996846
C       -2.558171    -3.247163     3.662487
C       -2.450398    -3.355240     5.047270
C       -1.669100    -2.435722     5.757361
C       -0.970600    -1.428188     5.077613
As      -0.051567    -0.009165    -2.652696
C       -1.716401     0.346391    -3.657624
C       -2.664900     1.236275    -3.130667
C       -3.849011     1.498586    -3.830457
C       -4.094248     0.868117    -5.053677
C       -3.152853    -0.013883    -5.583374
C       -1.972043    -0.274136    -4.891924
C        0.826446     1.351931    -3.838532
C        1.288459     2.566623    -3.293584
C        2.068005     3.437834    -4.069118
C        2.300047     3.155464    -5.415107
C        1.740556     2.012263    -5.992084
C        0.992247     1.118123    -5.213475
C        0.617453    -1.730818    -3.579788
C        1.987187    -1.954267    -3.885781
C        2.436966    -3.144924    -4.439709
C        1.532509    -4.133794    -4.774051
C        0.169801    -3.932061    -4.535725
C       -0.289813    -2.742531    -3.936383
N        0.127810    -2.057958    -0.054352
C       -1.020661    -2.972627     0.005526
C       -0.823567    -4.305055    -0.669527
C        0.338390    -4.640668    -1.223031
C        1.475574    -3.715571    -1.182221
C        1.355086    -2.477819    -0.662223
C        4.619921     0.255876    -2.221528
C        3.400246     0.750298    -2.798469
C        5.724838     1.036575    -2.421162
H        7.706588     2.605418    -2.494909
H        8.479308     1.914238    -1.033392
H        8.799689     1.191772    -2.698077
H        7.978176    -0.689770    -0.603813
H        5.205661    -3.251969    -0.222620
H        6.984111    -3.087541    -0.332411
H        6.060217    -2.245605     0.991161
H        1.363376    -1.981568     4.666281
H        3.478006    -2.013893     5.847708
H        5.173433    -0.256851     5.451324
H        4.722253     1.551891     3.821073
H        2.572737     1.637837     2.623703
H        1.083598     2.665536     3.830415
H        0.173616     4.448833     5.202017
H       -2.189707     4.383369     5.936962
H       -3.642493     2.488379     5.270643
H       -2.746092     0.664566     3.881028
H       -1.982401    -2.134676     1.955366
H       -3.175874    -3.938805     3.101358
H       -2.983437    -4.140563     5.566351
H       -1.598743    -2.508579     6.832740
H       -0.369530    -0.725633     5.636415
H       -2.483574     1.739269    -2.190127
H       -4.576645     2.191468    -3.428128
H       -5.008026     1.066416    -5.597393
H       -3.330743    -0.497653    -6.534559
H       -1.269352    -0.942733    -5.350495
H        1.177705     2.779441    -2.243975
H        2.531853     4.307103    -3.615167
H        2.927115     3.812958    -6.006390
H        1.921809     1.798665    -7.036824
H        0.625807     0.218720    -5.674623
H        2.785747    -1.319234    -3.698917
H        3.502126    -3.294871    -4.597711
H        1.901304    -5.052960    -5.210526
H       -0.525337    -4.711464    -4.804874
H       -1.342835    -2.630964    -3.734010
H       -1.950678    -2.686037     0.473858
H       -1.648894    -5.012092    -0.700307
H        0.449220    -5.603944    -1.714670
H        2.396105    -4.037316    -1.654951
H        3.310856     1.747472    -2.343903
H        3.465049     0.800067    -3.909894
H        2.533511     0.214443    -2.464624
H        5.613888     1.947151    -3.006409
105
ex_0298 frame7 As-trans-conf7
C        8.059366     1.659654    -2.025641
C        6.919319     0.730716    -1.835344
C        7.042819    -0.447472    -1.073719
C        5.929557    -1.291959    -0.892152
C        6.051181    -2.542239    -0.071335
C        4.713680    -0.949341    -1.474016
N        3.587107    -1.812555    -1.314329
C        2.507726    -1.515164    -0.680884
S        2.346062     0.028790     0.173021
Ru       0.000000     0.000000     0.000000
Cl      -2.399900    -0.006061     0.035273
C        0.000000     2.020000     0.000000
O        0.000000     3.126757     0.000000
As       0.000000     0.000000     2.650000
C        1.770344    -0.138412     3.578790
C        2.060588    -1.187049     4.473099
C        3.281941    -1.218478     5.152929
C        4.237907    -0.227015     4.929997
C        3.980850     0.792114     4.012914
C        2.756817     0.833719     3.337434
C       -0.738187     1.494132     3.744638
C        0.066664     2.584021     4.121357
C       -0.456161     3.614601     4.907109
C       -1.788008     3.575828     5.319380
C       -2.602449     2.506135     4.941866
C       -2.084619     1.471018     4.154027
C       -1.035038    -1.353652     3.674821
C       -1.851441    -2.247561     2.991581
C       -2.552009    -3.250137     3.657442
C       -2.450786    -3.354960     5.043167
C       -1.668746    -2.436961     5.754090
C       -0.964812    -1.433060     5.074958
As       0.000000     0.000000    -2.650000
C       -1.682288     0.346657    -3.652403
C       -2.632091     1.235178    -3.123838
C       -3.820859     1.495267    -3.821026
C       -4.071706     0.861897    -5.040575
C       -3.132277    -0.021235    -5.571435
C       -1.946672    -0.279065    -4.884546
C        0.852627     1.355812    -3.840622
C        1.307773     2.571191    -3.297777
C        2.080589     3.443811    -4.074461
C        2.307456     3.162195    -5.421492
C        1.748458     2.017881    -5.997509
C        1.008557     1.120901    -5.215784
C        0.649991    -1.730436    -3.578944
C        2.016628    -1.962985    -3.884961
C        2.458285    -3.156317    -4.440436
C        1.547520    -4.139325    -4.777064
C        0.185982    -3.929549    -4.538349
C       -0.265656    -2.737473    -3.936299
N        0.119949    -2.057555    -0.064267
C       -1.009089    -2.968087    -0.021232
C       -0.814020    -4.299824    -0.695306
C        0.351611    -4.643135    -1.230794
C        1.493441    -3.714235    -1.186850
C        1.369981    -2.468084    -0.657959
C        4.627050     0.260377    -2.213009
C        3.404785     0.748274    -2.787881
C        5.726728     1.039238    -2.419406
H        7.702470     2.610387    -2.490697
H        8.483672     1.913071    -1.037363
H        8.793090     1.197043    -2.709876
H        7.979571    -0.685329    -0.600827
H        5.206201    -3.247695    -0.229400
H        6.983615    -3.078834    -0.322460
H        6.044060    -2.243931     0.997234
H        1.373650    -1.985668     4.670637
H        3.485224    -2.014025     5.858186
H        5.179866    -0.254053     5.462603
H        4.727846     1.554091     3.830187
H        2.581407     1.634007     2.631110
H        1.092236     2.662454     3.830137
H        0.175505     4.444632     5.198122
H       -2.187442     4.376155     5.929437
H       -3.635647     2.479447     5.263064
H       -2.735738     0.654029     3.876577
H       -1.961252    -2.145648     1.949781
H       -3.170754    -3.940072     3.095563
H       -2.988291    -4.137473     5.561830
H       -1.603420    -2.507475     6.830052
H       -0.364117    -0.730935     5.635011
H       -2.449117     1.743292    -2.186652
H       -4.548103     2.189280    -3.419245
H       -4.988119     1.058719    -5.581657
H       -3.316417    -0.506603    -6.521331
H       -1.248400    -0.947853    -5.348292
H        1.199169     2.779057    -2.246116
H        2.543108     4.312485    -3.619287
H        2.930355     3.821379    -6.013870
H        1.924435     1.804910    -7.043048
H        0.642913     0.219041    -5.674062
H        2.815908    -1.328650    -3.693524
H        3.522340    -3.312647    -4.597584
H        1.910505    -5.060444    -5.215068
H       -0.513945    -4.704991    -4.809245
H       -1.318513    -2.622815    -3.733681
H       -1.942633    -2.678986     0.438459
H       -1.643561    -5.001893    -0.732433
H        0.465785    -5.606457    -1.721412
H        2.420020    -4.041118    -1.647598
H        3.317391     1.748634    -2.340524
H        3.466873     0.789897    -3.901989
H        2.551057     0.205965    -2.437262
H        5.615975     1.947006    -3.011186
105
ex_0298 frame8 all-cis-conf13-2
C        6.295095    -2.576848    -6.827248
C        5.605831    -2.081731    -5.586152
C        5.134851    -2.987294    -4.630837
C        4.534390    -2.535408    -3.446648
C        4.079756    -3.556366    -2.435278
C        4.378935    -1.138068    -3.222937
N        3.759962    -0.659017    -2.026761
C        2.572545    -0.219216    -1.699732
S        2.335717     0.278359     0.008390
Ru       0.000000     0.000000     0.000000
Cl      -0.367359     2.366750     0.054484
C       -2.020000     0.000000     0.000000
O       -3.157851     0.000000     0.000000
As       0.000000    -2.650000     0.000000
C        1.541046    -3.554862     0.834752
C        2.475249    -2.800223     1.554565
C        3.558128    -3.410758     2.183814
C        3.726824    -4.790630     2.086696
C        2.812759    -5.555365     1.352302
C        1.720538    -4.940960     0.721889
C        0.068756    -3.612453    -1.765890
C        0.950406    -3.172369    -2.740381
C        0.984706    -3.737200    -4.014820
C        0.151312    -4.808604    -4.316001
C       -0.703654    -5.314906    -3.333804
C       -0.749115    -4.727007    -2.059339
C       -1.550077    -3.701892     0.675127
C       -1.424530    -4.622110     1.731317
C       -2.545511    -5.311841     2.203837
C       -3.791719    -5.120846     1.603996
C       -3.920018    -4.236526     0.530736
C       -2.808158    -3.518909     0.077611
As       0.000000     0.000000     2.650000
C       -1.823440     0.063524     3.464961
C       -2.297572    -0.971089     4.299473
C       -3.588949    -0.923452     4.827303
C       -4.414439     0.166092     4.559209
C       -3.950123     1.209413     3.754181
C       -2.660883     1.159464     3.207378
C        0.907837     1.564181     3.458069
C        0.223552     2.462614     4.293561
C        0.902397     3.549983     4.857363
C        2.260539     3.747996     4.592840
C        2.944064     2.861813     3.759912
C        2.269479     1.781165     3.189577
C        0.861453    -1.382414     3.806488
C        0.396525    -2.684734     3.734832
C        0.979888    -3.715692     4.471454
C        2.049457    -3.434501     5.318341
C        2.517197    -2.122008     5.431666
C        1.920760    -1.089890     4.691186
N        0.117648     0.118997    -2.054928
C       -1.093359     0.216080    -2.866616
C       -0.929137     0.001000    -4.331746
C        0.282305    -0.192139    -4.849619
C        1.488671    -0.203095    -3.995864
C        1.394518    -0.105273    -2.646766
C        4.849887    -0.225528    -4.201443
C        4.735703     1.260939    -3.996387
C        5.433227    -0.708939    -5.383046
H        6.377690    -3.685209    -6.838920
H        5.744618    -2.254433    -7.734861
H        7.324252    -2.158492    -6.859889
H        5.271886    -4.051968    -4.785886
H        4.960533    -4.136978    -2.094506
H        3.378091    -4.276128    -2.904837
H        3.596989    -3.110106    -1.544044
H        2.354583    -1.740725     1.659777
H        4.256272    -2.811599     2.756014
H        4.563932    -5.263463     2.583643
H        2.949780    -6.625349     1.279723
H        1.017489    -5.544264     0.165829
H        1.608312    -2.387432    -2.510391
H        1.661946    -3.341678    -4.762642
H        0.177764    -5.249039    -5.304550
H       -1.337595    -6.160067    -3.565740
H       -1.427406    -5.159480    -1.348026
H       -0.478728    -4.813342     2.205928
H       -2.447074    -5.997134     3.036243
H       -4.655618    -5.663270     1.966814
H       -4.881868    -4.106082     0.051853
H       -2.918252    -2.837689    -0.755850
H       -1.723867    -1.835018     4.548387
H       -3.949397    -1.738111     5.444457
H       -5.413615     0.197566     4.974807
H       -4.593871     2.054386     3.551256
H       -2.318732     1.969507     2.578475
H       -0.816474     2.336421     4.532975
H        0.376628     4.237841     5.506362
H        2.785028     4.584239     5.036708
H        3.998506     3.006268     3.560953
H        2.818449     1.095321     2.564189
H       -0.417309    -2.861042     3.075614
H        0.610585    -4.728509     4.376944
H        2.514589    -4.232718     5.882078
H        3.349418    -1.907248     6.088919
H        2.326100    -0.105752     4.814743
H       -2.095333     0.336048    -2.420345
H       -1.808441    -0.009827    -4.968254
H        0.377910    -0.362005    -5.916720
H        2.397443    -0.377748    -4.522155
H        5.739192     1.712495    -4.146004
H        4.407208     1.527983    -2.972789
H        4.026925     1.702908    -4.726246
H        5.809774    -0.010664    -6.121393
105
ex_0298 frame9 all-cis-conf13
C        6.323396    -2.587513    -6.850522
C        5.617010    -2.094142    -5.618302
C        5.136531    -3.001076    -4.668770
C        4.521207    -2.549311    -3.491853
C        4.056074    -3.571831    -2.486436
C        4.364330    -1.151063    -3.270300
N        3.733310    -0.669317    -2.086789
C        2.547561    -0.240199    -1.746706
S        2.338793     0.245610    -0.037822
Ru       0.000000     0.000000     0.000000
Cl      -2.372699    -0.052001     0.162192
C        0.000000     2.020000     0.000000
O        0.000000     3.157851     0.000000
As       0.000000    -2.650000     0.000000
C        1.540883    -3.550085     0.839411
C        2.465429    -2.793276     1.569559
C        3.542664    -3.402095     2.210582
C        3.719124    -4.780791     2.109648
C        2.818894    -5.546291     1.358972
C        1.729893    -4.934465     0.719883
C        0.070241    -3.613058    -1.768622
C        0.943084    -3.163322    -2.743586
C        0.975027    -3.714457    -4.022842
C        0.150034    -4.789917    -4.328127
C       -0.692583    -5.313401    -3.343559
C       -0.736454    -4.735586    -2.063174
C       -1.551810    -3.710729     0.675010
C       -1.431405    -4.607399     1.751769
C       -2.554287    -5.286265     2.236331
C       -3.795818    -5.118477     1.620781
C       -3.916942    -4.269986     0.518328
C       -2.804523    -3.557968     0.056100
As       0.000000     0.000000     2.650000
C       -1.822996     0.059262     3.473756
C       -2.299393    -0.985677     4.294859
C       -3.590054    -0.942854     4.824190
C       -4.412733     0.152559     4.573599
C       -3.946099     1.207095     3.784695
C       -2.657287     1.162398     3.236007
C        0.911374     1.560498     3.455516
C        0.230736     2.460845     4.292093
C        0.912526     3.546697     4.853930
C        2.270812     3.740308     4.587953
C        2.950979     2.851695     3.754201
C        2.272548     1.773023     3.183968
C        0.863521    -1.383330     3.803588
C        0.396046    -2.681730     3.727581
C        0.979481    -3.720569     4.452316
C        2.052951    -3.448387     5.296150
C        2.522409    -2.136786     5.418891
C        1.924327    -1.096739     4.688662
N        0.074992     0.064690    -2.059533
C       -1.146537     0.082701    -2.846978
C       -0.990991    -0.089116    -4.320060
C        0.219902    -0.228026    -4.859559
C        1.439538    -0.209479    -4.023267
C        1.356203    -0.131885    -2.675874
C        4.847657    -0.240004    -4.239433
C        4.738168     1.245030    -4.025488
C        5.438012    -0.721557    -5.417897
H        6.426825    -3.694344    -6.851102
H        5.771479    -2.283535    -7.763555
H        7.345315    -2.150849    -6.882094
H        5.278998    -4.065554    -4.822156
H        4.934975    -4.145018    -2.128820
H        3.367103    -4.298474    -2.965621
H        3.557784    -3.127089    -1.603479
H        2.338424    -1.733428     1.676337
H        4.229513    -2.802801     2.796136
H        4.551705    -5.251882     2.616110
H        2.963498    -6.615077     1.281684
H        1.036712    -5.538659     0.152535
H        1.594803    -2.379392    -2.508599
H        1.644365    -3.304167    -4.770038
H        0.175115    -5.219796    -5.321288
H       -1.318539    -6.163126    -3.579226
H       -1.405633    -5.179957    -1.350752
H       -0.489258    -4.783945     2.237173
H       -2.461374    -5.944030     3.091468
H       -4.661286    -5.651881     1.993751
H       -4.874674    -4.160860     0.025900
H       -2.911586    -2.902277    -0.797758
H       -1.731340    -1.856086     4.530844
H       -3.952299    -1.766605     5.428241
H       -5.411749     0.179393     4.989871
H       -4.588347     2.056141     3.594813
H       -2.313878     1.980188     2.617221
H       -0.808901     2.338602     4.533715
H        0.388569     4.236465     5.502521
H        2.797527     4.575412     5.031156
H        4.005458     2.993289     3.554316
H        2.815943     1.084623     2.554712
H       -0.418158    -2.843131     3.067143
H        0.609518    -4.732298     4.349265
H        2.519867    -4.253526     5.848539
H        3.358277    -1.930303     6.073898
H        2.331577    -0.113690     4.816637
H       -2.133554     0.228678    -2.381874
H       -1.878063    -0.109878    -4.945794
H        0.307430    -0.372284    -5.931209
H        2.353273    -0.357121    -4.555352
H        5.731044     1.700329    -4.226480
H        4.480154     1.499450    -2.977776
H        3.985827     1.692589    -4.705053
H        5.827838    -0.022327    -6.148525
105
ex_0298 frame10 all-cis-conf4
C        8.868714     0.305388     0.158231
C        7.523444    -0.356011     0.136654
C        6.615392    -0.148200     1.182281
C        5.375101    -0.798668     1.191287
C        4.459289    -0.595080     2.375367
C        5.016065    -1.632070     0.095694
N        3.759484    -2.282944     0.044970
C        2.543179    -1.752161    -0.025472
S        2.352089     0.033668    -0.023073
Ru       0.000000     0.000000     0.000000
Cl       0.124981     2.396458    -0.118575
C        0.000000     0.000000     2.020000
O        0.000000     0.000000     3.119520
As      -2.652111     0.021617    -0.083323
C       -3.679716    -0.989871    -1.527618
C       -4.759924    -0.404735    -2.221906
C       -5.454926    -1.133247    -3.199244
C       -5.090431    -2.444923    -3.499448
C       -4.023848    -3.030513    -2.831620
C       -3.326353    -2.310555    -1.864956
C       -3.758848     1.717073    -0.117410
C       -3.150715     2.958510    -0.339241
C       -3.880646     4.143219    -0.358396
C       -5.256946     4.108115    -0.173501
C       -5.896768     2.883862     0.041772
C       -5.155400     1.691403     0.079256
C       -3.734948    -0.656979     1.457867
C       -3.955964     0.166661     2.577059
C       -4.733111    -0.292292     3.649261
C       -5.270570    -1.582054     3.627101
C       -5.042823    -2.411803     2.529374
C       -4.286532    -1.953765     1.447534
As       0.016396    -0.044241    -2.652135
C        0.158191    -1.698884    -3.782432
C        0.793121    -2.814558    -3.248219
C        0.897836    -4.012184    -3.945897
C        0.344517    -4.113937    -5.217327
C       -0.271750    -2.998689    -5.795340
C       -0.354311    -1.785365    -5.091193
C        1.454835     0.793369    -3.753398
C        1.313490     2.077577    -4.315842
C        2.339832     2.630537    -5.086773
C        3.512580     1.911594    -5.314314
C        3.666436     0.639028    -4.761532
C        2.648111     0.085168    -3.978376
C       -1.580130     0.901947    -3.424213
C       -2.545151     0.221887    -4.188187
C       -3.626414     0.911880    -4.748151
C       -3.774802     2.279977    -4.532817
C       -2.842668     2.961950    -3.752189
C       -1.751477     2.278467    -3.204327
N        0.052798    -2.061835     0.053951
C       -1.042834    -2.914734     0.158777
C       -0.821276    -4.388260     0.107156
C        0.408822    -4.873061    -0.037194
C        1.553511    -3.974564    -0.146577
C        1.389453    -2.632051    -0.042231
C        5.927375    -1.820447    -0.966167
C        5.579747    -2.699973    -2.142760
C        7.173340    -1.185009    -0.933394
H        9.001618     0.920495    -0.755939
H        9.657270    -0.476086     0.191063
H        8.987377     0.961800     1.046354
H        6.890953     0.482457     2.019529
H        4.998509    -0.919558     3.289673
H        4.190691     0.476835     2.480747
H        3.529832    -1.190575     2.336134
H       -5.074588     0.605490    -2.075026
H       -6.270941    -0.673271    -3.739887
H       -5.622992    -3.004346    -4.258447
H       -3.729358    -4.047215    -3.064765
H       -2.522121    -2.822061    -1.423958
H       -2.126065     3.049001    -0.504518
H       -3.369000     5.085086    -0.523335
H       -5.820553     5.030140    -0.199143
H       -6.968416     2.860591     0.177605
H       -5.672756     0.759087     0.245723
H       -3.551689     1.169133     2.611391
H       -4.922608     0.351178     4.498597
H       -5.867235    -1.938025     4.458388
H       -5.458042    -3.412110     2.514657
H       -4.148257    -2.624444     0.616022
H        1.239813    -2.738580    -2.304711
H        1.409082    -4.854673    -3.495093
H        0.412587    -5.049570    -5.756600
H       -0.682706    -3.077519    -6.792007
H       -0.803978    -0.944938    -5.589254
H        0.444906     2.680118    -4.185070
H        2.222566     3.620308    -5.510953
H        4.300765     2.342270    -5.918436
H        4.575436     0.080695    -4.941770
H        2.789880    -0.900513    -3.559588
H       -2.511576    -0.840499    -4.337696
H       -4.362808     0.377126    -5.334500
H       -4.620081     2.805650    -4.958254
H       -2.965294     4.022019    -3.572404
H       -1.046082     2.830417    -2.603910
H       -2.012007    -2.481735     0.273452
H       -1.669729    -5.054564     0.188226
H        0.571135    -5.932059    -0.074632
H        2.532433    -4.424234    -0.262633
H        5.643016    -2.112866    -3.083010
H        4.558999    -3.130864    -2.086420
H        6.301027    -3.542363    -2.194669
H        7.879130    -1.347963    -1.740378
105
ex_0298 frame11 all-cis-conf3
C        8.873480     0.305844     0.157361
C        7.529538    -0.352016     0.134804
C        6.620741    -0.137286     1.178677
C        5.384493    -0.789302     1.189915
C        4.464599    -0.588021     2.372568
C        5.027961    -1.624345     0.100429
N        3.775929    -2.271665     0.061208
C        2.579997    -1.737471    -0.011925
S        2.350251     0.034480    -0.094541
Ru       0.000000     0.000000     0.000000
Cl       0.348834     2.361874    -0.272306
C        0.000000     0.000000     2.020000
O        0.000000     0.000000     3.119520
As      -2.650000     0.000000     0.000000
C       -3.661841    -1.004094    -1.474121
C       -4.721597    -0.410023    -2.193150
C       -5.405951    -1.131794    -3.184384
C       -5.049055    -2.445887    -3.479946
C       -4.001609    -3.043229    -2.791834
C       -3.315421    -2.331574    -1.807128
C       -3.697992     1.707796    -0.065050
C       -3.039954     2.926003    -0.251417
C       -3.740700     4.128593    -0.307921
C       -5.127610     4.127719    -0.187547
C       -5.807689     2.921411     0.003300
C       -5.099101     1.714573     0.073796
C       -3.747687    -0.675414     1.513924
C       -3.998502     0.152986     2.619612
C       -4.785062    -0.307195     3.681612
C       -5.306527    -1.603399     3.659092
C       -5.051485    -2.438406     2.570542
C       -4.282740    -1.978177     1.499203
As       0.000000     0.000000    -2.650000
C        0.145346    -1.672103    -3.761124
C        0.785903    -2.778853    -3.214186
C        0.896857    -3.984808    -3.898987
C        0.341090    -4.105152    -5.167976
C       -0.283019    -3.000602    -5.757335
C       -0.369959    -1.778885    -5.067894
C        1.440745     0.821558    -3.756357
C        1.308981     2.107067    -4.314908
C        2.338464     2.651606    -5.088083
C        3.503738     1.921528    -5.321782
C        3.646816     0.645842    -4.773836
C        2.625686     0.100644    -3.989113
C       -1.598048     0.928654    -3.423991
C       -2.558506     0.238056    -4.183486
C       -3.642655     0.918163    -4.748196
C       -3.798475     2.286360    -4.540295
C       -2.870973     2.977967    -3.761962
C       -1.776290     2.304376    -3.210493
N        0.153853    -2.053649     0.184017
C       -0.988118    -2.908323     0.263730
C       -0.780730    -4.378293     0.122250
C        0.442335    -4.863612    -0.072583
C        1.586858    -3.962752    -0.149014
C        1.439154    -2.621605     0.003960
C        5.934256    -1.817803    -0.963598
C        5.579755    -2.700224    -2.138266
C        7.180264    -1.184922    -0.933958
H        9.018271     0.900443    -0.768187
H        9.656343    -0.479169     0.217615
H        8.981302     0.979960     1.033332
H        6.893236     0.494639     2.015084
H        5.002677    -0.912669     3.287620
H        4.187870     0.481089     2.477911
H        3.536191    -1.187820     2.334999
H       -5.028550     0.602264    -2.054641
H       -6.206739    -0.663035    -3.740526
H       -5.573002    -2.998274    -4.249964
H       -3.714088    -4.062703    -3.022369
H       -2.526182    -2.854761    -1.348162
H       -1.993198     2.966313    -0.353261
H       -3.203357     5.058872    -0.449466
H       -5.670752     5.061885    -0.240963
H       -6.884778     2.922841     0.093249
H       -5.644793     0.792758     0.218897
H       -3.603400     1.159478     2.651063
H       -4.992487     0.341113     4.522649
H       -5.910270    -1.961390     4.483020
H       -5.452532    -3.444076     2.553576
H       -4.119320    -2.651166     0.674638
H        1.233346    -2.686659    -2.271998
H        1.414854    -4.819833    -3.441608
H        0.413199    -5.046546    -5.697376
H       -0.696128    -3.093997    -6.752097
H       -0.824023    -0.948024    -5.577138
H        0.444232     2.714900    -4.175028
H        2.230223     3.643776    -5.508346
H        4.294995     2.346018    -5.926272
H        4.549975     0.078791    -4.957999
H        2.761246    -0.887337    -3.573640
H       -2.520760    -0.825342    -4.324881
H       -4.375397     0.375243    -5.331736
H       -4.646459     2.804186    -4.969086
H       -2.999425     4.037677    -3.586940
H       -1.074503     2.861504    -2.610538
H       -1.960512    -2.473462     0.422461
H       -1.626642    -5.044391     0.178719
H        0.602029    -5.922394    -0.175810
H        2.564213    -4.408704    -0.309248
H        5.647071    -2.118681    -3.081775
H        4.554380    -3.121551    -2.082177
H        6.292286    -3.550145    -2.186582
H        7.884377    -1.352116    -1.740691
105
ex_0298 frame12 As-trans-conf3
C        8.897756     0.282638     0.081201
C        7.566498    -0.401088     0.043468
C        6.657142    -0.205282     1.078007
C        5.438421    -0.880697     1.089685
C        4.549207    -0.692825     2.259489
C        5.080223    -1.717469     0.006001
N        3.826293    -2.388940    -0.030577
C        2.525250    -1.807051    -0.012711
S        2.351790    -0.000845     0.012503
Ru       0.000000     0.000000     0.000000
Cl      -2.399673     0.074337    -0.013875
C        0.000000     2.020000     0.000000
O        0.000000     3.119520     0.000000
As       0.000000     0.000000     2.650000
C       -1.488573    -0.972099     3.550988
C       -2.310781    -0.349352     4.512186
C       -3.318481    -1.075714     5.154202
C       -3.531996    -2.416888     4.833136
C       -2.742467    -3.033558     3.861556
C       -1.729069    -2.313732     3.223063
C       -0.085177     1.695305     3.769330
C       -0.294864     2.931289     3.158348
C       -0.285004     4.122423     3.877441
C       -0.104790     4.094089     5.254441
C        0.057637     2.867218     5.906042
C        0.063360     1.667427     5.173616
C        1.442724    -0.717757     3.810239
C        2.473192     0.131110     4.252237
C        3.487390    -0.355762     5.082135
C        3.492987    -1.697992     5.463951
C        2.477250    -2.550921     5.026589
C        1.455796    -2.066776     4.202056
As       0.000000     0.000000    -2.650000
C        0.135137    -1.671008    -3.757768
C        0.800504    -2.774039    -3.225971
C        0.907713    -3.976492    -3.916321
C        0.330514    -4.096978    -5.175395
C       -0.319834    -2.997458    -5.747593
C       -0.412482    -1.779920    -5.049737
C        1.433456     0.822912    -3.762374
C        1.297354     2.105655    -4.324609
C        2.328602     2.652618    -5.094793
C        3.496593     1.925151    -5.325562
C        3.641073     0.649785    -4.777893
C        2.619449     0.103334    -3.995452
C       -1.632202     0.894882    -3.364929
C       -2.631415     0.170263    -4.041040
C       -3.736834     0.831197    -4.587345
C       -3.867777     2.213896    -4.447577
C       -2.906444     2.934617    -3.737390
C       -1.797648     2.278372    -3.195148
N        0.136202    -2.056459     0.012309
C       -1.004529    -2.913004    -0.126096
C       -0.843728    -4.244659    -0.225257
C        0.507170    -4.852900    -0.189871
C        1.596621    -4.089214    -0.048527
C        1.440574    -2.611562    -0.015758
C        5.985952    -1.889286    -1.059962
C        5.636674    -2.764397    -2.235772
C        7.229441    -1.238121    -1.028121
H        9.043919     0.887484    -0.836031
H        9.692862    -0.487476     0.157315
H        8.981860     0.955438     0.963170
H        6.915148     0.433098     1.916548
H        5.126975    -1.004374     3.152200
H        4.275341     0.380001     2.344295
H        3.640294    -1.316015     2.238424
H       -2.201091     0.680626     4.792030
H       -3.933430    -0.596762     5.905578
H       -4.310387    -2.976376     5.335554
H       -2.910168    -4.072223     3.608221
H       -1.120428    -2.809413     2.485460
H       -0.455320     3.001534     2.136873
H       -0.414968     5.065516     3.357835
H       -0.096609     5.023561     5.809351
H        0.187593     2.851917     6.978631
H        0.201907     0.735367     5.701113
H        2.501025     1.169534     3.950014
H        4.282199     0.303667     5.406698
H        4.289028    -2.077969     6.090880
H        2.482652    -3.590840     5.325741
H        0.694069    -2.754068     3.886750
H        1.270723    -2.688701    -2.291608
H        1.441075    -4.808445    -3.470504
H        0.404742    -5.035814    -5.709176
H       -0.749601    -3.092901    -6.734820
H       -0.895781    -0.949854    -5.535454
H        0.430188     2.710323    -4.185426
H        2.220501     3.645004    -5.514224
H        4.289271     2.351291    -5.927041
H        4.546069     0.084376    -4.958962
H        2.757550    -0.883348    -3.577731
H       -2.583386    -0.899399    -4.149039
H       -4.492561     0.270105    -5.122283
H       -4.720165     2.724171    -4.877577
H       -3.016974     4.003826    -3.611387
H       -1.069491     2.854063    -2.641915
H       -2.002587    -2.510053    -0.163050
H       -1.710112    -4.886376    -0.340894
H        0.612100    -5.928703    -0.296061
H        2.575367    -4.563281    -0.051062
H        5.692319    -2.166950    -3.169512
H        4.612744    -3.188969    -2.177338
H        6.353925    -3.608004    -2.291951
H        7.934999    -1.387012    -1.835260
105
ex_0298 frame13 As-trans-conf4
C        8.848443     0.271951     0.129521
C        7.518520    -0.399287     0.075746
C        6.604220    -0.191882     1.097455
C        5.392935    -0.869139     1.103995
C        4.509951    -0.681649     2.262425
C        5.039425    -1.706681     0.024593
N        3.792752    -2.377612    -0.014948
C        2.502508    -1.789373    -0.009371
S        2.347385     0.021978     0.031762
Ru       0.000000     0.000000     0.000000
Cl      -2.398037     0.016430    -0.041857
C        0.000000     2.020000     0.000000
O        0.000000     3.119520     0.000000
As      -0.021602     0.035276     2.652332
C       -1.489968    -0.958181     3.554574
C       -2.296818    -0.348404     4.529868
C       -3.291699    -1.079606     5.180834
C       -3.511605    -2.417331     4.851146
C       -2.737516    -3.026460     3.862079
C       -1.732607    -2.299869     3.215073
C       -0.076535     1.728671     3.738055
C       -0.240945     2.959199     3.111224
C       -0.226570     4.157586     3.804509
C       -0.088628     4.140297     5.183722
C        0.039437     2.915962     5.852422
C        0.048002     1.709864     5.135347
C        1.435967    -0.696332     3.807998
C        2.490220     0.138569     4.219468
C        3.524048    -0.362048     5.021977
C        3.520913    -1.701764     5.413095
C        2.473018    -2.536789     5.021905
C        1.433677    -2.040615     4.224800
As       0.023357    -0.024150    -2.651831
C        0.156015    -1.698510    -3.739760
C        0.835797    -2.789336    -3.206542
C        0.933088    -4.001717    -3.877863
C        0.333047    -4.140274    -5.123980
C       -0.325462    -3.047948    -5.701071
C       -0.406809    -1.823147    -5.019498
C        1.445018     0.808851    -3.771419
C        1.307869     2.101552    -4.311634
C        2.335001     2.659320    -5.079174
C        3.498570     1.932331    -5.331540
C        3.640872     0.645287    -4.811486
C        2.623148     0.087476    -4.032766
C       -1.615851     0.877734    -3.375855
C       -2.613318     0.160979    -4.067395
C       -3.708352     0.830419    -4.626508
C       -3.837659     2.211888    -4.478914
C       -2.886019     2.923485    -3.747472
C       -1.785296     2.260307    -3.195011
N        0.099556    -2.058243     0.006697
C       -1.025027    -2.937403    -0.119633
C       -0.844047    -4.265320    -0.252597
C        0.514484    -4.849814    -0.265990
C        1.590034    -4.073274    -0.111085
C        1.416812    -2.596423    -0.035989
C        5.940900    -1.880801    -1.033987
C        5.584436    -2.751527    -2.207110
C        7.185727    -1.236844    -0.997530
H        9.049689     0.800122    -0.822362
H        9.616728    -0.506202     0.314684
H        8.890467     1.009161     0.962007
H        6.857436     0.443518     1.940620
H        5.104189    -0.996634     3.142074
H        4.245052     0.394319     2.340381
H        3.602292    -1.306932     2.246726
H       -2.179201     0.677853     4.813418
H       -3.890400    -0.603996     5.945867
H       -4.282726    -2.978716     5.361920
H       -2.911301    -4.063726     3.604170
H       -1.133003    -2.793089     2.467858
H       -0.375032     3.025204     2.100827
H       -0.325574     5.091536     3.259995
H       -0.087290     5.075863     5.723524
H        0.136773     2.902433     6.925230
H        0.158888     0.774915     5.662770
H        2.533378     1.170055     3.896870
H        4.350581     0.279230     5.303134
H        4.336902    -2.094975     6.007231
H        2.470902    -3.574322     5.331175
H        0.653512    -2.720315     3.943592
H        1.325635    -2.683557    -2.288274
H        1.476386    -4.825121    -3.427795
H        0.398548    -5.085411    -5.645658
H       -0.771092    -3.151023    -6.679177
H       -0.891808    -0.998253    -5.508840
H        0.446179     2.708839    -4.153975
H        2.228076     3.660556    -5.477661
H        4.289954     2.368031    -5.927587
H        4.542161     0.079966    -5.009014
H        2.761129    -0.907106    -3.635439
H       -2.575686    -0.907221    -4.183821
H       -4.457718     0.276946    -5.178776
H       -4.681950     2.727879    -4.919064
H       -2.997217     3.991931    -3.614662
H       -1.064712     2.831779    -2.628534
H       -2.036403    -2.561968    -0.122151
H       -1.698127    -4.926156    -0.360777
H        0.643604    -5.916764    -0.421510
H        2.574737    -4.528715    -0.157631
H        5.677534    -2.166001    -3.144591
H        4.543295    -3.137989    -2.167655
H        6.272033    -3.618948    -2.226408
H        7.891855    -1.390923    -1.800868
105
ex_0298 frame14 As-trans-conf7-2
C        8.265453     1.602535    -1.942134
C        7.077265     0.714705    -1.750698
C        7.173519    -0.482416    -1.024786
C        6.044023    -1.309826    -0.852004
C        6.168530    -2.582609    -0.061245
C        4.811347    -0.935972    -1.421120
N        3.672917    -1.807424    -1.278829
C        2.552445    -1.526832    -0.694083
S        2.346076     0.029974     0.166622
Ru       0.000000     0.000000     0.000000
Cl      -0.096439     2.380539     0.290516
C       -2.020000     0.000000     0.000000
O       -3.126757     0.000000     0.000000
As       0.000000     0.000000     2.650000
C        1.772216    -0.149619     3.563653
C        2.070355    -1.211937     4.439938
C        3.301354    -1.253650     5.104187
C        4.252740    -0.255489     4.887431
C        3.982870     0.778888     3.991255
C        2.753069     0.828760     3.329996
C       -0.744683     1.494936     3.730848
C        0.055534     2.587863     4.108358
C       -0.474577     3.617095     4.890903
C       -1.808169     3.572635     5.297993
C       -2.617784     2.501276     4.914686
C       -2.092664     1.468951     4.129740
C       -1.020120    -1.358715     3.674197
C       -1.807414    -2.283024     2.988095
C       -2.533612    -3.256500     3.676616
C       -2.466376    -3.319510     5.069454
C       -1.686733    -2.395218     5.771972
C       -0.967837    -1.411858     5.080202
As       0.000000     0.000000    -2.650000
C       -1.681834     0.344657    -3.646564
C       -2.632537     1.216569    -3.099943
C       -3.823073     1.485261    -3.784454
C       -4.077478     0.876047    -5.015699
C       -3.138570     0.004223    -5.568170
C       -1.946640    -0.264245    -4.890619
C        0.840024     1.334115    -3.844699
C        1.227799     2.575949    -3.319383
C        1.922113     3.493409    -4.114051
C        2.180426     3.200183    -5.454393
C        1.733906     1.994771    -6.003999
C        1.056295     1.064536    -5.206878
C        0.595485    -1.712958    -3.582828
C        1.939318    -1.919318    -3.972910
C        2.349195    -3.122340    -4.549420
C        1.422557    -4.127073    -4.799445
C        0.080807    -3.930535    -4.464557
C       -0.334562    -2.732696    -3.857725
N        0.117067    -2.033670    -0.317064
C       -1.045564    -2.889780    -0.416406
C       -0.801227    -4.297400    -0.867190
C        0.428535    -4.700137    -1.200569
C        1.584296    -3.772677    -1.125067
C        1.411864    -2.489266    -0.723522
C        4.737788     0.307110    -2.125068
C        3.498725     0.831660    -2.694864
C        5.868842     1.083177    -2.298811
H        7.990554     2.515219    -2.520954
H        8.639669     1.929994    -0.952948
H        9.053043     1.066144    -2.505816
H        8.120461    -0.765896    -0.588561
H        5.243003    -3.195529    -0.069129
H        6.991902    -3.205126    -0.463066
H        6.381168    -2.314158     0.994332
H        1.381890    -2.013571     4.630476
H        3.517174    -2.061273     5.791977
H        5.201534    -0.288029     5.407552
H        4.724752     1.546493     3.812280
H        2.568192     1.637062     2.636482
H        1.082288     2.669039     3.820509
H        0.152702     4.449542     5.184502
H       -2.213136     4.369577     5.908357
H       -3.652511     2.469601     5.229590
H       -2.737917     0.649355     3.846092
H       -1.872468    -2.231991     1.924171
H       -3.147594    -3.960114     3.128674
H       -3.023346    -4.079692     5.602143
H       -1.640165    -2.442765     6.851998
H       -0.374282    -0.700434     5.638744
H       -2.443481     1.702979    -2.153559
H       -4.547969     2.168869    -3.362733
H       -4.997941     1.083972    -5.545975
H       -3.331219    -0.461841    -6.526487
H       -1.247418    -0.928202    -5.366636
H        1.063278     2.799899    -2.275354
H        2.281872     4.419436    -3.683127
H        2.733894     3.903099    -6.064051
H        1.933822     1.771965    -7.043777
H        0.752395     0.129767    -5.648700
H        2.712955    -1.216369    -3.827285
H        3.394525    -3.275219    -4.796503
H        1.750202    -5.057179    -5.248602
H       -0.632874    -4.717461    -4.665577
H       -1.373007    -2.617684    -3.586007
H       -2.031395    -2.537830    -0.150570
H       -1.642774    -4.981201    -0.934778
H        0.575221    -5.716856    -1.547657
H        2.555017    -4.142134    -1.434199
H        3.357102     1.834306    -2.249238
H        3.584370     0.914343    -3.800666
H        2.635274     0.249287    -2.419893
H        5.782806     2.011168    -2.857756
105
ex_0298 frame15 As-trans-conf8-2
C        8.190020     1.618406    -1.973017
C        7.016031     0.713907    -1.785873
C        7.120293    -0.478737    -1.052294
C        5.993606    -1.311163    -0.874442
C        6.120775    -2.576297    -0.072570
C        4.760167    -0.947673    -1.448919
N        3.621403    -1.822292    -1.300536
C        2.516668    -1.529684    -0.689457
S        2.348476     0.035880     0.120356
Ru       0.000000     0.000000     0.000000
Cl      -0.092686     2.396243     0.159772
C       -2.020000     0.000000     0.000000
O       -3.126757     0.000000     0.000000
As      -0.023474    -0.013445     2.651942
C        1.754817    -0.150838     3.560775
C        2.055518    -1.208366     4.445442
C        3.285904    -1.242953     5.112986
C        4.236413    -0.245567     4.890720
C        3.967304     0.780521     3.984942
C        2.737992     0.824042     3.320566
C       -0.757053     1.495330     3.738765
C        0.051133     2.583534     4.110183
C       -0.470675     3.615030     4.895545
C       -1.802646     3.576775     5.308503
C       -2.618647     2.509012     4.928972
C       -2.102035     1.474603     4.141773
C       -1.048490    -1.354723     3.687129
C       -1.871490    -2.252717     3.010696
C       -2.576340    -3.242223     3.693186
C       -2.470451    -3.335189     5.080305
C       -1.676453    -2.420707     5.780882
C       -0.969387    -1.427214     5.090103
As      -0.044332    -0.005002    -2.654288
C       -1.730572     0.347214    -3.663416
C       -2.673205     1.222321    -3.121986
C       -3.854865     1.492413    -3.813897
C       -4.103339     0.878392    -5.044155
C       -3.163733     0.000898    -5.587242
C       -1.978802    -0.268769    -4.900593
C        0.815814     1.330741    -3.843625
C        1.236099     2.564356    -3.313708
C        1.965201     3.464783    -4.100741
C        2.215956     3.174496    -5.441760
C        1.727165     1.990600    -6.001596
C        1.017379     1.073855    -5.212270
C        0.566534    -1.721086    -3.580249
C        1.930927    -1.925492    -3.940860
C        2.360867    -3.128163    -4.510692
C        1.444974    -4.132641    -4.788665
C        0.094781    -3.938513    -4.488810
C       -0.340588    -2.745334    -3.886452
N        0.113268    -2.060214    -0.078293
C       -1.054659    -2.926247    -0.074440
C       -0.823924    -4.287626    -0.674837
C        0.356541    -4.651510    -1.180587
C        1.506192    -3.734549    -1.142323
C        1.371134    -2.489605    -0.651402
C        4.686686     0.287686    -2.163266
C        3.454469     0.806918    -2.735512
C        5.812065     1.063276    -2.346502
H        7.892334     2.540958    -2.525756
H        8.570513     1.930630    -0.981768
H        8.972888     1.105659    -2.563300
H        8.065153    -0.746139    -0.602340
H        5.216396    -3.218297    -0.122233
H        6.983339    -3.176289    -0.422465
H        6.268198    -2.289075     0.989581
H        1.370217    -2.009457     4.642659
H        3.501012    -2.044168     5.808598
H        5.183876    -0.272887     5.414289
H        4.709702     1.547251     3.802764
H        2.553826     1.628256     2.621775
H        1.077097     2.661327     3.818529
H        0.161352     4.444791     5.186965
H       -2.201491     4.375426     5.920701
H       -3.651996     2.481852     5.248602
H       -2.752414     0.658043     3.861418
H       -1.984606    -2.167588     1.959770
H       -3.203489    -3.932550     3.142877
H       -3.012519    -4.107930     5.609125
H       -1.606878    -2.486124     6.858018
H       -0.361068    -0.726617     5.646007
H       -2.484709     1.709942    -2.174200
H       -4.579180     2.180527    -3.399539
H       -5.019237     1.086972    -5.581158
H       -3.350788    -0.468787    -6.544430
H       -1.278159    -0.937513    -5.368627
H        1.088779     2.790889    -2.271275
H        2.361689     4.372236    -3.660773
H        2.799616     3.861379    -6.042570
H        1.922549     1.772196    -7.043124
H        0.687220     0.154112    -5.663961
H        2.710417    -1.243127    -3.785687
H        3.414452    -3.277521    -4.728255
H        1.789618    -5.059658    -5.231820
H       -0.610754    -4.725737    -4.713967
H       -1.386008    -2.632921    -3.641895
H       -2.003509    -2.610703     0.333623
H       -1.653473    -4.984480    -0.712363
H        0.470328    -5.637748    -1.625422
H        2.433689    -4.071120    -1.590859
H        3.336516     1.810042    -2.286919
H        3.532258     0.881573    -3.842774
H        2.583051     0.245424    -2.440559
H        5.718834     1.988343    -2.909632
105
ex_0298 frame16 As-trans-conf4-2
C        8.855227     0.273713     0.131451
C        7.525381    -0.395169     0.074944
C        6.608991    -0.186453     1.095095
C        5.396743    -0.861627     1.097271
C        4.510540    -0.674635     2.255136
C        5.045847    -1.696707     0.014046
N        3.802060    -2.362024    -0.034732
C        2.515008    -1.784171    -0.021203
S        2.350791     0.060364    -0.027294
Ru       0.000000     0.000000     0.000000
Cl       0.004704     2.396234    -0.105131
C       -2.020000     0.000000     0.000000
O       -3.119520     0.000000     0.000000
As      -0.013089     0.067878     2.651469
C       -1.484745    -0.939547     3.556836
C       -2.296354    -0.334312     4.530258
C       -3.290396    -1.070406     5.180262
C       -3.507002    -2.408865     4.850543
C       -2.728717    -3.015560     3.864520
C       -1.723414    -2.285164     3.220802
C       -0.067673     1.758552     3.714277
C       -0.217279     2.994300     3.078183
C       -0.213298     4.185424     3.784833
C       -0.091949     4.159860     5.166865
C        0.030494     2.934677     5.832006
C        0.042655     1.735648     5.111247
C        1.440760    -0.679855     3.807330
C        2.497557     0.147692     4.221810
C        3.529179    -0.359468     5.022550
C        3.521083    -1.699953     5.410762
C        2.470269    -2.530011     5.017462
C        1.432937    -2.027353     4.220752
As       0.014477    -0.048212    -2.651612
C        0.151281    -1.713033    -3.731820
C        0.826062    -2.803073    -3.190909
C        0.930082    -4.012232    -3.867390
C        0.338463    -4.147261    -5.119299
C       -0.318568    -3.055133    -5.698005
C       -0.403617    -1.833521    -5.014642
C        1.440469     0.795564    -3.769675
C        1.302766     2.090951    -4.307865
C        2.330020     2.652715    -5.073715
C        3.494938     1.928798    -5.326683
C        3.639027     0.641216    -4.808505
C        2.621453     0.078874    -4.031352
C       -1.620890     0.864983    -3.379427
C       -2.619856     0.152482    -4.070906
C       -3.713039     0.825735    -4.629637
C       -3.839286     2.207634    -4.481894
C       -2.885240     2.916713    -3.752652
C       -1.786351     2.250182    -3.201805
N        0.110288    -2.053143     0.070978
C       -1.010068    -2.931409    -0.037690
C       -0.827282    -4.249985    -0.202731
C        0.530902    -4.833028    -0.235350
C        1.610813    -4.061582    -0.068180
C        1.431543    -2.590218    -0.005361
C        5.948999    -1.873343    -1.039470
C        5.592327    -2.745307    -2.212130
C        7.194205    -1.232223    -0.999549
H        9.056471     0.801124    -0.820881
H        9.622013    -0.505416     0.317780
H        8.895100     1.011676     0.963226
H        6.862068     0.445705     1.940985
H        5.103795    -0.992585     3.135004
H        4.244947     0.400510     2.336618
H        3.604159    -1.300859     2.241409
H       -2.181230     0.691782     4.813678
H       -3.891883    -0.598395     5.945078
H       -4.277785    -2.973330     5.359575
H       -2.899295    -4.054349     3.607292
H       -1.121783    -2.782761     2.482523
H       -0.326641     3.088834     2.052253
H       -0.305005     5.122943     3.247210
H       -0.095439     5.090628     5.713087
H        0.120238     2.912619     6.905463
H        0.147234     0.797579     5.636499
H        2.543298     1.179255     3.901389
H        4.357607     0.278197     5.305022
H        4.335558    -2.097308     6.004388
H        2.465017    -3.568494     5.325040
H        0.652780    -2.706444     3.939498
H        1.303256    -2.697228    -2.259987
H        1.470543    -4.836481    -3.416748
H        0.407177    -5.090083    -5.644038
H       -0.760265    -3.154879    -6.678402
H       -0.886490    -1.006456    -5.503632
H        0.442126     2.699010    -4.152724
H        2.222414     3.654730    -5.471230
H        4.285894     2.367284    -5.921958
H        4.541940     0.078872    -5.007076
H        2.761187    -0.916121    -3.636376
H       -2.583170    -0.915600    -4.187297
H       -4.463736     0.274657    -5.181636
H       -4.682381     2.726415    -4.920940
H       -2.992702     3.986020    -3.620241
H       -1.067333     2.826252    -2.642128
H       -2.014311    -2.543152    -0.034078
H       -1.682729    -4.904923    -0.341695
H        0.660156    -5.894937    -0.421029
H        2.591337    -4.511125    -0.141396
H        5.686221    -2.163344    -3.151076
H        4.550820    -3.131935    -2.173264
H        6.276937    -3.614997    -2.226803
H        7.902218    -1.390127    -1.800357
105
ex_0298 frame17 As-trans-conf3-2
C        8.844559     0.271091     0.140252
C        7.515653    -0.394805     0.081669
C        6.599962    -0.185054     1.100676
C        5.389330    -0.859077     1.101182
C        4.505122    -0.672654     2.257119
C        5.038616    -1.692401     0.017893
N        3.794852    -2.355929    -0.032535
C        2.489260    -1.823349     0.036754
S        2.351181     0.032314    -0.000943
Ru       0.000000     0.000000     0.000000
Cl      -0.049060     2.389117    -0.222319
C       -2.020000     0.000000     0.000000
O       -3.119520     0.000000     0.000000
As       0.000000     0.000000     2.650000
C       -1.481847    -0.973318     3.558466
C       -2.287843    -0.353310     4.528398
C       -3.286209    -1.078510     5.183043
C       -3.513660    -2.416533     4.857836
C       -2.743363    -3.032428     3.871429
C       -1.733824    -2.313816     3.226547
C       -0.047174     1.724972     3.689958
C       -0.166132     2.961742     3.040648
C       -0.178630     4.160585     3.741072
C       -0.090384     4.143954     5.125679
C        0.018966     2.923014     5.799280
C        0.038530     1.718757     5.087677
C        1.446496    -0.710926     3.808904
C        2.498026     0.129077     4.213950
C        3.535407    -0.368103     5.012282
C        3.532791    -1.706558     5.408516
C        2.480849    -2.541939     5.029047
C        1.440073    -2.048728     4.236066
As       0.000000     0.000000    -2.650000
C        0.144286    -1.687714    -3.719039
C        0.822053    -2.776947    -3.171575
C        0.929584    -3.990871    -3.846191
C        0.337858    -4.133483    -5.097582
C       -0.322421    -3.046038    -5.679408
C       -0.410288    -1.821196    -5.001506
C        1.432595     0.819421    -3.771862
C        1.304828     2.111931    -4.313158
C        2.335765     2.664369    -5.078612
C        3.495738     1.931807    -5.329491
C        3.629969     0.643325    -4.810702
C        2.607357     0.089827    -4.033583
C       -1.631541     0.891167    -3.390907
C       -2.625543     0.167511    -4.078497
C       -3.720564     0.832619    -4.642096
C       -3.852847     2.214959    -4.500565
C       -2.901424     2.932351    -3.776843
C       -1.800344     2.274955    -3.226703
N        0.151181    -2.048222     0.177580
C       -0.990167    -2.929644     0.010007
C       -0.819997    -4.248437    -0.194701
C        0.537751    -4.825902    -0.252893
C        1.612161    -4.047614    -0.103295
C        1.429201    -2.585720     0.041077
C        5.939941    -1.869937    -1.033779
C        5.581773    -2.741692    -2.204965
C        7.184303    -1.230355    -0.993776
H        9.055283     0.781216    -0.818976
H        9.604869    -0.508801     0.348397
H        8.876246     1.022576     0.960136
H        6.852884     0.444633     1.948579
H        5.102254    -0.990480     3.133970
H        4.240930     0.403255     2.337251
H        3.599592    -1.299784     2.246198
H       -2.166718     0.672961     4.807993
H       -3.881613    -0.598813     5.947847
H       -4.286396    -2.973897     5.370145
H       -2.920711    -4.069356     3.614265
H       -1.135494    -2.814987     2.489030
H       -0.236462     3.056648     2.012969
H       -0.256457     5.098521     3.199546
H       -0.105140     5.077464     5.668502
H        0.090728     2.906412     6.873840
H        0.128673     0.785155     5.620609
H        2.541637     1.158130     3.881386
H        4.365851     0.273169     5.281283
H        4.352661    -2.099266     5.996101
H        2.476436    -3.577978     5.340720
H        0.655874    -2.725545     3.958457
H        1.301138    -2.668595    -2.240667
H        1.473178    -4.814845    -3.397350
H        0.409056    -5.078019    -5.620914
H       -0.764092    -3.151159    -6.659583
H       -0.893878    -0.999732    -5.497142
H        0.447329     2.723928    -4.156656
H        2.234140     3.666511    -5.475931
H        4.290420     2.364831    -5.923302
H        4.529456     0.074602    -5.007970
H        2.741639    -0.905853    -3.637723
H       -2.586683    -0.901780    -4.186746
H       -4.468244     0.274946    -5.191255
H       -4.698070     2.728487    -4.939582
H       -3.010233     4.001065    -3.645951
H       -1.083124     2.857124    -2.673093
H       -2.013161    -2.557342     0.043907
H       -1.672927    -4.909935    -0.320373
H        0.669448    -5.890312    -0.418253
H        2.595011    -4.502693    -0.151289
H        5.683943    -2.162853    -3.144696
H        4.537302    -3.121795    -2.170429
H        6.261243    -3.615009    -2.208940
H        7.890873    -1.388669    -1.794729
105
ex_0298 frame18 As-trans-conf8
C        8.059487     1.656638    -2.022384
C        6.918464     0.726332    -1.835970
C        7.040561    -0.452166    -1.078996
C        5.926703    -1.296628    -0.897433
C        6.053545    -2.547779    -0.076983
C        4.703411    -0.959018    -1.484798
N        3.584104    -1.838534    -1.327592
C        2.493740    -1.527921    -0.712203
S        2.349650     0.048807     0.083367
Ru       0.000000     0.000000     0.000000
Cl      -2.400020    -0.039910    -0.003942
C        0.000000     2.020000     0.000000
O        0.000000     3.126757     0.000000
As      -0.042482     0.030637     2.661229
C        1.756000    -0.129345     3.578425
C        2.050941    -1.184365     4.466675
C        3.273816    -1.217961     5.143528
C        4.230494    -0.228054     4.919446
C        3.973332     0.791817     4.002882
C        2.748681     0.835991     3.329015
C       -0.750801     1.502520     3.745772
C        0.059059     2.589403     4.123727
C       -0.460951     3.620634     4.911745
C       -1.792453     3.583390     5.326009
C       -2.609344     2.515268     4.948682
C       -2.093644     1.480476     4.158953
C       -1.053759    -1.341191     3.677847
C       -1.864961    -2.240037     2.996846
C       -2.558171    -3.247163     3.662487
C       -2.450398    -3.355240     5.047270
C       -1.669100    -2.435722     5.757361
C       -0.970600    -1.428188     5.077613
As      -0.051567    -0.009165    -2.652696
C       -1.716401     0.346391    -3.657624
C       -2.664900     1.236275    -3.130667
C       -3.849011     1.498586    -3.830457
C       -4.094248     0.868117    -5.053677
C       -3.152853    -0.013883    -5.583374
C       -1.972043    -0.274136    -4.891924
C        0.826446     1.351931    -3.838532
C        1.288459     2.566623    -3.293584
C        2.068005     3.437834    -4.069118
C        2.300047     3.155464    -5.415107
C        1.740556     2.012263    -5.992084
C        0.992247     1.118123    -5.213475
C        0.617453    -1.730818    -3.579788
C        1.987187    -1.954267    -3.885781
C        2.436966    -3.144924    -4.439709
C        1.532509    -4.133794    -4.774051
C        0.169801    -3.932061    -4.535725
C       -0.289813    -2.742531    -3.936383
N        0.127810    -2.057958    -0.054352
C       -1.020661    -2.972627     0.005526
C       -0.823567    -4.305055    -0.669527
C        0.338390    -4.640668    -1.223031
C        1.475574    -3.715571    -1.182221
C        1.354969    -2.477695    -0.662545
C        4.619753     0.256296    -2.220815
C        3.400246     0.750298    -2.798469
C        5.724838     1.036575    -2.421162
H        7.706588     2.605418    -2.494909
H        8.479308     1.914238    -1.033392
H        8.799689     1.191772    -2.698077
H        7.978176    -0.689770    -0.603813
H        5.205661    -3.251969    -0.222620
H        6.984111    -3.087541    -0.332411
H        6.060217    -2.245605     0.991161
H        1.363376    -1.981568     4.666281
H        3.478006    -2.013893     5.847708
H        5.173433    -0.256851     5.451324
H        4.722253     1.551891     3.821073
H        2.572737     1.637837     2.623703
H        1.083598     2.665536     3.830415
H        0.173616     4.448833     5.202017
H       -2.189707     4.383369     5.936962
H       -3.642493     2.488379     5.270643
H       -2.746092     0.664566     3.881028
H       -1.982401    -2.134676     1.955366
H       -3.175874    -3.938805     3.101358
H       -2.983437    -4.140563     5.566351
H       -1.598743    -2.508579     6.832740
H       -0.369530    -0.725633     5.636415
H       -2.483574     1.739269    -2.190127
H       -4.576645     2.191468    -3.428128
H       -5.008026     1.066416    -5.597393
H       -3.330743    -0.497653    -6.534559
H       -1.269352    -0.942733    -5.350495
H        1.177705     2.779441    -2.243975
H        2.531853     4.307103    -3.615167
H        2.927115     3.812958    -6.006390
H        1.921809     1.798665    -7.036824
H        0.625807     0.218720    -5.674623
H        2.785747    -1.319234    -3.698917
H        3.502126    -3.294871    -4.597711
H        1.901304    -5.052960    -5.210526
H       -0.525337    -4.711464    -4.804874
H       -1.342835    -2.630964    -3.734010
H       -1.950678    -2.686037     0.473858
H       -1.648894    -5.012092    -0.700307
H        0.449220    -5.603944    -1.714670
H        2.396105    -4.037316    -1.654951
H        3.310856     1.747472    -2.343903
H        3.465049     0.800067    -3.909894
H        2.533511     0.214443    -2.464624
H        5.613888     1.947151    -3.006409
105
ex_0298 frame19 As-trans-conf7
C        8.059366     1.659654    -2.025641
C        6.919319     0.730716    -1.835344
C        7.042819    -0.447472    -1.073719
C        5.928719    -1.290252    -0.889414
C        6.051181    -2.542239    -0.071335
C        4.713101    -0.948249    -1.472167
N        3.587107    -1.812555    -1.314329
C        2.507351    -1.514738    -0.681724
S        2.346062     0.028790     0.173021
Ru       0.000000     0.000000     0.000000
Cl      -2.399900    -0.006061     0.035273
C        0.000000     2.020000     0.000000
O        0.000000     3.126757     0.000000
As       0.000000     0.000000     2.650000
C        1.770344    -0.138412     3.578790
C        2.060588    -1.187049     4.473099
C        3.281941    -1.218478     5.152929
C        4.237907    -0.227015     4.929997
C        3.980850     0.792114     4.012914
C        2.756817     0.833719     3.337434
C       -0.738187     1.494132     3.744638
C        0.066664     2.584021     4.121357
C       -0.456161     3.614601     4.907109
C       -1.788008     3.575828     5.319380
C       -2.602449     2.506135     4.941866
C       -2.084619     1.471018     4.154027
C       -1.035038    -1.353652     3.674821
C       -1.851441    -2.247561     2.991581
C       -2.552009    -3.250137     3.657442
C       -2.450786    -3.354960     5.043167
C       -1.668746    -2.436961     5.754090
C       -0.964812    -1.433060     5.074958
As       0.000000     0.000000    -2.650000
C       -1.682288     0.346657    -3.652403
C       -2.632091     1.235178    -3.123838
C       -3.820859     1.495267    -3.821026
C       -4.071706     0.861897    -5.040575
C       -3.132277    -0.021235    -5.571435
C       -1.946672    -0.279065    -4.884546
C        0.852627     1.355812    -3.840622
C        1.307773     2.571191    -3.297777
C        2.080589     3.443811    -4.074461
C        2.307456     3.162195    -5.421492
C        1.748458     2.017881    -5.997509
C        1.008557     1.120901    -5.215784
C        0.649991    -1.730436    -3.578944
C        2.016628    -1.962985    -3.884961
C        2.458285    -3.156317    -4.440436
C        1.547520    -4.139325    -4.777064
C        0.185982    -3.929549    -4.538349
C       -0.265656    -2.737473    -3.936299
N        0.119949    -2.057555    -0.064267
C       -1.009089    -2.968087    -0.021232
C       -0.814020    -4.299824    -0.695306
C        0.351611    -4.643135    -1.230794
C        1.493441    -3.714235    -1.186850
C        1.369881    -2.467972    -0.658246
C        4.626900     0.260760    -2.212365
C        3.404785     0.748274    -2.787881
C        5.726728     1.039238    -2.419406
H        7.702470     2.610387    -2.490697
H        8.483672     1.913071    -1.037363
H        8.793090     1.197043    -2.709876
H        7.979571    -0.685329    -0.600827
H        5.206201    -3.247695    -0.229400
H        6.983615    -3.078834    -0.322460
H        6.044060    -2.243931     0.997234
H        1.373650    -1.985668     4.670637
H        3.485224    -2.014025     5.858186
H        5.179866    -0.254053     5.462603
H        4.727846     1.554091     3.830187
H        2.581407     1.634007     2.631110
H        1.092236     2.662454     3.830137
H        0.175505     4.444632     5.198122
H       -2.187442     4.376155     5.929437
H       -3.635647     2.479447     5.263064
H       -2.735738     0.654029     3.876577
H       -1.961252    -2.145648     1.949781
H       -3.170754    -3.940072     3.095563
H       -2.988291    -4.137473     5.561830
H       -1.603420    -2.507475     6.830052
H       -0.364117    -0.730935     5.635011
H       -2.449117     1.743292    -2.186652
H       -4.548103     2.189280    -3.419245
H       -4.988119     1.058719    -5.581657
H       -3.316417    -0.506603    -6.521331
H       -1.248400    -0.947853    -5.348292
H        1.199169     2.779057    -2.246116
H        2.543108     4.312485    -3.619287
H        2.930355     3.821379    -6.013870
H        1.924435     1.804910    -7.043048
H        0.642913     0.219041    -5.674062
H        2.815908    -1.328650    -3.693524
H        3.522340    -3.312647    -4.597584
H        1.910505    -5.060444    -5.215068
H       -0.513945    -4.704991    -4.809245
H       -1.318513    -2.622815    -3.733681
H       -1.942633    -2.678986     0.438459
H       -1.643561    -5.001893    -0.732433
H        0.465785    -5.606457    -1.721412
H        2.420020    -4.041118    -1.647598
H        3.317391     1.748634    -2.340524
H        3.466873     0.789897    -3.901989
H        2.551057     0.205965    -2.437262
H        5.615975     1.947006    -3.011186
105
ex_0298 frame20 all-cis-conf13-2
C        6.295095    -2.576848    -6.827248
C        5.605831    -2.081731    -5.586152
C        5.134851    -2.987294    -4.630837
C        4.537773    -2.535287    -3.444991
C        4.079756    -3.556366    -2.435278
C        4.381165    -1.137999    -3.221806
N        3.759962    -0.659017    -2.026761
C        2.572084    -0.220755    -1.699346
S        2.335717     0.278359     0.008390
Ru       0.000000     0.000000     0.000000
Cl      -0.367359     2.366750     0.054484
C       -2.020000     0.000000     0.000000
O       -3.157851     0.000000     0.000000
As       0.000000    -2.650000     0.000000
C        1.541046    -3.554862     0.834752
C        2.475249    -2.800223     1.554565
C        3.558128    -3.410758     2.183814
C        3.726824    -4.790630     2.086696
C        2.812759    -5.555365     1.352302
C        1.720538    -4.940960     0.721889
C        0.068756    -3.612453    -1.765890
C        0.950406    -3.172369    -2.740381
C        0.984706    -3.737200    -4.014820
C        0.151312    -4.808604    -4.316001
C       -0.703654    -5.314906    -3.333804
C       -0.749115    -4.727007    -2.059339
C       -1.550077    -3.701892     0.675127
C       -1.424530    -4.622110     1.731317
C       -2.545511    -5.311841     2.203837
C       -3.791719    -5.120846     1.603996
C       -3.920018    -4.236526     0.530736
C       -2.808158    -3.518909     0.077611
As       0.000000     0.000000     2.650000
C       -1.823440     0.063524     3.464961
C       -2.297572    -0.971089     4.299473
C       -3.588949    -0.923452     4.827303
C       -4.414439     0.166092     4.559209
C       -3.950123     1.209413     3.754181
C       -2.660883     1.159464     3.207378
C        0.907837     1.564181     3.458069
C        0.223552     2.462614     4.293561
C        0.902397     3.549983     4.857363
C        2.260539     3.747996     4.592840
C        2.944064     2.861813     3.759912
C        2.269479     1.781165     3.189577
C        0.861453    -1.382414     3.806488
C        0.396525    -2.684734     3.734832
C        0.979888    -3.715692     4.471454
C        2.049457    -3.434501     5.318341
C        2.517197    -2.122008     5.431666
C        1.920760    -1.089890     4.691186
N        0.117648     0.118997    -2.054928
C       -1.093359     0.216080    -2.866616
C       -0.929137     0.001000    -4.331746
C        0.282305    -0.192139    -4.849619
C        1.488671    -0.203095    -3.995864
C        1.394444    -0.105778    -2.646735
C        4.850654    -0.225520    -4.201068
C        4.735703     1.260939    -3.996387
C        5.433227    -0.708939    -5.383046
H        6.377690    -3.685209    -6.838920
H        5.744618    -2.254433    -7.734861
H        7.324252    -2.158492    -6.859889
H        5.271886    -4.051968    -4.785886
H        4.960533    -4.136978    -2.094506
H        3.378091    -4.276128    -2.904837
H        3.596989    -3.110106    -1.544044
H        2.354583    -1.740725     1.659777
H        4.256272    -2.811599     2.756014
H        4.563932    -5.263463     2.583643
H        2.949780    -6.625349     1.279723
H        1.017489    -5.544264     0.165829
H        1.608312    -2.387432    -2.510391
H        1.661946    -3.341678    -4.762642
H        0.177764    -5.249039    -5.304550
H       -1.337595    -6.160067    -3.565740
H       -1.427406    -5.159480    -1.348026
H       -0.478728    -4.813342     2.205928
H       -2.447074    -5.997134     3.036243
H       -4.655618    -5.663270     1.966814
H       -4.881868    -4.106082     0.051853
H       -2.918252    -2.837689    -0.755850
H       -1.723867    -1.835018     4.548387
H       -3.949397    -1.738111     5.444457
H       -5.413615     0.197566     4.974807
H       -4.593871     2.054386     3.551256
H       -2.318732     1.969507     2.578475
H       -0.816474     2.336421     4.532975
H        0.376628     4.237841     5.506362
H        2.785028     4.584239     5.036708
H        3.998506     3.006268     3.560953
H        2.818449     1.095321     2.564189
H       -0.417309    -2.861042     3.075614
H        0.610585    -4.728509     4.376944
H        2.514589    -4.232718     5.882078
H        3.349418    -1.907248     6.088919
H        2.326100    -0.105752     4.814743
H       -2.095333     0.336048    -2.420345
H       -1.808441    -0.009827    -4.968254
H        0.377910    -0.362005    -5.916720
H        2.397443    -0.377748    -4.522155
H        5.739192     1.712495    -4.146004
H        4.407208     1.527983    -2.972789
H        4.026925     1.702908    -4.726246
H        5.809774    -0.010664    -6.121393
105
ex_0298 frame21 all-cis-conf13
C        6.323396    -2.587513    -6.850522
C        5.617010    -2.094142    -5.618302
C        5.136531    -3.001076    -4.668770
C        4.525408    -2.549160    -3.489734
C        4.056074    -3.571831    -2.486436
C        4.367094    -1.150979    -3.268852
N        3.733310    -0.669317    -2.086789
C        2.546986    -0.242195    -1.746206
S        2.338793     0.245610    -0.037822
Ru       0.000000     0.000000     0.000000
Cl      -2.372699    -0.052001     0.162192
C        0.000000     2.020000     0.000000
O        0.000000     3.157851     0.000000
As       0.000000    -2.650000     0.000000
C        1.540883    -3.550085     0.839411
C        2.465429    -2.793276     1.569559
C        3.542664    -3.402095     2.210582
C        3.719124    -4.780791     2.109648
C        2.818894    -5.546291     1.358972
C        1.729893    -4.934465     0.719883
C        0.070241    -3.613058    -1.768622
C        0.943084    -3.163322    -2.743586
C        0.975027    -3.714457    -4.022842
C        0.150034    -4.789917    -4.328127
C       -0.692583    -5.313401    -3.343559
C       -0.736454    -4.735586    -2.063174
C       -1.551810    -3.710729     0.675010
C       -1.431405    -4.607399     1.751769
C       -2.554287    -5.286265     2.236331
C       -3.795818    -5.118477     1.620781
C       -3.916942    -4.269986     0.518328
C       -2.804523    -3.557968     0.056100
As       0.000000     0.000000     2.650000
C       -1.822996     0.059262     3.473756
C       -2.299393    -0.985677     4.294859
C       -3.590054    -0.942854     4.824190
C       -4.412733     0.152559     4.573599
C       -3.946099     1.207095     3.784695
C       -2.657287     1.162398     3.236007
C        0.911374     1.560498     3.455516
C        0.230736     2.460845     4.292093
C        0.912526     3.546697     4.853930
C        2.270812     3.740308     4.587953
C        2.950979     2.851695     3.754201
C        2.272548     1.773023     3.183968
C        0.863521    -1.383330     3.803588
C        0.396046    -2.681730     3.727581
C        0.979481    -3.720569     4.452316
C        2.052951    -3.448387     5.296150
C        2.522409    -2.136786     5.418891
C        1.924327    -1.096739     4.688662
N        0.074992     0.064690    -2.059533
C       -1.146537     0.082701    -2.846978
C       -0.990991    -0.089116    -4.320060
C        0.219902    -0.228026    -4.859559
C        1.439538    -0.209479    -4.023267
C        1.356118    -0.132536    -2.675842
C        4.848611    -0.240001    -4.238957
C        4.738168     1.245030    -4.025488
C        5.438012    -0.721557    -5.417897
H        6.426825    -3.694344    -6.851102
H        5.771479    -2.283535    -7.763555
H        7.345315    -2.150849    -6.882094
H        5.278998    -4.065554    -4.822156
H        4.934975    -4.145018    -2.128820
H        3.367103    -4.298474    -2.965621
H        3.557784    -3.127089    -1.603479
H        2.338424    -1.733428     1.676337
H        4.229513    -2.802801     2.796136
H        4.551705    -5.251882     2.616110
H        2.963498    -6.615077     1.281684
H        1.036712    -5.538659     0.152535
H        1.594803    -2.379392    -2.508599
H        1.644365    -3.304167    -4.770038
H        0.175115    -5.219796    -5.321288
H       -1.318539    -6.163126    -3.579226
H       -1.405633    -5.179957    -1.350752
H       -0.489258    -4.783945     2.237173
H       -2.461374    -5.944030     3.091468
H       -4.661286    -5.651881     1.993751
H       -4.874674    -4.160860     0.025900
H       -2.911586    -2.902277    -0.797758
H       -1.731340    -1.856086     4.530844
H       -3.952299    -1.766605     5.428241
H       -5.411749     0.179393     4.989871
H       -4.588347     2.056141     3.594813
H       -2.313878     1.980188     2.617221
H       -0.808901     2.338602     4.533715
H        0.388569     4.236465     5.502521
H        2.797527     4.575412     5.031156
H        4.005458     2.993289     3.554316
H        2.815943     1.084623     2.554712
H       -0.418158    -2.843131     3.067143
H        0.609518    -4.732298     4.349265
H        2.519867    -4.253526     5.848539
H        3.358277    -1.930303     6.073898
H        2.331577    -0.113690     4.816637
H       -2.133554     0.228678    -2.381874
H       -1.878063    -0.109878    -4.945794
H        0.307430    -0.372284    -5.931209
H        2.353273    -0.357121    -4.555352
H        5.731044     1.700329    -4.226480
H        4.480154     1.499450    -2.977776
H        3.985827     1.692589    -4.705053
H        5.827838    -0.022327    -6.148525
105
ex_0298 frame22 all-cis-conf4
C        8.868714     0.305388     0.158231
C        7.523444    -0.356011     0.136654
C        6.615392    -0.148200     1.182281
C        5.375914    -0.800201     1.192183
C        4.459289    -0.595080     2.375367
C        5.016570    -1.633096     0.096308
N        3.759484    -2.282944     0.044970
C        2.580760    -1.754914     0.013077
S        2.352089     0.033668    -0.023073
Ru       0.000000     0.000000     0.000000
Cl       0.124981     2.396458    -0.118575
C        0.000000     0.000000     2.020000
O        0.000000     0.000000     3.119520
As      -2.652111     0.021617    -0.083323
C       -3.679716    -0.989871    -1.527618
C       -4.759924    -0.404735    -2.221906
C       -5.454926    -1.133247    -3.199244
C       -5.090431    -2.444923    -3.499448
C       -4.023848    -3.030513    -2.831620
C       -3.326353    -2.310555    -1.864956
C       -3.758848     1.717073    -0.117410
C       -3.150715     2.958510    -0.339241
C       -3.880646     4.143219    -0.358396
C       -5.256946     4.108115    -0.173501
C       -5.896768     2.883862     0.041772
C       -5.155400     1.691403     0.079256
C       -3.734948    -0.656979     1.457867
C       -3.955964     0.166661     2.577059
C       -4.733111    -0.292292     3.649261
C       -5.270570    -1.582054     3.627101
C       -5.042823    -2.411803     2.529374
C       -4.286532    -1.953765     1.447534
As       0.016396    -0.044241    -2.652135
C        0.158191    -1.698884    -3.782432
C        0.793121    -2.814558    -3.248219
C        0.897836    -4.012184    -3.945897
C        0.344517    -4.113937    -5.217327
C       -0.271750    -2.998689    -5.795340
C       -0.354311    -1.785365    -5.091193
C        1.454835     0.793369    -3.753398
C        1.313490     2.077577    -4.315842
C        2.339832     2.630537    -5.086773
C        3.512580     1.911594    -5.314314
C        3.666436     0.639028    -4.761532
C        2.648111     0.085168    -3.978376
C       -1.580130     0.901947    -3.424213
C       -2.545151     0.221887    -4.188187
C       -3.626414     0.911880    -4.748151
C       -3.774802     2.279977    -4.532817
C       -2.842668     2.961950    -3.752189
C       -1.751477     2.278467    -3.204327
N        0.066834    -2.070600     0.171907
C       -1.034885    -2.909598     0.240659
C       -0.821237    -4.389775     0.105255
C        0.405015    -4.875763    -0.076767
C        1.552976    -3.970918    -0.146129
C        1.398075    -2.631625     0.009589
C        5.927549    -1.820798    -0.965956
C        5.579747    -2.699973    -2.142760
C        7.173340    -1.185009    -0.933394
H        9.001618     0.920495    -0.755939
H        9.657270    -0.476086     0.191063
H        8.987377     0.961800     1.046354
H        6.890953     0.482457     2.019529
H        4.998509    -0.919558     3.289673
H        4.190691     0.476835     2.480747
H        3.529832    -1.190575     2.336134
H       -5.074588     0.605490    -2.075026
H       -6.270941    -0.673271    -3.739887
H       -5.622992    -3.004346    -4.258447
H       -3.729358    -4.047215    -3.064765
H       -2.522121    -2.822061    -1.423958
H       -2.126065     3.049001    -0.504518
H       -3.369000     5.085086    -0.523335
H       -5.820553     5.030140    -0.199143
H       -6.968416     2.860591     0.177605
H       -5.672756     0.759087     0.245723
H       -3.551689     1.169133     2.611391
H       -4.922608     0.351178     4.498597
H       -5.867235    -1.938025     4.458388
H       -5.458042    -3.412110     2.514657
H       -4.148257    -2.624444     0.616022
H        1.239813    -2.738580    -2.304711
H        1.409082    -4.854673    -3.495093
H        0.412587    -5.049570    -5.756600
H       -0.682706    -3.077519    -6.792007
H       -0.803978    -0.944938    -5.589254
H        0.444906     2.680118    -4.185070
H        2.222566     3.620308    -5.510953
H        4.300765     2.342270    -5.918436
H        4.575436     0.080695    -4.941770
H        2.789880    -0.900513    -3.559588
H       -2.511576    -0.840499    -4.337696
H       -4.362808     0.377126    -5.334500
H       -4.620081     2.805650    -4.958254
H       -2.965294     4.022019    -3.572404
H       -1.046082     2.830417    -2.603910
H       -2.015588    -2.482297     0.389103
H       -1.644834    -5.086879     0.151457
H        0.515268    -5.946118    -0.169418
H        2.551616    -4.354852    -0.293485
H        5.643016    -2.112866    -3.083010
H        4.558999    -3.130864    -2.086420
H        6.301027    -3.542363    -2.194669
H        7.879130    -1.347963    -1.740378
105
ex_0298 frame23 all-cis-conf3
C        8.873480     0.305844     0.157361
C        7.529538    -0.352016     0.134804
C        6.620741    -0.137286     1.178677
C        5.385420    -0.791034     1.190935
C        4.464599    -0.588021     2.372568
C        5.028537    -1.625505     0.101129
N        3.775929    -2.271665     0.061208
C        2.599170    -1.750650     0.012139
S        2.350251     0.034480    -0.094541
Ru       0.000000     0.000000     0.000000
Cl       0.348834     2.361874    -0.272306
C        0.000000     0.000000     2.020000
O        0.000000     0.000000     3.119520
As      -2.650000     0.000000     0.000000
C       -3.661841    -1.004094    -1.474121
C       -4.721597    -0.410023    -2.193150
C       -5.405951    -1.131794    -3.184384
C       -5.049055    -2.445887    -3.479946
C       -4.001609    -3.043229    -2.791834
C       -3.315421    -2.331574    -1.807128
C       -3.697992     1.707796    -0.065050
C       -3.039954     2.926003    -0.251417
C       -3.740700     4.128593    -0.307921
C       -5.127610     4.127719    -0.187547
C       -5.807689     2.921411     0.003300
C       -5.099101     1.714573     0.073796
C       -3.747687    -0.675414     1.513924
C       -3.998502     0.152986     2.619612
C       -4.785062    -0.307195     3.681612
C       -5.306527    -1.603399     3.659092
C       -5.051485    -2.438406     2.570542
C       -4.282740    -1.978177     1.499203
As       0.000000     0.000000    -2.650000
C        0.145346    -1.672103    -3.761124
C        0.785903    -2.778853    -3.214186
C        0.896857    -3.984808    -3.898987
C        0.341090    -4.105152    -5.167976
C       -0.283019    -3.000602    -5.757335
C       -0.369959    -1.778885    -5.067894
C        1.440745     0.821558    -3.756357
C        1.308981     2.107067    -4.314908
C        2.338464     2.651606    -5.088083
C        3.503738     1.921528    -5.321782
C        3.646816     0.645842    -4.773836
C        2.625686     0.100644    -3.989113
C       -1.598048     0.928654    -3.423991
C       -2.558506     0.238056    -4.183486
C       -3.642655     0.918163    -4.748196
C       -3.798475     2.286360    -4.540295
C       -2.870973     2.977967    -3.761962
C       -1.776290     2.304376    -3.210493
N        0.166640    -2.065386     0.278769
C       -0.980464    -2.908368     0.329152
C       -0.780765    -4.379927     0.119918
C        0.438564    -4.863352    -0.104516
C        1.586580    -3.959625    -0.147497
C        1.445282    -2.624318     0.044277
C        5.934452    -1.818200    -0.963359
C        5.579755    -2.700224    -2.138266
C        7.180264    -1.184922    -0.933958
H        9.018271     0.900443    -0.768187
H        9.656343    -0.479169     0.217615
H        8.981302     0.979960     1.033332
H        6.893236     0.494639     2.015084
H        5.002677    -0.912669     3.287620
H        4.187870     0.481089     2.477911
H        3.536191    -1.187820     2.334999
H       -5.028550     0.602264    -2.054641
H       -6.206739    -0.663035    -3.740526
H       -5.573002    -2.998274    -4.249964
H       -3.714088    -4.062703    -3.022369
H       -2.526182    -2.854761    -1.348162
H       -1.993198     2.966313    -0.353261
H       -3.203357     5.058872    -0.449466
H       -5.670752     5.061885    -0.240963
H       -6.884778     2.922841     0.093249
H       -5.644793     0.792758     0.218897
H       -3.603400     1.159478     2.651063
H       -4.992487     0.341113     4.522649
H       -5.910270    -1.961390     4.483020
H       -5.452532    -3.444076     2.553576
H       -4.119320    -2.651166     0.674638
H        1.233346    -2.686659    -2.271998
H        1.414854    -4.819833    -3.441608
H        0.413199    -5.046546    -5.697376
H       -0.696128    -3.093997    -6.752097
H       -0.824023    -0.948024    -5.577138
H        0.444232     2.714900    -4.175028
H        2.230223     3.643776    -5.508346
H        4.294995     2.346018    -5.926272
H        4.549975     0.078791    -4.957999
H        2.761246    -0.887337    -3.573640
H       -2.520760    -0.825342    -4.324881
H       -4.375397     0.375243    -5.331736
H       -4.646459     2.804186    -4.969086
H       -2.999425     4.037677    -3.586940
H       -1.074503     2.861504    -2.610538
H       -1.957462    -2.486492     0.513258
H       -1.609379    -5.072110     0.145999
H        0.534779    -5.929238    -0.249533
H        2.579481    -4.343780    -0.329077
H        5.647071    -2.118681    -3.081775
H        4.554380    -3.121551    -2.082177
H        6.292286    -3.550145    -2.186582
H        7.884377    -1.352116    -1.740691
