43
ex_0164 frame0 Isomer 1
C       -2.878090    -0.625980    -0.662218
N       -1.504150    -1.013957    -0.873015
C       -1.007804    -2.323583    -0.992479
C       -1.701146    -3.383825    -0.383485
C       -1.177821    -4.669205    -0.401966
C        0.036769    -4.914307    -1.036339
C        0.719744    -3.877699    -1.690678
C        0.190571    -2.569191    -1.732303
C        0.933235    -1.485516    -2.570099
N        1.498926    -0.344658    -1.842103
C        1.615271     0.920018    -2.610278
C        0.260604     1.714553    -2.837380
N       -0.535579     1.995431    -1.615818
C       -0.002207     3.047947    -0.744220
C       -0.328436     2.956092     0.776366
C       -1.107767     3.975559     1.364798
C       -1.345891     3.998730     2.747333
C       -0.824509     3.004333     3.570029
C       -0.095387     1.961286     3.016741
C        0.113304     1.895207     1.628342
N        0.761911     0.774073     1.082433
C        1.714146    -0.083305     1.746636
Cu      -0.007469     0.300772    -0.701653
H       -3.294452    -1.082217     0.255500
H       -2.928710     0.478546    -0.564852
H       -3.480834    -0.923775    -1.547856
H       -2.633318    -3.218047     0.139270
H       -1.714828    -5.471813     0.090074
H        0.437910    -5.919391    -1.034870
H        1.641818    -4.116958    -2.202067
H        1.759161    -1.953922    -3.148433
H        2.116735     0.727490    -3.583084
H        2.278803     1.592439    -2.027286
H       -0.368694     1.079924    -3.495784
H        0.458909     2.660895    -3.385239
H       -0.349489     4.023446    -1.148946
H       -1.499642     4.785954     0.765847
H       -1.921157     4.800856     3.190647
H       -0.993687     3.029187     4.640212
H        0.274495     1.188452     3.676950
H        2.624364     0.506234     1.993056
H        1.289277    -0.532588     2.663673
H        2.008871    -0.898703     1.053484
43
ex_0164 frame1 square-planar cis-conf2
C        0.350298     1.906303    -2.366416
N       -0.040145     1.735990    -0.987418
C       -0.601008     2.746332    -0.142563
C       -0.457617     4.101144    -0.498107
C       -0.980233     5.111556     0.303876
C       -1.662857     4.795203     1.473368
C       -1.831728     3.463158     1.855111
C       -1.319125     2.405650     1.077817
C       -1.580078     0.971354     1.615824
N       -1.927283     0.095703     0.514459
C       -2.038417    -1.364845     0.631968
C       -1.357901    -2.042359    -0.635140
N        0.102760    -1.925727    -0.518707
C        0.974538    -1.568514    -1.620149
C        2.408156    -1.295728    -1.085700
C        3.467755    -1.794510    -1.869290
C        4.799533    -1.614155    -1.492195
C        5.114204    -0.934133    -0.320731
C        4.102072    -0.425663     0.488242
C        2.747591    -0.580929     0.137327
N        1.735222    -0.034072     0.988331
C        1.903864     0.345433     2.370684
Cu       0.000000     0.000000     0.000000
H        0.682598     0.933644    -2.778957
H       -0.520122     2.263622    -2.957059
H        1.185275     2.631368    -2.445626
H        0.065934     4.387616    -1.399940
H       -0.854801     6.147472     0.014331
H       -2.067175     5.589570     2.087829
H       -2.374817     3.259353     2.769508
H       -2.353421     0.944014     2.413796
H       -1.555281    -1.737049     1.562005
H       -3.117281    -1.622692     0.659332
H       -1.732591    -1.560579    -1.564915
H       -1.611963    -3.122082    -0.662463
H        0.950919    -2.338317    -2.421564
H        3.265311    -2.334949    -2.785528
H        5.595221    -2.007426    -2.112111
H        6.149995    -0.799477    -0.035060
H        4.386781     0.096619     1.391347
H        2.622624     1.185110     2.457084
H        2.268308    -0.527475     2.953257
H        0.928673     0.666350     2.786694
43
ex_0164 frame2 conf2
C        1.575122    -1.803078     1.903073
N        1.192772    -1.507789     0.543239
C        1.519379    -2.291051    -0.609518
C        2.578920    -3.215610    -0.537657
C        2.932626    -3.987464    -1.640470
C        2.234792    -3.861188    -2.836625
C        1.173675    -2.960502    -2.944354
C        0.779827    -2.155423    -1.856899
C       -0.417416    -1.197706    -2.111830
N       -1.289086    -1.190164    -0.953850
C       -2.399516    -0.245738    -0.768475
C       -2.407507     0.257425     0.739874
N       -1.293639     1.195341     0.941149
C       -0.433328     1.190058     2.107727
C        0.777836     2.135882     1.870763
C        1.168766     2.929644     2.967201
C        2.241503     3.818569     2.876695
C        2.953643     3.944367     1.688929
C        2.602744     3.184219     0.577288
C        1.531896     2.271935     0.631964
N        1.208903     1.500166    -0.528730
C        1.602121     1.801605    -1.883937
Cu       0.000000     0.000000     0.000000
H        1.116924    -1.060214     2.584856
H        1.207087    -2.813933     2.180514
H        2.677247    -1.757272     2.014041
H        3.145276    -3.343443     0.374685
H        3.753958    -4.689252    -1.565002
H        2.517337    -4.468982    -3.686845
H        0.652566    -2.897300    -3.891513
H       -0.978525    -1.447294    -3.038438
H       -2.312718     0.625599    -1.454282
H       -3.344339    -0.784073    -0.988732
H       -2.335384    -0.614782     1.426320
H       -3.352039     0.801131     0.947632
H       -1.001022     1.438596     3.030484
H        0.636943     2.866245     3.908323
H        2.521981     4.417277     3.733914
H        3.784170     4.636585     1.626963
H        3.180252     3.310677    -0.328214
H        2.704501     1.747640    -1.988727
H        1.244221     2.817505    -2.156232
H        1.141470     1.067428    -2.573715
43
ex_0164 frame3 Δ-conf2
C       -2.399854    -1.029490     1.591972
N       -1.025382    -1.225957     1.199344
C       -0.215067    -2.361964     1.518049
C       -0.596205    -3.204510     2.579860
C        0.171203    -4.312759     2.926395
C        1.330677    -4.610666     2.218910
C        1.737167    -3.803007     1.155363
C        0.995380    -2.668960     0.768726
C        1.558801    -1.858735    -0.432341
N        0.469177    -1.446300    -1.294624
C        0.615646    -0.494793    -2.404817
C       -0.623162     0.502165    -2.401585
N       -0.476119     1.450223    -1.287786
C       -1.564372     1.851233    -0.418236
C       -1.002873     2.653185     0.789876
C       -1.750718     3.778645     1.188725
C       -1.347569     4.578471     2.259643
C       -0.184755     4.281167     2.962130
C        0.589397     3.181903     2.603188
C        0.211760     2.347692     1.533770
N        1.028242     1.220613     1.202416
C        2.406745     1.030484     1.583760
Cu       0.000000     0.000000     0.000000
H       -2.783559    -0.095135     1.137724
H       -3.014597    -1.880019     1.227339
H       -2.479776    -0.949233     2.694828
H       -1.491223    -3.006856     3.153664
H       -0.137593    -4.944975     3.749626
H        1.917894    -5.477079     2.495925
H        2.642712    -4.073422     0.626702
H        2.335227    -2.415519    -1.000584
H        1.562572     0.083134    -2.324465
H        0.627414    -1.074731    -3.350604
H       -1.569712    -0.076577    -2.322391
H       -0.636322     1.085274    -3.345361
H       -2.346794     2.407037    -0.979055
H       -2.659145     4.048131     0.664515
H       -1.940069     5.437923     2.546275
H        0.121175     4.907031     3.791280
H        1.486811     2.983814     3.173283
H        2.495310     0.941701     2.685304
H        3.012900     1.888359     1.221920
H        2.793498     0.102588     1.118556
43
ex_0164 frame4 Λ-conf2
C       -1.796246     1.902636     1.585296
N       -1.505518     0.543849     1.194577
C       -2.290677    -0.608848     1.517348
C       -3.219688    -0.538487     2.573019
C       -3.992276    -1.642194     2.922558
C       -3.861885    -2.838044     2.224673
C       -2.957186    -2.944113     1.167073
C       -2.152165    -1.855498     0.777039
C       -1.191133    -2.107794    -0.417147
N       -1.190120    -0.951630    -1.290731
C       -0.248125    -0.767052    -2.403332
C        0.260160     0.738999    -2.411265
N        1.195272     0.939404    -1.294911
C        1.184007     2.104444    -0.433074
C        2.133328     1.870015     0.775083
C        2.926646     2.967708     1.162285
C        3.819684     2.878703     2.231523
C        3.950213     1.691158     2.943290
C        3.189564     0.578399     2.596407
C        2.272617     0.632109     1.529502
N        1.499214    -0.528775     1.210617
C        1.795237    -1.882824     1.612003
Cu       0.000000     0.000000     0.000000
H       -1.051923     2.584959     1.130277
H       -2.806836     2.185595     1.220691
H       -1.748410     2.006681     2.688042
H       -3.350703     0.373497     3.139315
H       -4.697761    -1.567997     3.740777
H       -4.469777    -3.689210     2.504172
H       -2.890699    -3.890834     0.645402
H       -1.431392    -3.038020    -0.976169
H        0.620309    -1.456893    -2.320878
H       -0.790187    -0.982877    -3.347192
H       -0.609087     1.429480    -2.343906
H        0.807988     0.942155    -3.354568
H        1.423611     3.030474    -0.999120
H        2.859446     3.908371     0.630210
H        4.418031     3.737010     2.509108
H        4.646329     1.630333     3.770548
H        3.319627    -0.326946     3.173452
H        1.739212    -1.980406     2.714918
H        2.810531    -2.161626     1.257341
H        1.058969    -2.572925     1.155059
43
ex_0164 frame5 Λ-conf3
C       -1.041860    -2.420119     1.506277
N       -1.232598    -1.021279     1.195159
C       -2.365482    -0.206311     1.526011
C       -3.195367    -0.570076     2.606269
C       -4.303244     0.197187     2.951788
C       -4.618400     1.339093     2.225440
C       -3.821362     1.734336     1.149745
C       -2.682518     0.996435     0.767167
C       -1.879121     1.556375    -0.440231
N       -1.448225     0.467363    -1.293116
C       -0.490765     0.614128    -2.397042
C        0.493549    -0.635235    -2.391930
N        1.449287    -0.488777    -1.283949
C        1.848042    -1.571611    -0.405412
C        2.650780    -1.002197     0.799918
C        3.779256    -1.745429     1.201433
C        4.577100    -1.337370     2.272280
C        4.276112    -0.173837     2.971604
C        3.176322     0.597462     2.608451
C        2.343920     0.215297     1.539400
N        1.216592     1.030365     1.203677
C        1.022470     2.409003     1.582947
Cu       0.000000     0.000000     0.000000
H       -0.889276    -2.974088     0.557280
H       -0.144820    -2.541419     2.145753
H       -1.922248    -2.866933     2.005621
H       -2.987856    -1.441837     3.208821
H       -4.921210    -0.098381     3.790895
H       -5.486204     1.924549     2.501864
H       -4.101168     2.631783     0.612341
H       -2.440735     2.325156    -1.014126
H        0.098042     1.553736    -2.304908
H       -1.065667     0.640470    -3.345160
H       -0.096640    -1.574054    -2.301296
H        1.070861    -0.662892    -3.338471
H        2.409621    -2.353336    -0.962090
H        4.052035    -2.654917     0.680776
H        5.437625    -1.927018     2.562168
H        4.899435     0.135282     3.801562
H        2.975863     1.495904     3.175900
H        0.934388     2.498810     2.684339
H        1.877395     3.017964     1.218861
H        0.092156     2.790572     1.118100
43
ex_0164 frame6 conf3
C        1.507175    -1.039904    -2.420106
N        1.194483    -1.232751    -1.021906
C        1.525101    -2.365836    -0.206985
C        2.604777    -3.196590    -0.570676
C        2.949785    -4.304393     0.197037
C        2.223675    -4.618546     1.339370
C        1.148516    -3.820806     1.734449
C        0.766305    -2.682237     0.996015
C       -0.440775    -1.878359     1.555740
N       -1.293648    -1.448017     0.466549
C       -2.398168    -0.491289     0.613557
C       -2.393055     0.494602    -0.634488
N       -1.284192     1.449322    -0.488055
C       -0.405758     1.847164    -1.571270
C        0.799298     2.650447    -1.002357
C        1.200307     3.778764    -1.745993
C        2.270678     4.577289    -1.338113
C        2.969992     4.277107    -0.174345
C        2.607470     3.177252     0.597210
C        1.538931     2.344132     0.215106
N        1.203821     1.216591     1.030188
C        1.583776     1.022393     2.408642
Cu       0.000000     0.000000     0.000000
H        0.558498    -0.890935    -2.975653
H        2.142795    -0.139875    -2.539565
H        2.011489    -1.917375    -2.866849
H        3.207251    -2.990178    -1.442683
H        3.788353    -4.923116    -0.098466
H        2.499761    -5.486179     1.925246
H        0.611137    -4.099879     2.632150
H       -1.014663    -2.439189     2.325080
H       -2.307224     0.096107     1.554112
H       -3.346041    -1.066754     0.638222
H       -2.303981    -0.094200    -1.574270
H       -3.339198     1.072737    -0.660248
H       -0.962421     2.407780    -2.353658
H        0.679519     4.050910    -2.655592
H        2.560107     5.437758    -1.928050
H        3.799464     4.901103     0.134705
H        3.174900     2.977400     1.495816
H        2.685226     0.934283     2.497855
H        1.220084     1.877318     3.017839
H        1.119084     0.092083     2.790444
43
ex_0164 frame7 square-planar cis-conf3
C        0.276373     1.835024     2.400761
N       -0.058720     1.729399     0.998238
C       -0.605687     2.750368     0.151493
C       -0.445435     4.108130     0.496777
C       -0.964896     5.119786    -0.305248
C       -1.663731     4.806115    -1.464640
C       -1.844563     3.474752    -1.841524
C       -1.330406     2.414847    -1.067689
C       -1.598086     0.983228    -1.609805
N       -1.927609     0.096860    -0.512805
C       -2.033172    -1.362431    -0.638788
C       -1.358037    -2.039690     0.631448
N        0.103878    -1.925186     0.520445
C        0.973394    -1.557322     1.620977
C        2.408391    -1.288936     1.085174
C        3.467330    -1.794342     1.865474
C        4.799476    -1.616356     1.487574
C        5.114675    -0.932666     0.318366
C        4.103223    -0.418981    -0.487804
C        2.748607    -0.571769    -0.136425
N        1.737493    -0.020110    -0.985642
C        1.906211     0.371269    -2.364294
Cu       0.000000     0.000000     0.000000
H       -0.316621     1.084060     2.962533
H        1.355061     1.623060     2.541994
H        0.032641     2.827033     2.824160
H        0.097729     4.406785     1.380567
H       -0.822468     6.155891    -0.023516
H       -2.065992     5.602615    -2.077822
H       -2.393908     3.273941    -2.752869
H       -2.377205     0.957829    -2.402250
H       -1.539795    -1.728686    -1.566072
H       -3.110734    -1.623602    -0.676993
H       -1.736175    -1.555911     1.558931
H       -1.613738    -3.118817     0.658941
H        0.951188    -2.324692     2.425048
H        3.265009    -2.337545     2.780153
H        5.594915    -2.013853     2.105071
H        6.150592    -0.799449     0.032238
H        4.388323     0.105522    -1.389541
H        2.624533     1.212114    -2.442502
H        2.270969    -0.496279    -2.954641
H        0.930559     0.695668    -2.776790
43
ex_0164 frame8 Δ-conf3
C        2.084734    -1.757040     1.332276
N        0.676119    -1.506828     1.123911
C       -0.424983    -2.332215     1.529278
C       -0.259648    -3.250940     2.586153
C       -1.308693    -4.065444     3.001240
C       -2.544400    -3.992889     2.369857
C       -2.749275    -3.096531     1.319958
C       -1.721164    -2.244082     0.869008
C       -2.090410    -1.289834    -0.300920
N       -0.989508    -1.213751    -1.239222
C       -0.914745    -0.247690    -2.342784
C        0.572966     0.304841    -2.443553
N        0.816260     1.240412    -1.335307
C        2.031577     1.262155    -0.544445
C        1.837545     2.191133     0.687947
C        2.925359     3.025631     1.014131
C        2.870898     3.902105     2.099558
C        1.728591     3.975311     2.889182
C        0.626481     3.175023     2.603578
C        0.646035     2.273862     1.522254
N       -0.503277     1.460211     1.266917
C       -1.839079     1.698945     1.757836
Cu       0.000000     0.000000     0.000000
H        2.586369    -1.792733     0.343277
H        2.524090    -0.934720     1.931581
H        2.275984    -2.725838     1.830261
H        0.676234    -3.339572     3.117011
H       -1.159841    -4.758133     3.820555
H       -3.351111    -4.635172     2.699907
H       -3.727683    -3.070742     0.856652
H       -3.038664    -1.572137    -0.807673
H       -1.619698     0.599594    -2.191963
H       -1.184610    -0.778591    -3.278689
H        1.289660    -0.545721    -2.424816
H        0.701191     0.862277    -3.393961
H        2.909151     1.548657    -1.163978
H        3.831564     3.003726     0.421711
H        3.720758     4.532029     2.329868
H        1.694547     4.657867     3.729279
H       -0.243546     3.261559     3.240007
H       -1.863305     1.627399     2.863882
H       -2.179037     2.705976     1.434495
H       -2.527064     0.940120     1.335803
43
ex_0164 frame9 see-saw N0-N1-ax-conf3
C        1.814047     2.355043     0.675658
N        1.712651     1.020008     0.128975
C        2.742970     0.231093    -0.475863
C        4.096545     0.550723    -0.247023
C        5.117137    -0.200525    -0.819988
C        4.815804    -1.277878    -1.644539
C        3.487560    -1.624123    -1.898780
C        2.417977    -0.904474    -1.330191
C        0.988769    -1.411745    -1.684476
N        0.107963    -0.295354    -1.971956
C       -1.358337    -0.407092    -2.051933
C       -2.030250     0.787420    -1.239253
N       -1.918505     0.516623     0.200327
C       -1.543701     1.512664     1.187782
C       -1.271885     0.816864     2.550599
C       -1.771228     1.466106     3.699152
C       -1.586894     0.931394     4.976415
C       -0.899827    -0.265362     5.145592
C       -0.390664    -0.942964     4.041590
C       -0.554627    -0.435049     2.737325
N       -0.013369    -1.159806     1.626717
C        0.373808    -2.549429     1.643895
Cu       0.000000     0.000000     0.000000
H        1.065483     3.001794     0.174240
H        1.598142     2.328067     1.763101
H        2.807534     2.809601     0.505562
H        4.384578     1.369282     0.395250
H        6.150193     0.055970    -0.619562
H        5.619765    -1.852603    -2.086000
H        3.296900    -2.473561    -2.542272
H        0.974838    -2.168556    -2.497662
H       -1.717241    -1.380705    -1.649830
H       -1.645084    -0.334780    -3.120557
H       -1.544450     1.749543    -1.513621
H       -3.110148     0.846860    -1.485624
H       -2.310409     2.314238     1.264330
H       -2.317455     2.397034     3.611754
H       -1.982152     1.446518     5.843296
H       -0.761850    -0.674409     6.139238
H        0.134432    -1.871880     4.216065
H        1.223430    -2.703259     2.339647
H       -0.491485    -3.171263     1.957821
H        0.684766    -2.859623     0.627983
43
ex_0164 frame10 see-saw N0-N1-ax
C        1.889717    -2.297396     0.764527
N        1.723065    -0.998409     0.157594
C        2.742711    -0.198742    -0.442316
C        4.093688    -0.513007    -0.204589
C        5.113650     0.250975    -0.762068
C        4.809979     1.335205    -1.578390
C        3.480844     1.670320    -1.845780
C        2.412237     0.935453    -1.295830
C        0.980491     1.426871    -1.668710
N        0.113267     0.301904    -1.970664
C       -1.355097     0.406738    -2.058219
C       -2.031279    -0.781916    -1.240446
N       -1.924062    -0.497622     0.195591
C       -1.589877    -1.494560     1.195602
C       -1.314475    -0.797272     2.555973
C       -1.831017    -1.433132     3.704658
C       -1.644760    -0.896316     4.980793
C       -0.938129     0.288991     5.148592
C       -0.411994     0.953185     4.044315
C       -0.578002     0.443160     2.740492
N       -0.019228     1.155968     1.629714
C        0.399401     2.536208     1.650718
Cu       0.000000     0.000000     0.000000
H        2.571177    -2.229623     1.637204
H        0.907230    -2.672169     1.112473
H        2.299587    -3.009018     0.017362
H        4.368572    -1.347759     0.426119
H        6.146911    -0.000882    -0.557851
H        5.612408     1.921205    -2.007521
H        3.288454     2.520994    -2.487184
H        0.970914     2.181757    -2.483884
H       -1.637430     0.325078    -3.127312
H       -1.719944     1.381992    -1.665580
H       -1.542100    -1.745480    -1.504069
H       -3.110311    -0.846180    -1.489715
H       -2.377943    -2.275471     1.269095
H       -2.392242    -2.355231     3.618366
H       -2.053480    -1.400871     5.847714
H       -0.798204     0.699657     6.141397
H        0.128022     1.873460     4.218985
H       -0.453966     3.177153     1.958094
H        1.246853     2.670458     2.353378
H        0.726372     2.840820     0.638633
43
ex_0164 frame11 Isomer 2
C        1.622200    -1.667601     1.987672
N        1.204653    -1.467784     0.620311
C        1.532621    -2.302607    -0.494915
C        2.592154    -3.222585    -0.381970
C        2.947426    -4.039843    -1.451269
C        2.251243    -3.964290    -2.652985
C        1.188618    -3.071818    -2.799117
C        0.793282    -2.223660    -1.747294
C       -0.406065    -1.283324    -2.043886
N       -1.284927    -1.240595    -0.893442
C       -2.409445    -0.302814    -0.767829
C       -2.427692     0.300231     0.701112
N       -1.311130     1.243367     0.850286
C       -0.460778     1.299056     2.021092
C        0.734939     2.249323     1.745134
C        1.090727     3.117829     2.794579
C        2.146804     4.020500     2.664591
C        2.876006     4.085702     1.482030
C        2.560179     3.248314     0.415937
C        1.507154     2.318710     0.512404
N        1.219569     1.464850    -0.599825
C        1.685005     1.644407    -1.954345
Cu       0.000000     0.000000     0.000000
H        2.725999    -1.596926     2.068439
H        1.168823    -0.886958     2.629919
H        1.278910    -2.663104     2.340824
H        3.157612    -3.310444     0.535822
H        3.769342    -4.736754    -1.346091
H        2.535497    -4.604982    -3.477691
H        0.668178    -3.047321    -3.748447
H       -0.958500    -1.559059    -2.967836
H       -3.346880    -0.869514    -0.946915
H       -2.338764     0.519602    -1.512781
H       -2.368676    -0.521540     1.447757
H       -3.371718     0.862230     0.859362
H       -1.037463     1.576565     2.929557
H        0.543926     3.101728     3.729157
H        2.400237     4.677210     3.486777
H        3.692658     4.790542     1.389166
H        3.150428     3.329463    -0.486730
H        1.351472     2.632994    -2.335094
H        2.791278     1.576609    -1.994129
H        1.258291     0.852768    -2.600806
43
ex_0164 frame12 Δ
C       -2.373917    -1.015636     1.641324
N       -1.010538    -1.222160     1.214950
C       -0.186722    -2.347836     1.534918
C       -0.550977    -3.189496     2.603101
C        0.233696    -4.285340     2.950880
C        1.393168    -4.571592     2.238238
C        1.781388    -3.765797     1.166969
C        1.022236    -2.644940     0.778891
C        1.567108    -1.837555    -0.431122
N        0.468841    -1.448568    -1.292305
C        0.611336    -0.510463    -2.414855
C       -0.615446     0.499064    -2.413756
N       -0.462584     1.444373    -1.299258
C       -1.552466     1.847967    -0.434551
C       -0.991071     2.665887     0.759964
C       -1.731009     3.804475     1.133682
C       -1.325610     4.620370     2.190902
C       -0.168122     4.326440     2.903450
C        0.597719     3.213156     2.569307
C        0.216741     2.361807     1.514386
N        1.022933     1.219238     1.207602
C        2.380475     0.994863     1.643833
Cu       0.000000     0.000000     0.000000
H       -2.423595    -0.924423     2.745393
H       -2.764072    -0.082224     1.189714
H       -3.002910    -1.865857     1.301949
H       -1.444913    -2.999706     3.181443
H       -0.060837    -4.916784     3.779730
H        1.995017    -5.427130     2.516706
H        2.687574    -4.025830     0.634177
H        2.354311    -2.380831    -0.997088
H        0.605069    -1.100858    -3.354588
H        1.565827     0.056610    -2.352941
H       -1.569514    -0.067184    -2.339269
H       -0.617034     1.082907    -3.357600
H       -2.339960     2.390700    -1.000618
H       -2.635095     4.070794     0.600501
H       -1.912488     5.489706     2.458461
H        0.139905     4.965701     3.721393
H        1.491033     3.018736     3.146987
H        3.024985     1.831564     1.300046
H        2.422259     0.913662     2.749036
H        2.759118     0.051388     1.204330
43
ex_0164 frame13 Λ
C       -1.680782     1.990839     1.602686
N       -1.469674     0.620366     1.202560
C       -2.300677    -0.495072     1.539129
C       -3.211011    -0.380302     2.607151
C       -4.025910    -1.448162     2.971386
C       -3.958609    -2.650326     2.275545
C       -3.075224    -2.798818     1.205029
C       -2.228094    -1.748612     0.800994
C       -1.296182    -2.049050    -0.405762
N       -1.242239    -0.895858    -1.281591
C       -0.298926    -0.769368    -2.401830
C        0.297791     0.703398    -2.419737
N        1.245912     0.852801    -1.307146
C        1.313520     2.026771    -0.460667
C        2.254845     1.747186     0.742436
C        3.123560     2.794999     1.106992
C        4.016811     2.662739     2.171065
C        4.073075     1.480149     2.900585
C        3.237154     0.415550     2.575889
C        2.317348     0.513902     1.514297
N        1.466049    -0.598493     1.218273
C        1.656327    -1.956952     1.666556
Cu       0.000000     0.000000     0.000000
H       -1.611778     2.086487     2.705279
H       -0.905250     2.633101     1.140678
H       -2.679111     2.330502     1.253790
H       -3.292558     0.537838     3.172788
H       -4.714821    -1.341200     3.800033
H       -4.598428    -3.473480     2.566643
H       -3.057492    -3.748993     0.685918
H       -1.588669    -2.966412    -0.960994
H       -0.859266    -0.955509    -3.341386
H        0.528046    -1.508785    -2.323558
H       -0.528536     1.444652    -2.352958
H        0.853806     0.869166    -3.365667
H        1.608553     2.927792    -1.040794
H        3.114844     3.730127     0.560937
H        4.673268     3.483306     2.431368
H        4.769737     1.385585     3.724109
H        3.311562    -0.487204     3.166674
H        2.647593    -2.325261     1.326764
H        1.590272    -2.011584     2.772127
H        0.869340    -2.603552     1.231539
43
ex_0164 frame14 see-saw N0-N1-ax-conf2
C        1.880381    -2.314726     0.735802
N        1.718461    -1.008691     0.142567
C        2.739503    -0.221586    -0.472396
C        4.089986    -0.550019    -0.250832
C        5.111340     0.201181    -0.823073
C        4.809548     1.287598    -1.637167
C        3.480905     1.637020    -1.888343
C        2.411329     0.913744    -1.324811
C        0.980213     1.416496    -1.681675
N        0.106013     0.294235    -1.972244
C       -1.361597     0.399709    -2.055703
C       -2.033588    -0.790701    -1.236963
N       -1.919926    -0.511683     0.200241
C       -1.565308    -1.508619     1.193452
C       -1.283342    -0.814321     2.554450
C       -1.776810    -1.464478     3.705185
C       -1.584722    -0.931505     4.981855
C       -0.894932     0.263920     5.148737
C       -0.390900     0.942170     4.042437
C       -0.562933     0.435948     2.738586
N       -0.026348     1.161139     1.625601
C        0.346473     2.554683     1.640380
Cu       0.000000     0.000000     0.000000
H        0.899667    -2.684849     1.092456
H        2.273434    -3.023168    -0.023583
H        2.573878    -2.261990     1.599761
H        4.363742    -1.387159     0.377122
H        6.144219    -0.062552    -0.632283
H        5.613080     1.863518    -2.077833
H        3.289826     2.488096    -2.529641
H        0.969428     2.165589    -2.502252
H       -1.724684     1.374737    -1.661227
H       -1.646666     0.318795    -3.124247
H       -1.547491    -1.754143    -1.506156
H       -3.113870    -0.852446    -1.481618
H       -2.341555    -2.300718     1.269825
H       -2.324831    -2.394400     3.619260
H       -1.976248    -1.447163     5.850171
H       -0.750818     0.671500     6.142092
H        0.137262     1.869681     4.215502
H        1.194825     2.719785     2.335053
H       -0.525596     3.167264     1.954009
H        0.652604     2.866867     0.623627
43
ex_0164 frame15 square-planar cis
C        0.386716     1.920863    -2.348961
N       -0.026219     1.742044    -0.977368
C       -0.576166     2.749554    -0.123327
C       -0.418691     4.106319    -0.465324
C       -0.928774     5.113880     0.347984
C       -1.613899     4.792932     1.514845
C       -1.798301     3.459129     1.882226
C       -1.298009     2.404483     1.094036
C       -1.575942     0.968562     1.618691
N       -1.927732     0.102463     0.511499
C       -2.052548    -1.357403     0.629647
C       -1.365798    -2.044752    -0.627722
N        0.093883    -1.930602    -0.502040
C        0.971142    -1.589535    -1.603332
C        2.404895    -1.329530    -1.065226
C        3.461037    -1.854313    -1.835627
C        4.793076    -1.686469    -1.454027
C        5.110436    -0.993889    -0.290709
C        4.100963    -0.460268     0.505251
C        2.746002    -0.601916     0.149299
N        1.736565    -0.028887     0.987252
C        1.911768     0.406386     2.352124
Cu       0.000000     0.000000     0.000000
H        1.230805     2.637339    -2.408167
H        0.715792     0.948036    -2.764515
H       -0.470317     2.293191    -2.949527
H        0.108293     4.395998    -1.364292
H       -0.791210     6.151295     0.069925
H       -2.007805     5.584973     2.138853
H       -2.342169     3.251573     2.795272
H       -2.349387     0.941074     2.416437
H       -3.133866    -1.606381     0.645737
H       -1.583101    -1.731905     1.565679
H       -1.732322    -1.568434    -1.563404
H       -1.622507    -3.124069    -0.649257
H        0.941586    -2.364509    -2.399599
H        3.256116    -2.404501    -2.745535
H        5.586490    -2.098972    -2.064119
H        6.146478    -0.868990    -0.001430
H        4.388496     0.071036     1.402174
H        2.272209    -0.443199     2.970149
H        2.636277     1.244461     2.400184
H        0.940872     0.752944     2.756948
43
ex_0164 frame16 see-saw N0-N0-ax-conf3
C       -0.954881     1.203990    -2.621138
N        0.161375     0.990392    -1.728006
C        1.542215     1.297021    -1.956873
C        1.892951     2.254075    -2.930664
C        3.224458     2.573740    -3.176350
C        4.239027     1.941261    -2.468362
C        3.933797     0.986820    -1.497505
C        2.601034     0.637835    -1.201473
C        2.414565    -0.428342    -0.083881
N        1.377605    -1.376003    -0.443516
C        0.819217    -2.345895     0.512741
C       -0.760443    -2.398373     0.346164
N       -1.329066    -1.173872     0.918567
C       -2.440465    -0.428485     0.366084
C       -2.594198     0.897121     1.160490
C       -3.914435     1.325833     1.411173
C       -4.176711     2.496223     2.125119
C       -3.131421     3.274673     2.609883
C       -1.811879     2.893417     2.385644
C       -1.505992     1.723726     1.663227
N       -0.133231     1.376370     1.441046
C        0.985233     1.857454     2.217276
Cu       0.000000     0.000000     0.000000
H       -1.454806     0.230074    -2.800867
H       -1.679109     1.900018    -2.151838
H       -0.641602     1.598549    -3.605718
H        1.142871     2.782408    -3.499763
H        3.469292     3.320065    -3.921974
H        5.271254     2.196811    -2.670780
H        4.754442     0.521571    -0.965969
H        3.358814    -0.940603     0.200856
H        1.071723    -2.073449     1.562229
H        1.256081    -3.340113     0.287835
H       -1.022415    -2.507046    -0.728692
H       -1.170756    -3.260984     0.910787
H       -3.371115    -1.036866     0.391168
H       -4.757017     0.743290     1.059580
H       -5.199154     2.801893     2.309149
H       -3.342843     4.180329     3.164583
H       -1.028449     3.526273     2.779270
H        1.101151     2.952771     2.095143
H        0.825078     1.609718     3.288760
H        1.914360     1.361327     1.878289
43
ex_0164 frame17 see-saw N0-N0-ax-conf2
C       -0.954706    -1.266099    -2.614481
N        0.149918    -0.989243    -1.729008
C        1.526630    -1.297006    -1.961591
C        1.863278    -2.239529    -2.951100
C        3.191142    -2.573758    -3.199098
C        4.212725    -1.968752    -2.475240
C        3.918510    -1.022034    -1.492722
C        2.590300    -0.656302    -1.197726
C        2.413514     0.405598    -0.073053
N        1.388784     1.368418    -0.432170
C        0.833300     2.335684     0.529873
C       -0.746480     2.398775     0.363748
N       -1.322078     1.174112     0.928241
C       -2.441831     0.442603     0.374531
C       -2.603974    -0.888632     1.158325
C       -3.925897    -1.310690     1.407073
C       -4.194536    -2.485831     2.111920
C       -3.153285    -3.275342     2.586845
C       -1.831877    -2.900776     2.363447
C       -1.519817    -1.725551     1.652514
N       -0.145699    -1.383828     1.433914
C        0.965833    -1.864604     2.219432
Cu       0.000000     0.000000     0.000000
H       -1.885998    -0.854263    -2.175851
H       -0.776029    -0.778685    -3.596364
H       -1.076957    -2.359821    -2.749955
H        1.096552    -2.731498    -3.534039
H        3.428327    -3.307973    -3.958810
H        5.242092    -2.235352    -2.677940
H        4.743970    -0.573096    -0.954403
H        3.363994     0.908499     0.208459
H        1.083680     2.056244     1.578019
H        1.274760     3.329386     0.311551
H       -1.007985     2.515806    -0.710286
H       -1.152391     3.259967     0.933850
H       -3.367771     1.057673     0.405101
H       -4.765413    -0.719462     1.062969
H       -5.218464    -2.785828     2.296209
H       -3.369354    -4.184666     3.134137
H       -1.051609    -3.541907     2.749686
H        1.084133    -2.959724     2.097927
H        0.794508    -1.617803     3.289483
H        1.897729    -1.366906     1.890990
43
ex_0164 frame18 see-saw N0-N0-ax
C       -0.938753    -1.316954    -2.596491
N        0.163209    -1.004360    -1.719054
C        1.542724    -1.311499    -1.937378
C        1.891459    -2.258122    -2.918646
C        3.222909    -2.593206    -3.147872
C        4.235042    -1.986163    -2.412435
C        3.928595    -1.033836    -1.439900
C        2.597277    -0.665400    -1.166598
C        2.407191     0.405742    -0.055479
N        1.389695     1.364940    -0.440372
C        0.845624     2.356483     0.502763
C       -0.734729     2.415313     0.360896
N       -1.302784     1.191304     0.933783
C       -2.420562     0.461882     0.376183
C       -2.598789    -0.856484     1.172981
C       -3.925117    -1.251946     1.436006
C       -4.208349    -2.414913     2.153795
C       -3.176781    -3.216482     2.630229
C       -1.850524    -2.867310     2.392826
C       -1.524057    -1.706027     1.665395
N       -0.146297    -1.389557     1.428166
C        0.975333    -1.933001     2.157826
Cu       0.000000     0.000000     0.000000
H       -1.045973    -2.415720    -2.703760
H       -1.875669    -0.908313    -2.166513
H       -0.767989    -0.853212    -3.590952
H        1.132337    -2.752606    -3.509308
H        3.470199    -3.330390    -3.901225
H        5.267010    -2.254542    -2.598434
H        4.746044    -0.582286    -0.891790
H        3.353089     0.909026     0.239160
H        1.278673     3.345782     0.247885
H        1.116537     2.108806     1.553151
H       -1.015482     2.532719    -0.707853
H       -1.130165     3.277455     0.937750
H       -3.342258     1.083485     0.377294
H       -4.756286    -0.650202     1.089749
H       -5.236026    -2.695385     2.346473
H       -3.404846    -4.115876     3.188644
H       -1.078590    -3.517892     2.780470
H        0.855306    -1.711447     3.239924
H        1.046547    -3.028057     2.000789
H        1.913258    -1.463814     1.805711
43
ex_0164 frame19 see-saw N0-N1-ax-conf4
C        1.878869     2.324849     0.719975
N        1.715747     1.013949     0.137923
C        2.735171     0.210597    -0.457191
C        4.086344     0.529887    -0.228154
C        5.105410    -0.239028    -0.780632
C        4.800351    -1.332546    -1.584180
C        3.470647    -1.672377    -1.843335
C        2.403148    -0.932904    -1.297395
C        0.969721    -1.428077    -1.658616
N        0.105059    -0.303691    -1.970760
C       -1.364910    -0.391556    -2.045951
C       -2.021028     0.806603    -1.224078
N       -1.916142     0.520282     0.212293
C       -1.551551     1.510010     1.209293
C       -1.282731     0.804467     2.566997
C       -1.804731     1.432849     3.717364
C       -1.624932     0.886842     4.990183
C       -0.909761    -0.294523     5.154991
C       -0.373338    -0.948600     4.048769
C       -0.548495    -0.437102     2.748498
N        0.000007    -1.150678     1.635220
C        0.276708    -2.564667     1.628269
Cu       0.000000     0.000000     0.000000
H        2.570865     2.278420     1.585476
H        2.273262     3.026663    -0.044666
H        0.898227     2.698716     1.072941
H        4.362017     1.371799     0.392578
H        6.139040     0.016149    -0.582425
H        5.602201    -1.922032    -2.009673
H        3.276999    -2.529935    -2.475147
H        0.956864    -2.191191    -2.466038
H       -1.653443    -0.304758    -3.113010
H       -1.738456    -1.362948    -1.652341
H       -1.517473     1.762776    -1.487990
H       -3.099201     0.888380    -1.471398
H       -2.320483     2.309061     1.287411
H       -2.373719     2.350440     3.632836
H       -2.046421     1.380871     5.857225
H       -0.775535    -0.712035     6.145400
H        0.170546    -1.869309     4.213200
H        0.347045    -2.917878     0.581078
H        1.230847    -2.770634     2.154116
H       -0.557036    -3.110696     2.119710
43
ex_0164 frame20 Δ-conf5
C       -2.422410    -1.022891     1.514726
N       -1.031390    -1.236339     1.182971
C       -0.207325    -2.363218     1.514579
C       -0.565508    -3.205488     2.587389
C        0.216968    -4.304076     2.930977
C        1.368732    -4.597812     2.211337
C        1.757392    -3.791000     1.141863
C        1.004644    -2.662471     0.760173
C        1.562410    -1.851420    -0.442771
N        0.473871    -1.436916    -1.303348
C        0.627579    -0.481847    -2.409274
C       -0.607819     0.517592    -2.407789
N       -0.467095     1.455418    -1.285279
C       -1.559982     1.846271    -0.419101
C       -1.007302     2.652433     0.788003
C       -1.754840     3.783767     1.170668
C       -1.365390     4.584036     2.245372
C       -0.218926     4.279738     2.969579
C        0.557663     3.177923     2.624133
C        0.198406     2.343973     1.545761
N        1.019143     1.215605     1.215858
C        2.412272     1.014493     1.543172
Cu       0.000000     0.000000     0.000000
H       -3.000509    -0.927040     0.572256
H       -2.861046    -1.860924     2.086293
H       -2.523536    -0.084293     2.095690
H       -1.443847    -3.018554     3.185702
H       -0.073781    -4.932026     3.764096
H        1.966914    -5.457130     2.486949
H        2.662071    -4.054777     0.608117
H        2.340291    -2.403717    -1.013638
H        0.642156    -1.057598    -3.357600
H        1.575622     0.093356    -2.322044
H       -1.557031    -0.058077    -2.341619
H       -0.610347     1.109089    -3.346553
H       -2.349576     2.390452    -0.980794
H       -2.655662     4.054226     0.634157
H       -1.959071     5.446008     2.521895
H        0.072247     4.901378     3.807310
H        1.432310     2.978258     3.225131
H        2.975197     0.844290     0.602488
H        2.517637     0.123488     2.194346
H        2.861334     1.896595     2.037418
43
ex_0164 frame21 square-planar cis-conf5
C        0.272620     1.838025    -2.399110
N       -0.069268     1.729133    -0.998558
C       -0.605294     2.745775    -0.139517
C       -0.450842     4.105972    -0.478067
C       -0.959981     5.112102     0.337778
C       -1.643064     4.791000     1.504361
C       -1.818937     3.457618     1.874754
C       -1.314383     2.402784     1.088079
C       -1.576165     0.969019     1.628657
N       -1.922394     0.086040     0.534107
C       -2.023519    -1.373922     0.664490
C       -1.354422    -2.055901    -0.605526
N        0.106304    -1.928869    -0.506630
C        0.962646    -1.573625    -1.619449
C        2.402041    -1.298528    -1.104451
C        3.450460    -1.813988    -1.892344
C        4.787199    -1.625241    -1.539064
C        5.117737    -0.917957    -0.389282
C        4.117586    -0.397934     0.426419
C        2.755588    -0.565298     0.104038
N        1.748705    -0.015298     0.964332
C        1.881140     0.327088     2.362771
Cu       0.000000     0.000000     0.000000
H       -0.343064     1.113280    -2.971115
H        0.069211     2.842083    -2.813775
H        1.343719     1.588901    -2.538171
H        0.079050     4.411980    -1.366917
H       -0.821862     6.150158     0.061376
H       -2.037151     5.583086     2.128464
H       -2.356333     3.251153     2.792035
H       -2.348650     0.942773     2.427820
H       -3.100076    -1.638496     0.708499
H       -1.525009    -1.735865     1.590666
H       -1.742999    -1.583080    -1.534141
H       -1.601176    -3.137487    -0.621988
H        0.927572    -2.342986    -2.420758
H        3.236023    -2.368972    -2.797027
H        5.574555    -2.027574    -2.163621
H        6.157714    -0.768998    -0.126118
H        4.426318     0.153292     1.302282
H        1.106268    -0.222788     2.935306
H        1.725303     1.416433     2.497045
H        2.863686     0.033117     2.778200
43
ex_0164 frame22 Λ-conf5
C       -1.824256     2.052316     1.291587
N       -1.536757     0.648439     1.099758
C       -2.316269    -0.476479     1.529129
C       -3.243076    -0.328093     2.582029
C       -4.012652    -1.401575     3.019489
C       -3.887997    -2.646435     2.414701
C       -2.983408    -2.835511     1.369389
C       -2.173612    -1.783237     0.897093
C       -1.203582    -2.141685    -0.264131
N       -1.165203    -1.060406    -1.227138
C       -0.193555    -0.978647    -2.326215
C        0.314519     0.521944    -2.457176
N        1.228337     0.818675    -1.345043
C        1.210243     2.056194    -0.592094
C        2.133683     1.927184     0.650790
C        2.936441     3.047165     0.945570
C        3.800287     3.055890     2.041836
C        3.890133     1.947329     2.875400
C        3.125481     0.813890     2.619456
C        2.239566     0.765713     1.524213
N        1.464973    -0.417520     1.292502
C        1.761198    -1.758715     1.742506
Cu       0.000000     0.000000     0.000000
H       -1.912871     2.534935     0.296254
H       -2.775946     2.225750     1.826546
H       -0.992638     2.527073     1.849683
H       -3.373257     0.613551     3.093288
H       -4.711606    -1.265285     3.835623
H       -4.495690    -3.472399     2.761940
H       -2.916795    -3.821941     0.927173
H       -1.455278    -3.108065    -0.753099
H       -0.708409    -1.284454    -3.260018
H        0.673944    -1.653615    -2.154542
H       -0.556948     1.213121    -2.464836
H        0.879755     0.644819    -3.403817
H        1.468334     2.925533    -1.234838
H        2.894980     3.932087     0.322887
H        4.403020     3.930595     2.249998
H        4.556678     1.964602     3.728917
H        3.221517    -0.017648     3.302426
H        1.772713    -2.431811     0.861007
H        0.976686    -2.098804     2.448078
H        2.757346    -1.830089     2.220005
43
ex_0164 frame23 conf5
C        1.291592    -1.824632     2.052751
N        1.100310    -1.536735     0.649136
C        1.530236    -2.316372    -0.476073
C        2.583817    -3.241701    -0.326877
C        3.021711    -4.011825    -1.400407
C        2.416509    -3.888336    -2.644779
C        1.370434    -2.984908    -2.834614
C        0.897627    -2.174350    -1.782289
C       -0.264107    -1.205356    -2.141607
N       -1.226980    -1.165772    -1.060025
C       -2.325438    -0.193423    -0.978490
C       -2.456747     0.313837     0.522389
N       -1.344882     1.228098     0.819165
C       -0.592507     1.211382     2.057128
C        0.650991     2.134113     1.927739
C        0.946502     2.936898     3.047896
C        2.043399     3.799907     3.056308
C        2.876870     3.889274     1.947775
C        2.620029     3.124819     0.814124
C        1.524337     2.239704     0.766480
N        1.293165     1.465812    -0.417298
C        1.740861     1.763681    -1.758254
Cu       0.000000     0.000000     0.000000
H        0.296009    -1.912401     2.535059
H        1.825369    -2.777000     2.225819
H        1.850387    -0.993698     2.527961
H        3.095402    -3.370887     0.614462
H        3.838535    -4.709786    -1.263605
H        2.764142    -4.496381    -3.470635
H        0.928012    -2.919134    -3.820742
H       -0.753362    -1.458102    -3.107413
H       -3.259382    -0.707307    -1.285469
H       -2.152510     0.674511    -1.652594
H       -2.463630    -0.558153     1.212947
H       -3.403644     0.878425     0.645937
H       -1.235632     1.471142     2.925704
H        0.324074     2.895737     3.932920
H        2.252276     4.402454     3.931114
H        3.731010     4.554944     1.964836
H        3.302811     3.220156    -0.017573
H        0.859417     1.770637    -2.431647
H        2.450542     0.982750    -2.097975
H        2.212974     2.762546    -1.829566
43
ex_0164 frame24 Δ-conf4
C        1.765299    -1.758037     1.782105
N        0.451268    -1.494619     1.247223
C       -0.727099    -2.272815     1.477534
C       -0.758765    -3.174909     2.558407
C       -1.892842    -3.937967     2.820874
C       -3.015839    -3.826970     2.008217
C       -3.018346    -2.950525     0.921393
C       -1.896668    -2.154604     0.617803
C       -2.032870    -1.223996    -0.619800
N       -0.790879    -1.222797    -1.366460
C       -0.495568    -0.297157    -2.468950
C        0.991920     0.242896    -2.315470
N        1.049760     1.200962    -1.201629
C        2.108073     1.212437    -0.212951
C        1.728203     2.189527     0.929984
C        2.748755     3.053807     1.373143
C        2.525692     3.978897     2.394345
C        1.278034     4.070161     3.001513
C        0.238031     3.238997     2.594706
C        0.426243     2.288717     1.573791
N       -0.672020     1.448051     1.200530
C       -2.063346     1.825711     1.280842
Cu       0.000000     0.000000     0.000000
H        1.752814    -1.687647     2.888753
H        2.097685    -2.770686     1.469763
H        2.481711    -1.011249     1.387522
H        0.094039    -3.289078     3.213489
H       -1.899347    -4.620566     3.661623
H       -3.891279    -4.427139     2.220752
H       -3.910422    -2.897928     0.309990
H       -2.894839    -1.491474    -1.268436
H       -0.587725    -0.862468    -3.419521
H       -1.207527     0.556484    -2.486786
H        1.687033    -0.610486    -2.154993
H        1.290398     0.778264    -3.240453
H        3.090868     1.446190    -0.676296
H        3.733190     3.017561     0.923482
H        3.327088     4.631376     2.717026
H        1.113806     4.789303     3.794272
H       -0.718831     3.332310     3.091914
H       -2.605489     1.392349     0.416007
H       -2.504419     1.434290     2.219938
H       -2.176790     2.929457     1.232094
43
ex_0164 frame25 Λ-conf4
C       -1.047414    -2.428868     1.539302
N       -1.238721    -1.048670     1.165146
C       -2.357233    -0.226346     1.511835
C       -3.190258    -0.609462     2.580382
C       -4.280395     0.170799     2.954161
C       -4.571611     1.343214     2.265396
C       -3.773541     1.751414     1.194926
C       -2.655275     0.999260     0.783010
C       -1.852199     1.569251    -0.420951
N       -1.442572     0.485868    -1.292601
C       -0.487053     0.632227    -2.399322
C        0.506884    -0.609373    -2.395315
N        1.458075    -0.463320    -1.283484
C        1.849781    -1.555520    -0.416007
C        2.660360    -0.996234     0.783425
C        3.822575    -1.711548     1.136226
C        4.632837    -1.305989     2.198372
C        4.310073    -0.173211     2.937355
C        3.175762     0.568734     2.622137
C        2.329019     0.187183     1.564529
N        1.166717     0.979292     1.292613
C        1.068092     2.401790     1.520576
Cu       0.000000     0.000000     0.000000
H       -0.967903    -2.524113     2.641098
H       -1.899226    -3.035866     1.165756
H       -0.113031    -2.808854     1.081962
H       -2.996651    -1.513848     3.140734
H       -4.903701    -0.137878     3.784304
H       -5.424554     1.939859     2.563125
H       -4.037893     2.667891     0.682295
H       -2.414336     2.347194    -0.981802
H       -1.064878     0.645293    -3.346381
H        0.092658     1.577604    -2.316613
H       -0.075773    -1.553691    -2.312189
H        1.087429    -0.628744    -3.340339
H        2.398619    -2.340683    -0.980102
H        4.111563    -2.597500     0.584607
H        5.518776    -1.874569     2.451262
H        4.941698     0.133237     3.761889
H        2.950394     1.441321     3.221721
H        0.491649     2.861311     0.692229
H        0.543077     2.591014     2.478806
H        2.074072     2.872395     1.533636
43
ex_0164 frame26 conf4
C        1.537578    -1.048249    -2.429930
N        1.164492    -1.238713    -1.048974
C        1.512440    -2.357292    -0.226785
C        2.581974    -3.189027    -0.609592
C        2.956619    -4.278863     0.170663
C        2.267383    -4.571318     1.342471
C        1.195858    -3.774527     1.750349
C        0.783382    -2.656233     0.998539
C       -0.421382    -1.854242     1.568710
N       -1.292469    -1.442811     0.485602
C       -2.398577    -0.486659     0.632313
C       -2.394341     0.506377    -0.609992
N       -1.283253     1.458301    -0.463292
C       -0.416163     1.851365    -1.555275
C        0.783998     2.660888    -0.995855
C        1.137402     3.823226    -1.710809
C        2.200406     4.632474    -1.305428
C        2.939563     4.308757    -0.173076
C        2.623616     3.174539     0.568673
C        1.565273     2.328647     0.187187
N        1.293036     1.166337     0.979214
C        1.520213     1.067917     2.401884
Cu       0.000000     0.000000     0.000000
H        2.639323    -0.969183    -2.526365
H        1.162807    -1.899969    -3.036278
H        1.080503    -0.113520    -2.809442
H        3.142892    -2.994354    -1.513387
H        3.787835    -4.900964    -0.137535
H        2.565747    -5.424120     1.939009
H        0.683081    -4.039697     2.666512
H       -0.982841    -2.417880     2.345134
H       -3.345934    -1.063894     0.646676
H       -2.314617     0.093932     1.577086
H       -2.309389    -0.077291    -1.553552
H       -3.339709     1.086216    -0.631287
H       -0.980718     2.401689    -2.339063
H        0.585793     4.112945    -2.596520
H        2.453931     5.518330    -1.873878
H        3.764847     4.939498     0.133188
H        3.223499     2.948380     1.440846
H        0.689371     0.495270     2.861661
H        2.476254     0.539128     2.591699
H        1.537400     2.074127     2.871871
43
ex_0164 frame27 square-planar cis-conf4
C        0.308065     1.898485     2.380570
N       -0.069236     1.729188     0.998232
C       -0.601339     2.740838     0.137579
C       -0.440409     4.096184     0.484155
C       -0.933801     5.108044    -0.333868
C       -1.607995     4.793236    -1.508570
C       -1.794732     3.460422    -1.881323
C       -1.307862     2.401063    -1.090140
C       -1.582865     0.965674    -1.623268
N       -1.926110     0.091239    -0.519345
C       -2.030775    -1.370680    -0.625011
C       -1.345039    -2.034053     0.647508
N        0.115912    -1.924226     0.521553
C        0.988796    -1.555960     1.617586
C        2.418889    -1.296715     1.073067
C        3.478510    -1.848044     1.821561
C        4.808900    -1.681148     1.432033
C        5.121260    -0.963161     0.283164
C        4.108341    -0.405733    -0.491419
C        2.755810    -0.544496    -0.127119
N        1.754693     0.061626    -0.953271
C        1.868742     0.250903    -2.380092
Cu       0.000000     0.000000     0.000000
H        1.141707     2.624160     2.468533
H       -0.568161     2.253697     2.963396
H        0.639128     0.925967     2.794310
H        0.078311     4.381549     1.389068
H       -0.791944     6.144421    -0.052878
H       -1.990546     5.589083    -2.134851
H       -2.329451     3.258462    -2.800948
H       -2.365194     0.944067    -2.412675
H       -3.108700    -1.632472    -0.647675
H       -1.547368    -1.749183    -1.552204
H       -1.713226    -1.536164     1.571985
H       -1.603090    -3.111882     0.694131
H        0.965491    -2.319967     2.424773
H        3.278698    -2.416833     2.720988
H        5.604892    -2.112127     2.026034
H        6.155726    -0.835225    -0.010700
H        4.386807     0.152241    -1.376056
H        0.882643     0.060325    -2.850102
H        2.179615     1.293440    -2.594953
H        2.595735    -0.465329    -2.818461
43
ex_0164 frame28 see-saw N0-N0-ax-conf4
C       -0.974268     1.184979    -2.648310
N        0.133063     0.942535    -1.756085
C        1.502558     1.290034    -1.974876
C        1.824740     2.229962    -2.971494
C        3.145778     2.601201    -3.204319
C        4.174645     2.034192    -2.460015
C        3.894751     1.090753    -1.470346
C        2.573890     0.691115    -1.188033
C        2.412127    -0.359693    -0.050911
N        1.413791    -1.349957    -0.408472
C        0.866747    -2.319293     0.556198
C       -0.712037    -2.398523     0.391191
N       -1.301429    -1.178459     0.951677
C       -2.420686    -0.463894     0.378796
C       -2.609849     0.859850     1.161558
C       -3.937818     1.227116     1.461278
C       -4.227831     2.396226     2.167577
C       -3.202556     3.231748     2.595927
C       -1.876662     2.908325     2.324994
C       -1.541971     1.743371     1.607105
N       -0.159185     1.472244     1.342372
C        0.923423     1.815634     2.235680
Cu       0.000000     0.000000     0.000000
H       -1.115344     2.274150    -2.802386
H       -0.786004     0.684057    -3.621206
H       -1.899489     0.766506    -2.203036
H        1.051895     2.693207    -3.569673
H        3.372145     3.334605    -3.968083
H        5.198573     2.328551    -2.651468
H        4.725081     0.672393    -0.915171
H        3.371245    -0.837750     0.243813
H        1.314991    -3.309921     0.336823
H        1.116774    -2.037492     1.603287
H       -0.972983    -2.521878    -0.682615
H       -1.109333    -3.262672     0.962877
H       -3.338673    -1.091719     0.384692
H       -4.765357     0.601641     1.150289
H       -5.255769     2.657356     2.385800
H       -3.434742     4.138496     3.140778
H       -1.105278     3.586527     2.666298
H        1.591968     0.938244     2.347806
H        1.499396     2.664174     1.814825
H        0.545885     2.072725     3.247897
43
ex_0164 frame29 see-saw N0-N0-ax-conf5
C       -0.957086    -1.215969    -2.613373
N        0.164064    -0.986105    -1.729595
C        1.546377    -1.298699    -1.946301
C        1.906195    -2.254578    -2.918223
C        3.239838    -2.576845    -3.149676
C        4.248376    -1.948566    -2.429788
C        3.935208    -0.995464    -1.460855
C        2.600304    -0.644206    -1.177364
C        2.409138     0.419543    -0.057039
N        1.383100     1.376897    -0.423753
C        0.824611     2.344550     0.536403
C       -0.754544     2.401316     0.372323
N       -1.320766     1.171758     0.933318
C       -2.446458     0.445460     0.388577
C       -2.605013    -0.888549     1.167157
C       -3.927265    -1.308454     1.417236
C       -4.197311    -2.488947     2.111393
C       -3.157252    -3.286335     2.573142
C       -1.835282    -2.912476     2.352538
C       -1.518986    -1.729315     1.653632
N       -0.143387    -1.379527     1.437056
C        0.992751    -1.797782     2.227602
Cu       0.000000     0.000000     0.000000
H       -1.430170    -0.239984    -2.847736
H       -0.660960    -1.678730    -3.572173
H       -1.700688    -1.862176    -2.104663
H        1.163741    -2.779731    -3.498918
H        3.491496    -3.321993    -3.894105
H        5.282190    -2.206165    -2.621353
H        4.751927    -0.533295    -0.920329
H        3.354513     0.929005     0.230403
H        1.261761     3.339659     0.315821
H        1.076860     2.068139     1.584917
H       -1.018424     2.519762    -0.700949
H       -1.164461     3.258237     0.946079
H       -3.370133     1.063341     0.428199
H       -4.766464    -0.714897     1.076507
H       -5.221484    -2.789913     2.292447
H       -3.374454    -4.204207     3.105801
H       -1.064373    -3.573215     2.720378
H        1.505418    -0.892389     2.613180
H        1.697534    -2.372333     1.594353
H        0.697767    -2.401477     3.106793
43
ex_0164 frame30 see-saw N0-N1-ax-conf5
C        1.811418    -2.360147     0.655312
N        1.708213    -1.030595     0.095306
C        2.736549    -0.221785    -0.487926
C        4.092974    -0.533612    -0.262151
C        5.108292     0.238198    -0.817919
C        4.799819     1.328101    -1.622767
C        3.469617     1.667852    -1.873109
C        2.404529     0.929892    -1.319491
C        0.973114     1.438952    -1.666168
N        0.089721     0.327941    -1.967804
C       -1.377358     0.446631    -2.030642
C       -2.048464    -0.752874    -1.224619
N       -1.921100    -0.500968     0.217554
C       -1.539310    -1.515624     1.181493
C       -1.255394    -0.843438     2.550917
C       -1.783923    -1.487523     3.689654
C       -1.589797    -0.972848     4.973554
C       -0.865575     0.199220     5.159099
C       -0.330078     0.872138     4.064615
C       -0.498464     0.381960     2.754457
N        0.082012     1.106896     1.661829
C        0.324004     2.529700     1.647109
Cu       0.000000     0.000000     0.000000
H        1.110605    -3.029659     0.116210
H        2.824365    -2.790288     0.558396
H        1.527446    -2.329958     1.727213
H        4.389611    -1.361555     0.362941
H        6.143379    -0.012283    -0.620186
H        5.599652     1.918141    -2.051641
H        3.273798     2.527988    -2.500803
H        0.958134     2.204888    -2.470951
H       -1.675495     0.387038    -3.097034
H       -1.727724     1.417421    -1.614765
H       -1.571730    -1.714696    -1.515974
H       -3.131085    -0.803242    -1.461071
H       -2.308373    -2.315800     1.249629
H       -2.356104    -2.401567     3.589920
H       -2.003416    -1.486201     5.832953
H       -0.716016     0.590674     6.158105
H        0.233338     1.777212     4.249433
H        0.060071     2.930465     0.647966
H        1.397410     2.724376     1.846910
H       -0.308791     3.051534     2.395331
43
ex_0164 frame31 see-saw N0-N1-ax-conf6
C        2.722702     1.200876    -0.056920
N        1.938437     0.068610    -0.500668
C        2.453434    -0.765996    -1.540303
C        3.648407    -1.494518    -1.407797
C        4.105015    -2.293534    -2.473104
C        3.383888    -2.363781    -3.668722
C        2.215036    -1.637517    -3.805327
C        1.747428    -0.869478    -2.743891
C        0.503088    -0.190242    -2.950970
N       -0.314403    -0.019670    -1.983498
C       -1.600296     0.494543    -2.401454
C       -2.470946     0.452121    -1.234994
N       -1.675829     1.075671    -0.200754
C       -2.573215     1.426100     0.878110
C       -2.999488     0.231836     1.638960
C       -4.362488    -0.068952     1.776050
C       -4.756018    -1.124490     2.596001
C       -3.787704    -1.871044     3.272353
C       -2.420322    -1.610237     3.071416
C       -2.010672    -0.569739     2.206223
N       -0.632904    -0.292961     1.879524
C        0.416347    -0.624840     2.810476
Cu       0.000000     0.000000     0.000000
H        2.143528     1.795794     0.678536
H        2.942074     1.856715    -0.929980
H        3.679761     0.870737     0.394583
H        4.226021    -1.441997    -0.496017
H        5.019447    -2.859926    -2.383557
H        3.715678    -2.976585    -4.495229
H        1.648350    -1.693310    -4.730796
H        0.196733     0.015384    -3.979624
H       -2.055730    -0.116188    -3.217155
H       -1.483718     1.546795    -2.751594
H       -3.423355     0.988386    -1.459681
H       -2.687005    -0.609185    -0.967717
H       -2.062878     2.127554     1.564559
H       -5.117207     0.532424     1.280339
H       -5.810146    -1.343665     2.728029
H       -4.101552    -2.661563     3.942235
H       -1.703189    -2.222444     3.595128
H        1.393057    -0.310554     2.397473
H        0.235332    -0.075614     3.761481
H        0.432103    -1.714176     3.011700
43
ex_0164 frame32 conf6
C        1.450936    -1.362396    -2.118775
N        0.881347    -1.607375    -0.812605
C        0.595717    -2.955797    -0.437309
C        1.601826    -3.918714    -0.254209
C        1.257095    -5.237857     0.095702
C       -0.082813    -5.602763     0.256461
C       -1.076218    -4.656090     0.074982
C       -0.734585    -3.340706    -0.243261
C       -1.812570    -2.399731    -0.362445
N       -1.639957    -1.145980    -0.133800
C       -2.881483    -0.400876    -0.172312
C       -2.598655     0.927478     0.348402
N       -1.430366     1.345231    -0.392376
C       -1.290781     2.774655    -0.200131
C       -0.856361     3.090442     1.180781
C       -1.627741     3.936422     1.991427
C       -1.154565     4.307144     3.249145
C        0.086194     3.835756     3.686843
C        0.825269     2.939265     2.895471
C        0.332239     2.523570     1.638434
N        0.987926     1.549135     0.805838
C        2.410956     1.344545     0.884816
Cu       0.000000     0.000000     0.000000
H        1.490292    -0.271736    -2.315136
H        0.799778    -1.825490    -2.895637
H        2.466492    -1.799861    -2.194245
H        2.640487    -3.657441    -0.392751
H        2.022007    -5.985989     0.237798
H       -0.363570    -6.612989     0.524077
H       -2.117930    -4.937813     0.203855
H       -2.816483    -2.804696    -0.519424
H       -3.675851    -0.865067     0.459740
H       -3.242776    -0.333230    -1.225248
H       -3.487113     1.585119     0.200652
H       -2.358490     0.848725     1.435238
H       -0.552054     3.172577    -0.920752
H       -2.577501     4.327508     1.641691
H       -1.737744     4.977002     3.871735
H        0.466005     4.157236     4.648336
H        1.768753     2.579706     3.275160
H        2.716065     0.585483     0.139992
H        2.921816     2.304462     0.647977
H        2.701414     1.009337     1.899690
43
ex_0164 frame33 square-planar cis-conf6
C       -0.220016     2.662702     1.154277
N       -0.590820     1.916399    -0.027352
C       -1.660832     2.410477    -0.834626
C       -1.575769     3.617992    -1.546874
C       -2.672693     4.062308    -2.309670
C       -3.852359     3.314084    -2.360173
C       -3.938928     2.125114    -1.657380
C       -2.842971     1.669363    -0.924191
C       -2.986865     0.402637    -0.265780
N       -1.976826    -0.353626    -0.034785
C       -2.358471    -1.643681     0.498651
C       -1.170526    -2.481194     0.482741
N       -0.163161    -1.656994     1.111988
C        0.940606    -2.527014     1.462266
C        1.678574    -2.968527     0.256419
C        1.828416    -4.334790    -0.023402
C        2.614702    -4.736258    -1.101935
C        3.249782    -3.772251    -1.889942
C        3.044046    -2.403842    -1.642262
C        2.212327    -1.987091    -0.578812
N        1.886187    -0.611094    -0.310128
C        2.775696     0.450012    -0.704668
Cu       0.000000     0.000000     0.000000
H        0.520885     2.088859     1.747225
H       -1.122141     2.813499     1.791248
H        0.195600     3.653080     0.880868
H       -0.678288     4.217162    -1.503297
H       -2.619790     4.989302    -2.859809
H       -4.704327     3.641977    -2.941044
H       -4.853961     1.540322    -1.698830
H       -4.004263     0.039008    -0.094834
H       -3.149805    -2.139081    -0.114097
H       -2.727758    -1.520183     1.543867
H       -1.377366    -3.435220     1.022382
H       -0.889064    -2.695213    -0.575531
H        1.629510    -1.992389     2.142567
H        1.361085    -5.085806     0.605263
H        2.750554    -5.792011    -1.310472
H        3.890654    -4.090691    -2.702248
H        3.533560    -1.688771    -2.284855
H        2.361770     1.421063    -0.373722
H        3.759263     0.291568    -0.208575
H        2.911026     0.456928    -1.803935
43
ex_0164 frame34 Δ-conf6
C       -0.251435    -2.233438     1.853638
N       -0.999746    -1.521596     0.841691
C       -2.105503    -2.183886     0.225342
C       -3.273303    -2.525025     0.928095
C       -4.320755    -3.194956     0.266253
C       -4.207636    -3.530070    -1.086182
C       -3.057159    -3.197825    -1.778665
C       -2.030928    -2.510085    -1.131434
C       -0.893309    -2.153041    -1.926612
N       -0.186469    -1.117384    -1.658597
C        0.809736    -0.850984    -2.673775
C        1.371705     0.456629    -2.385262
N        1.703741     0.380406    -0.980200
C        2.592573     1.486992    -0.695239
C        1.865739     2.776154    -0.720556
C        2.273729     3.803323    -1.584741
C        1.650543     5.047929    -1.518793
C        0.629824     5.260532    -0.588291
C        0.181623     4.207077     0.228524
C        0.776562     2.928896     0.135083
N        0.320651     1.777991     0.873461
C       -0.366118     1.934161     2.129226
Cu       0.000000     0.000000     0.000000
H        0.654935    -1.657330     2.130043
H        0.081254    -3.214311     1.442064
H       -0.876179    -2.414710     2.751109
H       -3.369169    -2.290097     1.977661
H       -5.221993    -3.464418     0.795255
H       -5.002840    -4.044110    -1.609831
H       -2.968307    -3.453840    -2.831102
H       -0.736004    -2.709415    -2.855238
H        0.373629    -0.831373    -3.701797
H        1.606454    -1.630384    -2.628064
H        2.248221     0.641834    -3.049907
H        0.591352     1.235704    -2.556635
H        3.053537     1.341924     0.299503
H        3.087326     3.649609    -2.286029
H        1.976246     5.852082    -2.169933
H        0.177465     6.241105    -0.513139
H       -0.623318     4.403344     0.918965
H       -0.595780     0.937954     2.551819
H        0.301909     2.477934     2.834155
H       -1.304477     2.506637     1.991956
43
ex_0164 frame35 Λ-conf6
C       -1.366780    -2.135107     1.438879
N       -1.603630    -0.822581     0.879833
C       -2.951197    -0.444472     0.589696
C       -3.919945    -0.252786     1.588932
C       -5.235679     0.103124     1.232842
C       -5.590018     0.263374    -0.110239
C       -4.638648     0.070382    -1.095095
C       -3.330033    -0.255856    -0.742198
C       -2.389202    -0.388926    -1.813625
N       -1.144118    -0.132472    -1.645290
C       -0.403664    -0.166824    -2.888248
C        0.917423     0.365473    -2.609959
N        1.338856    -0.373404    -1.441207
C        2.767451    -0.183598    -1.314685
C        3.086603     1.193165    -0.876004
C        3.923317     2.008144    -1.653088
C        4.306455     3.258695    -1.172405
C        3.857569     3.683716     0.080643
C        2.964560     2.890295     0.823077
C        2.532906     1.641693     0.320935
N        1.554518     0.809498     0.976898
C        1.364291     0.886347     2.402501
Cu       0.000000     0.000000     0.000000
H       -0.278106    -2.344931     1.464315
H       -1.845340    -2.902648     0.787565
H       -1.794760    -2.212740     2.458303
H       -3.667637    -0.390021     2.630045
H       -5.989852     0.251228     1.990290
H       -6.595154     0.538098    -0.401567
H       -4.909988     0.197787    -2.139936
H       -2.791339    -0.570317    -2.814895
H       -0.877946     0.458094    -3.683134
H       -0.326186    -1.219986    -3.247572
H        1.573561     0.220148    -3.500533
H        0.832655     1.452408    -2.371934
H        3.171632    -0.907432    -0.582799
H        4.298857     1.665998    -2.611721
H        4.970742     3.884110    -1.759190
H        4.192451     4.637607     0.467712
H        2.622294     3.261882     1.775679
H        0.604642     0.145533     2.715089
H        2.328755     0.644972     2.903057
H        1.038213     1.902908     2.698079
43
ex_0164 frame36 see-saw N0-N0-ax-conf6
C       -1.067436    -0.461189    -2.680256
N       -0.142815     0.386955    -1.962067
C        0.894110     1.052310    -2.687316
C        0.641957     2.093705    -3.595633
C        1.715108     2.699618    -4.280192
C        3.027901     2.266312    -4.073620
C        3.273988     1.229678    -3.191530
C        2.218101     0.655567    -2.489243
C        2.560865    -0.367405    -1.548977
N        1.881381    -0.508740    -0.470604
C        2.519757    -1.410402     0.465704
C        1.774231    -1.314330     1.706492
N        0.403532    -1.485090     1.279965
C       -0.369643    -1.828501     2.455431
C       -0.514679    -0.662695     3.354140
C       -0.100575    -0.740563     4.693000
C       -0.347180     0.327520     5.553373
C       -1.007092     1.461891     5.073455
C       -1.358618     1.559369     3.714352
C       -1.072103     0.498964     2.824345
N       -1.323293     0.551376     1.403851
C       -2.374255     1.383539     0.879683
Cu       0.000000     0.000000     0.000000
H       -1.680513    -1.043194    -1.961128
H       -0.495561    -1.188212    -3.301616
H       -1.724750     0.139934    -3.339791
H       -0.367255     2.431076    -3.776741
H        1.538406     3.505995    -4.975513
H        3.864455     2.724515    -4.583373
H        4.293771     0.895102    -3.020646
H        3.520434    -0.875961    -1.676336
H        3.582789    -1.131898     0.664471
H        2.479900    -2.453370     0.072445
H        2.133184    -2.093735     2.419339
H        1.917536    -0.299437     2.148443
H       -1.370442    -2.181708     2.145243
H        0.383147    -1.633372     5.075566
H       -0.050214     0.264086     6.595161
H       -1.232131     2.271269     5.756486
H       -1.846771     2.459786     3.377390
H       -2.437589     1.252920    -0.216765
H       -3.338423     1.065141     1.335747
H       -2.185160     2.448120     1.120142
43
ex_0164 frame37 Isomer 1
C       -2.878090    -0.625980    -0.662218
N       -1.504150    -1.013957    -0.873015
C       -1.008577    -2.323765    -0.993673
C       -1.701146    -3.383825    -0.383485
C       -1.177821    -4.669205    -0.401966
C        0.036769    -4.914307    -1.036339
C        0.719744    -3.877699    -1.690678
C        0.190303    -2.569312    -1.732697
C        0.933235    -1.485516    -2.570099
N        1.498926    -0.344658    -1.842103
C        1.615271     0.920018    -2.610278
C        0.260604     1.714553    -2.837380
N       -0.535579     1.995431    -1.615818
C       -0.002207     3.047947    -0.744220
C       -0.328517     2.956042     0.776346
C       -1.107767     3.975559     1.364798
C       -1.345891     3.998730     2.747333
C       -0.824509     3.004333     3.570029
C       -0.095387     1.961286     3.016741
C        0.113276     1.895192     1.628338
N        0.761911     0.774073     1.082433
C        1.714146    -0.083305     1.746636
Cu      -0.007469     0.300772    -0.701653
H       -3.294452    -1.082217     0.255500
H       -2.928710     0.478546    -0.564852
H       -3.480834    -0.923775    -1.547856
H       -2.633318    -3.218047     0.139270
H       -1.714828    -5.471813     0.090074
H        0.437910    -5.919391    -1.034870
H        1.641818    -4.116958    -2.202067
H        1.759161    -1.953922    -3.148433
H        2.116735     0.727490    -3.583084
H        2.278803     1.592439    -2.027286
H       -0.368694     1.079924    -3.495784
H        0.458909     2.660895    -3.385239
H       -0.349489     4.023446    -1.148946
H       -1.499642     4.785954     0.765847
H       -1.921157     4.800856     3.190647
H       -0.993687     3.029187     4.640212
H        0.274495     1.188452     3.676950
H        2.624364     0.506234     1.993056
H        1.289277    -0.532588     2.663673
H        2.008871    -0.898703     1.053484
43
ex_0164 frame38 square-planar cis-conf2
C        0.350298     1.906303    -2.366416
N       -0.040145     1.735990    -0.987418
C       -0.601405     2.746311    -0.142802
C       -0.457617     4.101144    -0.498107
C       -0.980233     5.111556     0.303876
C       -1.662857     4.795203     1.473368
C       -1.831728     3.463158     1.855111
C       -1.319264     2.405644     1.077733
C       -1.580078     0.971354     1.615824
N       -1.927283     0.095703     0.514459
C       -2.038417    -1.364845     0.631968
C       -1.357901    -2.042359    -0.635140
N        0.102760    -1.925727    -0.518707
C        0.974538    -1.568514    -1.620149
C        2.408145    -1.296087    -1.085487
C        3.467755    -1.794510    -1.869290
C        4.799533    -1.614155    -1.492195
C        5.114204    -0.934133    -0.320731
C        4.102072    -0.425663     0.488242
C        2.747586    -0.581048     0.137398
N        1.735222    -0.034072     0.988331
C        1.903864     0.345433     2.370684
Cu       0.000000     0.000000     0.000000
H        0.682598     0.933644    -2.778957
H       -0.520122     2.263622    -2.957059
H        1.185275     2.631368    -2.445626
H        0.065934     4.387616    -1.399940
H       -0.854801     6.147472     0.014331
H       -2.067175     5.589570     2.087829
H       -2.374817     3.259353     2.769508
H       -2.353421     0.944014     2.413796
H       -1.555281    -1.737049     1.562005
H       -3.117281    -1.622692     0.659332
H       -1.732591    -1.560579    -1.564915
H       -1.611963    -3.122082    -0.662463
H        0.950919    -2.338317    -2.421564
H        3.265311    -2.334949    -2.785528
H        5.595221    -2.007426    -2.112111
H        6.149995    -0.799477    -0.035060
H        4.386781     0.096619     1.391347
H        2.622624     1.185110     2.457084
H        2.268308    -0.527475     2.953257
H        0.928673     0.666350     2.786694
43
ex_0164 frame39 conf2
C        1.575122    -1.803078     1.903073
N        1.192772    -1.507789     0.543239
C        1.519083    -2.291379    -0.609379
C        2.578920    -3.215610    -0.537657
C        2.932626    -3.987464    -1.640470
C        2.234792    -3.861188    -2.836625
C        1.173675    -2.960502    -2.944354
C        0.779724    -2.155539    -1.856850
C       -0.417416    -1.197706    -2.111830
N       -1.289086    -1.190164    -0.953850
C       -2.399516    -0.245738    -0.768475
C       -2.407507     0.257425     0.739874
N       -1.293639     1.195341     0.941149
C       -0.433328     1.190058     2.107727
C        0.777574     2.136186     1.870637
C        1.168766     2.929644     2.967201
C        2.241503     3.818569     2.876695
C        2.953643     3.944367     1.688929
C        2.602744     3.184219     0.577288
C        1.531809     2.272034     0.631922
N        1.208903     1.500166    -0.528730
C        1.602121     1.801605    -1.883937
Cu       0.000000     0.000000     0.000000
H        1.116924    -1.060214     2.584856
H        1.207087    -2.813933     2.180514
H        2.677247    -1.757272     2.014041
H        3.145276    -3.343443     0.374685
H        3.753958    -4.689252    -1.565002
H        2.517337    -4.468982    -3.686845
H        0.652566    -2.897300    -3.891513
H       -0.978525    -1.447294    -3.038438
H       -2.312718     0.625599    -1.454282
H       -3.344339    -0.784073    -0.988732
H       -2.335384    -0.614782     1.426320
H       -3.352039     0.801131     0.947632
H       -1.001022     1.438596     3.030484
H        0.636943     2.866245     3.908323
H        2.521981     4.417277     3.733914
H        3.784170     4.636585     1.626963
H        3.180252     3.310677    -0.328214
H        2.704501     1.747640    -1.988727
H        1.244221     2.817505    -2.156232
H        1.141470     1.067428    -2.573715
43
ex_0164 frame40 Δ-conf2
C       -2.399854    -1.029490     1.591972
N       -1.025382    -1.225957     1.199344
C       -0.215309    -2.362217     1.517761
C       -0.596205    -3.204510     2.579860
C        0.171203    -4.312759     2.926395
C        1.330677    -4.610666     2.218910
C        1.737167    -3.803007     1.155363
C        0.995295    -2.669050     0.768626
C        1.558801    -1.858735    -0.432341
N        0.469177    -1.446300    -1.294624
C        0.615646    -0.494793    -2.404817
C       -0.623162     0.502165    -2.401585
N       -0.476119     1.450223    -1.287786
C       -1.564372     1.851233    -0.418236
C       -1.002653     2.653424     0.789615
C       -1.750718     3.778645     1.188725
C       -1.347569     4.578471     2.259643
C       -0.184755     4.281167     2.962130
C        0.589397     3.181903     2.603188
C        0.211833     2.347770     1.533683
N        1.028242     1.220613     1.202416
C        2.406745     1.030484     1.583760
Cu       0.000000     0.000000     0.000000
H       -2.783559    -0.095135     1.137724
H       -3.014597    -1.880019     1.227339
H       -2.479776    -0.949233     2.694828
H       -1.491223    -3.006856     3.153664
H       -0.137593    -4.944975     3.749626
H        1.917894    -5.477079     2.495925
H        2.642712    -4.073422     0.626702
H        2.335227    -2.415519    -1.000584
H        1.562572     0.083134    -2.324465
H        0.627414    -1.074731    -3.350604
H       -1.569712    -0.076577    -2.322391
H       -0.636322     1.085274    -3.345361
H       -2.346794     2.407037    -0.979055
H       -2.659145     4.048131     0.664515
H       -1.940069     5.437923     2.546275
H        0.121175     4.907031     3.791280
H        1.486811     2.983814     3.173283
H        2.495310     0.941701     2.685304
H        3.012900     1.888359     1.221920
H        2.793498     0.102588     1.118556
43
ex_0164 frame41 Λ-conf3
C       -1.041860    -2.420119     1.506277
N       -1.232598    -1.021279     1.195159
C       -2.365645    -0.206465     1.525834
C       -3.195367    -0.570076     2.606269
C       -4.303244     0.197187     2.951788
C       -4.618400     1.339093     2.225440
C       -3.821362     1.734336     1.149745
C       -2.682574     0.996381     0.767104
C       -1.879121     1.556375    -0.440231
N       -1.448225     0.467363    -1.293116
C       -0.490765     0.614128    -2.397042
C        0.493549    -0.635235    -2.391930
N        1.449287    -0.488777    -1.283949
C        1.848042    -1.571611    -0.405412
C        2.651003    -1.001991     0.799672
C        3.779256    -1.745429     1.201433
C        4.577100    -1.337370     2.272280
C        4.276112    -0.173837     2.971604
C        3.176322     0.597462     2.608451
C        2.343993     0.215365     1.539319
N        1.216592     1.030365     1.203677
C        1.022470     2.409003     1.582947
Cu       0.000000     0.000000     0.000000
H       -0.889276    -2.974088     0.557280
H       -0.144820    -2.541419     2.145753
H       -1.922248    -2.866933     2.005621
H       -2.987856    -1.441837     3.208821
H       -4.921210    -0.098381     3.790895
H       -5.486204     1.924549     2.501864
H       -4.101168     2.631783     0.612341
H       -2.440735     2.325156    -1.014126
H        0.098042     1.553736    -2.304908
H       -1.065667     0.640470    -3.345160
H       -0.096640    -1.574054    -2.301296
H        1.070861    -0.662892    -3.338471
H        2.409621    -2.353336    -0.962090
H        4.052035    -2.654917     0.680776
H        5.437625    -1.927018     2.562168
H        4.899435     0.135282     3.801562
H        2.975863     1.495904     3.175900
H        0.934388     2.498810     2.684339
H        1.877395     3.017964     1.218861
H        0.092156     2.790572     1.118100
43
ex_0164 frame42 conf3
C        1.507175    -1.039904    -2.420106
N        1.194483    -1.232751    -1.021906
C        1.524922    -2.366000    -0.207141
C        2.604777    -3.196590    -0.570676
C        2.949785    -4.304393     0.197037
C        2.223675    -4.618546     1.339370
C        1.148516    -3.820806     1.734449
C        0.766242    -2.682294     0.995960
C       -0.440775    -1.878359     1.555740
N       -1.293648    -1.448017     0.466549
C       -2.398168    -0.491289     0.613557
C       -2.393055     0.494602    -0.634488
N       -1.284192     1.449322    -0.488055
C       -0.405758     1.847164    -1.571270
C        0.799050     2.650672    -1.002150
C        1.200307     3.778764    -1.745993
C        2.270678     4.577289    -1.338113
C        2.969992     4.277107    -0.174345
C        2.607470     3.177252     0.597210
C        1.538849     2.344206     0.215174
N        1.203821     1.216591     1.030188
C        1.583776     1.022393     2.408642
Cu       0.000000     0.000000     0.000000
H        0.558498    -0.890935    -2.975653
H        2.142795    -0.139875    -2.539565
H        2.011489    -1.917375    -2.866849
H        3.207251    -2.990178    -1.442683
H        3.788353    -4.923116    -0.098466
H        2.499761    -5.486179     1.925246
H        0.611137    -4.099879     2.632150
H       -1.014663    -2.439189     2.325080
H       -2.307224     0.096107     1.554112
H       -3.346041    -1.066754     0.638222
H       -2.303981    -0.094200    -1.574270
H       -3.339198     1.072737    -0.660248
H       -0.962421     2.407780    -2.353658
H        0.679519     4.050910    -2.655592
H        2.560107     5.437758    -1.928050
H        3.799464     4.901103     0.134705
H        3.174900     2.977400     1.495816
H        2.685226     0.934283     2.497855
H        1.220084     1.877318     3.017839
H        1.119084     0.092083     2.790444
43
ex_0164 frame43 square-planar cis-conf3
C        0.276373     1.835024     2.400761
N       -0.058720     1.729399     0.998238
C       -0.605945     2.750359     0.151649
C       -0.445435     4.108130     0.496777
C       -0.964896     5.119786    -0.305248
C       -1.663731     4.806115    -1.464640
C       -1.844563     3.474752    -1.841524
C       -1.330497     2.414843    -1.067634
C       -1.598086     0.983228    -1.609805
N       -1.927609     0.096860    -0.512805
C       -2.033172    -1.362431    -0.638788
C       -1.358037    -2.039690     0.631448
N        0.103878    -1.925186     0.520445
C        0.973394    -1.557322     1.620977
C        2.408378    -1.289293     1.084961
C        3.467330    -1.794342     1.865474
C        4.799476    -1.616356     1.487574
C        5.114675    -0.932666     0.318366
C        4.103223    -0.418981    -0.487804
C        2.748602    -0.571887    -0.136496
N        1.737493    -0.020110    -0.985642
C        1.906211     0.371269    -2.364294
Cu       0.000000     0.000000     0.000000
H       -0.316621     1.084060     2.962533
H        1.355061     1.623060     2.541994
H        0.032641     2.827033     2.824160
H        0.097729     4.406785     1.380567
H       -0.822468     6.155891    -0.023516
H       -2.065992     5.602615    -2.077822
H       -2.393908     3.273941    -2.752869
H       -2.377205     0.957829    -2.402250
H       -1.539795    -1.728686    -1.566072
H       -3.110734    -1.623602    -0.676993
H       -1.736175    -1.555911     1.558931
H       -1.613738    -3.118817     0.658941
H        0.951188    -2.324692     2.425048
H        3.265009    -2.337545     2.780153
H        5.594915    -2.013853     2.105071
H        6.150592    -0.799449     0.032238
H        4.388323     0.105522    -1.389541
H        2.624533     1.212114    -2.442502
H        2.270969    -0.496279    -2.954641
H        0.930559     0.695668    -2.776790
43
ex_0164 frame44 Δ-conf3
C        2.084734    -1.757040     1.332276
N        0.676119    -1.506828     1.123911
C       -0.424898    -2.332425     1.529083
C       -0.259648    -3.250940     2.586153
C       -1.308693    -4.065444     3.001240
C       -2.544400    -3.992889     2.369857
C       -2.749275    -3.096531     1.319958
C       -1.721134    -2.244155     0.868939
C       -2.090410    -1.289834    -0.300920
N       -0.989508    -1.213751    -1.239222
C       -0.914745    -0.247690    -2.342784
C        0.572966     0.304841    -2.443553
N        0.816260     1.240412    -1.335307
C        2.031577     1.262155    -0.544445
C        1.837396     2.191422     0.687706
C        2.925359     3.025631     1.014131
C        2.870898     3.902105     2.099558
C        1.728591     3.975311     2.889182
C        0.626481     3.175023     2.603578
C        0.645985     2.273957     1.522174
N       -0.503277     1.460211     1.266917
C       -1.839079     1.698945     1.757836
Cu       0.000000     0.000000     0.000000
H        2.586369    -1.792733     0.343277
H        2.524090    -0.934720     1.931581
H        2.275984    -2.725838     1.830261
H        0.676234    -3.339572     3.117011
H       -1.159841    -4.758133     3.820555
H       -3.351111    -4.635172     2.699907
H       -3.727683    -3.070742     0.856652
H       -3.038664    -1.572137    -0.807673
H       -1.619698     0.599594    -2.191963
H       -1.184610    -0.778591    -3.278689
H        1.289660    -0.545721    -2.424816
H        0.701191     0.862277    -3.393961
H        2.909151     1.548657    -1.163978
H        3.831564     3.003726     0.421711
H        3.720758     4.532029     2.329868
H        1.694547     4.657867     3.729279
H       -0.243546     3.261559     3.240007
H       -1.863305     1.627399     2.863882
H       -2.179037     2.705976     1.434495
H       -2.527064     0.940120     1.335803
43
ex_0164 frame45 see-saw N0-N1-ax-conf3
C        1.814047     2.355043     0.675658
N        1.712651     1.020008     0.128975
C        2.742969     0.231136    -0.475920
C        4.096545     0.550723    -0.247023
C        5.117137    -0.200525    -0.819988
C        4.815804    -1.277878    -1.644539
C        3.487560    -1.624123    -1.898780
C        2.417977    -0.904459    -1.330211
C        0.988769    -1.411745    -1.684476
N        0.107963    -0.295354    -1.971956
C       -1.358337    -0.407092    -2.051933
C       -2.030250     0.787420    -1.239253
N       -1.918505     0.516623     0.200327
C       -1.543701     1.512664     1.187782
C       -1.272348     0.816592     2.550552
C       -1.771228     1.466106     3.699152
C       -1.586894     0.931394     4.976415
C       -0.899827    -0.265362     5.145592
C       -0.390664    -0.942964     4.041590
C       -0.554780    -0.435139     2.737309
N       -0.013369    -1.159806     1.626717
C        0.373808    -2.549429     1.643895
Cu       0.000000     0.000000     0.000000
H        1.065483     3.001794     0.174240
H        1.598142     2.328067     1.763101
H        2.807534     2.809601     0.505562
H        4.384578     1.369282     0.395250
H        6.150193     0.055970    -0.619562
H        5.619765    -1.852603    -2.086000
H        3.296900    -2.473561    -2.542272
H        0.974838    -2.168556    -2.497662
H       -1.717241    -1.380705    -1.649830
H       -1.645084    -0.334780    -3.120557
H       -1.544450     1.749543    -1.513621
H       -3.110148     0.846860    -1.485624
H       -2.310409     2.314238     1.264330
H       -2.317455     2.397034     3.611754
H       -1.982152     1.446518     5.843296
H       -0.761850    -0.674409     6.139238
H        0.134432    -1.871880     4.216065
H        1.223430    -2.703259     2.339647
H       -0.491485    -3.171263     1.957821
H        0.684766    -2.859623     0.627983
43
ex_0164 frame46 Isomer 2
C        1.622200    -1.667601     1.987672
N        1.204653    -1.467784     0.620311
C        1.532361    -2.302890    -0.494780
C        2.592154    -3.222585    -0.381970
C        2.947426    -4.039843    -1.451269
C        2.251243    -3.964290    -2.652985
C        1.188618    -3.071818    -2.799117
C        0.793192    -2.223760    -1.747247
C       -0.406065    -1.283324    -2.043886
N       -1.284927    -1.240595    -0.893442
C       -2.409445    -0.302814    -0.767829
C       -2.427692     0.300231     0.701112
N       -1.311130     1.243367     0.850286
C       -0.460778     1.299056     2.021092
C        0.734702     2.249582     1.745000
C        1.090727     3.117829     2.794579
C        2.146804     4.020500     2.664591
C        2.876006     4.085702     1.482030
C        2.560179     3.248314     0.415937
C        1.507075     2.318795     0.512359
N        1.219569     1.464850    -0.599825
C        1.685005     1.644407    -1.954345
Cu       0.000000     0.000000     0.000000
H        2.725999    -1.596926     2.068439
H        1.168823    -0.886958     2.629919
H        1.278910    -2.663104     2.340824
H        3.157612    -3.310444     0.535822
H        3.769342    -4.736754    -1.346091
H        2.535497    -4.604982    -3.477691
H        0.668178    -3.047321    -3.748447
H       -0.958500    -1.559059    -2.967836
H       -3.346880    -0.869514    -0.946915
H       -2.338764     0.519602    -1.512781
H       -2.368676    -0.521540     1.447757
H       -3.371718     0.862230     0.859362
H       -1.037463     1.576565     2.929557
H        0.543926     3.101728     3.729157
H        2.400237     4.677210     3.486777
H        3.692658     4.790542     1.389166
H        3.150428     3.329463    -0.486730
H        1.351472     2.632994    -2.335094
H        2.791278     1.576609    -1.994129
H        1.258291     0.852768    -2.600806
43
ex_0164 frame47 Δ
C       -2.373917    -1.015636     1.641324
N       -1.010538    -1.222160     1.214950
C       -0.186939    -2.348068     1.534662
C       -0.550977    -3.189496     2.603101
C        0.233696    -4.285340     2.950880
C        1.393168    -4.571592     2.238238
C        1.781388    -3.765797     1.166969
C        1.022160    -2.645022     0.778802
C        1.567108    -1.837555    -0.431122
N        0.468841    -1.448568    -1.292305
C        0.611336    -0.510463    -2.414855
C       -0.615446     0.499064    -2.413756
N       -0.462584     1.444373    -1.299258
C       -1.552466     1.847967    -0.434551
C       -0.990867     2.666099     0.759723
C       -1.731009     3.804475     1.133682
C       -1.325610     4.620370     2.190902
C       -0.168122     4.326440     2.903450
C        0.597719     3.213156     2.569307
C        0.216809     2.361876     1.514306
N        1.022933     1.219238     1.207602
C        2.380475     0.994863     1.643833
Cu       0.000000     0.000000     0.000000
H       -2.423595    -0.924423     2.745393
H       -2.764072    -0.082224     1.189714
H       -3.002910    -1.865857     1.301949
H       -1.444913    -2.999706     3.181443
H       -0.060837    -4.916784     3.779730
H        1.995017    -5.427130     2.516706
H        2.687574    -4.025830     0.634177
H        2.354311    -2.380831    -0.997088
H        0.605069    -1.100858    -3.354588
H        1.565827     0.056610    -2.352941
H       -1.569514    -0.067184    -2.339269
H       -0.617034     1.082907    -3.357600
H       -2.339960     2.390700    -1.000618
H       -2.635095     4.070794     0.600501
H       -1.912488     5.489706     2.458461
H        0.139905     4.965701     3.721393
H        1.491033     3.018736     3.146987
H        3.024985     1.831564     1.300046
H        2.422259     0.913662     2.749036
H        2.759118     0.051388     1.204330
43
ex_0164 frame48 see-saw N0-N1-ax-conf2
C        1.880381    -2.314726     0.735802
N        1.718461    -1.008691     0.142567
C        2.739499    -0.221730    -0.472586
C        4.089986    -0.550019    -0.250832
C        5.111340     0.201181    -0.823073
C        4.809548     1.287598    -1.637167
C        3.480905     1.637020    -1.888343
C        2.411328     0.913694    -1.324877
C        0.980213     1.416496    -1.681675
N        0.106013     0.294235    -1.972244
C       -1.361597     0.399709    -2.055703
C       -2.033588    -0.790701    -1.236963
N       -1.919926    -0.511683     0.200241
C       -1.565308    -1.508619     1.193452
C       -1.283800    -0.814050     2.554407
C       -1.776810    -1.464478     3.705185
C       -1.584722    -0.931505     4.981855
C       -0.894932     0.263920     5.148737
C       -0.390900     0.942170     4.042437
C       -0.563084     0.436037     2.738571
N       -0.026348     1.161139     1.625601
C        0.346473     2.554683     1.640380
Cu       0.000000     0.000000     0.000000
H        0.899667    -2.684849     1.092456
H        2.273434    -3.023168    -0.023583
H        2.573878    -2.261990     1.599761
H        4.363742    -1.387159     0.377122
H        6.144219    -0.062552    -0.632283
H        5.613080     1.863518    -2.077833
H        3.289826     2.488096    -2.529641
H        0.969428     2.165589    -2.502252
H       -1.724684     1.374737    -1.661227
H       -1.646666     0.318795    -3.124247
H       -1.547491    -1.754143    -1.506156
H       -3.113870    -0.852446    -1.481618
H       -2.341555    -2.300718     1.269825
H       -2.324831    -2.394400     3.619260
H       -1.976248    -1.447163     5.850171
H       -0.750818     0.671500     6.142092
H        0.137262     1.869681     4.215502
H        1.194825     2.719785     2.335053
H       -0.525596     3.167264     1.954009
H        0.652604     2.866867     0.623627
43
ex_0164 frame49 square-planar cis
C        0.386716     1.920863    -2.348961
N       -0.026219     1.742044    -0.977368
C       -0.576513     2.749542    -0.123536
C       -0.418691     4.106319    -0.465324
C       -0.928774     5.113880     0.347984
C       -1.613899     4.792932     1.514845
C       -1.798301     3.459129     1.882226
C       -1.298131     2.404480     1.093963
C       -1.575942     0.968562     1.618691
N       -1.927732     0.102463     0.511499
C       -2.052548    -1.357403     0.629647
C       -1.365798    -2.044752    -0.627722
N        0.093883    -1.930602    -0.502040
C        0.971142    -1.589535    -1.603332
C        2.404879    -1.329852    -1.065028
C        3.461037    -1.854313    -1.835627
C        4.793076    -1.686469    -1.454027
C        5.110436    -0.993889    -0.290709
C        4.100963    -0.460268     0.505251
C        2.745996    -0.602022     0.149365
N        1.736565    -0.028887     0.987252
C        1.911768     0.406386     2.352124
Cu       0.000000     0.000000     0.000000
H        1.230805     2.637339    -2.408167
H        0.715792     0.948036    -2.764515
H       -0.470317     2.293191    -2.949527
H        0.108293     4.395998    -1.364292
H       -0.791210     6.151295     0.069925
H       -2.007805     5.584973     2.138853
H       -2.342169     3.251573     2.795272
H       -2.349387     0.941074     2.416437
H       -3.133866    -1.606381     0.645737
H       -1.583101    -1.731905     1.565679
H       -1.732322    -1.568434    -1.563404
H       -1.622507    -3.124069    -0.649257
H        0.941586    -2.364509    -2.399599
H        3.256116    -2.404501    -2.745535
H        5.586490    -2.098972    -2.064119
H        6.146478    -0.868990    -0.001430
H        4.388496     0.071036     1.402174
H        2.272209    -0.443199     2.970149
H        2.636277     1.244461     2.400184
H        0.940872     0.752944     2.756948
43
ex_0164 frame50 see-saw N0-N0-ax-conf2
C       -0.954706    -1.266099    -2.614481
N        0.149918    -0.989243    -1.729008
C        1.526642    -1.296819    -1.961765
C        1.863278    -2.239529    -2.951100
C        3.191142    -2.573758    -3.199098
C        4.212725    -1.968752    -2.475240
C        3.918510    -1.022034    -1.492722
C        2.590304    -0.656237    -1.197787
C        2.413514     0.405598    -0.073053
N        1.388784     1.368418    -0.432170
C        0.833300     2.335684     0.529873
C       -0.746480     2.398775     0.363748
N       -1.322078     1.174112     0.928241
C       -2.441831     0.442603     0.374531
C       -2.603974    -0.888376     1.158759
C       -3.925897    -1.310690     1.407073
C       -4.194536    -2.485831     2.111920
C       -3.153285    -3.275342     2.586845
C       -1.831877    -2.900776     2.363447
C       -1.519816    -1.725465     1.652656
N       -0.145699    -1.383828     1.433914
C        0.965833    -1.864604     2.219432
Cu       0.000000     0.000000     0.000000
H       -1.885998    -0.854263    -2.175851
H       -0.776029    -0.778685    -3.596364
H       -1.076957    -2.359821    -2.749955
H        1.096552    -2.731498    -3.534039
H        3.428327    -3.307973    -3.958810
H        5.242092    -2.235352    -2.677940
H        4.743970    -0.573096    -0.954403
H        3.363994     0.908499     0.208459
H        1.083680     2.056244     1.578019
H        1.274760     3.329386     0.311551
H       -1.007985     2.515806    -0.710286
H       -1.152391     3.259967     0.933850
H       -3.367771     1.057673     0.405101
H       -4.765413    -0.719462     1.062969
H       -5.218464    -2.785828     2.296209
H       -3.369354    -4.184666     3.134137
H       -1.051609    -3.541907     2.749686
H        1.084133    -2.959724     2.097927
H        0.794508    -1.617803     3.289483
H        1.897729    -1.366906     1.890990
43
ex_0164 frame51 see-saw N0-N0-ax
C       -0.938753    -1.316954    -2.596491
N        0.163209    -1.004360    -1.719054
C        1.542737    -1.311320    -1.937546
C        1.891459    -2.258122    -2.918646
C        3.222909    -2.593206    -3.147872
C        4.235042    -1.986163    -2.412435
C        3.928595    -1.033836    -1.439900
C        2.597282    -0.665337    -1.166658
C        2.407191     0.405742    -0.055479
N        1.389695     1.364940    -0.440372
C        0.845624     2.356483     0.502763
C       -0.734729     2.415313     0.360896
N       -1.302784     1.191304     0.933783
C       -2.420562     0.461882     0.376183
C       -2.598782    -0.856266     1.173342
C       -3.925117    -1.251946     1.436006
C       -4.208349    -2.414913     2.153795
C       -3.176781    -3.216482     2.630229
C       -1.850524    -2.867310     2.392826
C       -1.524053    -1.705954     1.665514
N       -0.146297    -1.389557     1.428166
C        0.975333    -1.933001     2.157826
Cu       0.000000     0.000000     0.000000
H       -1.045973    -2.415720    -2.703760
H       -1.875669    -0.908313    -2.166513
H       -0.767989    -0.853212    -3.590952
H        1.132337    -2.752606    -3.509308
H        3.470199    -3.330390    -3.901225
H        5.267010    -2.254542    -2.598434
H        4.746044    -0.582286    -0.891790
H        3.353089     0.909026     0.239160
H        1.278673     3.345782     0.247885
H        1.116537     2.108806     1.553151
H       -1.015482     2.532719    -0.707853
H       -1.130165     3.277455     0.937750
H       -3.342258     1.083485     0.377294
H       -4.756286    -0.650202     1.089749
H       -5.236026    -2.695385     2.346473
H       -3.404846    -4.115876     3.188644
H       -1.078590    -3.517892     2.780470
H        0.855306    -1.711447     3.239924
H        1.046547    -3.028057     2.000789
H        1.913258    -1.463814     1.805711
43
ex_0164 frame52 see-saw N0-N1-ax-conf4
C        1.878869     2.324849     0.719975
N        1.715747     1.013949     0.137923
C        2.735170     0.210709    -0.457344
C        4.086344     0.529887    -0.228154
C        5.105410    -0.239028    -0.780632
C        4.800351    -1.332546    -1.584180
C        3.470647    -1.672377    -1.843335
C        2.403148    -0.932864    -1.297449
C        0.969721    -1.428077    -1.658616
N        0.105059    -0.303691    -1.970760
C       -1.364910    -0.391556    -2.045951
C       -2.021028     0.806603    -1.224078
N       -1.916142     0.520282     0.212293
C       -1.551551     1.510010     1.209293
C       -1.283539     0.803974     2.566900
C       -1.804731     1.432849     3.717364
C       -1.624932     0.886842     4.990183
C       -0.909761    -0.294523     5.154991
C       -0.373338    -0.948600     4.048769
C       -0.548763    -0.437265     2.748470
N        0.000007    -1.150678     1.635220
C        0.276708    -2.564667     1.628269
Cu       0.000000     0.000000     0.000000
H        2.570865     2.278420     1.585476
H        2.273262     3.026663    -0.044666
H        0.898227     2.698716     1.072941
H        4.362017     1.371799     0.392578
H        6.139040     0.016149    -0.582425
H        5.602201    -1.922032    -2.009673
H        3.276999    -2.529935    -2.475147
H        0.956864    -2.191191    -2.466038
H       -1.653443    -0.304758    -3.113010
H       -1.738456    -1.362948    -1.652341
H       -1.517473     1.762776    -1.487990
H       -3.099201     0.888380    -1.471398
H       -2.320483     2.309061     1.287411
H       -2.373719     2.350440     3.632836
H       -2.046421     1.380871     5.857225
H       -0.775535    -0.712035     6.145400
H        0.170546    -1.869309     4.213200
H        0.347045    -2.917878     0.581078
H        1.230847    -2.770634     2.154116
H       -0.557036    -3.110696     2.119710
43
ex_0164 frame53 Δ-conf5
C       -2.422410    -1.022891     1.514726
N       -1.031390    -1.236339     1.182971
C       -0.207479    -2.363384     1.514397
C       -0.565508    -3.205488     2.587389
C        0.216968    -4.304076     2.930977
C        1.368732    -4.597812     2.211337
C        1.757392    -3.791000     1.141863
C        1.004590    -2.662529     0.760109
C        1.562410    -1.851420    -0.442771
N        0.473871    -1.436916    -1.303348
C        0.627579    -0.481847    -2.409274
C       -0.607819     0.517592    -2.407789
N       -0.467095     1.455418    -1.285279
C       -1.559982     1.846271    -0.419101
C       -1.007246     2.652492     0.787938
C       -1.754840     3.783767     1.170668
C       -1.365390     4.584036     2.245372
C       -0.218926     4.279738     2.969579
C        0.557663     3.177923     2.624133
C        0.198424     2.343993     1.545740
N        1.019143     1.215605     1.215858
C        2.412272     1.014493     1.543172
Cu       0.000000     0.000000     0.000000
H       -3.000509    -0.927040     0.572256
H       -2.861046    -1.860924     2.086293
H       -2.523536    -0.084293     2.095690
H       -1.443847    -3.018554     3.185702
H       -0.073781    -4.932026     3.764096
H        1.966914    -5.457130     2.486949
H        2.662071    -4.054777     0.608117
H        2.340291    -2.403717    -1.013638
H        0.642156    -1.057598    -3.357600
H        1.575622     0.093356    -2.322044
H       -1.557031    -0.058077    -2.341619
H       -0.610347     1.109089    -3.346553
H       -2.349576     2.390452    -0.980794
H       -2.655662     4.054226     0.634157
H       -1.959071     5.446008     2.521895
H        0.072247     4.901378     3.807310
H        1.432310     2.978258     3.225131
H        2.975197     0.844290     0.602488
H        2.517637     0.123488     2.194346
H        2.861334     1.896595     2.037418
43
ex_0164 frame54 square-planar cis-conf5
C        0.272620     1.838025    -2.399110
N       -0.069268     1.729133    -0.998558
C       -0.605542     2.745767    -0.139662
C       -0.450842     4.105972    -0.478067
C       -0.959981     5.112102     0.337778
C       -1.643064     4.791000     1.504361
C       -1.818937     3.457618     1.874754
C       -1.314470     2.402781     1.088028
C       -1.576165     0.969019     1.628657
N       -1.922394     0.086040     0.534107
C       -2.023519    -1.373922     0.664490
C       -1.354422    -2.055901    -0.605526
N        0.106304    -1.928869    -0.506630
C        0.962646    -1.573625    -1.619449
C        2.402039    -1.298607    -1.104402
C        3.450460    -1.813988    -1.892344
C        4.787199    -1.625241    -1.539064
C        5.117737    -0.917957    -0.389282
C        4.117586    -0.397934     0.426419
C        2.755587    -0.565324     0.104054
N        1.748705    -0.015298     0.964332
C        1.881140     0.327088     2.362771
Cu       0.000000     0.000000     0.000000
H       -0.343064     1.113280    -2.971115
H        0.069211     2.842083    -2.813775
H        1.343719     1.588901    -2.538171
H        0.079050     4.411980    -1.366917
H       -0.821862     6.150158     0.061376
H       -2.037151     5.583086     2.128464
H       -2.356333     3.251153     2.792035
H       -2.348650     0.942773     2.427820
H       -3.100076    -1.638496     0.708499
H       -1.525009    -1.735865     1.590666
H       -1.742999    -1.583080    -1.534141
H       -1.601176    -3.137487    -0.621988
H        0.927572    -2.342986    -2.420758
H        3.236023    -2.368972    -2.797027
H        5.574555    -2.027574    -2.163621
H        6.157714    -0.768998    -0.126118
H        4.426318     0.153292     1.302282
H        1.106268    -0.222788     2.935306
H        1.725303     1.416433     2.497045
H        2.863686     0.033117     2.778200
43
ex_0164 frame55 Λ-conf5
C       -1.824256     2.052316     1.291587
N       -1.536757     0.648439     1.099758
C       -2.316468    -0.476411     1.528944
C       -3.243076    -0.328093     2.582029
C       -4.012652    -1.401575     3.019489
C       -3.887997    -2.646435     2.414701
C       -2.983408    -2.835511     1.369389
C       -2.173681    -1.783213     0.897028
C       -1.203582    -2.141685    -0.264131
N       -1.165203    -1.060406    -1.227138
C       -0.193555    -0.978647    -2.326215
C        0.314519     0.521944    -2.457176
N        1.228337     0.818675    -1.345043
C        1.210243     2.056194    -0.592094
C        2.133723     1.927164     0.650758
C        2.936441     3.047165     0.945570
C        3.800287     3.055890     2.041836
C        3.890133     1.947329     2.875400
C        3.125481     0.813890     2.619456
C        2.239579     0.765706     1.524203
N        1.464973    -0.417520     1.292502
C        1.761198    -1.758715     1.742506
Cu       0.000000     0.000000     0.000000
H       -1.912871     2.534935     0.296254
H       -2.775946     2.225750     1.826546
H       -0.992638     2.527073     1.849683
H       -3.373257     0.613551     3.093288
H       -4.711606    -1.265285     3.835623
H       -4.495690    -3.472399     2.761940
H       -2.916795    -3.821941     0.927173
H       -1.455278    -3.108065    -0.753099
H       -0.708409    -1.284454    -3.260018
H        0.673944    -1.653615    -2.154542
H       -0.556948     1.213121    -2.464836
H        0.879755     0.644819    -3.403817
H        1.468334     2.925533    -1.234838
H        2.894980     3.932087     0.322887
H        4.403020     3.930595     2.249998
H        4.556678     1.964602     3.728917
H        3.221517    -0.017648     3.302426
H        1.772713    -2.431811     0.861007
H        0.976686    -2.098804     2.448078
H        2.757346    -1.830089     2.220005
43
ex_0164 frame56 conf5
C        1.291592    -1.824632     2.052751
N        1.100310    -1.536735     0.649136
C        1.530054    -2.316569    -0.476006
C        2.583817    -3.241701    -0.326877
C        3.021711    -4.011825    -1.400407
C        2.416509    -3.888336    -2.644779
C        1.370434    -2.984908    -2.834614
C        0.897563    -2.174418    -1.782265
C       -0.264107    -1.205356    -2.141607
N       -1.226980    -1.165772    -1.060025
C       -2.325438    -0.193423    -0.978490
C       -2.456747     0.313837     0.522389
N       -1.344882     1.228098     0.819165
C       -0.592507     1.211382     2.057128
C        0.650960     2.134152     1.927719
C        0.946502     2.936898     3.047896
C        2.043399     3.799907     3.056308
C        2.876870     3.889274     1.947775
C        2.620029     3.124819     0.814124
C        1.524327     2.239717     0.766473
N        1.293165     1.465812    -0.417298
C        1.740861     1.763681    -1.758254
Cu       0.000000     0.000000     0.000000
H        0.296009    -1.912401     2.535059
H        1.825369    -2.777000     2.225819
H        1.850387    -0.993698     2.527961
H        3.095402    -3.370887     0.614462
H        3.838535    -4.709786    -1.263605
H        2.764142    -4.496381    -3.470635
H        0.928012    -2.919134    -3.820742
H       -0.753362    -1.458102    -3.107413
H       -3.259382    -0.707307    -1.285469
H       -2.152510     0.674511    -1.652594
H       -2.463630    -0.558153     1.212947
H       -3.403644     0.878425     0.645937
H       -1.235632     1.471142     2.925704
H        0.324074     2.895737     3.932920
H        2.252276     4.402454     3.931114
H        3.731010     4.554944     1.964836
H        3.302811     3.220156    -0.017573
H        0.859417     1.770637    -2.431647
H        2.450542     0.982750    -2.097975
H        2.212974     2.762546    -1.829566
43
ex_0164 frame57 Λ-conf4
C       -1.047414    -2.428868     1.539302
N       -1.238721    -1.048670     1.165146
C       -2.357469    -0.226557     1.511576
C       -3.190258    -0.609462     2.580382
C       -4.280395     0.170799     2.954161
C       -4.571611     1.343214     2.265396
C       -3.773541     1.751414     1.194926
C       -2.655358     0.999186     0.782920
C       -1.852199     1.569251    -0.420951
N       -1.442572     0.485868    -1.292601
C       -0.487053     0.632227    -2.399322
C        0.506884    -0.609373    -2.395315
N        1.458075    -0.463320    -1.283484
C        1.849781    -1.555520    -0.416007
C        2.660453    -0.996136     0.783316
C        3.822575    -1.711548     1.136226
C        4.632837    -1.305989     2.198372
C        4.310073    -0.173211     2.937355
C        3.175762     0.568734     2.622137
C        2.329050     0.187215     1.564493
N        1.166717     0.979292     1.292613
C        1.068092     2.401790     1.520576
Cu       0.000000     0.000000     0.000000
H       -0.967903    -2.524113     2.641098
H       -1.899226    -3.035866     1.165756
H       -0.113031    -2.808854     1.081962
H       -2.996651    -1.513848     3.140734
H       -4.903701    -0.137878     3.784304
H       -5.424554     1.939859     2.563125
H       -4.037893     2.667891     0.682295
H       -2.414336     2.347194    -0.981802
H       -1.064878     0.645293    -3.346381
H        0.092658     1.577604    -2.316613
H       -0.075773    -1.553691    -2.312189
H        1.087429    -0.628744    -3.340339
H        2.398619    -2.340683    -0.980102
H        4.111563    -2.597500     0.584607
H        5.518776    -1.874569     2.451262
H        4.941698     0.133237     3.761889
H        2.950394     1.441321     3.221721
H        0.491649     2.861311     0.692229
H        0.543077     2.591014     2.478806
H        2.074072     2.872395     1.533636
43
ex_0164 frame58 see-saw N0-N1-ax-conf5
C        1.811418    -2.360147     0.655312
N        1.708213    -1.030595     0.095306
C        2.736549    -0.221809    -0.487959
C        4.092974    -0.533612    -0.262151
C        5.108292     0.238198    -0.817919
C        4.799819     1.328101    -1.622767
C        3.469617     1.667852    -1.873109
C        2.404529     0.929884    -1.319502
C        0.973114     1.438952    -1.666168
N        0.089721     0.327941    -1.967804
C       -1.377358     0.446631    -2.030642
C       -2.048464    -0.752874    -1.224619
N       -1.921100    -0.500968     0.217554
C       -1.539310    -1.515624     1.181493
C       -1.255542    -0.843344     2.550902
C       -1.783923    -1.487523     3.689654
C       -1.589797    -0.972848     4.973554
C       -0.865575     0.199220     5.159099
C       -0.330078     0.872138     4.064615
C       -0.498513     0.381991     2.754452
N        0.082012     1.106896     1.661829
C        0.324004     2.529700     1.647109
Cu       0.000000     0.000000     0.000000
H        1.110605    -3.029659     0.116210
H        2.824365    -2.790288     0.558396
H        1.527446    -2.329958     1.727213
H        4.389611    -1.361555     0.362941
H        6.143379    -0.012283    -0.620186
H        5.599652     1.918141    -2.051641
H        3.273798     2.527988    -2.500803
H        0.958134     2.204888    -2.470951
H       -1.675495     0.387038    -3.097034
H       -1.727724     1.417421    -1.614765
H       -1.571730    -1.714696    -1.515974
H       -3.131085    -0.803242    -1.461071
H       -2.308373    -2.315800     1.249629
H       -2.356104    -2.401567     3.589920
H       -2.003416    -1.486201     5.832953
H       -0.716016     0.590674     6.158105
H        0.233338     1.777212     4.249433
H        0.060071     2.930465     0.647966
H        1.397410     2.724376     1.846910
H       -0.308791     3.051534     2.395331
43
ex_0164 frame59 square-planar cis-conf6
C       -0.220016     2.662702     1.154277
N       -0.590820     1.916399    -0.027352
C       -1.660914     2.410586    -0.834450
C       -1.575769     3.617992    -1.546874
C       -2.672693     4.062308    -2.309670
C       -3.852359     3.314084    -2.360173
C       -3.938928     2.125114    -1.657380
C       -2.842998     1.669399    -0.924128
C       -2.986865     0.402637    -0.265780
N       -1.976826    -0.353626    -0.034785
C       -2.358471    -1.643681     0.498651
C       -1.170526    -2.481194     0.482741
N       -0.163161    -1.656994     1.111988
C        0.940606    -2.527014     1.462266
C        1.678769    -2.968530     0.256540
C        1.828416    -4.334790    -0.023402
C        2.614702    -4.736258    -1.101935
C        3.249782    -3.772251    -1.889942
C        3.044046    -2.403842    -1.642262
C        2.212386    -1.987086    -0.578768
N        1.886187    -0.611094    -0.310128
C        2.775696     0.450012    -0.704668
Cu       0.000000     0.000000     0.000000
H        0.520885     2.088859     1.747225
H       -1.122141     2.813499     1.791248
H        0.195600     3.653080     0.880868
H       -0.678288     4.217162    -1.503297
H       -2.619790     4.989302    -2.859809
H       -4.704327     3.641977    -2.941044
H       -4.853961     1.540322    -1.698830
H       -4.004263     0.039008    -0.094834
H       -3.149805    -2.139081    -0.114097
H       -2.727758    -1.520183     1.543867
H       -1.377366    -3.435220     1.022382
H       -0.889064    -2.695213    -0.575531
H        1.629510    -1.992389     2.142567
H        1.361085    -5.085806     0.605263
H        2.750554    -5.792011    -1.310472
H        3.890654    -4.090691    -2.702248
H        3.533560    -1.688771    -2.284855
H        2.361770     1.421063    -0.373722
H        3.759263     0.291568    -0.208575
H        2.911026     0.456928    -1.803935
43
ex_0164 frame60 Δ-conf6
C       -0.251435    -2.233438     1.853638
N       -0.999746    -1.521596     0.841691
C       -2.105418    -2.184074     0.225392
C       -3.273303    -2.525025     0.928095
C       -4.320755    -3.194956     0.266253
C       -4.207636    -3.530070    -1.086182
C       -3.057159    -3.197825    -1.778665
C       -2.030896    -2.510149    -1.131417
C       -0.893309    -2.153041    -1.926612
N       -0.186469    -1.117384    -1.658597
C        0.809736    -0.850984    -2.673775
C        1.371705     0.456629    -2.385262
N        1.703741     0.380406    -0.980200
C        2.592573     1.486992    -0.695239
C        1.865884     2.776239    -0.720387
C        2.273729     3.803323    -1.584741
C        1.650543     5.047929    -1.518793
C        0.629824     5.260532    -0.588291
C        0.181623     4.207077     0.228524
C        0.776610     2.928914     0.135141
N        0.320651     1.777991     0.873461
C       -0.366118     1.934161     2.129226
Cu       0.000000     0.000000     0.000000
H        0.654935    -1.657330     2.130043
H        0.081254    -3.214311     1.442064
H       -0.876179    -2.414710     2.751109
H       -3.369169    -2.290097     1.977661
H       -5.221993    -3.464418     0.795255
H       -5.002840    -4.044110    -1.609831
H       -2.968307    -3.453840    -2.831102
H       -0.736004    -2.709415    -2.855238
H        0.373629    -0.831373    -3.701797
H        1.606454    -1.630384    -2.628064
H        2.248221     0.641834    -3.049907
H        0.591352     1.235704    -2.556635
H        3.053537     1.341924     0.299503
H        3.087326     3.649609    -2.286029
H        1.976246     5.852082    -2.169933
H        0.177465     6.241105    -0.513139
H       -0.623318     4.403344     0.918965
H       -0.595780     0.937954     2.551819
H        0.301909     2.477934     2.834155
H       -1.304477     2.506637     1.991956
43
ex_0164 frame61 Λ-conf6
C       -1.366780    -2.135107     1.438879
N       -1.603630    -0.822581     0.879833
C       -2.951248    -0.444664     0.589683
C       -3.919945    -0.252786     1.588932
C       -5.235679     0.103124     1.232842
C       -5.590018     0.263374    -0.110239
C       -4.638648     0.070382    -1.095095
C       -3.330048    -0.255923    -0.742203
C       -2.389202    -0.388926    -1.813625
N       -1.144118    -0.132472    -1.645290
C       -0.403664    -0.166824    -2.888248
C        0.917423     0.365473    -2.609959
N        1.338856    -0.373404    -1.441207
C        2.767451    -0.183598    -1.314685
C        3.086798     1.193081    -0.875882
C        3.923317     2.008144    -1.653088
C        4.306455     3.258695    -1.172405
C        3.857569     3.683716     0.080643
C        2.964560     2.890295     0.823077
C        2.532963     1.641657     0.320975
N        1.554518     0.809498     0.976898
C        1.364291     0.886347     2.402501
Cu       0.000000     0.000000     0.000000
H       -0.278106    -2.344931     1.464315
H       -1.845340    -2.902648     0.787565
H       -1.794760    -2.212740     2.458303
H       -3.667637    -0.390021     2.630045
H       -5.989852     0.251228     1.990290
H       -6.595154     0.538098    -0.401567
H       -4.909988     0.197787    -2.139936
H       -2.791339    -0.570317    -2.814895
H       -0.877946     0.458094    -3.683134
H       -0.326186    -1.219986    -3.247572
H        1.573561     0.220148    -3.500533
H        0.832655     1.452408    -2.371934
H        3.171632    -0.907432    -0.582799
H        4.298857     1.665998    -2.611721
H        4.970742     3.884110    -1.759190
H        4.192451     4.637607     0.467712
H        2.622294     3.261882     1.775679
H        0.604642     0.145533     2.715089
H        2.328755     0.644972     2.903057
H        1.038213     1.902908     2.698079
