42
ex_0556 frame0 
C       -1.205087    -1.236573    -3.395487
Si      -0.555675    -1.258122    -1.648596
C       -1.135499    -2.752089    -0.715076
C        1.409185    -1.311580    -1.731142
C        2.310114    -1.517325    -0.455992
As       2.840479     0.154438     0.504489
C        3.673675    -0.368324     2.214062
C        4.384930     0.914544    -0.453694
Mo       0.507129     1.571222     0.521039
C        1.798886     3.179220     1.455610
O        1.814610     4.274999     1.244106
C       -1.024897     2.935730     1.453126
O       -1.143569     3.317496     2.481808
C        1.014963     2.147114    -1.239984
O        1.242499     2.409408    -2.270094
C        0.045026     0.247003     1.829412
O       -0.141487    -0.732244     2.300907
P       -1.348449     0.467479    -0.628997
C       -1.745944     1.790183    -1.847550
C       -2.597577     0.051271     0.641266
H       -2.313276    -1.214387    -3.383376
H       -0.826641    -0.327165    -3.909435
H       -0.843659    -2.134742    -3.932990
H       -0.707068    -3.661242    -1.177535
H       -2.243680    -2.787027    -0.749114
H       -0.799682    -2.669563     0.338884
H        1.554268    -2.232454    -2.329563
H        1.810856    -0.469562    -2.333263
H        1.792315    -2.214074     0.234950
H        3.275451    -1.976345    -0.752876
H        3.876519     0.570369     2.780400
H        2.941115    -0.952299     2.810164
H        4.616222    -0.928862     2.083731
H        4.536895     0.424639    -1.433205
H        5.298148     0.878345     0.174901
H        4.152265     1.989181    -0.630751
H       -2.743330     1.608483    -2.291887
H       -1.792982     2.771093    -1.319387
H       -1.031192     1.853615    -2.683989
H       -3.580294    -0.078621     0.144484
H       -2.705531     0.890063     1.360510
H       -2.344737    -0.876062     1.182045
