49
ex_0146 frame0 trigonal-prismatic top-N0N0N1/bot-N0N0N1
C        4.119889     0.023332     1.686263
C        2.897678     0.040048     0.726076
N        1.595040     0.136611     1.285204
Fe       0.000000     0.000000     0.000000
N        1.636173    -0.136735    -1.229262
C        2.927322    -0.031401    -0.659965
C        4.151305    -0.011194    -1.628896
N       -1.110669     1.322459     1.100492
C       -2.078437     0.557273     1.749412
C       -3.245086     1.269651     2.343806
C       -1.930034    -0.812419     1.814555
C       -2.968752    -1.681323     2.432024
N       -0.769316    -1.397016     1.284261
O       -0.536424    -2.728117     1.335253
B       -0.475760    -3.359101    -0.016380
F       -1.070057    -4.703407     0.122728
F        0.908564    -3.576315    -0.399666
O       -1.226724    -2.652238    -1.106135
N       -0.970824    -1.312608    -1.235848
C       -1.121607    -0.632547    -2.453471
C       -1.412934    -1.398593    -3.687485
C       -0.990108     0.734534    -2.471599
C       -1.159068     1.503194    -3.700306
N       -0.689432     1.421064    -1.303619
O       -0.573470     2.765276    -1.279764
B       -0.519094     3.390831     0.070311
F        0.853806     3.787530     0.346043
F       -1.262494     4.654297    -0.030947
O       -1.080770     2.665841     1.235171
H        5.148611     0.154351     1.328296
H        3.939518     0.790211     2.491022
H        4.092804    -0.948591     2.271970
H        1.552117     0.022850     2.265125
H        1.567082    -0.009892    -2.230549
H        4.242615    -0.971578    -2.200421
H        3.917062     0.713306    -2.468417
H        5.142288     0.294371    -1.238852
H       -3.086121     1.533448     3.406530
H       -3.360689     2.217557     1.763101
H       -4.164147     0.697719     2.171552
H       -3.684913    -1.964020     1.624811
H       -3.459343    -1.126893     3.234903
H       -2.520090    -2.607841     2.836338
H       -2.359557    -1.032609    -4.116483
H       -0.572062    -1.197350    -4.379495
H       -1.468567    -2.492591    -3.517798
H       -1.277688     2.583451    -3.467955
H       -2.067942     1.175594    -4.192380
H       -0.228358     1.348633    -4.284233
49
ex_0146 frame1 trigonal-prismatic top-N0N0N1/bot-N0N0N1-conf2
C        3.257556    -1.902059     1.652912
C        2.451395    -1.071694     0.693813
N        1.593295    -0.127514     1.278847
Fe       0.000000     0.000000     0.000000
N        1.560331    -0.273574    -1.297866
C        2.442491    -1.120148    -0.686640
C        3.264634    -1.970467    -1.596000
N       -1.155610     1.261061     1.126670
C       -2.129801     0.521859     1.780070
C       -3.271129     1.249626     2.372081
C       -1.985336    -0.834343     1.835839
C       -2.991524    -1.697394     2.465064
N       -0.807898    -1.402545     1.255309
O       -0.504090    -2.706050     1.316039
B       -0.483584    -3.312112    -0.037120
F       -1.065540    -4.660030     0.098382
F        0.901034    -3.547510    -0.427917
O       -1.294442    -2.622509    -1.091424
N       -0.958739    -1.296195    -1.267216
C       -1.122657    -0.625257    -2.486591
C       -1.416721    -1.392117    -3.732116
C       -1.001908     0.741756    -2.500048
C       -1.176420     1.518538    -3.748848
N       -0.707796     1.407663    -1.305446
O       -0.543942     2.742155    -1.285451
B       -0.512875     3.346200     0.071648
F        0.854614     3.747040     0.354846
F       -1.256145     4.608877    -0.025858
O       -1.070516     2.615614     1.251702
H        2.464320    -2.231891     2.384706
H        3.722357    -2.822090     1.272526
H        3.927860    -1.303154     2.320335
H        1.621275     0.143359     2.300914
H        1.670660     0.121138    -2.242827
H        3.795625    -2.826724    -1.175105
H        2.466575    -2.360467    -2.282123
H        3.882820    -1.358748    -2.305188
H       -3.093306     1.519372     3.426639
H       -3.380915     2.207590     1.793009
H       -4.192130     0.699340     2.168784
H       -3.686222    -1.962355     1.638342
H       -3.491729    -1.155279     3.273284
H       -2.523042    -2.611256     2.854555
H       -2.378161    -1.056364    -4.132921
H       -0.571006    -1.204286    -4.430037
H       -1.464040    -2.486434    -3.526599
H       -1.266837     2.589493    -3.500945
H       -2.107273     1.196801    -4.238270
H       -0.253334     1.344547    -4.323032
49
ex_0146 frame2 trigonal-prismatic top-N0N0N1/bot-N0N0N1-conf5
C        3.872536    -1.131926     1.709142
C        2.791638    -0.661210     0.724798
N        1.616180    -0.189913     1.267607
Fe       0.000000     0.000000     0.000000
N        1.646540    -0.193871    -1.220739
C        2.828632    -0.645183    -0.661928
C        3.954513    -1.042496    -1.645152
N       -1.070734     1.289873     1.194715
C       -2.075678     0.550179     1.787778
C       -3.235784     1.270491     2.340814
C       -1.936610    -0.819224     1.824041
C       -2.958798    -1.682369     2.417461
N       -0.769275    -1.409697     1.270384
O       -0.537517    -2.744629     1.330186
B       -0.478728    -3.375265    -0.015534
F       -1.071703    -4.719821     0.122419
F        0.905802    -3.584557    -0.407038
O       -1.244624    -2.658290    -1.098554
N       -0.966118    -1.333966    -1.225749
C       -1.124764    -0.632768    -2.434999
C       -1.408595    -1.391228    -3.681447
C       -1.012528     0.730338    -2.443613
C       -1.146937     1.505960    -3.679247
N       -0.764817     1.418321    -1.261980
O       -0.587769     2.766346    -1.270569
B       -0.520536     3.404364     0.066529
F        0.856091     3.805458     0.346167
F       -1.265142     4.674178    -0.029419
O       -1.096614     2.624521     1.252113
H        4.810133    -1.567201     1.373371
H        4.066900    -0.367015     2.516398
H        3.311100    -1.920824     2.282100
H        1.632823     0.085722     2.233272
H        1.682771     0.095648    -2.193127
H        4.270172    -0.152797    -2.243127
H        4.842202    -1.518694    -1.237685
H        3.496099    -1.732804    -2.426938
H       -3.084204     1.537313     3.400842
H       -3.350377     2.215729     1.754573
H       -4.152710     0.694805     2.173675
H       -3.683273    -1.967535     1.621268
H       -3.444674    -1.116575     3.216106
H       -2.518045    -2.611294     2.833129
H       -2.354027    -1.022097    -4.114111
H       -0.569328    -1.193744    -4.374242
H       -1.466628    -2.487886    -3.515586
H       -1.281913     2.589138    -3.455740
H       -2.052473     1.170293    -4.174378
H       -0.219258     1.352689    -4.275947
49
ex_0146 frame3 trigonal-prismatic top-N0N0N1/bot-N0N0N1-conf6
C        3.942504    -1.191717     1.456688
C        2.742919    -0.590645     0.664400
N        1.626753    -0.027029     1.301308
Fe       0.000000     0.000000     0.000000
N        1.616557    -0.074259    -1.309320
C        2.739016    -0.600262    -0.691839
C        3.927824    -1.169933    -1.525451
N       -1.032719     1.304569     1.188020
C       -2.034786     0.549879     1.768313
C       -3.217516     1.280142     2.330052
C       -1.910400    -0.809729     1.804897
C       -2.945059    -1.685389     2.399371
N       -0.774317    -1.397493     1.266425
O       -0.578420    -2.726340     1.293811
B       -0.488434    -3.388523    -0.034809
F       -1.080296    -4.740658     0.133829
F        0.895268    -3.600803    -0.399503
O       -1.187418    -2.675123    -1.139873
N       -1.017162    -1.316050    -1.193098
C       -1.143280    -0.636811    -2.405867
C       -1.407988    -1.397584    -3.671306
C       -1.022030     0.725302    -2.420136
C       -1.123252     1.511388    -3.653894
N       -0.794902     1.410541    -1.238062
O       -0.623622     2.753660    -1.249076
B       -0.524270     3.425628     0.069013
F        0.858901     3.832771     0.343358
F       -1.272825     4.698785    -0.028654
O       -1.109838     2.666797     1.203603
H        4.940251    -1.048183     0.948941
H        3.943126    -0.821407     2.484220
H        3.724471    -2.288939     1.481525
H        1.761903     0.026012     2.363024
H        1.713740     0.058965    -2.363549
H        4.596713    -0.366511    -1.859188
H        4.488831    -1.942357    -0.942231
H        3.523581    -1.702095    -2.401791
H       -3.085802     1.544456     3.397788
H       -3.333165     2.220687     1.740471
H       -4.140712     0.689148     2.180283
H       -3.684887    -1.973831     1.619250
H       -3.425302    -1.089501     3.188561
H       -2.515949    -2.614507     2.825246
H       -2.349344    -1.000913    -4.112712
H       -0.566328    -1.190609    -4.368442
H       -1.462804    -2.489421    -3.515315
H       -1.294013     2.594760    -3.432612
H       -2.032261     1.152326    -4.143393
H       -0.204990     1.357835    -4.267493
49
ex_0146 frame4 mer-1
C       -1.583625     2.149216    -3.465812
C       -0.587747     1.276923    -2.740504
N       -1.011897     0.825090    -1.551576
Fe       0.160950    -0.348668    -0.353794
N        1.199568     0.070597    -2.066736
C        0.674177     0.844345    -3.043176
C        1.566925     1.070858    -4.246270
N       -0.545967     0.574838     1.293010
C        0.336098     0.815792     2.148071
C       -0.097216     1.514628     3.255435
C        1.707306     0.304658     1.829344
C        2.826080     0.477723     2.629886
N        1.874163    -0.348956     0.727605
O        3.150085    -0.589471     0.189121
B        3.283837    -1.923112    -0.291169
F        4.011448    -2.714167     0.706206
F        4.202267    -1.742461    -1.456954
O        2.144427    -2.624167    -0.868762
N        0.960162    -2.225176    -0.314610
C       -0.029548    -3.055975     0.010527
C        0.259809    -4.424962     0.019403
C       -1.297479    -2.585308     0.331187
C       -2.380996    -3.365634     0.619812
N       -1.477816    -1.301894     0.361771
O       -2.768902    -0.773698     0.455739
B       -2.771310     0.184660     1.510180
F       -4.016133     0.917818     1.203907
F       -2.881211    -0.353689     2.876453
O       -1.804577     1.197510     1.300999
H       -1.351284     2.383868    -4.435681
H       -2.617941     1.638074    -3.424056
H       -1.709746     3.084139    -2.839026
H       -1.897168     1.069781    -1.215937
H        2.092343    -0.333478    -2.156204
H        2.460654     1.701007    -3.962256
H        2.072506     0.067916    -4.476201
H        1.054711     1.405067    -5.089146
H        0.568747     2.151723     3.558305
H       -1.003888     2.186672     2.926610
H       -0.562284     0.822390     3.948500
H        2.736335     1.376775     3.079035
H        3.767486     0.519464     1.963833
H        2.855185    -0.380825     3.287005
H        0.231302    -4.620394     1.079921
H       -0.490056    -4.948438    -0.532458
H        1.260421    -4.663306    -0.386972
H       -2.708797    -3.051156     1.631107
H       -3.232443    -3.160019    -0.073567
H       -2.100103    -4.329301     0.587623
49
ex_0146 frame5 mer-2
C       -1.343980    -4.509089    -0.315842
C       -1.380950    -3.251340     0.318713
N       -0.537962    -2.384697    -0.173169
Fe      -0.208112    -0.490604     0.472966
N       -1.704882    -1.402326     1.499905
C       -2.094944    -2.645226     1.371345
C       -3.102228    -3.083206     2.278341
N        0.542592     0.325439     2.148585
C        1.721258     0.396434     2.124384
C        2.205412     1.022749     3.207286
C        2.376053    -0.150491     1.038779
C        3.693873    -0.237268     0.773616
N        1.758464    -0.631505     0.175352
O        2.173355    -1.203761    -0.894777
B        1.907397    -0.987315    -2.279776
F        2.777927     0.014247    -2.824732
F        2.096720    -2.207490    -3.068244
O        0.474663    -0.686849    -2.314779
N       -0.120769    -0.032372    -1.449701
C       -0.630948     1.081191    -1.535331
C       -0.465759     1.574870    -2.742993
C       -1.297305     1.684903    -0.415996
C       -1.859237     2.857384    -0.375795
N       -1.383928     1.087690     0.650011
O       -1.915138     1.430831     1.725876
B       -1.142996     1.862822     2.912186
F       -0.549855     3.137937     2.623897
F       -1.967235     1.967028     4.097310
O       -0.249023     0.736878     3.076868
H       -0.271184    -4.884958    -0.328635
H       -1.907122    -5.305264     0.214339
H       -1.609054    -4.532986    -1.412549
H        0.030794    -2.683927    -0.907139
H       -2.123682    -0.863671     2.205134
H       -3.362168    -4.175132     2.175353
H       -2.747273    -2.939885     3.335640
H       -4.062241    -2.495608     2.188429
H        1.679494     0.929876     4.187055
H        2.298123     2.147300     2.992561
H        3.234834     0.693996     3.389475
H        4.033967     0.584707     0.045758
H        4.133435    -1.203479     0.437154
H        4.224349     0.000221     1.696356
H       -0.737830     0.768160    -3.497827
H       -1.072851     2.433504    -3.077795
H        0.588588     1.815442    -3.134346
H       -2.623044     3.161385     0.406998
H       -2.301275     3.177478    -1.333651
H       -1.067852     3.648857    -0.175977
49
ex_0146 frame6 trigonal-prismatic top-N0N0N1/bot-N0N0N1-conf5_stereo-dd
C        3.872536    -1.131926     1.709142
C        2.791638    -0.661210     0.724798
N        1.616180    -0.189913     1.267607
Fe       0.000000     0.000000     0.000000
N        1.646540    -0.193871    -1.220739
C        2.828632    -0.645183    -0.661928
C        3.954513    -1.042496    -1.645152
N       -1.070734     1.289873     1.194715
C       -2.075678     0.550179     1.787778
C       -3.235784     1.270491     2.340814
C       -1.936610    -0.819224     1.824041
C       -2.958798    -1.682369     2.417461
N       -0.769275    -1.409697     1.270384
O       -0.537517    -2.744629     1.330186
B       -0.478728    -3.375265    -0.015534
F       -1.071703    -4.719821     0.122419
F        0.905802    -3.584557    -0.407038
O       -1.244624    -2.658290    -1.098554
N       -0.966118    -1.333966    -1.225749
C       -1.124764    -0.632768    -2.434999
C       -1.408595    -1.391228    -3.681447
C       -1.012528     0.730338    -2.443613
C       -1.146937     1.505960    -3.679247
N       -0.764817     1.418321    -1.261980
O       -0.587769     2.766346    -1.270569
B       -0.520536     3.404364     0.066529
F        0.856091     3.805458     0.346167
F       -1.265142     4.674178    -0.029419
O       -1.096614     2.624521     1.252113
H        4.810133    -1.567201     1.373371
H        4.066900    -0.367015     2.516398
H        3.311100    -1.920824     2.282100
H        1.601183    -0.021202     2.257593
H        1.682771     0.095648    -2.193127
H        4.270172    -0.152797    -2.243127
H        4.842202    -1.518694    -1.237685
H        3.496099    -1.732804    -2.426938
H       -3.084204     1.537313     3.400842
H       -3.350377     2.215729     1.754573
H       -4.152710     0.694805     2.173675
H       -3.683273    -1.967535     1.621268
H       -3.444674    -1.116575     3.216106
H       -2.518045    -2.611294     2.833129
H       -2.354027    -1.022097    -4.114111
H       -0.569328    -1.193744    -4.374242
H       -1.466628    -2.487886    -3.515586
H       -1.281913     2.589138    -3.455740
H       -2.052473     1.170293    -4.174378
H       -0.219258     1.352689    -4.275947
49
ex_0146 frame7 trigonal-prismatic top-N0N0N1/bot-N0N0N1-conf5_stereo-du
C        3.872536    -1.131926     1.709142
C        2.791638    -0.661210     0.724798
N        1.616180    -0.189913     1.267607
Fe       0.000000     0.000000     0.000000
N        1.646540    -0.193871    -1.220739
C        2.828632    -0.645183    -0.661928
C        3.954513    -1.042496    -1.645152
N       -1.070734     1.289873     1.194715
C       -2.075678     0.550179     1.787778
C       -3.235784     1.270491     2.340814
C       -1.936610    -0.819224     1.824041
C       -2.958798    -1.682369     2.417461
N       -0.769275    -1.409697     1.270384
O       -0.537517    -2.744629     1.330186
B       -0.478728    -3.375265    -0.015534
F       -1.071703    -4.719821     0.122419
F        0.905802    -3.584557    -0.407038
O       -1.244624    -2.658290    -1.098554
N       -0.966118    -1.333966    -1.225749
C       -1.124764    -0.632768    -2.434999
C       -1.408595    -1.391228    -3.681447
C       -1.012528     0.730338    -2.443613
C       -1.146937     1.505960    -3.679247
N       -0.764817     1.418321    -1.261980
O       -0.587769     2.766346    -1.270569
B       -0.520536     3.404364     0.066529
F        0.856091     3.805458     0.346167
F       -1.265142     4.674178    -0.029419
O       -1.096614     2.624521     1.252113
H        4.810133    -1.567201     1.373371
H        4.066900    -0.367015     2.516398
H        3.311100    -1.920824     2.282100
H        1.601183    -0.021202     2.257593
H        1.639055    -0.061051    -2.227206
H        4.270172    -0.152797    -2.243127
H        4.842202    -1.518694    -1.237685
H        3.496099    -1.732804    -2.426938
H       -3.084204     1.537313     3.400842
H       -3.350377     2.215729     1.754573
H       -4.152710     0.694805     2.173675
H       -3.683273    -1.967535     1.621268
H       -3.444674    -1.116575     3.216106
H       -2.518045    -2.611294     2.833129
H       -2.354027    -1.022097    -4.114111
H       -0.569328    -1.193744    -4.374242
H       -1.466628    -2.487886    -3.515586
H       -1.281913     2.589138    -3.455740
H       -2.052473     1.170293    -4.174378
H       -0.219258     1.352689    -4.275947
49
ex_0146 frame8 trigonal-prismatic top-N0N0N1/bot-N0N0N1-conf5_stereo-uu
C        3.872536    -1.131926     1.709142
C        2.791638    -0.661210     0.724798
N        1.616180    -0.189913     1.267607
Fe       0.000000     0.000000     0.000000
N        1.646540    -0.193871    -1.220739
C        2.828632    -0.645183    -0.661928
C        3.954513    -1.042496    -1.645152
N       -1.070734     1.289873     1.194715
C       -2.075678     0.550179     1.787778
C       -3.235784     1.270491     2.340814
C       -1.936610    -0.819224     1.824041
C       -2.958798    -1.682369     2.417461
N       -0.769275    -1.409697     1.270384
O       -0.537517    -2.744629     1.330186
B       -0.478728    -3.375265    -0.015534
F       -1.071703    -4.719821     0.122419
F        0.905802    -3.584557    -0.407038
O       -1.244624    -2.658290    -1.098554
N       -0.966118    -1.333966    -1.225749
C       -1.124764    -0.632768    -2.434999
C       -1.408595    -1.391228    -3.681447
C       -1.012528     0.730338    -2.443613
C       -1.146937     1.505960    -3.679247
N       -0.764817     1.418321    -1.261980
O       -0.587769     2.766346    -1.270569
B       -0.520536     3.404364     0.066529
F        0.856091     3.805458     0.346167
F       -1.265142     4.674178    -0.029419
O       -1.096614     2.624521     1.252113
H        4.810133    -1.567201     1.373371
H        4.066900    -0.367015     2.516398
H        3.311100    -1.920824     2.282100
H        1.632823     0.085722     2.233272
H        0.790611    -0.744750    -1.962367
H        4.270172    -0.152797    -2.243127
H        4.842202    -1.518694    -1.237685
H        3.496099    -1.732804    -2.426938
H       -3.084204     1.537313     3.400842
H       -3.350377     2.215729     1.754573
H       -4.152710     0.694805     2.173675
H       -3.683273    -1.967535     1.621268
H       -3.444674    -1.116575     3.216106
H       -2.518045    -2.611294     2.833129
H       -2.354027    -1.022097    -4.114111
H       -0.569328    -1.193744    -4.374242
H       -1.466628    -2.487886    -3.515586
H       -1.281913     2.589138    -3.455740
H       -2.052473     1.170293    -4.174378
H       -0.219258     1.352689    -4.275947
49
ex_0146 frame9 mer-2_stereo-dd
C       -1.343980    -4.509089    -0.315842
C       -1.380950    -3.251340     0.318713
N       -0.537962    -2.384697    -0.173169
Fe      -0.208112    -0.490604     0.472966
N       -1.704882    -1.402326     1.499905
C       -2.094944    -2.645226     1.371345
C       -3.102228    -3.083206     2.278341
N        0.542592     0.325439     2.148585
C        1.721258     0.396434     2.124384
C        2.205412     1.022749     3.207286
C        2.376053    -0.150491     1.038779
C        3.693873    -0.237268     0.773616
N        1.758464    -0.631505     0.175352
O        2.173355    -1.203761    -0.894777
B        1.907397    -0.987315    -2.279776
F        2.777927     0.014247    -2.824732
F        2.096720    -2.207490    -3.068244
O        0.474663    -0.686849    -2.314779
N       -0.120769    -0.032372    -1.449701
C       -0.630948     1.081191    -1.535331
C       -0.465759     1.574870    -2.742993
C       -1.297305     1.684903    -0.415996
C       -1.859237     2.857384    -0.375795
N       -1.383928     1.087690     0.650011
O       -1.915138     1.430831     1.725876
B       -1.142996     1.862822     2.912186
F       -0.549855     3.137937     2.623897
F       -1.967235     1.967028     4.097310
O       -0.249023     0.736878     3.076868
H       -0.271184    -4.884958    -0.328635
H       -1.907122    -5.305264     0.214339
H       -1.609054    -4.532986    -1.412549
H        0.030794    -2.683927    -0.907139
H       -1.919384    -0.417975     2.032134
H       -3.362168    -4.175132     2.175353
H       -2.747273    -2.939885     3.335640
H       -4.062241    -2.495608     2.188429
H        1.679494     0.929876     4.187055
H        2.298123     2.147300     2.992561
H        3.234834     0.693996     3.389475
H        4.033967     0.584707     0.045758
H        4.133435    -1.203479     0.437154
H        4.224349     0.000221     1.696356
H       -0.737830     0.768160    -3.497827
H       -1.072851     2.433504    -3.077795
H        0.588588     1.815442    -3.134346
H       -2.623044     3.161385     0.406998
H       -2.301275     3.177478    -1.333651
H       -1.067852     3.648857    -0.175977
49
ex_0146 frame10 mer-2_stereo-ud
C       -1.343980    -4.509089    -0.315842
C       -1.380950    -3.251340     0.318713
N       -0.537962    -2.384697    -0.173169
Fe      -0.208112    -0.490604     0.472966
N       -1.704882    -1.402326     1.499905
C       -2.094944    -2.645226     1.371345
C       -3.102228    -3.083206     2.278341
N        0.542592     0.325439     2.148585
C        1.721258     0.396434     2.124384
C        2.205412     1.022749     3.207286
C        2.376053    -0.150491     1.038779
C        3.693873    -0.237268     0.773616
N        1.758464    -0.631505     0.175352
O        2.173355    -1.203761    -0.894777
B        1.907397    -0.987315    -2.279776
F        2.777927     0.014247    -2.824732
F        2.096720    -2.207490    -3.068244
O        0.474663    -0.686849    -2.314779
N       -0.120769    -0.032372    -1.449701
C       -0.630948     1.081191    -1.535331
C       -0.465759     1.574870    -2.742993
C       -1.297305     1.684903    -0.415996
C       -1.859237     2.857384    -0.375795
N       -1.383928     1.087690     0.650011
O       -1.915138     1.430831     1.725876
B       -1.142996     1.862822     2.912186
F       -0.549855     3.137937     2.623897
F       -1.967235     1.967028     4.097310
O       -0.249023     0.736878     3.076868
H       -0.271184    -4.884958    -0.328635
H       -1.907122    -5.305264     0.214339
H       -1.609054    -4.532986    -1.412549
H       -0.216504    -1.983063    -0.894964
H       -1.855573    -0.453820     1.972311
H       -3.362168    -4.175132     2.175353
H       -2.747273    -2.939885     3.335640
H       -4.062241    -2.495608     2.188429
H        1.679494     0.929876     4.187055
H        2.298123     2.147300     2.992561
H        3.234834     0.693996     3.389475
H        4.033967     0.584707     0.045758
H        4.133435    -1.203479     0.437154
H        4.224349     0.000221     1.696356
H       -0.737830     0.768160    -3.497827
H       -1.072851     2.433504    -3.077795
H        0.588588     1.815442    -3.134346
H       -2.623044     3.161385     0.406998
H       -2.301275     3.177478    -1.333651
H       -1.067852     3.648857    -0.175977
49
ex_0146 frame11 mer-2_stereo-uu
C       -1.343980    -4.509089    -0.315842
C       -1.380950    -3.251340     0.318713
N       -0.537962    -2.384697    -0.173169
Fe      -0.208112    -0.490604     0.472966
N       -1.704882    -1.402326     1.499905
C       -2.094944    -2.645226     1.371345
C       -3.102228    -3.083206     2.278341
N        0.542592     0.325439     2.148585
C        1.721258     0.396434     2.124384
C        2.205412     1.022749     3.207286
C        2.376053    -0.150491     1.038779
C        3.693873    -0.237268     0.773616
N        1.758464    -0.631505     0.175352
O        2.173355    -1.203761    -0.894777
B        1.907397    -0.987315    -2.279776
F        2.777927     0.014247    -2.824732
F        2.096720    -2.207490    -3.068244
O        0.474663    -0.686849    -2.314779
N       -0.120769    -0.032372    -1.449701
C       -0.630948     1.081191    -1.535331
C       -0.465759     1.574870    -2.742993
C       -1.297305     1.684903    -0.415996
C       -1.859237     2.857384    -0.375795
N       -1.383928     1.087690     0.650011
O       -1.915138     1.430831     1.725876
B       -1.142996     1.862822     2.912186
F       -0.549855     3.137937     2.623897
F       -1.967235     1.967028     4.097310
O       -0.249023     0.736878     3.076868
H       -0.271184    -4.884958    -0.328635
H       -1.907122    -5.305264     0.214339
H       -1.609054    -4.532986    -1.412549
H       -0.219777    -1.993885    -0.934630
H       -2.123682    -0.863671     2.205134
H       -3.362168    -4.175132     2.175353
H       -2.747273    -2.939885     3.335640
H       -4.062241    -2.495608     2.188429
H        1.679494     0.929876     4.187055
H        2.298123     2.147300     2.992561
H        3.234834     0.693996     3.389475
H        4.033967     0.584707     0.045758
H        4.133435    -1.203479     0.437154
H        4.224349     0.000221     1.696356
H       -0.737830     0.768160    -3.497827
H       -1.072851     2.433504    -3.077795
H        0.588588     1.815442    -3.134346
H       -2.623044     3.161385     0.406998
H       -2.301275     3.177478    -1.333651
H       -1.067852     3.648857    -0.175977
