65
ex_0084 frame0 Λ
O        1.240429     0.589615     3.712388
C        0.666700     0.331820     2.665699
C       -0.692950    -0.332880     2.659080
O       -1.279243    -0.586940     3.699729
N       -1.230683    -0.633746     1.439389
C       -2.504045    -1.108343     1.072177
C       -3.156171    -2.048600     1.889530
C       -4.403811    -2.550700     1.540241
C       -5.030128    -2.108067     0.383018
Cl      -6.611715    -2.734164    -0.049823
C       -4.407134    -1.167363    -0.437310
C       -3.153161    -0.593128    -0.110253
C       -2.619286     0.543888    -1.054872
C       -3.502467     1.046104    -2.171304
C       -3.880640     0.323964    -3.315401
C       -4.708037     0.910115    -4.276676
C       -5.157253     2.222286    -4.106731
C       -4.784529     2.948127    -2.971549
C       -3.962407     2.362524    -2.003024
N       -1.282766     1.198758    -0.954883
C       -0.680773     1.764193    -2.188155
C        0.298421     0.843414    -2.943809
C       -0.146504    -0.626742    -3.065083
C        0.669717    -1.667612    -2.258679
N        1.259324    -1.206077    -0.976657
C        2.615655    -0.567488    -1.050304
C        3.497067    -1.052936    -2.183374
C        3.972044    -2.372626    -2.121696
C        4.775836    -2.877368    -3.149697
C        5.116497    -2.066275    -4.236505
C        4.655048    -0.749028    -4.297934
C        3.849838    -0.242128    -3.275467
C        3.169038     0.529239    -0.058391
C        4.456705     1.050492    -0.345368
C        5.079848     1.991211     0.474444
Cl       6.692294     2.561937     0.080333
C        4.429508     2.477229     1.600183
C        3.159390     2.014147     1.921625
C        2.513558     1.062352     1.112724
N        1.217672     0.628656     1.451156
Cu       0.000000     0.000000     0.000000
H       -2.686681    -2.421400     2.789576
H       -4.884744    -3.287888     2.170615
H       -4.956512    -0.864111    -1.312845
H       -3.528451    -0.688702    -3.465328
H       -4.993018     0.349496    -5.157453
H       -5.789480     2.677914    -4.857760
H       -5.125610     3.967623    -2.846739
H       -3.666276     2.938559    -1.135274
H       -0.134183     2.696754    -1.932892
H       -1.456510     2.091920    -2.903226
H        0.412097     1.280311    -3.960637
H        1.298945     0.930485    -2.514363
H       -0.093874    -0.945831    -4.129576
H       -1.217137    -0.723575    -2.845322
H        0.007738    -2.538805    -2.068435
H        1.447877    -2.084352    -2.922989
H        3.703232    -3.012086    -1.290285
H        5.129266    -3.899341    -3.107856
H        5.734537    -2.458807    -5.033474
H        4.915149    -0.121669    -5.140623
H        3.492098     0.777230    -3.340825
H        5.027858     0.710732    -1.193640
H        4.910926     3.214621     2.229917
H        2.673429     2.415711     2.800355
65
ex_0084 frame1 Isomer 3
O        3.712854     1.240815     0.587758
C        2.666125     0.666828     0.330790
C        2.659234    -0.693141    -0.332285
O        3.700094    -1.279698    -0.585643
N        1.439798    -1.230937    -0.632526
C        1.072903    -2.504896    -1.106784
C        1.892042    -3.157323    -2.045257
C        1.542866    -4.405119    -2.547868
C        0.384533    -5.030391    -2.107609
Cl      -0.048363    -6.611517    -2.735198
C       -0.437200    -4.407178    -1.168152
C       -0.109881    -3.153500    -0.592885
C       -1.054712    -2.619841     0.543696
C       -2.170976    -3.503176     1.045521
C       -3.315836    -3.880977     0.324079
C       -4.276436    -4.708849     0.910319
C       -4.105558    -5.159173     2.221995
C       -2.969726    -4.786793     2.947247
C       -2.001871    -3.964131     2.361518
N       -0.954790    -1.283165     1.198366
C       -2.187968    -0.681377     1.764012
C       -2.943288     0.298288     0.843490
C       -3.064585    -0.146212    -0.626886
C       -2.258318     0.670334    -1.667577
N       -0.976434     1.259753    -1.205754
C       -1.050108     2.616331    -0.567294
C       -2.183116     3.497813    -1.052473
C       -2.120915     3.973102    -2.371992
C       -3.148314     4.777255    -2.877158
C       -4.235562     5.118096    -2.066500
C       -4.297676     4.656249    -0.749453
C       -3.275842     3.850692    -0.242157
C       -0.058022     3.169516     0.528977
C       -0.345281     4.456755     1.051601
C        0.475965     5.079918     1.991048
Cl       0.081673     6.691775     2.563636
C        1.603133     4.430502     2.474464
C        1.924356     3.160394     2.010743
C        1.113697     2.514283     1.060576
N        1.451503     1.217905     0.627200
Cu       0.000000     0.000000     0.000000
H        2.792790    -2.688694    -2.416686
H        2.174592    -4.886222    -3.283795
H       -1.313616    -4.955885    -0.866579
H       -3.466528    -3.527981    -0.688189
H       -5.157688    -4.993559     0.350174
H       -4.856113    -5.791815     2.677684
H       -2.844232    -5.128782     3.966364
H       -1.133638    -3.668346     2.937186
H       -1.932651    -0.135202     2.696825
H       -2.903172    -1.457178     2.091335
H       -3.960069     0.412406     1.280309
H       -2.513397     1.298539     0.931095
H       -4.129088    -0.093944    -0.945895
H       -2.844502    -1.216689    -0.724199
H       -2.067951     0.008612    -2.538971
H       -2.922682     1.448574    -2.084098
H       -1.289197     3.704199    -3.011205
H       -3.105971     5.130992    -3.898988
H       -5.032100     5.736430    -2.459318
H       -5.140709     4.916498    -0.122468
H       -3.341752     3.492593     0.777013
H       -1.194578     5.027259     0.713687
H        2.234252     4.912031     3.210569
H        2.804043     2.675179     2.410661
65
ex_0084 frame2 Δ-conf5
O        0.625192     1.236906     3.706925
C        0.357084     0.665113     2.661491
C       -0.308240    -0.694262     2.660260
O       -0.549284    -1.282227     3.703035
N       -0.624626    -1.229347     1.442925
C       -1.087196    -2.510954     1.085396
C       -2.011306    -3.171254     1.914474
C       -2.496882    -4.429160     1.577865
C       -2.054356    -5.056282     0.421301
Cl      -2.656711    -6.651984     0.006527
C       -1.132682    -4.423374    -0.412868
C       -0.571483    -3.160758    -0.096166
C        0.553573    -2.621061    -1.048477
C        1.049244    -3.502661    -2.165917
C        2.367234    -3.955808    -1.991189
C        2.959124    -4.780904    -2.952934
C        2.238504    -5.162290    -4.088760
C        0.925268    -4.718548    -4.265589
C        0.333016    -3.887802    -3.311284
N        1.199905    -1.282700    -0.953299
C        1.777023    -0.680377    -2.180357
C        0.866670     0.299908    -2.947527
C       -0.604603    -0.136089    -3.081318
C       -1.650547     0.669816    -2.267282
N       -1.193993     1.263464    -0.985579
C       -0.547827     2.616189    -1.062345
C       -1.020521     3.498284    -2.200552
C       -0.202057     3.839728    -3.291272
C       -0.696092     4.648602    -4.316760
C       -2.008101     5.124872    -4.261157
C       -2.827186     4.794561    -3.176845
C       -2.335565     3.986199    -2.146137
C        0.546671     3.168236    -0.067525
C        1.067585     4.456675    -0.353616
C        2.007187     5.079971     0.466840
Cl       2.574963     6.694131     0.074640
C        2.494518     4.429312     1.591222
C        2.031862     3.158462     1.912443
C        1.078503     2.513351     1.104411
N        0.642814     1.218515     1.445835
Cu       0.000000     0.000000     0.000000
H       -2.382747    -2.702258     2.815191
H       -3.220099    -4.917514     2.218571
H       -0.828898    -4.973552    -1.287888
H        2.939090    -3.652821    -1.122866
H        3.979347    -5.117687    -2.822656
H        2.698987    -5.796936    -4.834593
H        0.368600    -5.010594    -5.146618
H       -0.680484    -3.539899    -3.465934
H        2.708320    -0.135682    -1.916520
H        2.110691    -1.457351    -2.891444
H        0.955944     1.304479    -2.528742
H        1.314202     0.399016    -3.961445
H       -0.918251    -0.055337    -4.145831
H       -0.703714    -1.213168    -2.889481
H       -2.077057     1.447097    -2.927228
H       -2.515900     0.000259    -2.077428
H        0.814150     3.472921    -3.352120
H       -0.062226     4.901123    -5.157090
H       -2.390266     5.746788    -5.060032
H       -3.844807     5.160529    -3.139059
H       -2.980769     3.726781    -1.316056
H        0.727401     5.028555    -1.201122
H        3.231750     4.910615     2.221081
H        2.434508     2.673339     2.790717
65
ex_0084 frame3 Δ-conf3
O       -0.990255     1.012153     3.698000
C       -0.560824     0.537556     2.657790
C        0.451278    -0.583674     2.669012
O        0.831940    -1.083597     3.716308
N        0.917557    -1.008997     1.457563
C        1.743675    -2.094435     1.109970
C        2.814503    -2.447905     1.950045
C        3.662885    -3.497116     1.616735
C        3.444205    -4.222501     0.453837
Cl       4.512401    -5.552100     0.038570
C        2.378524    -3.898940    -0.386452
C        1.461928    -2.862051    -0.077548
C        0.239728    -2.672173    -1.047505
C        0.030453    -3.666563    -2.166465
C       -1.099332    -4.489864    -2.031662
C       -1.394637    -5.443160    -3.012143
C       -0.561930    -5.584579    -4.126362
C        0.566657    -4.772343    -4.263360
C        0.861609    -3.814654    -3.289840
N       -0.767821    -1.570457    -0.969132
C       -1.443379    -1.159182    -2.226305
C       -0.811451     0.039866    -2.958704
C        0.728159     0.018125    -3.028848
C        1.460584     1.121997    -2.233095
N        0.824696     1.547628    -0.959004
C       -0.165026     2.674843    -1.048371
C        0.067903     3.653305    -2.183158
C       -0.804944     3.768864    -3.278770
C       -0.532705     4.678363    -4.303424
C        0.609607     5.480310    -4.241684
C        1.479430     5.376596    -3.151699
C        1.208102     4.470398    -2.120790
C       -1.382067     2.905853    -0.070165
C       -2.229440     4.005941    -0.363130
C       -3.311444     4.349670     0.446879
Cl      -4.292988     5.749010     0.046806
C       -3.614804     3.589984     1.567307
C       -2.830865     2.489470     1.892221
C       -1.731696     2.126054     1.093167
N       -0.970731     0.991783     1.436224
Cu       0.000000     0.000000     0.000000
H        3.017428    -1.891496     2.854476
H        4.494678    -3.744467     2.264042
H        2.264128    -4.511872    -1.264567
H       -1.758607    -4.378339    -1.179921
H       -2.273224    -6.067300    -2.912970
H       -0.793535    -6.319472    -4.886411
H        1.209080    -4.878697    -5.127944
H        1.732208    -3.183266    -3.414111
H       -2.499858    -0.898038    -2.004151
H       -1.515258    -1.995412    -2.944362
H       -1.182884     0.967718    -2.517744
H       -1.234116     0.051135    -3.987640
H        1.060845     0.101675    -4.087075
H        1.115987    -0.963867    -2.738933
H        1.621172     1.979079    -2.909778
H        2.491138     0.761757    -2.028850
H       -1.687875     3.146145    -3.344374
H       -1.204348     4.755663    -5.148750
H        0.822526     6.178503    -5.040752
H        2.367445     5.993697    -3.110196
H        1.894628     4.387973    -1.287419
H       -2.048208     4.650657    -1.207030
H       -4.459678     3.853500     2.190805
H       -3.096947     1.912291     2.766588
65
ex_0084 frame4 Λ-conf3
O        1.237204     0.602487     3.713068
C        0.665184     0.340879     2.666404
C       -0.693142    -0.320631     2.661908
O       -1.281826    -0.566795     3.703306
N       -1.227925    -0.628326     1.443681
C       -2.498814    -1.114294     1.083563
C       -3.137661    -2.059911     1.905125
C       -4.379928    -2.577959     1.559358
C       -5.013138    -2.146117     0.402076
Cl      -6.585505    -2.796370    -0.029085
C       -4.404424    -1.197138    -0.419677
C       -3.155122    -0.609431    -0.096846
C       -2.631262     0.529612    -1.044675
C       -3.525889     1.026654    -2.157078
C       -4.004338     2.337569    -1.999083
C       -4.836104     2.903546    -2.971331
C       -5.199808     2.163445    -4.100422
C       -4.731602     0.856809    -4.260560
C       -3.895522     0.290082    -3.295283
N       -1.293707     1.190623    -0.950793
C       -0.708009     1.748642    -2.196397
C        0.270909     0.822666    -2.943192
C       -0.176443    -0.649108    -3.041500
C        0.679196    -1.673231    -2.262271
N        1.261077    -1.203593    -0.977860
C        2.618534    -0.563695    -1.051919
C        3.497201    -1.037744    -2.193397
C        3.852959    -0.211495    -3.273211
C        4.654197    -0.706464    -4.304912
C        5.108059    -2.027220    -4.265776
C        4.764513    -2.853756    -3.191531
C        3.966176    -2.360704    -2.153599
C        3.175385     0.523370    -0.052198
C        4.467735     1.038168    -0.332280
C        5.096037     1.967024     0.496808
Cl       6.713424     2.529848     0.111286
C        4.447333     2.447774     1.625146
C        3.172039     1.993710     1.938103
C        2.519832     1.053761     1.119716
N        1.217852     0.630709     1.450988
Cu       0.000000     0.000000     0.000000
H       -2.661762    -2.425293     2.804584
H       -4.850047    -3.319885     2.192261
H       -4.959230    -0.901667    -1.294275
H       -3.716755     2.924224    -1.135570
H       -5.192742     3.918617    -2.854171
H       -5.839889     2.603628    -4.854044
H       -5.009550     0.285164    -5.136631
H       -3.529677    -0.718862    -3.437422
H       -0.164930     2.687140    -1.955582
H       -1.489688     2.062538    -2.910898
H        1.264063     0.914371    -2.497637
H        0.401844     1.244380    -3.964210
H       -0.185886    -0.972423    -4.105865
H       -1.228113    -0.754949    -2.755976
H        1.459982    -2.052597    -2.944001
H        0.046974    -2.567169    -2.075989
H        3.499443     0.810469    -3.321332
H        4.916813    -0.067403    -5.138095
H        5.722064    -2.410752    -5.070306
H        5.111293    -3.878618    -3.167594
H        3.694571    -3.012433    -1.332654
H        5.039086     0.701339    -1.181422
H        4.933290     3.174505     2.263647
H        2.689012     2.392824     2.819144
65
ex_0084 frame5 Isomer 2
O       -1.196800    -5.096609     2.490057
C       -1.342382    -3.956466     2.077378
C       -2.585495    -3.164750     2.393539
O       -3.458831    -3.619224     3.116291
N       -2.685564    -1.922547     1.835242
C       -3.623361    -0.893978     2.042979
C       -4.976081    -1.220470     2.246842
C       -5.927919    -0.225663     2.429616
C       -5.544162     1.108297     2.430053
Cl      -6.748492     2.362583     2.668058
C       -4.205381     1.454990     2.242078
C       -3.187433     0.479159     2.095556
C       -1.705064     0.991618     2.023058
C       -1.426221     2.458024     2.235298
C       -1.781244     3.501621     1.365064
C       -1.460242     4.823425     1.683964
C       -0.778156     5.111328     2.869192
C       -0.421276     4.077519     3.740314
C       -0.746803     2.753562     3.428065
N       -0.504413     0.146364     1.757177
C        0.678969     0.784320     1.126821
C        0.784296     0.617395    -0.400500
C       -0.536935     0.833146    -1.166147
C       -1.130362    -0.408319    -1.871096
N       -0.912500    -1.712832    -1.195824
C        0.339812    -2.455850    -1.563827
C        0.850088    -2.205322    -2.966995
C        0.086702    -2.702451    -4.034875
C        0.500929    -2.485237    -5.353292
C        1.681558    -1.781379    -5.610706
C        2.450529    -1.293711    -4.550820
C        2.038903    -1.505660    -3.233079
C        1.126827    -3.450668    -0.626902
C        2.328575    -3.998930    -1.145209
C        3.087707    -4.931352    -0.437318
Cl       4.540995    -5.603799    -1.156094
C        2.698109    -5.329473     0.833547
C        1.542299    -4.806637     1.399454
C        0.758299    -3.869335     0.702502
N       -0.393790    -3.339677     1.313076
Cu      -1.032170    -1.521348     0.790159
H       -5.307420    -2.249670     2.236772
H       -6.967618    -0.493920     2.568469
H       -3.979211     2.508035     2.264380
H       -2.297025     3.288770     0.437161
H       -1.732268     5.622975     1.007204
H       -0.521160     6.134810     3.109183
H        0.115581     4.301626     4.652878
H       -0.451872     1.958024     4.101025
H        1.602165     0.359061     1.575004
H        0.734044     1.863587     1.355592
H        1.546444     1.345565    -0.755262
H        1.231650    -0.353651    -0.623807
H       -0.401153     1.617214    -1.943213
H       -1.293110     1.281791    -0.511849
H       -2.220662    -0.235272    -1.994077
H       -0.757137    -0.426196    -2.910113
H       -0.835609    -3.237231    -3.845141
H       -0.096463    -2.855803    -6.176036
H        1.998645    -1.609490    -6.630994
H        3.362050    -0.745006    -4.749429
H        2.637351    -1.113446    -2.420691
H        2.685391    -3.748060    -2.130531
H        3.291259    -6.047810     1.385247
H        1.268945    -5.129249     2.394555
65
ex_0084 frame6 conf3
O        3.713083     1.237277     0.602155
C        2.666374     0.665224     0.340730
C        2.661864    -0.692906    -0.320208
O        3.703183    -1.281980    -0.566269
N        1.443641    -1.228117    -0.628025
C        1.083690    -2.499010    -1.113943
C        1.905547    -3.137956    -2.059266
C        1.559871    -4.380211    -2.577418
C        0.402380    -5.013306    -2.145979
Cl      -0.028732    -6.585594    -2.796473
C       -0.419614    -4.404544    -1.197221
C       -0.096789    -3.155298    -0.609353
C       -1.044647    -2.631390     0.529594
C       -2.157028    -3.526042     1.026565
C       -1.998850    -4.004630     2.337409
C       -2.970999    -4.836490     2.903408
C       -4.100185    -5.200128     2.163416
C       -4.260511    -4.731757     0.856858
C       -3.295329    -3.895594     0.290108
N       -0.950773    -1.293794     1.190524
C       -2.196381    -0.708163     1.748596
C       -2.943056     0.270869     0.822661
C       -3.041331    -0.176409    -0.649154
C       -2.262135     0.679285    -1.673238
N       -0.977776     1.261174    -1.203586
C       -1.051849     2.618666    -0.563706
C       -2.193296     3.497333    -1.037670
C       -3.273240     3.853064    -0.211524
C       -4.304831     4.654385    -0.706550
C       -4.265532     5.108371    -2.027254
C       -3.191191     4.764840    -2.853698
C       -2.153371     3.966417    -2.360588
C       -0.052101     3.175533     0.523300
C       -0.332278     4.467836     1.038272
C        0.497089     5.096146     1.966956
Cl       0.111566     6.713468     2.530015
C        1.625586     4.447558     2.447293
C        1.938533     3.172253     1.993121
C        1.119832     2.520038     1.053404
N        1.451019     1.217996     0.630403
Cu       0.000000     0.000000     0.000000
H        2.805141    -2.662145    -2.424403
H        2.192995    -4.850358    -3.319149
H       -1.294385    -4.959240    -0.902048
H       -1.135258    -3.717105     2.923976
H       -2.853694    -5.193262     3.918418
H       -4.853730    -5.840280     2.603618
H       -5.136655    -5.009651     0.285301
H       -3.437601    -3.529622    -0.718776
H       -1.955550    -0.165165     2.687137
H       -2.910917    -1.489852     2.062392
H       -2.497335     1.263932     0.914466
H       -3.964066     0.401957     1.244335
H       -4.105687    -0.185944    -0.972468
H       -2.755718    -1.228035    -0.755084
H       -2.943878     1.460075    -2.052555
H       -2.075806     0.047127    -2.567210
H       -3.321485     3.499451     0.810400
H       -5.138089     4.916988    -0.067566
H       -5.069981     5.722446    -2.410830
H       -3.167129     5.111721    -3.878520
H       -1.332346     3.694835    -3.012249
H       -1.181541     5.039102     0.701747
H        2.264324     4.933505     3.173853
H        2.819676     2.689323     2.391992
65
ex_0084 frame7 square-planar cis-conf3
O        3.473060     1.775184    -0.683911
C        2.340227     1.429210    -0.387301
C        1.404971     2.361302     0.346515
O        1.735029     3.505053     0.619684
N        0.178972     1.865888     0.687942
C       -0.952672     2.491149     1.243602
C       -0.784226     3.489771     2.219081
C       -1.884269     4.103747     2.805359
C       -3.167384     3.747407     2.413417
Cl      -4.555526     4.529235     3.150107
C       -3.357554     2.770124     1.436103
C       -2.271537     2.137590     0.779914
C       -2.618177     1.138120    -0.382284
C       -4.056623     1.001008    -0.826030
C       -4.336086     1.497905    -2.109527
C       -5.633840     1.418246    -2.626213
C       -6.658777     0.849970    -1.863694
C       -6.388194     0.358898    -0.583933
C       -5.092301     0.430556    -0.066715
N       -1.634479     0.283690    -1.115020
C       -2.124293    -0.990761    -1.699571
C       -1.922861    -2.243213    -0.825424
C       -2.247921    -2.049659     0.668843
C       -1.050965    -2.139267     1.642235
N        0.248696    -1.624881     1.137137
C        1.128523    -2.612790     0.424698
C        0.961294    -4.057384     0.854302
C        0.415187    -5.042548     0.013775
C        0.271644    -6.355663     0.468212
C        0.673815    -6.695853     1.762210
C        1.224677    -5.723249     2.602328
C        1.374742    -4.407849     2.149629
C        2.184007    -2.259892    -0.694677
C        2.877527    -3.351937    -1.277783
C        3.869300    -3.175734    -2.242337
Cl       4.715772    -4.570140    -2.890847
C        4.189316    -1.902459    -2.691158
C        3.528528    -0.797064    -2.169730
C        2.527717    -0.949181    -1.192937
N        1.859735     0.189226    -0.701386
Cu       0.000000     0.000000     0.000000
H        0.202849     3.777064     2.554335
H       -1.738221     4.856969     3.569118
H       -4.379791     2.553523     1.174859
H       -3.546425     1.926620    -2.713803
H       -5.844174     1.789612    -3.620767
H       -7.661482     0.784995    -2.265915
H       -7.180550    -0.084937     0.004883
H       -4.893376     0.035262     0.921307
H       -1.609032    -1.170141    -2.667060
H       -3.194220    -0.932990    -1.967902
H       -0.910268    -2.625669    -0.972548
H       -2.569303    -3.042821    -1.249916
H       -2.993784    -2.807369     0.996015
H       -2.784430    -1.109063     0.830648
H       -0.966074    -3.186246     1.981245
H       -1.329125    -1.593060     2.568415
H        0.089713    -4.790276    -0.987281
H       -0.158252    -7.107371    -0.181167
H        0.554143    -7.712109     2.114726
H        1.528376    -5.987945     3.606748
H        1.790103    -3.658879     2.812205
H        2.694477    -4.367912    -0.969473
H        4.954104    -1.767869    -3.445447
H        3.793975     0.181406    -2.545303
65
ex_0084 frame8 Δ
O       -0.898843     1.048219     3.710907
C       -0.500414     0.558995     2.665365
C        0.485867    -0.586296     2.662295
O        0.875059    -1.089472     3.704833
N        0.918155    -1.028544     1.444094
C        1.706497    -2.138240     1.083061
C        2.771659    -2.531223     1.913010
C        3.582575    -3.605723     1.568761
C        3.332584    -4.317315     0.403615
Cl       4.354111    -5.678894    -0.024906
C        2.272621    -3.954422    -0.427972
C        1.388278    -2.894973    -0.103887
C        0.158487    -2.672103    -1.054863
C       -0.090479    -3.655123    -2.172751
C        0.705855    -3.831798    -3.316620
C        0.358142    -4.785269    -4.276878
C       -0.789978    -5.563186    -4.106819
C       -1.588981    -5.392635    -2.972268
C       -1.240492    -4.444105    -2.004698
N       -0.819155    -1.550159    -0.959448
C       -1.516253    -1.115164    -2.195199
C       -0.878447     0.071124    -2.945640
C        0.657798     0.024137    -3.059945
C        1.447145     1.082404    -2.249783
N        0.841557     1.530875    -0.970989
C       -0.124940     2.676661    -1.048284
C        0.119322     3.654660    -2.179861
C        1.270143     4.455850    -2.108397
C        1.555961     5.366301    -3.131708
C        0.691846     5.487769    -4.224351
C       -0.459627     4.699905    -4.296057
C       -0.747091     3.787521    -3.278365
C       -1.329888     2.927663    -0.060685
C       -2.170314     4.032820    -0.352067
C       -3.237960     4.393800     0.470013
Cl      -4.211800     5.798888     0.071930
C       -3.532996     3.646244     1.601291
C       -2.756191     2.540283     1.923842
C       -1.673388     2.158640     1.111606
N       -0.922539     1.016816     1.449733
Cu       0.000000     0.000000     0.000000
H        3.000366    -1.987037     2.818762
H        4.410154    -3.883471     2.209152
H        2.133179    -4.557767    -1.309388
H        1.590587    -3.226319    -3.466753
H        0.974490    -4.914204    -5.157166
H       -1.062977    -6.293881    -4.857140
H       -2.483040    -5.989698    -2.847621
H       -1.874823    -4.308860    -1.137556
H       -2.560265    -0.830976    -1.944330
H       -1.626781    -1.948728    -2.911855
H       -1.325346     0.070529    -3.964329
H       -1.225656     1.012903    -2.515250
H        0.957406     0.156584    -4.123020
H        1.029431    -0.983835    -2.837880
H        2.459577     0.669749    -2.054392
H        1.650387     1.942471    -2.912751
H        1.951834     4.360263    -1.272497
H        2.450577     5.973229    -3.082050
H        0.915885     6.188979    -5.017676
H       -1.127014     4.790686    -5.143342
H       -1.637768     3.177103    -3.351737
H       -1.994062     4.667749    -1.204533
H       -4.366659     3.922980     2.234152
H       -3.015599     1.971550     2.806028
65
ex_0084 frame9 square-planar cis
O        3.483102     1.769349    -0.644309
C        2.345824     1.426049    -0.361469
C        1.403215     2.359433     0.362856
O        1.733604     3.501525     0.642108
N        0.171235     1.866454     0.687998
C       -0.969905     2.493351     1.224894
C       -0.815567     3.507178     2.187216
C       -1.923890     4.124794     2.753639
C       -3.201496     3.756427     2.355653
Cl      -4.599519     4.543610     3.067580
C       -3.378607     2.763046     1.392084
C       -2.283792     2.130921     0.750547
C       -2.616279     1.125366    -0.409004
C       -4.048137     0.978396    -0.862901
C       -5.099066     0.407091    -0.125942
C       -6.384172     0.336936    -0.669560
C       -6.628255     0.828616    -1.954447
C       -5.587771     1.397140    -2.695366
C       -4.300999     1.475998    -2.151985
N       -1.625831     0.274632    -1.129517
C       -2.093418    -1.001693    -1.725005
C       -1.900285    -2.260472    -0.855860
C       -2.245451    -2.085620     0.635994
C       -1.060613    -2.129894     1.632768
N        0.244619    -1.623529     1.139707
C        1.127762    -2.611211     0.434399
C        0.966958    -4.052700     0.873579
C        1.397475    -4.389083     2.166971
C        1.260307    -5.701201     2.633140
C        0.702410    -6.683754     1.809315
C        0.281013    -6.356855     0.518077
C        0.413116    -5.047612     0.049878
C        2.181182    -2.261276    -0.687206
C        2.865845    -3.354013    -1.278712
C        3.857662    -3.177303    -2.243602
Cl       4.694341    -4.572352    -2.903134
C        4.185334    -1.902819    -2.684005
C        3.531703    -0.796741    -2.154825
C        2.530255    -0.950020    -1.179412
N        1.866723     0.188116    -0.683143
Cu       0.000000     0.000000     0.000000
H        0.166183     3.804743     2.528358
H       -1.788056     4.890271     3.507123
H       -4.397467     2.536549     1.125819
H       -4.920301     0.010549     0.865372
H       -7.188582    -0.107039    -0.097481
H       -7.622339     0.763698    -2.377494
H       -5.777315     1.768494    -3.694132
H       -3.498809     1.903711    -2.740372
H       -1.562079    -1.172495    -2.685301
H       -3.159351    -0.948089    -2.010582
H       -2.553256    -3.045598    -1.297050
H       -0.892806    -2.657929    -0.996371
H       -2.950560    -2.885695     0.952429
H       -2.841192    -1.177288     0.789132
H       -1.360513    -1.559110     2.537060
H       -0.965511    -3.164274     2.009018
H        1.819328    -3.632569     2.816829
H        1.579836    -5.955874     3.635237
H        0.592510    -7.697426     2.172142
H       -0.154364    -7.116021    -0.118842
H        0.073815    -4.806724    -0.949192
H        2.675386    -4.370642    -0.976893
H        4.949873    -1.767667    -3.438520
H        3.801495     0.183012    -2.523958
65
ex_0084 frame10 conf2
O        3.713342     1.238175     0.595485
C        2.666321     0.664781     0.338139
C        2.660956    -0.695866    -0.317708
O        3.702837    -1.284888    -0.560800
N        1.442228    -1.231866    -0.623630
C        1.084384    -2.510377    -1.093627
C        1.918681    -3.167891    -2.015448
C        1.580291    -4.419489    -2.514533
C        0.416100    -5.043444    -2.088715
Cl      -0.004054    -6.628717    -2.714297
C       -0.420997    -4.415550    -1.165735
C       -0.100822    -3.160466    -0.589193
C       -1.051486    -2.625762     0.539125
C       -2.167393    -3.511977     1.032571
C       -1.993736    -3.967204     2.350259
C       -2.953702    -4.797467     2.938780
C       -4.086593    -5.181869     2.215225
C       -4.262808    -4.735747     0.902898
C       -3.310804    -3.899456     0.314295
N       -0.956578    -1.289235     1.190485
C       -2.185821    -0.688508     1.764282
C       -2.942101     0.300491     0.854758
C       -3.074084    -0.133707    -0.617766
C       -2.258359     0.672583    -1.661215
N       -0.977837     1.263965    -1.200259
C       -1.048750     2.620180    -0.562880
C       -2.181503     3.504814    -1.040461
C       -2.110447     3.984939    -2.357722
C       -3.129729     4.798933    -2.863628
C       -4.219318     5.141894    -2.056999
C       -4.291932     4.672221    -0.743233
C       -3.277997     3.857160    -0.235134
C       -0.052428     3.174837     0.527258
C       -0.336377     4.463178     1.049646
C        0.496488     5.091718     1.975400
Cl       0.110729     6.707170     2.543425
C        1.628827     4.444750     2.448998
C        1.942027     3.170898     1.991309
C        1.120936     2.519436     1.053167
N        1.451808     1.218412     0.628201
Cu       0.000000     0.000000     0.000000
H        2.824252    -2.701121    -2.377143
H        2.224925    -4.903933    -3.236965
H       -1.301411    -4.963567    -0.874807
H       -1.127816    -3.662625     2.924827
H       -2.824444    -5.136222     3.958533
H       -4.830816    -5.820751     2.672805
H       -5.141569    -5.030234     0.343924
H       -3.465221    -3.549786    -0.698562
H       -1.926563    -0.151665     2.701384
H       -2.902253    -1.465759     2.085807
H       -2.514564     1.301171     0.948867
H       -3.956516     0.408455     1.298586
H       -4.138161    -0.056184    -0.932922
H       -2.879733    -1.210086    -0.718767
H       -2.916797     1.450974    -2.087920
H       -2.066142     0.003841    -2.526766
H       -1.276178     3.715660    -2.993390
H       -3.078929     5.159362    -3.882737
H       -5.009304     5.768310    -2.450271
H       -5.136610     4.934508    -0.119294
H       -3.351285     3.494119     0.781803
H       -1.189430     5.032163     0.718661
H        2.270300     4.930488     3.173357
H        2.825899     2.689005     2.385397
65
ex_0084 frame11 square-planar cis-conf2
O        3.477607     1.775457    -0.656157
C        2.341671     1.429377    -0.370116
C        1.400570     2.361891     0.355386
O        1.729111     3.505447     0.628457
N        0.171721     1.866628     0.689023
C       -0.967006     2.497712     1.224810
C       -0.808254     3.516811     2.181046
C       -1.913260     4.141844     2.744933
C       -3.192597     3.775120     2.351143
Cl      -4.586584     4.573012     3.058918
C       -3.374348     2.775033     1.395204
C       -2.282465     2.137805     0.753751
C       -2.617199     1.131289    -0.402755
C       -4.049708     0.987087    -0.851137
C       -4.295120     1.482749    -2.142655
C       -5.581207     1.413293    -2.688895
C       -6.628116     0.855554    -1.948919
C       -6.391076     0.364687    -0.662351
C       -5.106381     0.424258    -0.116357
N       -1.629474     0.279685    -1.122852
C       -2.094863    -0.991439    -1.730101
C       -1.898566    -2.259585    -0.875404
C       -2.245660    -2.103153     0.617708
C       -1.062069    -2.135953     1.618871
N        0.244520    -1.630227     1.129942
C        1.129292    -2.613419     0.422004
C        0.969974    -4.057453     0.850113
C        1.406435    -4.396702     2.140547
C        1.278528    -5.711618     2.601216
C        0.721382    -6.693205     1.775741
C        0.291422    -6.362589     0.488234
C        0.414679    -5.050577     0.025402
C        2.186716    -2.258695    -0.693749
C        2.877224    -3.348863    -1.283393
C        3.877366    -3.168086    -2.238801
Cl       4.725467    -4.559519    -2.891233
C        4.204399    -1.892306    -2.675444
C        3.542250    -0.789193    -2.151325
C        2.534679    -0.945896    -1.182248
N        1.864570     0.190182    -0.689324
Cu       0.000000     0.000000     0.000000
H        0.174951     3.813843     2.518709
H       -1.773519     4.912140     3.492813
H       -4.394417     2.550116     1.132449
H       -3.488103     1.902318    -2.730313
H       -5.765257     1.783703    -3.689071
H       -7.621829     0.798383    -2.373963
H       -7.200610    -0.070461    -0.090813
H       -4.932669     0.028614     0.876284
H       -1.565871    -1.150815    -2.693602
H       -3.161847    -0.936835    -2.011779
H       -0.892941    -2.660139    -1.021290
H       -2.555510    -3.035992    -1.326274
H       -2.932112    -2.922388     0.926272
H       -2.864717    -1.209643     0.775682
H       -0.962721    -3.167604     2.002694
H       -1.367344    -1.561290     2.518802
H        1.828920    -3.641097     2.790990
H        1.605372    -5.969252     3.600155
H        0.619109    -7.709196     2.134220
H       -0.142982    -7.121078    -0.150115
H        0.070129    -4.807076    -0.971245
H        2.687613    -4.366548    -0.984448
H        4.975536    -1.753823    -3.422640
H        3.813014     0.191193    -2.517944
65
ex_0084 frame12 Λ-conf2
O        1.238337     0.595189     3.713627
C        0.664794     0.338190     2.666560
C       -0.695967    -0.316252     2.661330
O       -1.285552    -0.558441     3.703064
N       -1.232267    -0.622387     1.442561
C       -2.510471    -1.092114     1.085140
C       -3.168723    -2.012623     1.920425
C       -4.419938    -2.512097     1.582475
C       -5.043473    -2.088240     0.417213
Cl      -6.628241    -2.714883    -0.002812
C       -4.415168    -1.166303    -0.420859
C       -3.160711    -0.589031    -0.100632
C       -2.625861     0.538984    -1.051431
C       -3.512349     1.031919    -2.167278
C       -3.968540     2.349231    -1.992500
C       -4.799433     2.937808    -2.951879
C       -5.183428     2.214928    -4.085327
C       -4.736242     0.903072    -4.262661
C       -3.899383     0.314406    -3.311254
N       -1.289448     1.190178    -0.956647
C       -0.688836     1.764176    -2.185831
C        0.300410     0.854815    -2.941938
C       -0.133392    -0.617898    -3.073853
C        0.673077    -1.661170    -2.258141
N        1.264368    -1.199933    -0.977724
C        2.620542    -0.562682    -1.048753
C        3.505371    -1.039942    -2.181554
C        3.985697    -2.357171    -2.109812
C        4.800066    -2.863355    -3.128662
C        5.143171    -2.057189    -4.218519
C        4.673268    -0.743521    -4.291855
C        3.857784    -0.235133    -3.278361
C        3.175341     0.527245    -0.052365
C        4.463164     1.050366    -0.336428
C        5.092038     1.975231     0.497306
Cl       6.707092     2.544263     0.111542
C        4.445496     2.447138     1.630659
C        3.171861     1.989155     1.943550
C        2.519798     1.052142     1.121552
N        1.218634     0.627515     1.451905
Cu       0.000000     0.000000     0.000000
H       -2.702276    -2.373091     2.826811
H       -4.904721    -3.233551     2.228011
H       -4.962754    -0.876806    -1.302089
H       -3.664351     2.923306    -1.126144
H       -5.139061     3.957202    -2.821772
H       -5.822774     2.672554    -4.829098
H       -5.030419     0.344599    -5.141842
H       -3.548955    -0.698083    -3.466535
H       -0.152286     2.701428    -1.926520
H       -1.466200     2.085459    -2.902269
H        1.300977     0.949362    -2.514277
H        0.408471     1.298580    -3.956350
H       -0.055990    -0.933058    -4.137917
H       -1.209682    -0.719302    -2.879434
H        1.451568    -2.087737    -2.916561
H        0.004580    -2.526868    -2.065786
H        3.716367    -2.992509    -1.275338
H        5.160693    -3.882393    -3.077327
H        5.769880    -2.450699    -5.008164
H        4.935690    -0.119953    -5.136751
H        3.494577     0.781716    -3.352201
H        5.031884     0.720612    -1.190170
H        4.931544     3.170598     2.272948
H        2.690395     2.382278     2.828170
65
ex_0084 frame13 conf4
O        3.708666     1.032475    -0.923739
C        2.663420     0.550823    -0.515427
C        2.662577    -0.576433     0.490026
O        3.706549    -1.074355     0.882046
N        1.445954    -1.009106     0.936626
C        1.096711    -2.120363     1.728527
C        1.934484    -2.504875     2.790860
C        1.606290    -3.584368     3.601354
C        0.448377    -4.308601     3.355293
Cl       0.041707    -5.678896     4.374019
C       -0.393299    -3.951649     2.301587
C       -0.085358    -2.887254     1.416634
C       -1.048521    -2.674060     0.194435
C       -2.178728    -3.652119    -0.019357
C       -3.306486    -3.809764     0.803360
C       -4.277587    -4.764923     0.492986
C       -4.137193    -5.560817    -0.646722
C       -3.021061    -5.406821    -1.474499
C       -2.041872    -4.457274    -1.162826
N       -0.947326    -1.567318    -0.800335
C       -2.173209    -1.150648    -1.524684
C       -2.941715     0.043377    -0.923302
C       -3.076805     0.031799     0.611423
C       -2.269452     1.099642     1.393844
N       -0.988713     1.545819     0.792095
C       -1.066093     2.667632    -0.202334
C       -2.208878     3.643299    -0.000170
C       -3.293718     3.747267    -0.888004
C       -4.319915     4.662482    -0.643176
C       -4.272135     5.480363     0.488248
C       -3.195149     5.385827     1.375058
C       -2.163173     4.472526     1.131926
C       -0.066156     2.899806    -1.400623
C       -0.351205     3.990311    -2.262678
C        0.480023     4.335236    -3.328204
Cl       0.089638     5.724284    -4.327885
C        1.614400     3.584359    -3.600851
C        1.931363     2.492367    -2.802601
C        1.111271     2.128103    -1.719175
N        1.446813     1.001351    -0.943564
Cu       0.000000     0.000000     0.000000
H        2.836379    -1.952588     3.015310
H        2.254469    -3.857370     4.424396
H       -1.267577    -4.565919     2.165596
H       -3.432407    -3.192242     1.683512
H       -5.142706    -4.882116     1.132651
H       -4.895816    -6.293341    -0.890243
H       -2.919242    -6.018546    -2.361557
H       -1.188349    -4.336602    -1.818271
H       -2.883174    -1.989929    -1.631415
H       -1.907055    -0.885309    -2.569934
H       -3.954815     0.016254    -1.382298
H       -2.521915     0.983081    -1.288078
H       -2.874723    -0.972972     1.004960
H       -4.142472     0.186599     0.890793
H       -2.079192     0.697450     2.411382
H       -2.932436     1.962681     1.585798
H       -3.348164     3.115902    -1.765217
H       -5.154508     4.733104    -1.328790
H       -5.071571     6.184611     0.678645
H       -3.163764     6.016881     2.253624
H       -1.338692     4.399642     1.830010
H       -1.205536     4.627641    -2.105328
H        2.254417     3.848276    -4.433198
H        2.816961     1.921844    -3.045555
65
ex_0084 frame14 square-planar cis-conf4
O        3.478145     1.763839     0.681891
C        2.343283     1.421614     0.387537
C        1.410027     2.357175    -0.344207
O        1.744311     3.500326    -0.613935
N        0.182085     1.865659    -0.687309
C       -0.953673     2.509501    -1.215692
C       -0.790312     3.533928    -2.165425
C       -1.892152     4.173705    -2.718939
C       -3.172837     3.815982    -2.321734
Cl      -4.562966     4.633686    -3.014333
C       -3.359294     2.809144    -1.374264
C       -2.270709     2.153562    -0.745154
C       -2.616277     1.133016     0.397784
C       -4.057484     0.974760     0.819268
C       -5.090680     0.416010     0.048663
C       -6.388687     0.339122     0.559522
C       -6.662828     0.807330     1.847050
C       -5.639581     1.359576     2.623359
C       -4.339933     1.446260     2.112487
N       -1.627713     0.284741     1.124280
C       -2.095573    -0.983333     1.735958
C       -1.908401    -2.255127     0.884209
C       -2.248756    -2.100747    -0.610476
C       -1.061780    -2.142963    -1.607271
N        0.244722    -1.640019    -1.115785
C        1.117245    -2.624984    -0.393334
C        0.950950    -4.073737    -0.808271
C        0.392371    -5.052153     0.032364
C        0.260210    -6.370116    -0.410500
C        0.683698    -6.722114    -1.694281
C        1.243388    -5.755918    -2.535997
C        1.380693    -4.434927    -2.095195
C        2.169424    -2.267024     0.726679
C        2.853077    -3.356313     1.326461
C        3.843082    -3.174389     2.291914
Cl       4.679511    -4.565603     2.959846
C        4.169189    -1.897738     2.726299
C        3.517033    -0.794929     2.189030
C        2.518957    -0.952873     1.210349
N        1.859757     0.183590     0.702868
Cu       0.000000     0.000000     0.000000
H        0.194062     3.825798    -2.504102
H       -1.749029     4.949476    -3.460387
H       -4.380479     2.593371    -1.108123
H       -4.889370     0.040099    -0.946342
H       -7.180016    -0.090713    -0.040786
H       -7.667248     0.737705     2.244159
H       -5.852873     1.713406     3.623736
H       -3.551973     1.863050     2.727353
H       -3.160230    -0.923256     2.023575
H       -1.562996    -1.142956     2.697549
H       -2.573020    -3.024795     1.335527
H       -0.907005    -2.664021     1.033717
H       -2.859746    -1.203072    -0.772199
H       -2.938713    -2.916879    -0.919605
H       -1.361714    -1.570842    -2.510630
H       -0.964880    -3.176476    -1.986361
H        0.053659    -4.793461     1.027073
H       -0.175551    -7.116786     0.240807
H        0.574772    -7.742876    -2.037044
H        1.565431    -6.030497    -3.531980
H        1.805872    -3.691878    -2.758145
H        2.664411    -4.374905     1.030348
H        4.932050    -1.758351     3.481727
H        3.787041     0.186216     2.553977
65
ex_0084 frame15 Δ-conf2
O       -0.859214     1.043553     3.721938
C       -0.471534     0.556564     2.671328
C        0.519140    -0.582932     2.656799
O        0.920479    -1.085386     3.695067
N        0.941623    -1.021304     1.433663
C        1.729292    -2.130746     1.069799
C        2.799992    -2.520642     1.894552
C        3.609070    -3.595891     1.549715
C        3.352787    -4.311177     0.388368
Cl       4.371837    -5.674540    -0.040220
C        2.288648    -3.950526    -0.439059
C        1.403430    -2.892657    -0.111252
C        0.164256    -2.676683    -1.049319
C       -0.088249    -3.663526    -2.161158
C       -1.235991    -4.451715    -1.973276
C       -1.593808    -5.409953    -2.927723
C       -0.807020    -5.590482    -4.069224
C        0.337894    -4.812460    -4.259591
C        0.694148    -3.848447    -3.313084
N       -0.816464    -1.560080    -0.945936
C       -1.541639    -1.134564    -2.168200
C       -0.934543     0.059150    -2.932253
C        0.599005     0.030303    -3.080269
C        1.400183     1.085329    -2.274555
N        0.812377     1.535226    -0.988505
C       -0.161489     2.674611    -1.050874
C        0.052705     3.652562    -2.187442
C        1.196573     4.464333    -2.128764
C        1.458592     5.382192    -3.151758
C        0.579023     5.498203    -4.232600
C       -0.564198     4.697420    -4.292894
C       -0.828103     3.777881    -3.275228
C       -1.348600     2.922769    -0.042214
C       -2.197262     4.025532    -0.319069
C       -3.246643     4.388300     0.525324
Cl      -4.227331     5.794245     0.147631
C       -3.518239     3.641775     1.662964
C       -2.735685     2.535607     1.969485
C       -1.668381     2.153684     1.136528
N       -0.910253     1.011915     1.460330
Cu       0.000000     0.000000     0.000000
H        3.034083    -1.974176     2.797553
H        4.439924    -3.871495     2.186922
H        2.144940    -4.556617    -1.317770
H       -1.860947    -4.309084    -1.100505
H       -2.485625    -6.006945    -2.787456
H       -1.087011    -6.329060    -4.809161
H        0.945036    -4.949552    -5.144998
H        1.576191    -3.242869    -3.478404
H       -2.584738    -0.864835    -1.898360
H       -1.653116    -1.970222    -2.882404
H       -1.285949     0.999550    -2.501937
H       -1.401757     0.044699    -3.941767
H        0.871253     0.186660    -4.147501
H        0.983641    -0.980469    -2.888201
H        1.598551     1.947979    -2.936376
H        2.413917     0.670083    -2.092241
H        1.889222     4.373896    -1.301387
H        2.346384     5.999624    -3.110555
H        0.784437     6.205587    -5.025468
H       -1.243769     4.784293    -5.130833
H       -1.713323     3.158492    -3.338960
H       -2.039176     4.659684    -1.175764
H       -4.337796     3.919800     2.313478
H       -2.977696     1.968634     2.857680
65
ex_0084 frame16 Λ-conf4
O        1.033413    -0.922656     3.708726
C        0.551305    -0.514922     2.663504
C       -0.576734     0.489375     2.662560
O       -1.074934     0.880645     3.706675
N       -1.009487     0.935537     1.445794
C       -2.121132     1.727547     1.096957
C       -2.506096     2.788881     1.935807
C       -3.585401     3.599824     1.607736
C       -4.308822     3.355006     0.449140
Cl      -5.678601     4.374476     0.042481
C       -3.951529     2.301987    -0.393280
C       -2.887539     1.416474    -0.085284
C       -2.674272     0.194609    -1.048502
C       -3.652348    -0.018805    -2.178652
C       -3.809800     0.803331    -3.306879
C       -4.765317     0.492877    -4.277610
C       -5.561761    -0.646339    -4.136390
C       -5.407957    -1.473539    -3.019800
C       -4.458025    -1.161797    -2.040992
N       -1.567508    -0.800040    -0.947336
C       -1.150974    -1.524433    -2.173169
C        0.043255    -0.923256    -2.941465
C        0.031960     0.611527    -3.076539
C        1.099989     1.393753    -2.269309
N        1.545994     0.791827    -0.988604
C        2.667886    -0.202485    -1.066013
C        3.643568    -0.000585    -2.208799
C        3.747651    -0.888061    -3.293893
C        4.663178    -0.643057    -4.319784
C        5.481199     0.488250    -4.271454
C        5.386510     1.374741    -3.194226
C        4.472909     1.131424    -2.162555
C        2.900266    -1.400588    -0.065987
C        3.990233    -2.263220    -0.351166
C        4.335493    -3.328133     0.480840
Cl       5.723919    -4.328642     0.090505
C        3.585338    -3.599463     1.616005
C        2.493609    -2.800888     1.932733
C        2.128913    -1.718214     1.111775
N        1.002209    -0.942940     1.447182
Cu       0.000000     0.000000     0.000000
H       -1.954425     3.012685     2.838188
H       -3.858693     4.422283     2.256570
H       -4.565128     2.166966    -1.268141
H       -3.191866     1.683101    -3.433451
H       -4.882364     1.132085    -5.143093
H       -6.294565    -0.889932    -4.894724
H       -6.020132    -2.360211    -2.917344
H       -4.337522    -1.816795    -1.187107
H       -1.990252    -1.630840    -2.883202
H       -0.885995    -2.569763    -1.907015
H        0.016363    -1.382254    -3.954548
H        0.982719    -1.288310    -2.521414
H       -0.972619     1.005335    -2.874205
H        0.186484     0.890940    -4.142220
H        0.698074     2.411385    -2.078984
H        1.963051     1.585473    -2.932331
H        3.116150    -1.765162    -3.348747
H        4.733928    -1.328419    -5.154571
H        6.185674     0.678803    -5.070656
H        6.017673     2.253219    -3.162414
H        4.399917     1.829259    -1.337881
H        4.627015    -2.106842    -1.206091
H        3.849510    -4.431180     2.256777
H        1.923614    -3.043039     2.818862
65
ex_0084 frame17 Δ-conf4
O        0.611415     1.248559     3.706988
C        0.349618     0.672338     2.662598
C       -0.306603    -0.687327     2.663740
O       -0.543888    -1.273287     3.708901
N       -0.619855    -1.226606     1.448379
C       -1.078637    -2.512578     1.101734
C       -1.990062    -3.173436     1.944933
C       -2.476550    -4.433236     1.619127
C       -2.049474    -5.061712     0.458021
Cl      -2.658671    -6.657436     0.053682
C       -1.138134    -4.430150    -0.388643
C       -0.574895    -3.165189    -0.082416
C        0.539131    -2.626805    -1.048987
C        1.007687    -3.510020    -2.180172
C        0.257845    -3.885636    -3.307407
C        0.815101    -4.721221    -4.278382
C        2.128129    -5.177836    -4.138832
C        2.883918    -4.804221    -3.023466
C        2.326934    -3.974303    -2.044341
N        1.194133    -1.290620    -0.950218
C        1.774224    -0.692698    -2.177703
C        0.868089     0.292229    -2.943637
C       -0.605891    -0.137186    -3.074733
C       -1.647615     0.677047    -2.264871
N       -1.186491     1.270807    -0.985826
C       -0.536788     2.621664    -1.065516
C       -1.000222     3.504892    -2.207332
C       -0.178555     3.846903    -3.295439
C       -0.667447     4.660939    -4.319622
C       -1.978723     5.139555    -4.266825
C       -2.802116     4.806705    -3.186735
C       -2.315340     3.994056    -2.156754
C        0.554597     3.172677    -0.068527
C        1.087497     4.456069    -0.356064
C        2.018698     5.079486     0.474458
Cl       2.603033     6.687414     0.081564
C        2.484883     4.433279     1.610159
C        2.014802     3.165363     1.928514
C        1.072267     2.518081     1.108773
N        0.635308     1.222397     1.445378
Cu       0.000000     0.000000     0.000000
H       -2.351837    -2.704368     2.849188
H       -3.189613    -4.920973     2.271602
H       -0.845039    -4.983100    -1.265307
H       -0.756963    -3.530329    -3.432722
H        0.230594    -5.008187    -5.142931
H        2.560724    -5.817215    -4.897415
H        3.903769    -5.152231    -2.922348
H        2.925770    -3.679797    -1.191454
H        2.103396    -1.471381    -2.888470
H        2.708487    -0.152793    -1.914207
H        1.314239     0.391675    -3.957907
H        0.964486     1.295578    -2.523837
H       -0.710478    -1.210944    -2.871864
H       -0.919691    -0.065260    -4.139588
H       -2.516458     0.012835    -2.071771
H       -2.069433     1.454831    -2.926966
H        0.837275     3.478423    -3.353763
H       -0.030224     4.915920    -5.156637
H       -2.356886     5.765409    -5.064707
H       -3.819267     5.174477    -3.151476
H       -2.964047     3.733597    -1.329834
H        0.762849     5.024944    -1.211471
H        3.213349     4.914964     2.250029
H        2.404055     2.684187     2.814859
65
ex_0084 frame18 see-saw N0-N1-ax-conf2
O        1.741608    -0.921251     3.439384
C        1.412409    -0.554684     2.321692
C        2.344598     0.254420     1.466039
O        3.478328     0.517510     1.836292
N        1.860396     0.675886     0.263194
C        2.497082     1.307694    -0.815677
C        3.504904     2.254742    -0.563053
C        4.136425     2.912961    -1.608152
C        3.785737     2.623749    -2.919910
Cl       4.592991     3.452933    -4.238352
C        2.795092     1.677452    -3.193268
C        2.149312     0.944534    -2.166978
C        1.146033    -0.184341    -2.609908
C        0.997254    -0.513681    -4.065930
C        1.489689    -1.779151    -4.418920
C        1.398032    -2.220590    -5.741081
C        0.827382    -1.396437    -6.716044
C        0.346973    -0.129814    -6.369866
C        0.430011     0.311673    -5.047821
N        0.288247    -1.001015    -1.705459
C       -0.995084    -1.540973    -2.227696
C       -2.244892    -0.716989    -1.869847
C       -2.092492     0.801290    -2.100433
C       -2.173443     1.692251    -0.842582
N       -1.623105     1.096719     0.398825
C       -2.599013     0.335507     1.253414
C       -4.042281     0.786390     1.179229
C       -4.371611     2.030467     1.738583
C       -5.691573     2.492466     1.690201
C       -6.685872     1.714659     1.088010
C       -6.362980     0.473706     0.532855
C       -5.046311     0.009926     0.577125
C       -2.239874    -0.860907     2.207676
C       -3.316237    -1.480526     2.896814
C       -3.117053    -2.515391     3.810923
Cl      -4.484986    -3.200033     4.672469
C       -1.840034    -3.005615     4.041438
C       -0.754967    -2.452070     3.373009
C       -0.929787    -1.394089     2.460293
N        0.189970    -0.858453     1.793175
Cu       0.000000     0.000000     0.000000
H        3.787753     2.511638     0.448909
H        4.898482     3.652063    -1.394940
H        2.580318     1.496895    -4.233086
H        1.913876    -2.430762    -3.664412
H        1.758604    -3.205593    -6.006572
H        0.750383    -1.742105    -7.737948
H       -0.100934     0.505604    -7.122228
H        0.037849     1.286049    -4.783135
H       -1.145636    -2.563909    -1.820496
H       -0.975856    -1.674034    -3.323909
H       -2.532317    -0.954179    -0.842629
H       -3.090664    -1.105723    -2.478290
H       -2.860864     1.160543    -2.819645
H       -1.154351     1.013895    -2.626368
H       -3.220009     2.017185    -0.708387
H       -1.635667     2.638567    -1.064782
H       -3.606633     2.642328     2.199888
H       -5.943898     3.455114     2.115284
H       -7.705917     2.074059     1.048411
H       -7.131233    -0.127650     0.064154
H       -4.805556    -0.950144     0.138026
H       -4.333384    -1.143286     2.780073
H       -1.685848    -3.813688     4.745548
H        0.227373    -2.857642     3.571872
65
ex_0084 frame19 see-saw N0-N1-ax
O        1.734147    -0.923374     3.442579
C        1.407886    -0.555571     2.324443
C        2.342439     0.255014     1.470229
O        3.474553     0.521344     1.843042
N        1.860819     0.673594     0.265417
C        2.491961     1.309043    -0.814252
C        3.491521     2.264803    -0.563791
C        4.114710     2.928118    -1.611074
C        3.764626     2.634012    -2.922138
Cl       4.560716     3.469647    -4.243280
C        2.783259     1.677547    -3.192900
C        2.142640     0.943035    -2.164763
C        1.141000    -0.189652    -2.607438
C        0.989537    -0.523838    -4.063030
C        0.413840     0.305458    -5.036767
C        0.318477    -0.131624    -6.359400
C        0.798347    -1.395945    -6.714734
C        1.380074    -2.222422    -5.748267
C        1.482946    -1.785846    -4.425440
N        0.284140    -1.008764    -1.701621
C       -1.003776    -1.536782    -2.226806
C       -2.243846    -0.698287    -1.870161
C       -2.072119     0.818698    -2.097914
C       -2.169115     1.703950    -0.839470
N       -1.617810     1.104156     0.400323
C       -2.597920     0.344135     1.252453
C       -4.038244     0.806492     1.177309
C       -4.365036     2.053852     1.731096
C       -5.682247     2.522533     1.672676
C       -6.677137     1.746820     1.068847
C       -6.357613     0.501237     0.522179
C       -5.043571     0.030913     0.576088
C       -2.243948    -0.858988     2.201041
C       -3.323181    -1.479184     2.884860
C       -3.129221    -2.524279     3.788435
Cl      -4.501423    -3.213514     4.639502
C       -1.854075    -3.020995     4.016673
C       -0.765489    -2.463765     3.356643
C       -0.935812    -1.397847     2.452897
N        0.186528    -0.858906     1.793209
Cu       0.000000     0.000000     0.000000
H        3.772732     2.524798     0.447881
H        4.869634     3.675111    -1.400290
H        2.568472     1.493044    -4.232098
H        0.021652     1.277836    -4.764850
H       -0.138588     0.505304    -7.104966
H        0.712244    -1.738139    -7.737036
H        1.740419    -3.205579    -6.020614
H        1.915316    -2.439126    -3.677040
H       -1.166184    -2.556855    -1.816665
H       -0.984651    -1.673809    -3.322338
H       -3.101009    -1.075736    -2.469635
H       -2.522926    -0.932353    -0.840130
H       -2.814881     1.186557    -2.839249
H       -1.116836     1.025287    -2.591082
H       -1.635985     2.654753    -1.054148
H       -3.218895     2.019625    -0.712166
H       -3.599339     2.664890     2.192312
H       -5.931788     3.489114     2.090469
H       -7.694909     2.111671     1.020927
H       -7.126280    -0.098243     0.051760
H       -4.805085    -0.932043     0.142072
H       -4.338808    -1.136971     2.769467
H       -1.704260    -3.837087     4.712389
H        0.215732    -2.873615     3.552688
65
ex_0084 frame20 see-saw N0-N1-ax-conf3
O        1.728923    -0.947488     3.438733
C        1.403818    -0.570626     2.323346
C        2.337475     0.252076     1.480075
O        3.467904     0.519781     1.857136
N        1.856668     0.680390     0.279045
C        2.483812     1.333692    -0.790311
C        3.461688     2.307667    -0.526701
C        4.080163     2.987769    -1.566227
C        3.747853     2.690815    -2.881471
Cl       4.539089     3.544835    -4.193666
C        2.787781     1.716560    -3.163834
C        2.145601     0.971882    -2.144035
C        1.151564    -0.164923    -2.601184
C        1.009141    -0.489385    -4.060306
C        1.498494    -1.744277    -4.448582
C        1.391955    -2.153150    -5.779463
C        0.811657    -1.304757    -6.727826
C        0.336048    -0.046449    -6.345916
C        0.435557     0.362991    -5.015093
N        0.292008    -0.999031    -1.706373
C       -0.996406    -1.509652    -2.252765
C       -2.226481    -0.666237    -1.881137
C       -2.034726     0.850788    -2.093452
C       -2.176776     1.714204    -0.829438
N       -1.617499     1.103707     0.403965
C       -2.599327     0.339595     1.253035
C       -4.041986     0.795417     1.170240
C       -5.035623    -0.002202     0.578294
C       -6.354040     0.453244     0.507670
C       -6.689637     1.705544     1.028816
C       -5.706707     2.502454     1.624681
C       -4.385473     2.048176     1.701165
C       -2.244084    -0.860972     2.204544
C       -3.322554    -1.468901     2.901148
C       -3.131337    -2.516813     3.801426
Cl      -4.502921    -3.190612     4.665952
C       -1.859746    -3.028187     4.015550
C       -0.771350    -2.480147     3.347060
C       -0.938413    -1.409171     2.448246
N        0.184620    -0.874111     1.785247
Cu       0.000000     0.000000     0.000000
H        3.728195     2.567463     0.489276
H        4.818066     3.749001    -1.346750
H        2.587268     1.530873    -4.205480
H        1.930491    -2.413081    -3.713703
H        1.749212    -3.131495    -6.071848
H        0.723503    -1.625332    -7.756725
H       -0.120111     0.607477    -7.077130
H        0.047426     1.331007    -4.721866
H       -1.169526    -2.534812    -1.859589
H       -0.975832    -1.627599    -3.350196
H       -2.474263    -0.908427    -0.844758
H       -3.105931    -1.026021    -2.459118
H       -2.726803     1.230004    -2.877049
H       -1.048032     1.059333    -2.513751
H       -3.236634     1.996987    -0.717158
H       -1.664744     2.681423    -1.021696
H       -4.783896    -0.970310     0.163252
H       -7.113451    -0.162780     0.043615
H       -7.710556     2.059249     0.967059
H       -5.968460     3.474393     2.021956
H       -3.628775     2.675550     2.155227
H       -4.335667    -1.115454     2.797818
H       -1.712527    -3.847175     4.708388
H        0.207490    -2.899768     3.534078
65
ex_0084 frame21 see-saw N0-N1-ax-conf5
O        1.740305     0.928463     3.438369
C        1.411779     0.560282     2.320961
C        2.346910    -0.243846     1.464162
O        3.482491    -0.500296     1.833231
N        1.863087    -0.668524     0.261701
C        2.508253    -1.289943    -0.819514
C        3.527658    -2.225500    -0.570225
C        4.166486    -2.873504    -1.617402
C        3.810653    -2.586752    -2.928303
Cl       4.625544    -3.404901    -4.248970
C        2.808835    -1.651680    -3.198885
C        2.158603    -0.926169    -2.170245
C        1.149573     0.196569    -2.609928
C        0.998739     0.525485    -4.065782
C        1.503151     1.786774    -4.417190
C        1.414197     2.231471    -5.738768
C        0.833056     1.415357    -6.714345
C        0.340063     0.153261    -6.369690
C        0.421306    -0.291830    -5.048648
N        0.289470     1.005933    -1.702411
C       -0.991299     1.551550    -2.224459
C       -2.243316     0.727290    -1.875712
C       -2.091577    -0.791069    -2.107179
C       -2.178231    -1.683037    -0.850329
N       -1.628634    -1.090605     0.393171
C       -2.605838    -0.322417     1.240951
C       -4.052242    -0.766307     1.161136
C       -5.046730     0.017184     0.551756
C       -6.366904    -0.435844     0.499864
C       -6.703572    -1.673040     1.054894
C       -5.719458    -2.458006     1.664407
C       -4.395767    -2.006869     1.720338
C       -2.244968     0.875481     2.193294
C       -3.321568     1.504383     2.873433
C       -3.121907     2.543029     3.783094
Cl      -4.491320     3.242486     4.630172
C       -1.843224     3.025375     4.020623
C       -0.757347     2.461398     3.362554
C       -0.933110     1.401687     2.452121
N        0.187446     0.857905     1.793870
Cu       0.000000     0.000000     0.000000
H        3.815008    -2.481315     0.440599
H        4.937992    -3.603320    -1.406368
H        2.589883    -1.471800    -4.238272
H        1.935738     2.432409    -3.662430
H        1.785000     3.212884    -6.003593
H        0.757827     1.763670    -7.735588
H       -0.116012    -0.475825    -7.122551
H        0.019758    -1.262743    -4.785662
H       -1.141187     2.572281    -1.811499
H       -0.968305     1.692279    -3.319659
H       -2.534720     0.962885    -0.849672
H       -3.086151     1.118223    -2.486774
H       -2.857025    -1.148714    -2.830258
H       -1.151993    -1.004996    -2.629075
H       -3.226295    -2.004293    -0.719051
H       -1.643648    -2.631190    -1.072298
H       -4.796139     0.974713     0.112878
H       -7.127312     0.171102     0.025532
H       -7.726444    -2.023877     1.009575
H       -5.982839    -3.417747     2.089463
H       -3.639187    -2.624511     2.187642
H       -4.340128     1.173643     2.751249
H       -1.688460     3.836067     4.721523
H        0.226071     2.861876     3.565992
65
ex_0084 frame22 see-saw N0-N1-ax-conf4
O        1.729801     0.945539     3.438714
C        1.405100     0.571197     2.322031
C        2.341153    -0.240634     1.474558
O        3.474955    -0.497522     1.849305
N        1.860097    -0.671706     0.273817
C        2.509072    -1.295127    -0.802855
C        3.522630    -2.234850    -0.546934
C        4.168134    -2.882223    -1.590293
C        3.825310    -2.589533    -2.903166
Cl       4.651387    -3.403164    -4.219635
C        2.827584    -1.651987    -3.179691
C        2.164111    -0.931974    -2.155097
C        1.146411     0.182786    -2.606333
C        0.982411     0.483673    -4.068171
C        0.418412    -0.375957    -5.022078
C        0.318044     0.027348    -6.354747
C        0.776154     1.290954    -6.739668
C        1.341490     2.150537    -5.792496
C        1.450526     1.747320    -4.459404
N        0.293054     1.006454    -1.701484
C       -0.988711     1.549433    -2.223891
C       -2.242011     0.724978    -1.876514
C       -2.090586    -0.794025    -2.102040
C       -2.176554    -1.682638    -0.842270
N       -1.630679    -1.085213     0.399584
C       -2.609534    -0.311274     1.240751
C       -4.057495    -0.749607     1.158044
C       -5.045555     0.043448     0.550378
C       -6.368734    -0.399761     0.494746
C       -6.714825    -1.637249     1.043177
C       -5.737067    -2.432200     1.650069
C       -4.410401    -1.990594     1.710306
C       -2.248229     0.888812     2.190094
C       -3.324269     1.517034     2.872373
C       -3.124463     2.560945     3.775767
Cl      -4.493146     3.259722     4.624978
C       -1.846742     3.049041     4.005438
C       -0.761179     2.483808     3.347261
C       -0.937102     1.417589     2.444232
N        0.183258     0.869688     1.788559
Cu       0.000000     0.000000     0.000000
H        3.800755    -2.492791     0.466001
H        4.935749    -3.614736    -1.374777
H        2.621033    -1.468049    -4.220540
H        0.045996    -1.349656    -4.728224
H       -0.124639    -0.636273    -7.085490
H        0.686850     1.606199    -7.770313
H        1.685719     3.132701    -6.088450
H        1.872345     2.425139    -3.726931
H       -0.964570     1.691860    -3.318398
H       -1.140664     2.569680    -1.810139
H       -3.080619     1.113920    -2.494708
H       -2.542084     0.963482    -0.853440
H       -1.151192    -1.007603    -2.624852
H       -2.858961    -1.154548    -2.820612
H       -1.637795    -2.629276    -1.060798
H       -3.223291    -2.007704    -0.709958
H       -4.787993     1.001830     0.117430
H       -7.124196     0.215346     0.023023
H       -7.740133    -1.980370     0.995067
H       -6.007782    -3.392036     2.070188
H       -3.658861    -2.615476     2.176179
H       -4.342128     1.182230     2.756459
H       -1.692105     3.864416     4.700933
H        0.221790     2.887919     3.545362
65
ex_0084 frame23 Isomer 1
O       -3.443217     4.361968    -1.414358
C       -3.129774     3.324759    -0.851009
C       -4.008815     2.719358     0.213726
O       -5.030171     3.277871     0.583218
N       -3.609662     1.524499     0.740768
C       -4.096046     0.816158     1.855537
C       -5.480995     0.766806     2.094075
C       -5.991681     0.059109     3.174641
C       -5.129763    -0.596124     4.043101
Cl      -5.777103    -1.481615     5.413197
C       -3.751286    -0.553374     3.830908
C       -3.174217     0.190540     2.770668
C       -1.606595     0.265366     2.719075
C       -0.813413    -0.375333     3.831872
C       -0.707940    -1.753503     4.080093
C        0.053792    -2.219743     5.154181
C        0.725220    -1.315140     5.980744
C        0.630653     0.058466     5.737299
C       -0.137726     0.530168     4.667307
N       -0.810684     0.928525     1.644902
C        0.584044     0.477008     1.415503
C        0.774094    -0.552851     0.285768
C       -0.286520    -1.670534     0.240446
C       -1.250294    -1.663990    -0.972109
N       -1.610473    -0.334959    -1.527237
C       -0.686835     0.223079    -2.572213
C        0.022814    -0.807331    -3.426264
C        1.408741    -1.030568    -3.356187
C        2.006714    -2.002626    -4.161101
C        1.227559    -2.756501    -5.042270
C       -0.151104    -2.536285    -5.121651
C       -0.753618    -1.561375    -4.319515
C       -0.418902     1.754471    -2.840491
C        0.538226     2.066940    -3.840919
C        0.832649     3.380335    -4.207251
Cl       1.996778     3.693396    -5.483134
C        0.208502     4.440647    -3.566616
C       -0.722723     4.194049    -2.566041
C       -1.040874     2.877492    -2.183472
N       -1.973853     2.661990    -1.151211
Cu      -1.857096     0.995929    -0.056662
H       -6.176918     1.257530     1.427628
H       -7.061477     0.019754     3.335846
H       -3.144135    -1.075324     4.551639
H       -1.215203    -2.464356     3.440255
H        0.128797    -3.283155     5.340492
H        1.322103    -1.679528     6.806754
H        1.158826     0.756411     6.374030
H       -0.193737     1.595228     4.479427
H        1.033017     0.059929     2.333981
H        1.217621     1.357945     1.176958
H        1.782182    -0.999627     0.432800
H        0.861086    -0.034542    -0.671113
H       -0.857286    -1.694587     1.176976
H        0.215880    -2.662886     0.241126
H       -2.174978    -2.197819    -0.666402
H       -0.826551    -2.318748    -1.754337
H        2.023316    -0.459694    -2.672096
H        3.073373    -2.174722    -4.096517
H        1.692166    -3.513597    -5.660277
H       -0.753299    -3.125735    -5.800424
H       -1.823479    -1.405460    -4.379276
H        1.052923     1.297196    -4.391626
H        0.443452     5.460065    -3.845716
H       -1.184718     5.042198    -2.080479
65
ex_0084 frame24 square-planar cis-conf5
O        3.476750     1.770345     0.672012
C        2.341795     1.426108     0.381187
C        1.402826     2.361247    -0.344469
O        1.733406     3.505644    -0.613837
N        0.174288     1.868302    -0.682572
C       -0.965667     2.505866    -1.209625
C       -0.809018     3.533314    -2.157258
C       -1.915370     4.165124    -2.711307
C       -3.193908     3.796322    -2.316708
Cl      -4.589379     4.602752    -3.011799
C       -3.373775     2.787365    -1.369972
C       -2.280398     2.144940    -0.736561
C       -2.613750     1.133129     0.414214
C       -4.045326     0.985950     0.861684
C       -4.288492     1.489610     2.150465
C       -5.573102     1.420756     2.700329
C       -6.620373     0.854952     1.966947
C       -6.385352     0.356034     0.683112
C       -5.102344     0.415728     0.133252
N       -1.625379     0.279722     1.128802
C       -2.088707    -0.989885     1.740271
C       -1.902060    -2.259892     0.885938
C       -2.249235    -2.105154    -0.607333
C       -1.066061    -2.139842    -1.609514
N        0.241875    -1.635961    -1.122285
C        1.119398    -2.620839    -0.406409
C        0.954682    -4.067489    -0.828010
C        0.393948    -5.050813     0.005241
C        0.262169    -6.365872    -0.446322
C        0.689636    -6.710211    -1.730888
C        1.252868    -5.739247    -2.564721
C        1.389092    -4.421004    -2.115460
C        2.174040    -2.264871     0.712029
C        2.858689    -3.355204     1.308253
C        3.852145    -3.174848     2.270566
Cl       4.690101    -4.567186     2.934176
C        4.180483    -1.898739     2.705246
C        3.526618    -0.794968     2.172075
C        2.524620    -0.951245     1.197204
N        1.862451     0.185817     0.694917
Cu       0.000000     0.000000     0.000000
H        0.173312     3.832531    -2.495401
H       -1.777325     4.942476    -3.452141
H       -4.393302     2.560440    -1.105780
H       -3.481013     1.915268     2.733061
H       -5.755688     1.797737     3.698303
H       -7.612817     0.797855     2.394956
H       -7.195090    -0.085442     0.116723
H       -4.930334     0.014022    -0.857191
H       -1.553253    -1.149621     2.700190
H       -3.153226    -0.931672     2.030549
H       -0.899170    -2.666565     1.030964
H       -2.563311    -3.031261     1.339205
H       -2.934753    -2.925733    -0.914461
H       -2.869277    -1.212729    -0.766316
H       -0.968144    -3.171817    -1.992926
H       -1.371308    -1.565749    -2.509775
H        0.051589    -4.797915     1.000145
H       -0.176748    -7.116131     0.198694
H        0.580876    -7.728683    -2.080446
H        1.578059    -6.007873    -3.561312
H        1.816486    -3.674021    -2.772550
H        2.667896    -4.373311     1.011433
H        4.946152    -1.760650     3.458098
H        3.798090     0.185652     2.537480
65
ex_0084 frame25 Λ-conf5
O        1.039024    -0.887712     3.715875
C        0.553757    -0.491620     2.667569
C       -0.585411     0.500568     2.658959
O       -1.088700     0.894263     3.699719
N       -1.022660     0.933412     1.439104
C       -2.137865     1.714918     1.079653
C       -2.536130     2.777442     1.910725
C       -3.618190     3.579714     1.570877
C       -4.331484     3.325130     0.407803
Cl      -5.703483     4.335176    -0.014270
C       -3.961965     2.269715    -0.426616
C       -2.898625     1.389798    -0.102766
C       -2.677411     0.157034    -1.046158
C       -3.661161    -0.092153    -2.160373
C       -4.453530    -1.236248    -1.968032
C       -5.411983    -1.594969    -2.921998
C       -5.587856    -0.813161    -4.067684
C       -4.805401     0.327978    -4.262454
C       -3.841749     0.685505    -3.316101
N       -1.558640    -0.819640    -0.945172
C       -1.133625    -1.546868    -2.166194
C        0.055041    -0.938080    -2.936998
C        0.028492     0.595683    -3.082950
C        1.084891     1.395186    -2.276588
N        1.536648     0.805472    -0.992065
C        2.669529    -0.176439    -1.062486
C        3.644572     0.033556    -2.203953
C        3.757112    -0.851122    -3.290394
C        4.670796    -0.595996    -4.315463
C        5.479499     0.541882    -4.264124
C        5.377260     1.424915    -3.184739
C        4.464944     1.171876    -2.154282
C        2.913010    -1.368110    -0.057440
C        4.010227    -2.222214    -0.339898
C        4.366123    -3.279648     0.497171
Cl       5.763093    -4.269496     0.110197
C        3.619890    -3.552056     1.634784
C        2.521035    -2.762152     1.948767
C        2.145254    -1.687584     1.122511
N        1.011049    -0.922267     1.454632
Cu       0.000000     0.000000     0.000000
H       -1.991559     3.009869     2.815290
H       -3.900840     4.404001     2.213387
H       -4.566331     2.126460    -1.306929
H       -4.314342    -1.857433    -1.092037
H       -6.012686    -2.483725    -2.778195
H       -6.326321    -1.094024    -4.807409
H       -4.938773     0.931207    -5.151105
H       -3.232991     1.564635    -3.484826
H       -0.859061    -2.588136    -1.894072
H       -1.971793    -1.664758    -2.876430
H        0.997748    -1.290817    -2.513863
H        0.033251    -1.403971    -3.947029
H        0.186996     0.868354    -4.149779
H       -0.981878     0.981539    -2.892259
H        1.947056     1.594338    -2.938860
H        0.670611     2.408965    -2.092557
H        3.132521    -1.732923    -3.347886
H        4.747088    -1.278468    -5.152120
H        6.182472     0.740277    -5.062736
H        6.001250     2.308419    -3.150527
H        4.385606     1.867323    -1.328162
H        4.644024    -2.064107    -1.196824
H        3.892390    -4.378021     2.279438
H        1.953955    -3.004958     2.836617
65
ex_0084 frame26 conf5
O        3.715809     1.039189    -0.887222
C        2.667511     0.553781    -0.491290
C        2.658861    -0.585558     0.500702
O        3.699628    -1.088885     0.894371
N        1.438703    -1.022615     0.933150
C        1.079550    -2.138077     1.714907
C        1.910770    -2.536368     2.777233
C        1.570976    -3.618406     3.579626
C        0.407829    -4.331613     3.325148
Cl      -0.014161    -5.703545     4.335387
C       -0.426668    -3.962142     2.269820
C       -0.102825    -2.898874     1.389957
C       -1.046200    -2.677505     0.157102
C       -2.160383    -3.661243    -0.092103
C       -1.968018    -4.453614    -1.236162
C       -2.921967    -5.412071    -1.594904
C       -4.067681    -5.587928    -0.813113
C       -4.262475    -4.805458     0.328005
C       -3.316136    -3.841807     0.685549
N       -0.945165    -1.558636    -0.819536
C       -2.166190    -1.133692    -1.546816
C       -2.937002     0.054993    -0.938071
C       -3.082961     0.028470     0.595697
C       -2.276598     1.084864     1.395206
N       -0.992117     1.536656     0.805521
C       -1.062536     2.669529    -0.176365
C       -2.203985     3.644555     0.033549
C       -3.290468     3.757121    -0.851115
C       -4.315499     4.670838    -0.595965
C       -4.264108     5.479550     0.541903
C       -3.184693     5.377293     1.424902
C       -2.154277     4.464950     1.171840
C       -0.057455     2.912927    -1.367976
C       -0.339967     4.010154    -2.222185
C        0.497173     4.366046    -3.279575
Cl       0.110169     5.763031    -4.269490
C        1.634773     3.619902    -3.551894
C        1.948831     2.521008    -2.761881
C        1.122399     2.145245    -1.687324
N        1.454399     1.010868    -0.921779
Cu       0.000000     0.000000     0.000000
H        2.815355    -1.991833     3.009584
H        2.213582    -3.900975     4.403833
H       -1.307019    -4.566483     2.126636
H       -1.091998    -4.314427    -1.857329
H       -2.778138    -6.012786    -2.483642
H       -4.807396    -6.326395    -1.093987
H       -5.151141    -4.938815     0.931224
H       -3.484867    -3.233031     1.564657
H       -1.894064    -0.859172    -2.588096
H       -2.876438    -1.971858    -1.664680
H       -2.513868     0.997687    -1.290844
H       -3.947030     0.033189    -1.403965
H       -4.149786     0.186993     0.868360
H       -2.892276    -0.981893     0.981571
H       -2.938866     1.947033     1.594354
H       -2.092540     0.670584     2.408978
H       -3.348001     3.132521    -1.732907
H       -5.152182     4.747150    -1.278409
H       -5.062696     6.182543     0.740323
H       -3.150436     6.001290     2.308397
H       -1.328128     4.385596     1.867259
H       -1.196911     4.643904    -2.064202
H        2.279449     3.892421    -4.377863
H        2.836722     1.954077    -3.004667
65
ex_0084 frame27 Λ
O        1.240429     0.589615     3.712388
C        0.666568     0.332090     2.665705
C       -0.692989    -0.332801     2.659078
O       -1.279243    -0.586940     3.699729
N       -1.230683    -0.633746     1.439389
C       -2.510858    -1.096281     1.080946
C       -3.156171    -2.048600     1.889530
C       -4.403811    -2.550700     1.540241
C       -5.030128    -2.108067     0.383018
Cl      -6.611715    -2.734164    -0.049823
C       -4.407134    -1.167363    -0.437310
C       -3.158321    -0.585540    -0.104164
C       -2.620789     0.546613    -1.052471
C       -3.502838     1.045946    -2.171082
C       -3.880640     0.323964    -3.315401
C       -4.708037     0.910115    -4.276676
C       -5.157253     2.222286    -4.106731
C       -4.784529     2.948127    -2.971549
C       -3.962407     2.362524    -2.003024
N       -1.282766     1.198758    -0.954883
C       -0.680773     1.764193    -2.188155
C        0.298421     0.843414    -2.943809
C       -0.146504    -0.626742    -3.065083
C        0.669717    -1.667612    -2.258679
N        1.259324    -1.206077    -0.976657
C        2.616705    -0.569536    -1.048617
C        3.497336    -1.052832    -2.183210
C        3.972044    -2.372626    -2.121696
C        4.775836    -2.877368    -3.149697
C        5.116497    -2.066275    -4.236505
C        4.655048    -0.749028    -4.297934
C        3.849838    -0.242128    -3.275467
C        3.169811     0.527909    -0.057350
C        4.456705     1.050492    -0.345368
C        5.079848     1.991211     0.474444
Cl       6.692294     2.561937     0.080333
C        4.429508     2.477229     1.600183
C        3.159390     2.014147     1.921625
C        2.513796     1.061903     1.113063
N        1.217672     0.628656     1.451156
Cu       0.000000     0.000000     0.000000
H       -2.686681    -2.421400     2.789576
H       -4.884744    -3.287888     2.170615
H       -4.956512    -0.864111    -1.312845
H       -3.528451    -0.688702    -3.465328
H       -4.993018     0.349496    -5.157453
H       -5.789480     2.677914    -4.857760
H       -5.125610     3.967623    -2.846739
H       -3.666276     2.938559    -1.135274
H       -0.134183     2.696754    -1.932892
H       -1.456510     2.091920    -2.903226
H        0.412097     1.280311    -3.960637
H        1.298945     0.930485    -2.514363
H       -0.093874    -0.945831    -4.129576
H       -1.217137    -0.723575    -2.845322
H        0.007738    -2.538805    -2.068435
H        1.447877    -2.084352    -2.922989
H        3.703232    -3.012086    -1.290285
H        5.129266    -3.899341    -3.107856
H        5.734537    -2.458807    -5.033474
H        4.915149    -0.121669    -5.140623
H        3.492098     0.777230    -3.340825
H        5.027858     0.710732    -1.193640
H        4.910926     3.214621     2.229917
H        2.673429     2.415711     2.800355
65
ex_0084 frame28 Isomer 3
O        3.712854     1.240815     0.587758
C        2.666131     0.666696     0.331061
C        2.659232    -0.693180    -0.332205
O        3.700094    -1.279698    -0.585643
N        1.439798    -1.230937    -0.632526
C        1.081724    -2.511755    -1.094608
C        1.892042    -3.157323    -2.045257
C        1.542866    -4.405119    -2.547868
C        0.384533    -5.030391    -2.107609
Cl      -0.048363    -6.611517    -2.735198
C       -0.437200    -4.407178    -1.168152
C       -0.103748    -3.158712    -0.585231
C       -1.052292    -2.621356     0.546444
C       -2.170753    -3.503549     1.045362
C       -3.315836    -3.880977     0.324079
C       -4.276436    -4.708849     0.910319
C       -4.105558    -5.159173     2.221995
C       -2.969726    -4.786793     2.947247
C       -2.001871    -3.964131     2.361518
N       -0.954790    -1.283165     1.198366
C       -2.187968    -0.681377     1.764012
C       -2.943288     0.298288     0.843490
C       -3.064585    -0.146212    -0.626886
C       -2.258318     0.670334    -1.667577
N       -0.976434     1.259753    -1.205754
C       -1.048409     2.617388    -0.569358
C       -2.182951     3.498083    -1.052368
C       -2.120915     3.973102    -2.371992
C       -3.148314     4.777255    -2.877158
C       -4.235562     5.118096    -2.066500
C       -4.297676     4.656249    -0.749453
C       -3.275842     3.850692    -0.242157
C       -0.056974     3.170297     0.527637
C       -0.345281     4.456755     1.051601
C        0.475965     5.079918     1.991048
Cl       0.081673     6.691775     2.563636
C        1.603133     4.430502     2.474464
C        1.924356     3.160394     2.010743
C        1.114038     2.514523     1.060123
N        1.451503     1.217905     0.627200
Cu       0.000000     0.000000     0.000000
H        2.792790    -2.688694    -2.416686
H        2.174592    -4.886222    -3.283795
H       -1.313616    -4.955885    -0.866579
H       -3.466528    -3.527981    -0.688189
H       -5.157688    -4.993559     0.350174
H       -4.856113    -5.791815     2.677684
H       -2.844232    -5.128782     3.966364
H       -1.133638    -3.668346     2.937186
H       -1.932651    -0.135202     2.696825
H       -2.903172    -1.457178     2.091335
H       -3.960069     0.412406     1.280309
H       -2.513397     1.298539     0.931095
H       -4.129088    -0.093944    -0.945895
H       -2.844502    -1.216689    -0.724199
H       -2.067951     0.008612    -2.538971
H       -2.922682     1.448574    -2.084098
H       -1.289197     3.704199    -3.011205
H       -3.105971     5.130992    -3.898988
H       -5.032100     5.736430    -2.459318
H       -5.140709     4.916498    -0.122468
H       -3.341752     3.492593     0.777013
H       -1.194578     5.027259     0.713687
H        2.234252     4.912031     3.210569
H        2.804043     2.675179     2.410661
65
ex_0084 frame29 Δ-conf5
O        0.625192     1.236906     3.706925
C        0.357401     0.664958     2.661495
C       -0.308147    -0.694308     2.660256
O       -0.549284    -1.282227     3.703035
N       -0.624626    -1.229347     1.442925
C       -1.073653    -2.518279     1.095056
C       -2.011306    -3.171254     1.914474
C       -2.496882    -4.429160     1.577865
C       -2.054356    -5.056282     0.421301
Cl      -2.656711    -6.651984     0.006527
C       -1.132682    -4.423374    -0.412868
C       -0.562890    -3.166402    -0.089372
C        0.556648    -2.622720    -1.045821
C        1.049072    -3.503068    -2.165673
C        2.367234    -3.955808    -1.991189
C        2.959124    -4.780904    -2.952934
C        2.238504    -5.162290    -4.088760
C        0.925268    -4.718548    -4.265589
C        0.333016    -3.887802    -3.311284
N        1.199905    -1.282700    -0.953299
C        1.777023    -0.680377    -2.180357
C        0.866670     0.299908    -2.947527
C       -0.604603    -0.136089    -3.081318
C       -1.650547     0.669816    -2.267282
N       -1.193993     1.263464    -0.985579
C       -0.549971     2.617306    -1.060597
C       -1.020411     3.498562    -2.200382
C       -0.202057     3.839728    -3.291272
C       -0.696092     4.648602    -4.316760
C       -2.008101     5.124872    -4.261157
C       -2.827186     4.794561    -3.176845
C       -2.335565     3.986199    -2.146137
C        0.545274     3.169046    -0.066436
C        1.067585     4.456675    -0.353616
C        2.007187     5.079971     0.466840
Cl       2.574963     6.694131     0.074640
C        2.494518     4.429312     1.591222
C        2.031862     3.158462     1.912443
C        1.078032     2.513603     1.104766
N        0.642814     1.218515     1.445835
Cu       0.000000     0.000000     0.000000
H       -2.382747    -2.702258     2.815191
H       -3.220099    -4.917514     2.218571
H       -0.828898    -4.973552    -1.287888
H        2.939090    -3.652821    -1.122866
H        3.979347    -5.117687    -2.822656
H        2.698987    -5.796936    -4.834593
H        0.368600    -5.010594    -5.146618
H       -0.680484    -3.539899    -3.465934
H        2.708320    -0.135682    -1.916520
H        2.110691    -1.457351    -2.891444
H        0.955944     1.304479    -2.528742
H        1.314202     0.399016    -3.961445
H       -0.918251    -0.055337    -4.145831
H       -0.703714    -1.213168    -2.889481
H       -2.077057     1.447097    -2.927228
H       -2.515900     0.000259    -2.077428
H        0.814150     3.472921    -3.352120
H       -0.062226     4.901123    -5.157090
H       -2.390266     5.746788    -5.060032
H       -3.844807     5.160529    -3.139059
H       -2.980769     3.726781    -1.316056
H        0.727401     5.028555    -1.201122
H        3.231750     4.910615     2.221081
H        2.434508     2.673339     2.790717
65
ex_0084 frame30 Δ-conf3
O       -0.990255     1.012153     3.698000
C       -0.561019     0.537380     2.657790
C        0.451221    -0.583725     2.669008
O        0.831940    -1.083597     3.716308
N        0.917557    -1.008997     1.457563
C        1.734939    -2.103335     1.117616
C        2.814503    -2.447905     1.950045
C        3.662885    -3.497116     1.616735
C        3.444205    -4.222501     0.453837
Cl       4.512401    -5.552100     0.038570
C        2.378524    -3.898940    -0.386452
C        1.456676    -2.868360    -0.072264
C        0.237749    -2.674121    -1.045415
C        0.030675    -3.666835    -2.166265
C       -1.099332    -4.489864    -2.031662
C       -1.394637    -5.443160    -3.012143
C       -0.561930    -5.584579    -4.126362
C        0.566657    -4.772343    -4.263360
C        0.861609    -3.814654    -3.289840
N       -0.767821    -1.570457    -0.969132
C       -1.443379    -1.159182    -2.226305
C       -0.811451     0.039866    -2.958704
C        0.728159     0.018125    -3.028848
C        1.460584     1.121997    -2.233095
N        0.824696     1.547628    -0.959004
C       -0.163301     2.676490    -1.046605
C        0.067718     3.653551    -2.182984
C       -0.804944     3.768864    -3.278770
C       -0.532705     4.678363    -4.303424
C        0.609607     5.480310    -4.241684
C        1.479430     5.376596    -3.151699
C        1.208102     4.470398    -2.120790
C       -1.380965     2.906999    -0.069063
C       -2.229440     4.005941    -0.363130
C       -3.311444     4.349670     0.446879
Cl      -4.292988     5.749010     0.046806
C       -3.614804     3.589984     1.567307
C       -2.830865     2.489470     1.892221
C       -1.731315     2.126418     1.093526
N       -0.970731     0.991783     1.436224
Cu       0.000000     0.000000     0.000000
H        3.017428    -1.891496     2.854476
H        4.494678    -3.744467     2.264042
H        2.264128    -4.511872    -1.264567
H       -1.758607    -4.378339    -1.179921
H       -2.273224    -6.067300    -2.912970
H       -0.793535    -6.319472    -4.886411
H        1.209080    -4.878697    -5.127944
H        1.732208    -3.183266    -3.414111
H       -2.499858    -0.898038    -2.004151
H       -1.515258    -1.995412    -2.944362
H       -1.182884     0.967718    -2.517744
H       -1.234116     0.051135    -3.987640
H        1.060845     0.101675    -4.087075
H        1.115987    -0.963867    -2.738933
H        1.621172     1.979079    -2.909778
H        2.491138     0.761757    -2.028850
H       -1.687875     3.146145    -3.344374
H       -1.204348     4.755663    -5.148750
H        0.822526     6.178503    -5.040752
H        2.367445     5.993697    -3.110196
H        1.894628     4.387973    -1.287419
H       -2.048208     4.650657    -1.207030
H       -4.459678     3.853500     2.190805
H       -3.096947     1.912291     2.766588
65
ex_0084 frame31 Λ-conf3
O        1.237204     0.602487     3.713068
C        0.665067     0.341119     2.666408
C       -0.693176    -0.320561     2.661905
O       -1.281826    -0.566795     3.703306
N       -1.227925    -0.628326     1.443681
C       -2.504982    -1.103537     1.091410
C       -3.137661    -2.059911     1.905125
C       -4.379928    -2.577959     1.559358
C       -5.013138    -2.146117     0.402076
Cl      -6.585505    -2.796370    -0.029085
C       -4.404424    -1.197138    -0.419677
C       -3.159757    -0.602713    -0.091435
C       -2.632594     0.532023    -1.042537
C       -3.526212     1.026513    -2.156882
C       -4.004338     2.337569    -1.999083
C       -4.836104     2.903546    -2.971331
C       -5.199808     2.163445    -4.100422
C       -4.731602     0.856809    -4.260560
C       -3.895522     0.290082    -3.295283
N       -1.293707     1.190623    -0.950793
C       -0.708009     1.748642    -2.196397
C        0.270909     0.822666    -2.943192
C       -0.176443    -0.649108    -3.041500
C        0.679196    -1.673231    -2.262271
N        1.261077    -1.203593    -0.977860
C        2.619633    -0.565840    -1.050190
C        3.497487    -1.037637    -2.193221
C        3.852959    -0.211495    -3.273211
C        4.654197    -0.706464    -4.304912
C        5.108059    -2.027220    -4.265776
C        4.764513    -2.853756    -3.191531
C        3.966176    -2.360704    -2.153599
C        3.176177     0.521975    -0.051120
C        4.467735     1.038168    -0.332280
C        5.096037     1.967024     0.496808
Cl       6.713424     2.529848     0.111286
C        4.447333     2.447774     1.625146
C        3.172039     1.993710     1.938103
C        2.520074     1.053289     1.120066
N        1.217852     0.630709     1.450988
Cu       0.000000     0.000000     0.000000
H       -2.661762    -2.425293     2.804584
H       -4.850047    -3.319885     2.192261
H       -4.959230    -0.901667    -1.294275
H       -3.716755     2.924224    -1.135570
H       -5.192742     3.918617    -2.854171
H       -5.839889     2.603628    -4.854044
H       -5.009550     0.285164    -5.136631
H       -3.529677    -0.718862    -3.437422
H       -0.164930     2.687140    -1.955582
H       -1.489688     2.062538    -2.910898
H        1.264063     0.914371    -2.497637
H        0.401844     1.244380    -3.964210
H       -0.185886    -0.972423    -4.105865
H       -1.228113    -0.754949    -2.755976
H        1.459982    -2.052597    -2.944001
H        0.046974    -2.567169    -2.075989
H        3.499443     0.810469    -3.321332
H        4.916813    -0.067403    -5.138095
H        5.722064    -2.410752    -5.070306
H        5.111293    -3.878618    -3.167594
H        3.694571    -3.012433    -1.332654
H        5.039086     0.701339    -1.181422
H        4.933290     3.174505     2.263647
H        2.689012     2.392824     2.819144
65
ex_0084 frame32 Isomer 2
O       -1.196800    -5.096609     2.490057
C       -1.342246    -3.956356     2.077635
C       -2.585454    -3.164714     2.393612
O       -3.458831    -3.619224     3.116291
N       -2.685564    -1.922547     1.835242
C       -3.620798    -0.895218     2.059358
C       -4.976081    -1.220470     2.246842
C       -5.927919    -0.225663     2.429616
C       -5.544162     1.108297     2.430053
Cl      -6.748492     2.362583     2.668058
C       -4.205381     1.454990     2.242078
C       -3.186583     0.478509     2.106628
C       -1.704636     0.990985     2.026942
C       -1.426616     2.458068     2.235512
C       -1.781244     3.501621     1.365064
C       -1.460242     4.823425     1.683964
C       -0.778156     5.111328     2.869192
C       -0.421276     4.077519     3.740314
C       -0.746803     2.753562     3.428065
N       -0.504413     0.146364     1.757177
C        0.678969     0.784320     1.126821
C        0.784296     0.617395    -0.400500
C       -0.536935     0.833146    -1.166147
C       -1.130362    -0.408319    -1.871096
N       -0.912500    -1.712832    -1.195824
C        0.338077    -2.458235    -1.564891
C        0.850271    -2.205629    -2.966983
C        0.086702    -2.702451    -4.034875
C        0.500929    -2.485237    -5.353292
C        1.681558    -1.781379    -5.610706
C        2.450529    -1.293711    -4.550820
C        2.038903    -1.505660    -3.233079
C        1.125777    -3.452238    -0.627684
C        2.328575    -3.998930    -1.145209
C        3.087707    -4.931352    -0.437318
Cl       4.540995    -5.603799    -1.156094
C        2.698109    -5.329473     0.833547
C        1.542299    -4.806637     1.399454
C        0.757931    -3.869836     0.702243
N       -0.393790    -3.339677     1.313076
Cu      -1.032170    -1.521348     0.790159
H       -5.307420    -2.249670     2.236772
H       -6.967618    -0.493920     2.568469
H       -3.979211     2.508035     2.264380
H       -2.297025     3.288770     0.437161
H       -1.732268     5.622975     1.007204
H       -0.521160     6.134810     3.109183
H        0.115581     4.301626     4.652878
H       -0.451872     1.958024     4.101025
H        1.602165     0.359061     1.575004
H        0.734044     1.863587     1.355592
H        1.546444     1.345565    -0.755262
H        1.231650    -0.353651    -0.623807
H       -0.401153     1.617214    -1.943213
H       -1.293110     1.281791    -0.511849
H       -2.220662    -0.235272    -1.994077
H       -0.757137    -0.426196    -2.910113
H       -0.835609    -3.237231    -3.845141
H       -0.096463    -2.855803    -6.176036
H        1.998645    -1.609490    -6.630994
H        3.362050    -0.745006    -4.749429
H        2.637351    -1.113446    -2.420691
H        2.685391    -3.748060    -2.130531
H        3.291259    -6.047810     1.385247
H        1.268945    -5.129249     2.394555
65
ex_0084 frame33 conf3
O        3.713083     1.237277     0.602155
C        2.666378     0.665108     0.340967
C        2.661861    -0.692940    -0.320138
O        3.703183    -1.281980    -0.566269
N        1.443641    -1.228117    -0.628025
C        1.091543    -2.505183    -1.103172
C        1.905547    -3.137956    -2.059266
C        1.559871    -4.380211    -2.577418
C        0.402380    -5.013306    -2.145979
Cl      -0.028732    -6.585594    -2.796473
C       -0.419614    -4.404544    -1.197221
C       -0.091374    -3.159940    -0.602627
C       -1.042507    -2.632724     0.532008
C       -2.156831    -3.526365     1.026423
C       -1.998850    -4.004630     2.337409
C       -2.970999    -4.836490     2.903408
C       -4.100185    -5.200128     2.163416
C       -4.260511    -4.731757     0.856858
C       -3.295329    -3.895594     0.290108
N       -0.950773    -1.293794     1.190524
C       -2.196381    -0.708163     1.748596
C       -2.943056     0.270869     0.822661
C       -3.041331    -0.176409    -0.649154
C       -2.262135     0.679285    -1.673238
N       -0.977776     1.261174    -1.203586
C       -1.050119     2.619766    -0.565853
C       -2.193120     3.497619    -1.037563
C       -3.273240     3.853064    -0.211524
C       -4.304831     4.654385    -0.706550
C       -4.265532     5.108371    -2.027254
C       -3.191191     4.764840    -2.853698
C       -2.153371     3.966417    -2.360588
C       -0.051022     3.176326     0.521904
C       -0.332278     4.467836     1.038272
C        0.497089     5.096146     1.966956
Cl       0.111566     6.713468     2.530015
C        1.625586     4.447558     2.447293
C        1.938533     3.172253     1.993121
C        1.120182     2.520280     1.052931
N        1.451019     1.217996     0.630403
Cu       0.000000     0.000000     0.000000
H        2.805141    -2.662145    -2.424403
H        2.192995    -4.850358    -3.319149
H       -1.294385    -4.959240    -0.902048
H       -1.135258    -3.717105     2.923976
H       -2.853694    -5.193262     3.918418
H       -4.853730    -5.840280     2.603618
H       -5.136655    -5.009651     0.285301
H       -3.437601    -3.529622    -0.718776
H       -1.955550    -0.165165     2.687137
H       -2.910917    -1.489852     2.062392
H       -2.497335     1.263932     0.914466
H       -3.964066     0.401957     1.244335
H       -4.105687    -0.185944    -0.972468
H       -2.755718    -1.228035    -0.755084
H       -2.943878     1.460075    -2.052555
H       -2.075806     0.047127    -2.567210
H       -3.321485     3.499451     0.810400
H       -5.138089     4.916988    -0.067566
H       -5.069981     5.722446    -2.410830
H       -3.167129     5.111721    -3.878520
H       -1.332346     3.694835    -3.012249
H       -1.181541     5.039102     0.701747
H        2.264324     4.933505     3.173853
H        2.819676     2.689323     2.391992
65
ex_0084 frame34 square-planar cis-conf3
O        3.473060     1.775184    -0.683911
C        2.340137     1.429304    -0.387535
C        1.404942     2.361327     0.346447
O        1.735029     3.505053     0.619684
N        0.178972     1.865888     0.687942
C       -0.951921     2.501460     1.233138
C       -0.784226     3.489771     2.219081
C       -1.884269     4.103747     2.805359
C       -3.167384     3.747407     2.413417
Cl      -4.555526     4.529235     3.150107
C       -3.357554     2.770124     1.436103
C       -2.271263     2.144950     0.773420
C       -2.617704     1.140665    -0.384633
C       -4.056707     1.001370    -0.825872
C       -4.336086     1.497905    -2.109527
C       -5.633840     1.418246    -2.626213
C       -6.658777     0.849970    -1.863694
C       -6.388194     0.358898    -0.583933
C       -5.092301     0.430556    -0.066715
N       -1.634479     0.283690    -1.115020
C       -2.124293    -0.990761    -1.699571
C       -1.922861    -2.243213    -0.825424
C       -2.247921    -2.049659     0.668843
C       -1.050965    -2.139267     1.642235
N        0.248696    -1.624881     1.137137
C        1.130599    -2.612422     0.426763
C        0.961614    -4.057458     0.854180
C        0.415187    -5.042548     0.013775
C        0.271644    -6.355663     0.468212
C        0.673815    -6.695853     1.762210
C        1.224677    -5.723249     2.602328
C        1.374742    -4.407849     2.149629
C        2.185378    -2.259740    -0.693338
C        2.877527    -3.351937    -1.277783
C        3.869300    -3.175734    -2.242337
Cl       4.715772    -4.570140    -2.890847
C        4.189316    -1.902459    -2.691158
C        3.528528    -0.797064    -2.169730
C        2.528153    -0.949122    -1.192482
N        1.859735     0.189226    -0.701386
Cu       0.000000     0.000000     0.000000
H        0.202849     3.777064     2.554335
H       -1.738221     4.856969     3.569118
H       -4.379791     2.553523     1.174859
H       -3.546425     1.926620    -2.713803
H       -5.844174     1.789612    -3.620767
H       -7.661482     0.784995    -2.265915
H       -7.180550    -0.084937     0.004883
H       -4.893376     0.035262     0.921307
H       -1.609032    -1.170141    -2.667060
H       -3.194220    -0.932990    -1.967902
H       -0.910268    -2.625669    -0.972548
H       -2.569303    -3.042821    -1.249916
H       -2.993784    -2.807369     0.996015
H       -2.784430    -1.109063     0.830648
H       -0.966074    -3.186246     1.981245
H       -1.329125    -1.593060     2.568415
H        0.089713    -4.790276    -0.987281
H       -0.158252    -7.107371    -0.181167
H        0.554143    -7.712109     2.114726
H        1.528376    -5.987945     3.606748
H        1.790103    -3.658879     2.812205
H        2.694477    -4.367912    -0.969473
H        4.954104    -1.767869    -3.445447
H        3.793975     0.181406    -2.545303
65
ex_0084 frame35 Δ
O       -0.898843     1.048219     3.710907
C       -0.500641     0.558799     2.665370
C        0.485800    -0.586354     2.662292
O        0.875059    -1.089472     3.704833
N        0.918155    -1.028544     1.444094
C        1.696077    -2.148296     1.092021
C        2.771659    -2.531223     1.913010
C        3.582575    -3.605723     1.568761
C        3.332584    -4.317315     0.403615
Cl       4.354111    -5.678894    -0.024906
C        2.272621    -3.954422    -0.427972
C        1.382013    -2.902241    -0.097627
C        0.156143    -2.674341    -1.052388
C       -0.090224    -3.655446    -2.172524
C        0.705855    -3.831798    -3.316620
C        0.358142    -4.785269    -4.276878
C       -0.789978    -5.563186    -4.106819
C       -1.588981    -5.392635    -2.972268
C       -1.240492    -4.444105    -2.004698
N       -0.819155    -1.550159    -0.959448
C       -1.516253    -1.115164    -2.195199
C       -0.878447     0.071124    -2.945640
C        0.657798     0.024137    -3.059945
C        1.447145     1.082404    -2.249783
N        0.841557     1.530875    -0.970989
C       -0.123174     2.678262    -1.046527
C        0.119145     3.654899    -2.179693
C        1.270143     4.455850    -2.108397
C        1.555961     5.366301    -3.131708
C        0.691846     5.487769    -4.224351
C       -0.459627     4.699905    -4.296057
C       -0.747091     3.787521    -3.278365
C       -1.328768     2.928802    -0.059606
C       -2.170314     4.032820    -0.352067
C       -3.237960     4.393800     0.470013
Cl      -4.211800     5.798888     0.071930
C       -3.532996     3.646244     1.601291
C       -2.756191     2.540283     1.923842
C       -1.672999     2.158999     1.111956
N       -0.922539     1.016816     1.449733
Cu       0.000000     0.000000     0.000000
H        3.000366    -1.987037     2.818762
H        4.410154    -3.883471     2.209152
H        2.133179    -4.557767    -1.309388
H        1.590587    -3.226319    -3.466753
H        0.974490    -4.914204    -5.157166
H       -1.062977    -6.293881    -4.857140
H       -2.483040    -5.989698    -2.847621
H       -1.874823    -4.308860    -1.137556
H       -2.560265    -0.830976    -1.944330
H       -1.626781    -1.948728    -2.911855
H       -1.325346     0.070529    -3.964329
H       -1.225656     1.012903    -2.515250
H        0.957406     0.156584    -4.123020
H        1.029431    -0.983835    -2.837880
H        2.459577     0.669749    -2.054392
H        1.650387     1.942471    -2.912751
H        1.951834     4.360263    -1.272497
H        2.450577     5.973229    -3.082050
H        0.915885     6.188979    -5.017676
H       -1.127014     4.790686    -5.143342
H       -1.637768     3.177103    -3.351737
H       -1.994062     4.667749    -1.204533
H       -4.366659     3.922980     2.234152
H       -3.015599     1.971550     2.806028
65
ex_0084 frame36 square-planar cis
O        3.483102     1.769349    -0.644309
C        2.345726     1.426155    -0.361733
C        1.403183     2.359461     0.362779
O        1.733604     3.501525     0.642108
N        0.171235     1.866454     0.687998
C       -0.968948     2.505141     1.212621
C       -0.815567     3.507178     2.187216
C       -1.923890     4.124794     2.753639
C       -3.201496     3.756427     2.355653
Cl      -4.599519     4.543610     3.067580
C       -3.378607     2.763046     1.392084
C       -2.283445     2.139475     0.742916
C       -2.615722     1.128328    -0.411758
C       -4.048238     0.978817    -0.862719
C       -5.099066     0.407091    -0.125942
C       -6.384172     0.336936    -0.669560
C       -6.628255     0.828616    -1.954447
C       -5.587771     1.397140    -2.695366
C       -4.300999     1.475998    -2.151985
N       -1.625831     0.274632    -1.129517
C       -2.093418    -1.001693    -1.725005
C       -1.900285    -2.260472    -0.855860
C       -2.245451    -2.085620     0.635994
C       -1.060613    -2.129894     1.632768
N        0.244619    -1.623529     1.139707
C        1.129845    -2.610818     0.436470
C        0.967269    -4.052772     0.873457
C        1.397475    -4.389083     2.166971
C        1.260307    -5.701201     2.633140
C        0.702410    -6.683754     1.809315
C        0.281013    -6.356855     0.518077
C        0.413116    -5.047612     0.049878
C        2.182564    -2.261138    -0.685867
C        2.865845    -3.354013    -1.278712
C        3.857662    -3.177303    -2.243602
Cl       4.694341    -4.572352    -2.903134
C        4.185334    -1.902819    -2.684005
C        3.531703    -0.796741    -2.154825
C        2.530692    -0.949964    -1.178955
N        1.866723     0.188116    -0.683143
Cu       0.000000     0.000000     0.000000
H        0.166183     3.804743     2.528358
H       -1.788056     4.890271     3.507123
H       -4.397467     2.536549     1.125819
H       -4.920301     0.010549     0.865372
H       -7.188582    -0.107039    -0.097481
H       -7.622339     0.763698    -2.377494
H       -5.777315     1.768494    -3.694132
H       -3.498809     1.903711    -2.740372
H       -1.562079    -1.172495    -2.685301
H       -3.159351    -0.948089    -2.010582
H       -2.553256    -3.045598    -1.297050
H       -0.892806    -2.657929    -0.996371
H       -2.950560    -2.885695     0.952429
H       -2.841192    -1.177288     0.789132
H       -1.360513    -1.559110     2.537060
H       -0.965511    -3.164274     2.009018
H        1.819328    -3.632569     2.816829
H        1.579836    -5.955874     3.635237
H        0.592510    -7.697426     2.172142
H       -0.154364    -7.116021    -0.118842
H        0.073815    -4.806724    -0.949192
H        2.675386    -4.370642    -0.976893
H        4.949873    -1.767667    -3.438520
H        3.801495     0.183012    -2.523958
65
ex_0084 frame37 conf2
O        3.713342     1.238175     0.595485
C        2.666326     0.664649     0.338414
C        2.660953    -0.695905    -0.317628
O        3.702837    -1.284888    -0.560800
N        1.442228    -1.231866    -0.623630
C        1.093986    -2.517816    -1.079992
C        1.918681    -3.167891    -2.015448
C        1.580291    -4.419489    -2.514533
C        0.416100    -5.043444    -2.088715
Cl      -0.004054    -6.628717    -2.714297
C       -0.420997    -4.415550    -1.165735
C       -0.094056    -3.166255    -0.580613
C       -1.048814    -2.627436     0.542201
C       -2.167144    -3.512389     1.032396
C       -1.993736    -3.967204     2.350259
C       -2.953702    -4.797467     2.938780
C       -4.086593    -5.181869     2.215225
C       -4.262808    -4.735747     0.902898
C       -3.310804    -3.899456     0.314295
N       -0.956578    -1.289235     1.190485
C       -2.185821    -0.688508     1.764282
C       -2.942101     0.300491     0.854758
C       -3.074084    -0.133707    -0.617766
C       -2.258359     0.672583    -1.661215
N       -0.977837     1.263965    -1.200259
C       -1.046813     2.621390    -0.565256
C       -2.181318     3.505116    -1.040341
C       -2.110447     3.984939    -2.357722
C       -3.129729     4.798933    -2.863628
C       -4.219318     5.141894    -2.056999
C       -4.291932     4.672221    -0.743233
C       -3.277997     3.857160    -0.235134
C       -0.051232     3.175731     0.525712
C       -0.336377     4.463178     1.049646
C        0.496488     5.091718     1.975400
Cl       0.110729     6.707170     2.543425
C        1.628827     4.444750     2.448998
C        1.942027     3.170898     1.991309
C        1.121324     2.519706     1.052640
N        1.451808     1.218412     0.628201
Cu       0.000000     0.000000     0.000000
H        2.824252    -2.701121    -2.377143
H        2.224925    -4.903933    -3.236965
H       -1.301411    -4.963567    -0.874807
H       -1.127816    -3.662625     2.924827
H       -2.824444    -5.136222     3.958533
H       -4.830816    -5.820751     2.672805
H       -5.141569    -5.030234     0.343924
H       -3.465221    -3.549786    -0.698562
H       -1.926563    -0.151665     2.701384
H       -2.902253    -1.465759     2.085807
H       -2.514564     1.301171     0.948867
H       -3.956516     0.408455     1.298586
H       -4.138161    -0.056184    -0.932922
H       -2.879733    -1.210086    -0.718767
H       -2.916797     1.450974    -2.087920
H       -2.066142     0.003841    -2.526766
H       -1.276178     3.715660    -2.993390
H       -3.078929     5.159362    -3.882737
H       -5.009304     5.768310    -2.450271
H       -5.136610     4.934508    -0.119294
H       -3.351285     3.494119     0.781803
H       -1.189430     5.032163     0.718661
H        2.270300     4.930488     3.173357
H        2.825899     2.689005     2.385397
65
ex_0084 frame38 square-planar cis-conf2
O        3.477607     1.775457    -0.656157
C        2.341571     1.429485    -0.370384
C        1.400538     2.361919     0.355308
O        1.729111     3.505447     0.628457
N        0.171721     1.866628     0.689023
C       -0.965964     2.510309     1.211563
C       -0.808254     3.516811     2.181046
C       -1.913260     4.141844     2.744933
C       -3.192597     3.775120     2.351143
Cl      -4.586584     4.573012     3.058918
C       -3.374348     2.775033     1.395204
C       -2.282082     2.147029     0.745480
C       -2.616600     1.134485    -0.405740
C       -4.049816     0.987547    -0.850940
C       -4.295120     1.482749    -2.142655
C       -5.581207     1.413293    -2.688895
C       -6.628116     0.855554    -1.948919
C       -6.391076     0.364687    -0.662351
C       -5.106381     0.424258    -0.116357
N       -1.629474     0.279685    -1.122852
C       -2.094863    -0.991439    -1.730101
C       -1.898566    -2.259585    -0.875404
C       -2.245660    -2.103153     0.617708
C       -1.062069    -2.135953     1.618871
N        0.244520    -1.630227     1.129942
C        1.131616    -2.612993     0.424332
C        0.970316    -4.057531     0.849977
C        1.406435    -4.396702     2.140547
C        1.278528    -5.711618     2.601216
C        0.721382    -6.693205     1.775741
C        0.291422    -6.362589     0.488234
C        0.414679    -5.050577     0.025402
C        2.188258    -2.258539    -0.692240
C        2.877224    -3.348863    -1.283393
C        3.877366    -3.168086    -2.238801
Cl       4.725467    -4.559519    -2.891233
C        4.204399    -1.892306    -2.675444
C        3.542250    -0.789193    -2.151325
C        2.535166    -0.945832    -1.181732
N        1.864570     0.190182    -0.689324
Cu       0.000000     0.000000     0.000000
H        0.174951     3.813843     2.518709
H       -1.773519     4.912140     3.492813
H       -4.394417     2.550116     1.132449
H       -3.488103     1.902318    -2.730313
H       -5.765257     1.783703    -3.689071
H       -7.621829     0.798383    -2.373963
H       -7.200610    -0.070461    -0.090813
H       -4.932669     0.028614     0.876284
H       -1.565871    -1.150815    -2.693602
H       -3.161847    -0.936835    -2.011779
H       -0.892941    -2.660139    -1.021290
H       -2.555510    -3.035992    -1.326274
H       -2.932112    -2.922388     0.926272
H       -2.864717    -1.209643     0.775682
H       -0.962721    -3.167604     2.002694
H       -1.367344    -1.561290     2.518802
H        1.828920    -3.641097     2.790990
H        1.605372    -5.969252     3.600155
H        0.619109    -7.709196     2.134220
H       -0.142982    -7.121078    -0.150115
H        0.070129    -4.807076    -0.971245
H        2.687613    -4.366548    -0.984448
H        4.975536    -1.753823    -3.422640
H        3.813014     0.191193    -2.517944
65
ex_0084 frame39 Λ-conf2
O        1.238337     0.595189     3.713627
C        0.664664     0.338461     2.666565
C       -0.696005    -0.316173     2.661327
O       -1.285552    -0.558441     3.703064
N       -1.232267    -0.622387     1.442561
C       -2.517943    -1.078394     1.094775
C       -3.168723    -2.012623     1.920425
C       -4.419938    -2.512097     1.582475
C       -5.043473    -2.088240     0.417213
Cl      -6.628241    -2.714883    -0.002812
C       -4.415168    -1.166303    -0.420859
C       -3.166537    -0.580406    -0.093839
C       -2.627542     0.542074    -1.048748
C       -3.512762     1.031743    -2.167028
C       -3.968540     2.349231    -1.992500
C       -4.799433     2.937808    -2.951879
C       -5.183428     2.214928    -4.085327
C       -4.736242     0.903072    -4.262661
C       -3.899383     0.314406    -3.311254
N       -1.289448     1.190178    -0.956647
C       -0.688836     1.764176    -2.185831
C        0.300410     0.854815    -2.941938
C       -0.133392    -0.617898    -3.073853
C        0.673077    -1.661170    -2.258141
N        1.264368    -1.199933    -0.977724
C        2.621759    -0.565072    -1.046805
C        3.505674    -1.039821    -2.181368
C        3.985697    -2.357171    -2.109812
C        4.800066    -2.863355    -3.128662
C        5.143171    -2.057189    -4.218519
C        4.673268    -0.743521    -4.291855
C        3.857784    -0.235133    -3.278361
C        3.176242     0.525690    -0.051163
C        4.463164     1.050366    -0.336428
C        5.092038     1.975231     0.497306
Cl       6.707092     2.544263     0.111542
C        4.445496     2.447138     1.630659
C        3.171861     1.989155     1.943550
C        2.520069     1.051612     1.121941
N        1.218634     0.627515     1.451905
Cu       0.000000     0.000000     0.000000
H       -2.702276    -2.373091     2.826811
H       -4.904721    -3.233551     2.228011
H       -4.962754    -0.876806    -1.302089
H       -3.664351     2.923306    -1.126144
H       -5.139061     3.957202    -2.821772
H       -5.822774     2.672554    -4.829098
H       -5.030419     0.344599    -5.141842
H       -3.548955    -0.698083    -3.466535
H       -0.152286     2.701428    -1.926520
H       -1.466200     2.085459    -2.902269
H        1.300977     0.949362    -2.514277
H        0.408471     1.298580    -3.956350
H       -0.055990    -0.933058    -4.137917
H       -1.209682    -0.719302    -2.879434
H        1.451568    -2.087737    -2.916561
H        0.004580    -2.526868    -2.065786
H        3.716367    -2.992509    -1.275338
H        5.160693    -3.882393    -3.077327
H        5.769880    -2.450699    -5.008164
H        4.935690    -0.119953    -5.136751
H        3.494577     0.781716    -3.352201
H        5.031884     0.720612    -1.190170
H        4.931544     3.170598     2.272948
H        2.690395     2.382278     2.828170
65
ex_0084 frame40 conf4
O        3.708666     1.032475    -0.923739
C        2.663426     0.550582    -0.515697
C        2.662573    -0.576504     0.489947
O        3.706549    -1.074355     0.882046
N        1.445954    -1.009106     0.936626
C        1.105800    -2.130469     1.717980
C        1.934484    -2.504875     2.790860
C        1.606290    -3.584368     3.601354
C        0.448377    -4.308601     3.355293
Cl       0.041707    -5.678896     4.374019
C       -0.393299    -3.951649     2.301587
C       -0.078909    -2.894641     1.410150
C       -1.046031    -2.676430     0.192034
C       -2.178486    -3.652458    -0.019089
C       -3.306486    -3.809764     0.803360
C       -4.277587    -4.764923     0.492986
C       -4.137193    -5.560817    -0.646722
C       -3.021061    -5.406821    -1.474499
C       -2.041872    -4.457274    -1.162826
N       -0.947326    -1.567318    -0.800335
C       -2.173209    -1.150648    -1.524684
C       -2.941715     0.043377    -0.923302
C       -3.076805     0.031799     0.611423
C       -2.269452     1.099642     1.393844
N       -0.988713     1.545819     0.792095
C       -1.064307     2.669358    -0.200517
C       -2.208700     3.643546    -0.000358
C       -3.293718     3.747267    -0.888004
C       -4.319915     4.662482    -0.643176
C       -4.272135     5.480363     0.488248
C       -3.195149     5.385827     1.375058
C       -2.163173     4.472526     1.131926
C       -0.065048     2.901014    -1.399466
C       -0.351205     3.990311    -2.262678
C        0.480023     4.335236    -3.328204
Cl       0.089638     5.724284    -4.327885
C        1.614400     3.584359    -3.600851
C        1.931363     2.492367    -2.802601
C        1.111631     2.128485    -1.718775
N        1.446813     1.001351    -0.943564
Cu       0.000000     0.000000     0.000000
H        2.836379    -1.952588     3.015310
H        2.254469    -3.857370     4.424396
H       -1.267577    -4.565919     2.165596
H       -3.432407    -3.192242     1.683512
H       -5.142706    -4.882116     1.132651
H       -4.895816    -6.293341    -0.890243
H       -2.919242    -6.018546    -2.361557
H       -1.188349    -4.336602    -1.818271
H       -2.883174    -1.989929    -1.631415
H       -1.907055    -0.885309    -2.569934
H       -3.954815     0.016254    -1.382298
H       -2.521915     0.983081    -1.288078
H       -2.874723    -0.972972     1.004960
H       -4.142472     0.186599     0.890793
H       -2.079192     0.697450     2.411382
H       -2.932436     1.962681     1.585798
H       -3.348164     3.115902    -1.765217
H       -5.154508     4.733104    -1.328790
H       -5.071571     6.184611     0.678645
H       -3.163764     6.016881     2.253624
H       -1.338692     4.399642     1.830010
H       -1.205536     4.627641    -2.105328
H        2.254417     3.848276    -4.433198
H        2.816961     1.921844    -3.045555
65
ex_0084 frame41 square-planar cis-conf4
O        3.478145     1.763839     0.681891
C        2.343162     1.421742     0.387854
C        1.409988     2.357208    -0.344114
O        1.744311     3.500326    -0.613935
N        0.182085     1.865659    -0.687309
C       -0.952593     2.521215    -1.203181
C       -0.790312     3.533928    -2.165425
C       -1.892152     4.173705    -2.718939
C       -3.172837     3.815982    -2.321734
Cl      -4.562966     4.633686    -3.014333
C       -3.359294     2.809144    -1.374264
C       -2.270244     2.162175    -0.737202
C       -2.615782     1.136027     0.400649
C       -4.057587     0.975206     0.819083
C       -5.090680     0.416010     0.048663
C       -6.388687     0.339122     0.559522
C       -6.662828     0.807330     1.847050
C       -5.639581     1.359576     2.623359
C       -4.339933     1.446260     2.112487
N       -1.627713     0.284741     1.124280
C       -2.095573    -0.983333     1.735958
C       -1.908401    -2.255127     0.884209
C       -2.248756    -2.100747    -0.610476
C       -1.061780    -2.142963    -1.607271
N        0.244722    -1.640019    -1.115785
C        1.119414    -2.624625    -0.395478
C        0.951275    -4.073812    -0.808142
C        0.392371    -5.052153     0.032364
C        0.260210    -6.370116    -0.410500
C        0.683698    -6.722114    -1.694281
C        1.243388    -5.755918    -2.535997
C        1.380693    -4.434927    -2.095195
C        2.170860    -2.266891     0.725289
C        2.853077    -3.356313     1.326461
C        3.843082    -3.174389     2.291914
Cl       4.679511    -4.565603     2.959846
C        4.169189    -1.897738     2.726299
C        3.517033    -0.794929     2.189030
C        2.519413    -0.952819     1.209876
N        1.859757     0.183590     0.702868
Cu       0.000000     0.000000     0.000000
H        0.194062     3.825798    -2.504102
H       -1.749029     4.949476    -3.460387
H       -4.380479     2.593371    -1.108123
H       -4.889370     0.040099    -0.946342
H       -7.180016    -0.090713    -0.040786
H       -7.667248     0.737705     2.244159
H       -5.852873     1.713406     3.623736
H       -3.551973     1.863050     2.727353
H       -3.160230    -0.923256     2.023575
H       -1.562996    -1.142956     2.697549
H       -2.573020    -3.024795     1.335527
H       -0.907005    -2.664021     1.033717
H       -2.859746    -1.203072    -0.772199
H       -2.938713    -2.916879    -0.919605
H       -1.361714    -1.570842    -2.510630
H       -0.964880    -3.176476    -1.986361
H        0.053659    -4.793461     1.027073
H       -0.175551    -7.116786     0.240807
H        0.574772    -7.742876    -2.037044
H        1.565431    -6.030497    -3.531980
H        1.805872    -3.691878    -2.758145
H        2.664411    -4.374905     1.030348
H        4.932050    -1.758351     3.481727
H        3.787041     0.186216     2.553977
65
ex_0084 frame42 Δ-conf2
O       -0.859214     1.043553     3.721938
C       -0.471764     0.556364     2.671336
C        0.519072    -0.582991     2.656797
O        0.920479    -1.085386     3.695067
N        0.941623    -1.021304     1.433663
C        1.718148    -2.141557     1.079563
C        2.799992    -2.520642     1.894552
C        3.609070    -3.595891     1.549715
C        3.352787    -4.311177     0.388368
Cl       4.371837    -5.674540    -0.040220
C        2.288648    -3.950526    -0.439059
C        1.396729    -2.900539    -0.104380
C        0.161750    -2.679117    -1.046607
C       -0.087968    -3.663877    -2.160911
C       -1.235991    -4.451715    -1.973276
C       -1.593808    -5.409953    -2.927723
C       -0.807020    -5.590482    -4.069224
C        0.337894    -4.812460    -4.259591
C        0.694148    -3.848447    -3.313084
N       -0.816464    -1.560080    -0.945936
C       -1.541639    -1.134564    -2.168200
C       -0.934543     0.059150    -2.932253
C        0.599005     0.030303    -3.080269
C        1.400183     1.085329    -2.274555
N        0.812377     1.535226    -0.988505
C       -0.159505     2.676401    -1.048969
C        0.052512     3.652820    -2.187256
C        1.196573     4.464333    -2.128764
C        1.458592     5.382192    -3.151758
C        0.579023     5.498203    -4.232600
C       -0.564198     4.697420    -4.292894
C       -0.828103     3.777881    -3.275228
C       -1.347340     2.924038    -0.041040
C       -2.197262     4.025532    -0.319069
C       -3.246643     4.388300     0.525324
Cl      -4.227331     5.794245     0.147631
C       -3.518239     3.641775     1.662964
C       -2.735685     2.535607     1.969485
C       -1.667942     2.154083     1.136908
N       -0.910253     1.011915     1.460330
Cu       0.000000     0.000000     0.000000
H        3.034083    -1.974176     2.797553
H        4.439924    -3.871495     2.186922
H        2.144940    -4.556617    -1.317770
H       -1.860947    -4.309084    -1.100505
H       -2.485625    -6.006945    -2.787456
H       -1.087011    -6.329060    -4.809161
H        0.945036    -4.949552    -5.144998
H        1.576191    -3.242869    -3.478404
H       -2.584738    -0.864835    -1.898360
H       -1.653116    -1.970222    -2.882404
H       -1.285949     0.999550    -2.501937
H       -1.401757     0.044699    -3.941767
H        0.871253     0.186660    -4.147501
H        0.983641    -0.980469    -2.888201
H        1.598551     1.947979    -2.936376
H        2.413917     0.670083    -2.092241
H        1.889222     4.373896    -1.301387
H        2.346384     5.999624    -3.110555
H        0.784437     6.205587    -5.025468
H       -1.243769     4.784293    -5.130833
H       -1.713323     3.158492    -3.338960
H       -2.039176     4.659684    -1.175764
H       -4.337796     3.919800     2.313478
H       -2.977696     1.968634     2.857680
65
ex_0084 frame43 Λ-conf4
O        1.033413    -0.922656     3.708726
C        0.551053    -0.515205     2.663510
C       -0.576808     0.489292     2.662556
O       -1.074934     0.880645     3.706675
N       -1.009487     0.935537     1.445794
C       -2.131278     1.716944     1.106072
C       -2.506096     2.788881     1.935807
C       -3.585401     3.599824     1.607736
C       -4.308822     3.355006     0.449140
Cl      -5.678601     4.374476     0.042481
C       -3.951529     2.301987    -0.393280
C       -2.894961     1.409964    -0.078814
C       -2.676651     0.192198    -1.046004
C       -3.652688    -0.018537    -2.178409
C       -3.809800     0.803331    -3.306879
C       -4.765317     0.492877    -4.277610
C       -5.561761    -0.646339    -4.136390
C       -5.407957    -1.473539    -3.019800
C       -4.458025    -1.161797    -2.040992
N       -1.567508    -0.800040    -0.947336
C       -1.150974    -1.524433    -2.173169
C        0.043255    -0.923256    -2.941465
C        0.031960     0.611527    -3.076539
C        1.099989     1.393753    -2.269309
N        1.545994     0.791827    -0.988604
C        2.669619    -0.200660    -1.064219
C        3.643816    -0.000774    -2.208621
C        3.747651    -0.888061    -3.293893
C        4.663178    -0.643057    -4.319784
C        5.481199     0.488250    -4.271454
C        5.386510     1.374741    -3.194226
C        4.472909     1.131424    -2.162555
C        2.901480    -1.399426    -0.064875
C        3.990233    -2.263220    -0.351166
C        4.335493    -3.328133     0.480840
Cl       5.723919    -4.328642     0.090505
C        3.585338    -3.599463     1.616005
C        2.493609    -2.800888     1.932733
C        2.129297    -1.717811     1.112136
N        1.002209    -0.942940     1.447182
Cu       0.000000     0.000000     0.000000
H       -1.954425     3.012685     2.838188
H       -3.858693     4.422283     2.256570
H       -4.565128     2.166966    -1.268141
H       -3.191866     1.683101    -3.433451
H       -4.882364     1.132085    -5.143093
H       -6.294565    -0.889932    -4.894724
H       -6.020132    -2.360211    -2.917344
H       -4.337522    -1.816795    -1.187107
H       -1.990252    -1.630840    -2.883202
H       -0.885995    -2.569763    -1.907015
H        0.016363    -1.382254    -3.954548
H        0.982719    -1.288310    -2.521414
H       -0.972619     1.005335    -2.874205
H        0.186484     0.890940    -4.142220
H        0.698074     2.411385    -2.078984
H        1.963051     1.585473    -2.932331
H        3.116150    -1.765162    -3.348747
H        4.733928    -1.328419    -5.154571
H        6.185674     0.678803    -5.070656
H        6.017673     2.253219    -3.162414
H        4.399917     1.829259    -1.337881
H        4.627015    -2.106842    -1.206091
H        3.849510    -4.431180     2.256777
H        1.923614    -3.043039     2.818862
65
ex_0084 frame44 Δ-conf4
O        0.611415     1.248559     3.706988
C        0.349942     0.672182     2.662603
C       -0.306508    -0.687373     2.663736
O       -0.543888    -1.273287     3.708901
N       -0.619855    -1.226606     1.448379
C       -1.065477    -2.519504     1.110892
C       -1.990062    -3.173436     1.944933
C       -2.476550    -4.433236     1.619127
C       -2.049474    -5.061712     0.458021
Cl      -2.658671    -6.657436     0.053682
C       -1.138134    -4.430150    -0.388643
C       -0.566492    -3.170619    -0.075904
C        0.542140    -2.628453    -1.046470
C        1.007520    -3.510422    -2.179927
C        0.257845    -3.885636    -3.307407
C        0.815101    -4.721221    -4.278382
C        2.128129    -5.177836    -4.138832
C        2.883918    -4.804221    -3.023466
C        2.326934    -3.974303    -2.044341
N        1.194133    -1.290620    -0.950218
C        1.774224    -0.692698    -2.177703
C        0.868089     0.292229    -2.943637
C       -0.605891    -0.137186    -3.074733
C       -1.647615     0.677047    -2.264871
N       -1.186491     1.270807    -0.985826
C       -0.539016     2.622835    -1.063714
C       -1.000107     3.505183    -2.207154
C       -0.178555     3.846903    -3.295439
C       -0.667447     4.660939    -4.319622
C       -1.978723     5.139555    -4.266825
C       -2.802116     4.806705    -3.186735
C       -2.315340     3.994056    -2.156754
C        0.553149     3.173531    -0.067412
C        1.087497     4.456069    -0.356064
C        2.018698     5.079486     0.474458
Cl       2.603033     6.687414     0.081564
C        2.484883     4.433279     1.610159
C        2.014802     3.165363     1.928514
C        1.071774     2.518341     1.109135
N        0.635308     1.222397     1.445378
Cu       0.000000     0.000000     0.000000
H       -2.351837    -2.704368     2.849188
H       -3.189613    -4.920973     2.271602
H       -0.845039    -4.983100    -1.265307
H       -0.756963    -3.530329    -3.432722
H        0.230594    -5.008187    -5.142931
H        2.560724    -5.817215    -4.897415
H        3.903769    -5.152231    -2.922348
H        2.925770    -3.679797    -1.191454
H        2.103396    -1.471381    -2.888470
H        2.708487    -0.152793    -1.914207
H        1.314239     0.391675    -3.957907
H        0.964486     1.295578    -2.523837
H       -0.710478    -1.210944    -2.871864
H       -0.919691    -0.065260    -4.139588
H       -2.516458     0.012835    -2.071771
H       -2.069433     1.454831    -2.926966
H        0.837275     3.478423    -3.353763
H       -0.030224     4.915920    -5.156637
H       -2.356886     5.765409    -5.064707
H       -3.819267     5.174477    -3.151476
H       -2.964047     3.733597    -1.329834
H        0.762849     5.024944    -1.211471
H        3.213349     4.914964     2.250029
H        2.404055     2.684187     2.814859
65
ex_0084 frame45 see-saw N0-N1-ax-conf2
O        1.741608    -0.921251     3.439384
C        1.412516    -0.554924     2.321582
C        2.344626     0.254350     1.466003
O        3.478328     0.517510     1.836292
N        1.860396     0.675886     0.263194
C        2.508794     1.295520    -0.815630
C        3.504904     2.254742    -0.563053
C        4.136425     2.912961    -1.608152
C        3.785737     2.623749    -2.919910
Cl       4.592991     3.452933    -4.238352
C        2.795092     1.677452    -3.193268
C        2.157628     0.937108    -2.167169
C        1.148940    -0.187071    -2.609598
C        0.997674    -0.513494    -4.066016
C        1.489689    -1.779151    -4.418920
C        1.398032    -2.220590    -5.741081
C        0.827382    -1.396437    -6.716044
C        0.346973    -0.129814    -6.369866
C        0.430011     0.311673    -5.047821
N        0.288247    -1.001015    -1.705459
C       -0.995084    -1.540973    -2.227696
C       -2.244892    -0.716989    -1.869847
C       -2.092492     0.801290    -2.100433
C       -2.173443     1.692251    -0.842582
N       -1.623105     1.096719     0.398825
C       -2.598379     0.338061     1.256394
C       -4.042361     0.786197     1.179611
C       -4.371611     2.030467     1.738583
C       -5.691573     2.492466     1.690201
C       -6.685872     1.714659     1.088010
C       -6.362980     0.473706     0.532855
C       -5.046311     0.009926     0.577125
C       -2.239571    -0.859235     2.209662
C       -3.316237    -1.480526     2.896814
C       -3.117053    -2.515391     3.810923
Cl      -4.484986    -3.200033     4.672469
C       -1.840034    -3.005615     4.041438
C       -0.754967    -2.452070     3.373009
C       -0.929677    -1.393520     2.460933
N        0.189970    -0.858453     1.793175
Cu       0.000000     0.000000     0.000000
H        3.787753     2.511638     0.448909
H        4.898482     3.652063    -1.394940
H        2.580318     1.496895    -4.233086
H        1.913876    -2.430762    -3.664412
H        1.758604    -3.205593    -6.006572
H        0.750383    -1.742105    -7.737948
H       -0.100934     0.505604    -7.122228
H        0.037849     1.286049    -4.783135
H       -1.145636    -2.563909    -1.820496
H       -0.975856    -1.674034    -3.323909
H       -2.532317    -0.954179    -0.842629
H       -3.090664    -1.105723    -2.478290
H       -2.860864     1.160543    -2.819645
H       -1.154351     1.013895    -2.626368
H       -3.220009     2.017185    -0.708387
H       -1.635667     2.638567    -1.064782
H       -3.606633     2.642328     2.199888
H       -5.943898     3.455114     2.115284
H       -7.705917     2.074059     1.048411
H       -7.131233    -0.127650     0.064154
H       -4.805556    -0.950144     0.138026
H       -4.333384    -1.143286     2.780073
H       -1.685848    -3.813688     4.745548
H        0.227373    -2.857642     3.571872
65
ex_0084 frame46 see-saw N0-N1-ax
O        1.734147    -0.923374     3.442579
C        1.407993    -0.555809     2.324334
C        2.342467     0.254944     1.470194
O        3.474553     0.521344     1.843042
N        1.860819     0.673594     0.265417
C        2.502676     1.298076    -0.814225
C        3.491521     2.264803    -0.563791
C        4.114710     2.928118    -1.611074
C        3.764626     2.634012    -2.922138
Cl       4.560716     3.469647    -4.243280
C        2.783259     1.677547    -3.192900
C        2.150119     0.936401    -2.164939
C        1.143613    -0.192092    -2.607159
C        0.989911    -0.523670    -4.063108
C        0.413840     0.305458    -5.036767
C        0.318477    -0.131624    -6.359400
C        0.798347    -1.395945    -6.714734
C        1.380074    -2.222422    -5.748267
C        1.482946    -1.785846    -4.425440
N        0.284140    -1.008764    -1.701621
C       -1.003776    -1.536782    -2.226806
C       -2.243846    -0.698287    -1.870161
C       -2.072119     0.818698    -2.097914
C       -2.169115     1.703950    -0.839470
N       -1.617810     1.104156     0.400323
C       -2.597322     0.346475     1.255212
C       -4.038321     0.806312     1.177669
C       -4.365036     2.053852     1.731096
C       -5.682247     2.522533     1.672676
C       -6.677137     1.746820     1.068847
C       -6.357613     0.501237     0.522179
C       -5.043571     0.030913     0.576088
C       -2.243667    -0.857458     2.202880
C       -3.323181    -1.479184     2.884860
C       -3.129221    -2.524279     3.788435
Cl      -4.501423    -3.213514     4.639502
C       -1.854075    -3.020995     4.016673
C       -0.765489    -2.463765     3.356643
C       -0.935712    -1.397328     2.453491
N        0.186528    -0.858906     1.793209
Cu       0.000000     0.000000     0.000000
H        3.772732     2.524798     0.447881
H        4.869634     3.675111    -1.400290
H        2.568472     1.493044    -4.232098
H        0.021652     1.277836    -4.764850
H       -0.138588     0.505304    -7.104966
H        0.712244    -1.738139    -7.737036
H        1.740419    -3.205579    -6.020614
H        1.915316    -2.439126    -3.677040
H       -1.166184    -2.556855    -1.816665
H       -0.984651    -1.673809    -3.322338
H       -3.101009    -1.075736    -2.469635
H       -2.522926    -0.932353    -0.840130
H       -2.814881     1.186557    -2.839249
H       -1.116836     1.025287    -2.591082
H       -1.635985     2.654753    -1.054148
H       -3.218895     2.019625    -0.712166
H       -3.599339     2.664890     2.192312
H       -5.931788     3.489114     2.090469
H       -7.694909     2.111671     1.020927
H       -7.126280    -0.098243     0.051760
H       -4.805085    -0.932043     0.142072
H       -4.338808    -1.136971     2.769467
H       -1.704260    -3.837087     4.712389
H        0.215732    -2.873615     3.552688
65
ex_0084 frame47 see-saw N0-N1-ax-conf3
O        1.728923    -0.947488     3.438733
C        1.403912    -0.570832     2.323249
C        2.337500     0.252015     1.480043
O        3.467904     0.519781     1.857136
N        1.856668     0.680390     0.279045
C        2.492782     1.324848    -0.790305
C        3.461688     2.307667    -0.526701
C        4.080163     2.987769    -1.566227
C        3.747853     2.690815    -2.881471
Cl       4.539089     3.544835    -4.193666
C        2.787781     1.716560    -3.163834
C        2.151657     0.966578    -2.144158
C        1.153683    -0.166878    -2.600962
C        1.009448    -0.489247    -4.060367
C        1.498494    -1.744277    -4.448582
C        1.391955    -2.153150    -5.779463
C        0.811657    -1.304757    -6.727826
C        0.336048    -0.046449    -6.345916
C        0.435557     0.362991    -5.015093
N        0.292008    -0.999031    -1.706373
C       -0.996406    -1.509652    -2.252765
C       -2.226481    -0.666237    -1.881137
C       -2.034726     0.850788    -2.093452
C       -2.176776     1.714204    -0.829438
N       -1.617499     1.103707     0.403965
C       -2.598772     0.341866     1.255706
C       -4.042063     0.795242     1.170604
C       -5.035623    -0.002202     0.578294
C       -6.354040     0.453244     0.507670
C       -6.689637     1.705544     1.028816
C       -5.706707     2.502454     1.624681
C       -4.385473     2.048176     1.701165
C       -2.243785    -0.859481     2.206316
C       -3.322554    -1.468901     2.901148
C       -3.131337    -2.516813     3.801426
Cl      -4.502921    -3.190612     4.665952
C       -1.859746    -3.028187     4.015550
C       -0.771350    -2.480147     3.347060
C       -0.938310    -1.408671     2.448823
N        0.184620    -0.874111     1.785247
Cu       0.000000     0.000000     0.000000
H        3.728195     2.567463     0.489276
H        4.818066     3.749001    -1.346750
H        2.587268     1.530873    -4.205480
H        1.930491    -2.413081    -3.713703
H        1.749212    -3.131495    -6.071848
H        0.723503    -1.625332    -7.756725
H       -0.120111     0.607477    -7.077130
H        0.047426     1.331007    -4.721866
H       -1.169526    -2.534812    -1.859589
H       -0.975832    -1.627599    -3.350196
H       -2.474263    -0.908427    -0.844758
H       -3.105931    -1.026021    -2.459118
H       -2.726803     1.230004    -2.877049
H       -1.048032     1.059333    -2.513751
H       -3.236634     1.996987    -0.717158
H       -1.664744     2.681423    -1.021696
H       -4.783896    -0.970310     0.163252
H       -7.113451    -0.162780     0.043615
H       -7.710556     2.059249     0.967059
H       -5.968460     3.474393     2.021956
H       -3.628775     2.675550     2.155227
H       -4.335667    -1.115454     2.797818
H       -1.712527    -3.847175     4.708388
H        0.207490    -2.899768     3.534078
65
ex_0084 frame48 see-saw N0-N1-ax-conf5
O        1.740305     0.928463     3.438369
C        1.411903     0.560563     2.320832
C        2.346942    -0.243764     1.464120
O        3.482491    -0.500296     1.833231
N        1.863087    -0.668524     0.261701
C        2.520324    -1.277094    -0.819408
C        3.527658    -2.225500    -0.570225
C        4.166486    -2.873504    -1.617402
C        3.810653    -2.586752    -2.928303
Cl       4.625544    -3.404901    -4.248970
C        2.808835    -1.651680    -3.198885
C        2.167270    -0.918330    -2.170428
C        1.152590     0.199435    -2.609605
C        0.999158     0.525293    -4.065869
C        1.503151     1.786774    -4.417190
C        1.414197     2.231471    -5.738768
C        0.833056     1.415357    -6.714345
C        0.340063     0.153261    -6.369690
C        0.421306    -0.291830    -5.048648
N        0.289470     1.005933    -1.702411
C       -0.991299     1.551550    -2.224459
C       -2.243316     0.727290    -1.875712
C       -2.091577    -0.791069    -2.107179
C       -2.178231    -1.683037    -0.850329
N       -1.628634    -1.090605     0.393171
C       -2.605270    -0.324804     1.243753
C       -4.052318    -0.766125     1.161494
C       -5.046730     0.017184     0.551756
C       -6.366904    -0.435844     0.499864
C       -6.703572    -1.673040     1.054894
C       -5.719458    -2.458006     1.664407
C       -4.395767    -2.006869     1.720338
C       -2.244706     0.873920     2.195161
C       -3.321568     1.504383     2.873433
C       -3.121907     2.543029     3.783094
Cl      -4.491320     3.242486     4.630172
C       -1.843224     3.025375     4.020623
C       -0.757347     2.461398     3.362554
C       -0.933014     1.401155     2.452722
N        0.187446     0.857905     1.793870
Cu       0.000000     0.000000     0.000000
H        3.815008    -2.481315     0.440599
H        4.937992    -3.603320    -1.406368
H        2.589883    -1.471800    -4.238272
H        1.935738     2.432409    -3.662430
H        1.785000     3.212884    -6.003593
H        0.757827     1.763670    -7.735588
H       -0.116012    -0.475825    -7.122551
H        0.019758    -1.262743    -4.785662
H       -1.141187     2.572281    -1.811499
H       -0.968305     1.692279    -3.319659
H       -2.534720     0.962885    -0.849672
H       -3.086151     1.118223    -2.486774
H       -2.857025    -1.148714    -2.830258
H       -1.151993    -1.004996    -2.629075
H       -3.226295    -2.004293    -0.719051
H       -1.643648    -2.631190    -1.072298
H       -4.796139     0.974713     0.112878
H       -7.127312     0.171102     0.025532
H       -7.726444    -2.023877     1.009575
H       -5.982839    -3.417747     2.089463
H       -3.639187    -2.624511     2.187642
H       -4.340128     1.173643     2.751249
H       -1.688460     3.836067     4.721523
H        0.226071     2.861876     3.565992
65
ex_0084 frame49 see-saw N0-N1-ax-conf4
O        1.729801     0.945539     3.438714
C        1.405229     0.571485     2.321897
C        2.341187    -0.240550     1.474514
O        3.474955    -0.497522     1.849305
N        1.860097    -0.671706     0.273817
C        2.519919    -1.283658    -0.802726
C        3.522630    -2.234850    -0.546934
C        4.168134    -2.882223    -1.590293
C        3.825310    -2.589533    -2.903166
Cl       4.651387    -3.403164    -4.219635
C        2.827584    -1.651987    -3.179691
C        2.171842    -0.924858    -2.155199
C        1.149138     0.185387    -2.606113
C        0.982817     0.483498    -4.068253
C        0.418412    -0.375957    -5.022078
C        0.318044     0.027348    -6.354747
C        0.776154     1.290954    -6.739668
C        1.341490     2.150537    -5.792496
C        1.450526     1.747320    -4.459404
N        0.293054     1.006454    -1.701484
C       -0.988711     1.549433    -2.223891
C       -2.242011     0.724978    -1.876514
C       -2.090586    -0.794025    -2.102040
C       -2.176554    -1.682638    -0.842270
N       -1.630679    -1.085213     0.399584
C       -2.608988    -0.313637     1.243544
C       -4.057572    -0.749423     1.158408
C       -5.045555     0.043448     0.550378
C       -6.368734    -0.399761     0.494746
C       -6.714825    -1.637249     1.043177
C       -5.737067    -2.432200     1.650069
C       -4.410401    -1.990594     1.710306
C       -2.247960     0.887264     2.191952
C       -3.324269     1.517034     2.872373
C       -3.124463     2.560945     3.775767
Cl      -4.493146     3.259722     4.624978
C       -1.846742     3.049041     4.005438
C       -0.761179     2.483808     3.347261
C       -0.937006     1.417064     2.444833
N        0.183258     0.869688     1.788559
Cu       0.000000     0.000000     0.000000
H        3.800755    -2.492791     0.466001
H        4.935749    -3.614736    -1.374777
H        2.621033    -1.468049    -4.220540
H        0.045996    -1.349656    -4.728224
H       -0.124639    -0.636273    -7.085490
H        0.686850     1.606199    -7.770313
H        1.685719     3.132701    -6.088450
H        1.872345     2.425139    -3.726931
H       -0.964570     1.691860    -3.318398
H       -1.140664     2.569680    -1.810139
H       -3.080619     1.113920    -2.494708
H       -2.542084     0.963482    -0.853440
H       -1.151192    -1.007603    -2.624852
H       -2.858961    -1.154548    -2.820612
H       -1.637795    -2.629276    -1.060798
H       -3.223291    -2.007704    -0.709958
H       -4.787993     1.001830     0.117430
H       -7.124196     0.215346     0.023023
H       -7.740133    -1.980370     0.995067
H       -6.007782    -3.392036     2.070188
H       -3.658861    -2.615476     2.176179
H       -4.342128     1.182230     2.756459
H       -1.692105     3.864416     4.700933
H        0.221790     2.887919     3.545362
65
ex_0084 frame50 Isomer 1
O       -3.443217     4.361968    -1.414358
C       -3.129549     3.325004    -0.850684
C       -4.008744     2.719424     0.213822
O       -5.030171     3.277871     0.583218
N       -3.609662     1.524499     0.740768
C       -4.095190     0.830220     1.864594
C       -5.480995     0.766806     2.094075
C       -5.991681     0.059109     3.174641
C       -5.129763    -0.596124     4.043101
Cl      -5.777103    -1.481615     5.413197
C       -3.751286    -0.553374     3.830908
C       -3.174362     0.199870     2.777259
C       -1.606674     0.268855     2.721155
C       -0.813790    -0.375311     3.832153
C       -0.707940    -1.753503     4.080093
C        0.053792    -2.219743     5.154181
C        0.725220    -1.315140     5.980744
C        0.630653     0.058466     5.737299
C       -0.137726     0.530168     4.667307
N       -0.810684     0.928525     1.644902
C        0.584044     0.477008     1.415503
C        0.774094    -0.552851     0.285768
C       -0.286520    -1.670534     0.240446
C       -1.250294    -1.663990    -0.972109
N       -1.610473    -0.334959    -1.527237
C       -0.689045     0.223136    -2.574128
C        0.022864    -0.807096    -3.426507
C        1.408741    -1.030568    -3.356187
C        2.006714    -2.002626    -4.161101
C        1.227559    -2.756501    -5.042270
C       -0.151104    -2.536285    -5.121651
C       -0.753618    -1.561375    -4.319515
C       -0.420279     1.754482    -2.841808
C        0.538226     2.066940    -3.840919
C        0.832649     3.380335    -4.207251
Cl       1.996778     3.693396    -5.483134
C        0.208502     4.440647    -3.566616
C       -0.722723     4.194049    -2.566041
C       -1.041339     2.877482    -2.183894
N       -1.973853     2.661990    -1.151211
Cu      -1.857096     0.995929    -0.056662
H       -6.176918     1.257530     1.427628
H       -7.061477     0.019754     3.335846
H       -3.144135    -1.075324     4.551639
H       -1.215203    -2.464356     3.440255
H        0.128797    -3.283155     5.340492
H        1.322103    -1.679528     6.806754
H        1.158826     0.756411     6.374030
H       -0.193737     1.595228     4.479427
H        1.033017     0.059929     2.333981
H        1.217621     1.357945     1.176958
H        1.782182    -0.999627     0.432800
H        0.861086    -0.034542    -0.671113
H       -0.857286    -1.694587     1.176976
H        0.215880    -2.662886     0.241126
H       -2.174978    -2.197819    -0.666402
H       -0.826551    -2.318748    -1.754337
H        2.023316    -0.459694    -2.672096
H        3.073373    -2.174722    -4.096517
H        1.692166    -3.513597    -5.660277
H       -0.753299    -3.125735    -5.800424
H       -1.823479    -1.405460    -4.379276
H        1.052923     1.297196    -4.391626
H        0.443452     5.460065    -3.845716
H       -1.184718     5.042198    -2.080479
65
ex_0084 frame51 square-planar cis-conf5
O        3.476750     1.770345     0.672012
C        2.341680     1.426230     0.381493
C        1.402789     2.361279    -0.344379
O        1.733406     3.505644    -0.613837
N        0.174288     1.868302    -0.682572
C       -0.964514     2.518796    -1.195795
C       -0.809018     3.533314    -2.157258
C       -1.915370     4.165124    -2.711307
C       -3.193908     3.796322    -2.316708
Cl      -4.589379     4.602752    -3.011799
C       -3.373775     2.787365    -1.369972
C       -2.279961     2.154460    -0.727920
C       -2.613132     1.136420     0.417319
C       -4.045437     0.986411     0.861483
C       -4.288492     1.489610     2.150465
C       -5.573102     1.420756     2.700329
C       -6.620373     0.854952     1.966947
C       -6.385352     0.356034     0.683112
C       -5.102344     0.415728     0.133252
N       -1.625379     0.279722     1.128802
C       -2.088707    -0.989885     1.740271
C       -1.902060    -2.259892     0.885938
C       -2.249235    -2.105154    -0.607333
C       -1.066061    -2.139842    -1.609514
N        0.241875    -1.635961    -1.122285
C        1.121552    -2.620467    -0.408550
C        0.955000    -4.067562    -0.827883
C        0.393948    -5.050813     0.005241
C        0.262169    -6.365872    -0.446322
C        0.689636    -6.710211    -1.730888
C        1.252868    -5.739247    -2.564721
C        1.389092    -4.421004    -2.115460
C        2.175467    -2.264737     0.710643
C        2.858689    -3.355204     1.308253
C        3.852145    -3.174848     2.270566
Cl       4.690101    -4.567186     2.934176
C        4.180483    -1.898739     2.705246
C        3.526618    -0.794968     2.172075
C        2.525072    -0.951190     1.196731
N        1.862451     0.185817     0.694917
Cu       0.000000     0.000000     0.000000
H        0.173312     3.832531    -2.495401
H       -1.777325     4.942476    -3.452141
H       -4.393302     2.560440    -1.105780
H       -3.481013     1.915268     2.733061
H       -5.755688     1.797737     3.698303
H       -7.612817     0.797855     2.394956
H       -7.195090    -0.085442     0.116723
H       -4.930334     0.014022    -0.857191
H       -1.553253    -1.149621     2.700190
H       -3.153226    -0.931672     2.030549
H       -0.899170    -2.666565     1.030964
H       -2.563311    -3.031261     1.339205
H       -2.934753    -2.925733    -0.914461
H       -2.869277    -1.212729    -0.766316
H       -0.968144    -3.171817    -1.992926
H       -1.371308    -1.565749    -2.509775
H        0.051589    -4.797915     1.000145
H       -0.176748    -7.116131     0.198694
H        0.580876    -7.728683    -2.080446
H        1.578059    -6.007873    -3.561312
H        1.816486    -3.674021    -2.772550
H        2.667896    -4.373311     1.011433
H        4.946152    -1.760650     3.458098
H        3.798090     0.185652     2.537480
65
ex_0084 frame52 Λ-conf5
O        1.039024    -0.887712     3.715875
C        0.553527    -0.491884     2.667576
C       -0.585478     0.500491     2.658956
O       -1.088700     0.894263     3.699719
N       -1.022660     0.933412     1.439104
C       -2.148977     1.703225     1.089712
C       -2.536130     2.777442     1.910725
C       -3.618190     3.579714     1.570877
C       -4.331484     3.325130     0.407803
Cl      -5.703483     4.335176    -0.014270
C       -3.961965     2.269715    -0.426616
C       -2.906768     1.382763    -0.095658
C       -2.679928     0.154418    -1.043370
C       -3.661513    -0.091868    -2.160127
C       -4.453530    -1.236248    -1.968032
C       -5.411983    -1.594969    -2.921998
C       -5.587856    -0.813161    -4.067684
C       -4.805401     0.327978    -4.262454
C       -3.841749     0.685505    -3.316101
N       -1.558640    -0.819640    -0.945172
C       -1.133625    -1.546868    -2.166194
C        0.055041    -0.938080    -2.936998
C        0.028492     0.595683    -3.082950
C        1.084891     1.395186    -2.276588
N        1.536648     0.805472    -0.992065
C        2.671226    -0.174599    -1.060706
C        3.644816     0.033373    -2.203779
C        3.757112    -0.851122    -3.290394
C        4.670796    -0.595996    -4.315463
C        5.479499     0.541882    -4.264124
C        5.377260     1.424915    -3.184739
C        4.464944     1.171876    -2.154282
C        2.914207    -1.366940    -0.056341
C        4.010227    -2.222214    -0.339898
C        4.366123    -3.279648     0.497171
Cl       5.763093    -4.269496     0.110197
C        3.619890    -3.552056     1.634784
C        2.521035    -2.762152     1.948767
C        2.145632    -1.687178     1.122867
N        1.011049    -0.922267     1.454632
Cu       0.000000     0.000000     0.000000
H       -1.991559     3.009869     2.815290
H       -3.900840     4.404001     2.213387
H       -4.566331     2.126460    -1.306929
H       -4.314342    -1.857433    -1.092037
H       -6.012686    -2.483725    -2.778195
H       -6.326321    -1.094024    -4.807409
H       -4.938773     0.931207    -5.151105
H       -3.232991     1.564635    -3.484826
H       -0.859061    -2.588136    -1.894072
H       -1.971793    -1.664758    -2.876430
H        0.997748    -1.290817    -2.513863
H        0.033251    -1.403971    -3.947029
H        0.186996     0.868354    -4.149779
H       -0.981878     0.981539    -2.892259
H        1.947056     1.594338    -2.938860
H        0.670611     2.408965    -2.092557
H        3.132521    -1.732923    -3.347886
H        4.747088    -1.278468    -5.152120
H        6.182472     0.740277    -5.062736
H        6.001250     2.308419    -3.150527
H        4.385606     1.867323    -1.328162
H        4.644024    -2.064107    -1.196824
H        3.892390    -4.378021     2.279438
H        1.953955    -3.004958     2.836617
65
ex_0084 frame53 conf5
O        3.715809     1.039189    -0.887222
C        2.667518     0.553551    -0.491554
C        2.658858    -0.585625     0.500625
O        3.699628    -1.088885     0.894371
N        1.438703    -1.022615     0.933150
C        1.089608    -2.149188     1.703211
C        1.910770    -2.536368     2.777233
C        1.570976    -3.618406     3.579626
C        0.407829    -4.331613     3.325148
Cl      -0.014161    -5.703545     4.335387
C       -0.426668    -3.962142     2.269820
C       -0.095718    -2.907017     1.382922
C       -1.043412    -2.680021     0.154486
C       -2.160137    -3.661595    -0.091818
C       -1.968018    -4.453614    -1.236162
C       -2.921967    -5.412071    -1.594904
C       -4.067681    -5.587928    -0.813113
C       -4.262475    -4.805458     0.328005
C       -3.316136    -3.841807     0.685549
N       -0.945165    -1.558636    -0.819536
C       -2.166190    -1.133692    -1.546816
C       -2.937002     0.054993    -0.938071
C       -3.082961     0.028470     0.595697
C       -2.276598     1.084864     1.395206
N       -0.992117     1.536656     0.805521
C       -1.060765     2.671218    -0.174534
C       -2.203812     3.644798     0.033367
C       -3.290468     3.757121    -0.851115
C       -4.315499     4.670838    -0.595965
C       -4.264108     5.479550     0.541903
C       -3.184693     5.377293     1.424902
C       -2.154277     4.464950     1.171840
C       -0.056362     2.914118    -1.366813
C       -0.339967     4.010154    -2.222185
C        0.497173     4.366046    -3.279575
Cl       0.110169     5.763031    -4.269490
C        1.634773     3.619902    -3.551894
C        1.948831     2.521008    -2.761881
C        1.122754     2.145621    -1.686920
N        1.454399     1.010868    -0.921779
Cu       0.000000     0.000000     0.000000
H        2.815355    -1.991833     3.009584
H        2.213582    -3.900975     4.403833
H       -1.307019    -4.566483     2.126636
H       -1.091998    -4.314427    -1.857329
H       -2.778138    -6.012786    -2.483642
H       -4.807396    -6.326395    -1.093987
H       -5.151141    -4.938815     0.931224
H       -3.484867    -3.233031     1.564657
H       -1.894064    -0.859172    -2.588096
H       -2.876438    -1.971858    -1.664680
H       -2.513868     0.997687    -1.290844
H       -3.947030     0.033189    -1.403965
H       -4.149786     0.186993     0.868360
H       -2.892276    -0.981893     0.981571
H       -2.938866     1.947033     1.594354
H       -2.092540     0.670584     2.408978
H       -3.348001     3.132521    -1.732907
H       -5.152182     4.747150    -1.278409
H       -5.062696     6.182543     0.740323
H       -3.150436     6.001290     2.308397
H       -1.328128     4.385596     1.867259
H       -1.196911     4.643904    -2.064202
H        2.279449     3.892421    -4.377863
H        2.836722     1.954077    -3.004667
