41
ex_0163 frame0 T-4-1
Zn       0.000000     0.000000     0.000000
Br       1.397188     1.397188     1.397188
Br       1.397188    -1.397188    -1.397188
C       -7.986443     2.430618    -4.630344
N       -6.659985     2.298230    -4.012150
C       -5.724344     3.251565    -4.229419
C       -4.464565     3.146230    -3.668201
C       -4.176398     2.037991    -2.880500
C       -2.755009     1.890125    -2.230605
N       -2.395044     0.845866    -1.455533
N       -1.114286     1.114286    -1.114286
N       -0.736102     2.284529    -1.675157
N       -1.765539     2.793786    -2.389129
C       -5.139240     1.058541    -2.667613
C       -6.383127     1.213055    -3.252401
H       -7.941789     1.947106    -5.609348
H       -8.232136     3.490989    -4.731047
H       -8.730738     1.947887    -3.991684
H       -5.995663     4.095240    -4.856918
H       -3.711369     3.913047    -3.839766
H       -4.915292     0.187678    -2.054269
H       -7.166391     0.472584    -3.120649
C       -2.842497    -8.172669     4.032239
N       -2.610160    -6.801020     3.559186
C       -3.433834    -5.806754     3.964739
C       -3.243965    -4.508754     3.526276
C       -2.192880    -4.246429     2.655580
C       -1.952529    -2.783225     2.139985
N       -0.957470    -2.445504     1.293470
N       -1.114286    -1.114286     1.114286
N       -2.172980    -0.685666     1.837142
N       -2.719712    -1.732047     2.496694
C       -1.355272    -5.273404     2.236719
C       -1.589631    -6.553392     2.705559
H       -3.521238    -8.653515     3.323491
H       -3.283984    -8.138541     5.031648
H       -1.888178    -8.703741     4.078389
H       -4.244228    -6.063026     4.640568
H       -3.903855    -3.707212     3.853115
H       -0.533582    -5.071688     1.551969
H       -0.966877    -7.389879     2.402867
41
ex_0163 frame1 T-4-1-conf2
Zn       0.000000     0.000000     0.000000
Br       1.397188     1.397188     1.397188
Br       1.397188    -1.397188    -1.397188
C       -7.986443     2.430618    -4.630344
N       -6.659985     2.298230    -4.012150
C       -5.724344     3.251565    -4.229419
C       -4.464565     3.146230    -3.668201
C       -4.176398     2.037991    -2.880500
C       -2.755009     1.890125    -2.230605
N       -2.395044     0.845866    -1.455533
N       -1.114286     1.114286    -1.114286
N       -0.736102     2.284529    -1.675157
N       -1.765539     2.793786    -2.389129
C       -5.139240     1.058541    -2.667613
C       -6.383127     1.213055    -3.252401
H       -7.941789     1.947106    -5.609348
H       -8.232136     3.490989    -4.731047
H       -8.730738     1.947887    -3.991684
H       -5.995663     4.095240    -4.856918
H       -3.711369     3.913047    -3.839766
H       -4.915292     0.187678    -2.054269
H       -7.166391     0.472584    -3.120649
C       -1.907367    -5.807444     7.332582
N       -1.884458    -4.936835     6.149073
C       -3.018412    -4.753357     5.433559
C       -3.022076    -3.947497     4.309423
C       -1.835648    -3.333735     3.925505
C       -1.808223    -2.413930     2.653585
N       -0.699117    -1.783922     2.213404
N       -1.114286    -1.114286     1.114286
N       -2.431207    -1.346927     0.917653
N       -2.891189    -2.171163     1.886101
C       -0.672713    -3.532470     4.660212
C       -0.724392    -4.348105     5.776084
H       -1.161973    -5.457119     8.051299
H       -1.678007    -6.822122     6.997846
H       -2.898333    -5.764048     7.791922
H       -3.918389    -5.259122     5.770308
H       -3.933554    -3.796724     3.733904
H        0.258760    -3.056129     4.359868
H        0.158337    -4.538947     6.379016
41
ex_0163 frame2 T-4-1-conf3
Zn       0.000000     0.000000     0.000000
Br       1.397188     1.397188     1.397188
Br       1.397188    -1.397188    -1.397188
C       -3.074598     8.222930    -3.749865
N       -2.791936     6.841284    -3.337145
C       -3.537086     5.829195    -3.839047
C       -3.299028     4.520678    -3.459290
C       -2.282070     4.266029    -2.546788
C       -1.988593     2.791169    -2.095976
N       -1.022069     2.459747    -1.214627
N       -1.114286     1.114286    -1.114286
N       -2.108411     0.671429    -1.915947
N       -2.676833     1.722593    -2.549026
C       -1.525526     5.310726    -2.029142
C       -1.805361     6.600632    -2.442588
H       -2.149909     8.804882    -3.715599
H       -3.814838     8.627791    -3.055346
H       -3.460845     8.220999    -4.772460
H       -4.323915     6.079638    -4.544267
H       -3.895632     3.704978    -3.863571
H       -0.730913     5.114777    -1.311548
H       -1.246451     7.450569    -2.062607
C       -2.842497    -8.172669     4.032239
N       -2.610160    -6.801020     3.559186
C       -3.433834    -5.806754     3.964739
C       -3.243965    -4.508754     3.526276
C       -2.192880    -4.246429     2.655580
C       -1.952529    -2.783225     2.139985
N       -0.957470    -2.445504     1.293470
N       -1.114286    -1.114286     1.114286
N       -2.172980    -0.685666     1.837142
N       -2.719712    -1.732047     2.496694
C       -1.355272    -5.273404     2.236719
C       -1.589631    -6.553392     2.705559
H       -3.521238    -8.653515     3.323491
H       -3.283984    -8.138541     5.031648
H       -1.888178    -8.703741     4.078389
H       -4.244228    -6.063026     4.640568
H       -3.903855    -3.707212     3.853115
H       -0.533582    -5.071688     1.551969
H       -0.966877    -7.389879     2.402867
41
ex_0163 frame3 T-4-1-conf4
Zn       0.000000     0.000000     0.000000
Br       1.397188     1.397188     1.397188
Br       1.397188    -1.397188    -1.397188
C       -7.986443     2.430618    -4.630344
N       -6.659985     2.298230    -4.012150
C       -5.724344     3.251565    -4.229419
C       -4.464565     3.146230    -3.668201
C       -4.176398     2.037991    -2.880500
C       -2.755009     1.890125    -2.230605
N       -2.395044     0.845866    -1.455533
N       -1.114286     1.114286    -1.114286
N       -0.736102     2.284529    -1.675157
N       -1.765539     2.793786    -2.389129
C       -5.139240     1.058541    -2.667613
C       -6.383127     1.213055    -3.252401
H       -7.941789     1.947106    -5.609348
H       -8.232136     3.490989    -4.731047
H       -8.730738     1.947887    -3.991684
H       -5.995663     4.095240    -4.856918
H       -3.711369     3.913047    -3.839766
H       -4.915292     0.187678    -2.054269
H       -7.166391     0.472584    -3.120649
C       -5.021515    -2.215047     7.810838
N       -4.319301    -2.128057     6.523007
C       -3.616412    -1.011920     6.220249
C       -2.954916    -0.899752     5.010726
C       -3.031062    -1.954728     4.109097
C       -2.291499    -1.856430     2.727809
N       -1.564600    -0.785503     2.346340
N       -1.114286    -1.114286     1.114286
N       -1.566143    -2.344863     0.784782
N       -2.316739    -2.833850     1.797864
C       -3.761024    -3.095077     4.422895
C       -4.403530    -3.155532     5.646265
H       -4.472331    -1.638370     8.559660
H       -5.068098    -3.260941     8.125204
H       -6.025053    -1.807633     7.665411
H       -3.591903    -0.212728     6.954993
H       -2.387095    -0.003897     4.766245
H       -3.825552    -3.921337     3.717291
H       -4.990696    -4.022162     5.934962
41
ex_0163 frame4 T-4-1-conf5
Zn       0.000000     0.000000     0.000000
Br       1.397188     1.397188     1.397188
Br       1.397188    -1.397188    -1.397188
C       -6.683291     6.578479    -1.785630
N       -5.640502     5.543216    -1.786648
C       -5.172589     5.066201    -0.609791
C       -4.183938     4.099294    -0.582162
C       -3.675978     3.630833    -1.788077
C       -2.552691     2.534112    -1.788936
N       -2.032713     1.999192    -0.664538
N       -1.114286     1.114286    -1.114286
N       -1.098257     1.131762    -2.465768
N       -2.006029     2.028284    -2.914140
C       -4.155339     4.130473    -2.993182
C       -5.144665     5.096645    -2.964016
H       -7.316103     6.450743    -0.903515
H       -7.294983     6.473764    -2.685496
H       -6.181738     7.549214    -1.767144
H       -5.596974     5.468049     0.305399
H       -3.807886     3.712599     0.363247
H       -3.756853     3.768237    -3.939090
H       -5.547352     5.522150    -3.878317
C       -2.842497    -8.172669     4.032239
N       -2.610160    -6.801020     3.559186
C       -3.433834    -5.806754     3.964739
C       -3.243965    -4.508754     3.526276
C       -2.192880    -4.246429     2.655580
C       -1.952529    -2.783225     2.139985
N       -0.957470    -2.445504     1.293470
N       -1.114286    -1.114286     1.114286
N       -2.172980    -0.685666     1.837142
N       -2.719712    -1.732047     2.496694
C       -1.355272    -5.273404     2.236719
C       -1.589631    -6.553392     2.705559
H       -3.521238    -8.653515     3.323491
H       -3.283984    -8.138541     5.031648
H       -1.888178    -8.703741     4.078389
H       -4.244228    -6.063026     4.640568
H       -3.903855    -3.707212     3.853115
H       -0.533582    -5.071688     1.551969
H       -0.966877    -7.389879     2.402867
41
ex_0163 frame5 T-4-1-conf6
Zn       0.000000     0.000000     0.000000
Br       1.397188     1.397188     1.397188
Br       1.397188    -1.397188    -1.397188
C       -7.986443     2.430618    -4.630344
N       -6.659985     2.298230    -4.012150
C       -5.724344     3.251565    -4.229419
C       -4.464565     3.146230    -3.668201
C       -4.176398     2.037991    -2.880500
C       -2.755009     1.890125    -2.230605
N       -2.395044     0.845866    -1.455533
N       -1.114286     1.114286    -1.114286
N       -0.736102     2.284529    -1.675157
N       -1.765539     2.793786    -2.389129
C       -5.139240     1.058541    -2.667613
C       -6.383127     1.213055    -3.252401
H       -7.941789     1.947106    -5.609348
H       -8.232136     3.490989    -4.731047
H       -8.730738     1.947887    -3.991684
H       -5.995663     4.095240    -4.856918
H       -3.711369     3.913047    -3.839766
H       -4.915292     0.187678    -2.054269
H       -7.166391     0.472584    -3.120649
C       -1.875012    -7.241824     5.930560
N       -1.858712    -6.078026     5.033627
C       -0.694081    -5.691755     4.462744
C       -0.648775    -4.593664     3.622955
C       -1.823083    -3.890638     3.381166
C       -1.803134    -2.639490     2.433113
N       -0.690001    -2.188169     1.818273
N       -1.114286    -1.114286     1.114286
N       -2.440318    -0.942877     1.312593
N       -2.897239    -1.902850     2.148363
C       -3.014392    -4.287873     3.976730
C       -3.003972    -5.393167     4.808187
H       -1.676796    -6.879094     6.942172
H       -1.105678    -7.950841     5.613844
H       -2.854084    -7.724798     5.875377
H        0.197379    -6.269714     4.687289
H        0.286426    -4.282738     3.160924
H       -3.934891    -3.737071     3.792218
H       -3.907551    -5.739090     5.301178
41
ex_0163 frame6 T-4-1-conf7
Zn       0.000000     0.000000     0.000000
Br       1.397188     1.397188     1.397188
Br       1.397188    -1.397188    -1.397188
C       -7.946095     2.372398    -4.728903
N       -6.621267     2.242371    -4.106726
C       -6.341443     1.152918    -3.354219
C       -5.106031     1.010630    -2.748732
C       -4.158622     2.012345    -2.923920
C       -2.747671     1.879536    -2.248531
N       -2.381789     0.826744    -1.487910
N       -1.114286     1.114286    -1.114286
N       -0.749350     2.303641    -1.642796
N       -1.774337     2.806478    -2.367638
C       -4.454992     3.132418    -3.691585
C       -5.705741     3.224725    -4.274861
H       -8.594139     2.888032    -4.015892
H       -8.334900     1.376916    -4.958547
H       -7.853749     2.945155    -5.655354
H       -7.116568     0.400705    -3.242351
H       -4.878129     0.134063    -2.145044
H       -3.716384     3.920282    -3.827514
H       -5.986854     4.082533    -4.878432
C       -2.842497    -8.172669     4.032239
N       -2.610160    -6.801020     3.559186
C       -3.433834    -5.806754     3.964739
C       -3.243965    -4.508754     3.526276
C       -2.192880    -4.246429     2.655580
C       -1.952529    -2.783225     2.139985
N       -0.957470    -2.445504     1.293470
N       -1.114286    -1.114286     1.114286
N       -2.172980    -0.685666     1.837142
N       -2.719712    -1.732047     2.496694
C       -1.355272    -5.273404     2.236719
C       -1.589631    -6.553392     2.705559
H       -3.521238    -8.653515     3.323491
H       -3.283984    -8.138541     5.031648
H       -1.888178    -8.703741     4.078389
H       -4.244228    -6.063026     4.640568
H       -3.903855    -3.707212     3.853115
H       -0.533582    -5.071688     1.551969
H       -0.966877    -7.389879     2.402867
41
ex_0163 frame7 T-4-1-conf8
Zn       0.000000     0.000000     0.000000
Br       1.397188     1.397188     1.397188
Br       1.397188    -1.397188    -1.397188
C       -3.074598     8.222930    -3.749865
N       -2.791936     6.841284    -3.337145
C       -3.537086     5.829195    -3.839047
C       -3.299028     4.520678    -3.459290
C       -2.282070     4.266029    -2.546788
C       -1.988593     2.791169    -2.095976
N       -1.022069     2.459747    -1.214627
N       -1.114286     1.114286    -1.114286
N       -2.108411     0.671429    -1.915947
N       -2.676833     1.722593    -2.549026
C       -1.525526     5.310726    -2.029142
C       -1.805361     6.600632    -2.442588
H       -2.149909     8.804882    -3.715599
H       -3.814838     8.627791    -3.055346
H       -3.460845     8.220999    -4.772460
H       -4.323915     6.079638    -4.544267
H       -3.895632     3.704978    -3.863571
H       -0.730913     5.114777    -1.311548
H       -1.246451     7.450569    -2.062607
C       -1.907367    -5.807444     7.332582
N       -1.884458    -4.936835     6.149073
C       -3.018412    -4.753357     5.433559
C       -3.022076    -3.947497     4.309423
C       -1.835648    -3.333735     3.925505
C       -1.808223    -2.413930     2.653585
N       -0.699117    -1.783922     2.213404
N       -1.114286    -1.114286     1.114286
N       -2.431207    -1.346927     0.917653
N       -2.891189    -2.171163     1.886101
C       -0.672713    -3.532470     4.660212
C       -0.724392    -4.348105     5.776084
H       -1.161973    -5.457119     8.051299
H       -1.678007    -6.822122     6.997846
H       -2.898333    -5.764048     7.791922
H       -3.918389    -5.259122     5.770308
H       -3.933554    -3.796724     3.733904
H        0.258760    -3.056129     4.359868
H        0.158337    -4.538947     6.379016
41
ex_0163 frame8 T-4-1-conf9
Zn       0.000000     0.000000     0.000000
Br       1.397188     1.397188     1.397188
Br       1.397188    -1.397188    -1.397188
C       -7.600985     5.401259    -2.045161
N       -6.348680     4.634760    -1.986925
C       -5.551987     4.574133    -3.079208
C       -4.373101     3.851129    -3.054766
C       -4.025268     3.182759    -1.886861
C       -2.693701     2.353221    -1.828816
N       -2.285096     1.675429    -0.735919
N       -1.114286     1.114286    -1.114286
N       -0.845996     1.455368    -2.394423
N       -1.838517     2.243174    -2.866764
C       -4.851722     3.242650    -0.771023
C       -6.019333     3.979987    -0.849261
H       -8.385056     4.722815    -2.390373
H       -7.478459     6.238401    -2.737312
H       -7.832319     5.788522    -1.049468
H       -5.869974     5.108296    -3.969551
H       -3.729740     3.803022    -3.931419
H       -4.583814     2.717223     0.143799
H       -6.700498     4.052433    -0.006691
C       -2.842497    -8.172669     4.032239
N       -2.610160    -6.801020     3.559186
C       -3.433834    -5.806754     3.964739
C       -3.243965    -4.508754     3.526276
C       -2.192880    -4.246429     2.655580
C       -1.952529    -2.783225     2.139985
N       -0.957470    -2.445504     1.293470
N       -1.114286    -1.114286     1.114286
N       -2.172980    -0.685666     1.837142
N       -2.719712    -1.732047     2.496694
C       -1.355272    -5.273404     2.236719
C       -1.589631    -6.553392     2.705559
H       -3.521238    -8.653515     3.323491
H       -3.283984    -8.138541     5.031648
H       -1.888178    -8.703741     4.078389
H       -4.244228    -6.063026     4.640568
H       -3.903855    -3.707212     3.853115
H       -0.533582    -5.071688     1.551969
H       -0.966877    -7.389879     2.402867
41
ex_0163 frame9 T-4-1-conf10
Zn       0.000000     0.000000     0.000000
Br       1.397188     1.397188     1.397188
Br       1.397188    -1.397188    -1.397188
C       -7.986443     2.430618    -4.630344
N       -6.659985     2.298230    -4.012150
C       -5.724344     3.251565    -4.229419
C       -4.464565     3.146230    -3.668201
C       -4.176398     2.037991    -2.880500
C       -2.755009     1.890125    -2.230605
N       -2.395044     0.845866    -1.455533
N       -1.114286     1.114286    -1.114286
N       -0.736102     2.284529    -1.675157
N       -1.765539     2.793786    -2.389129
C       -5.139240     1.058541    -2.667613
C       -6.383127     1.213055    -3.252401
H       -7.941789     1.947106    -5.609348
H       -8.232136     3.490989    -4.731047
H       -8.730738     1.947887    -3.991684
H       -5.995663     4.095240    -4.856918
H       -3.711369     3.913047    -3.839766
H       -4.915292     0.187678    -2.054269
H       -7.166391     0.472584    -3.120649
C       -4.032239    -2.842497     8.172669
N       -3.559186    -2.610160     6.801020
C       -3.964739    -3.433834     5.806754
C       -3.526276    -3.243965     4.508754
C       -2.655580    -2.192880     4.246429
C       -2.139985    -1.952529     2.783225
N       -1.293470    -0.957470     2.445504
N       -1.114286    -1.114286     1.114286
N       -1.837142    -2.172980     0.685666
N       -2.496694    -2.719712     1.732047
C       -2.236719    -1.355272     5.273404
C       -2.705559    -1.589631     6.553392
H       -3.323491    -3.521238     8.653515
H       -5.031648    -3.283984     8.138541
H       -4.078389    -1.888178     8.703741
H       -4.640568    -4.244228     6.063026
H       -3.853115    -3.903855     3.707212
H       -1.551969    -0.533582     5.071688
H       -2.402867    -0.966877     7.389879
41
ex_0163 frame10 T-4-1-reembed1
Zn       0.000000     0.000000     0.000000
Br       1.397188     1.397188     1.397188
Br       1.397188    -1.397188    -1.397188
C       -2.788042     4.107413    -8.154290
N       -2.580079     3.601740    -6.790389
C       -3.411273     3.996899    -5.798198
C       -3.231617     3.544352    -4.503583
C       -2.176089     2.679308    -4.240394
C       -1.946139     2.149287    -2.780677
N       -0.945668     1.309649    -2.441780
N       -1.114286     1.114286    -1.114286
N       -2.185075     1.821095    -0.688963
N       -2.728043     2.486163    -1.733812
C       -1.321349     2.283417    -5.262352
C       -1.546004     2.765668    -6.539093
H       -2.442281     3.358954    -8.872029
H       -3.854153     4.290911    -8.311225
H       -2.215636     5.033202    -8.251705
H       -4.217498     4.678322    -6.052801
H       -3.900417     3.859089    -3.704588
H       -0.491646     1.609019    -5.058570
H       -0.902710     2.490289    -7.369452
C       -6.768344    -6.489656     1.791745
N       -5.692604    -5.488675     1.790929
C       -5.180776    -5.058160     2.967435
C       -4.175074    -4.109012     2.995465
C       -3.703922    -3.601426     1.790442
C       -2.563575    -2.522454     1.790074
N       -2.052410    -1.978921     0.665767
N       -1.114286    -1.114286     1.114286
N       -1.078334    -1.151823     2.464977
N       -1.992566    -2.041402     2.914050
C       -4.239211    -4.042049     0.585857
C       -5.243403    -4.992774     0.614589
H       -6.700759    -7.091057     0.881448
H       -6.653358    -7.140547     2.662383
H       -7.718036    -5.950501     1.832005
H       -5.586167    -5.480399     3.882055
H       -3.760408    -3.763142     3.940544
H       -3.874858    -3.643649    -0.359273
H       -5.697462    -5.364200    -0.299211
41
ex_0163 frame11 T-4-1-reembed2
Zn       0.000000     0.000000     0.000000
Br       1.397188     1.397188     1.397188
Br       1.397188    -1.397188    -1.397188
C       -4.107413     8.154290    -2.788042
N       -3.601740     6.790389    -2.580079
C       -3.996899     5.798198    -3.411273
C       -3.544352     4.503583    -3.231617
C       -2.679308     4.240394    -2.176089
C       -2.149287     2.780677    -1.946139
N       -1.309649     2.441780    -0.945668
N       -1.114286     1.114286    -1.114286
N       -1.821095     0.688963    -2.185075
N       -2.486163     1.733812    -2.728043
C       -2.283417     5.262352    -1.321349
C       -2.765668     6.539093    -1.546004
H       -3.358954     8.872029    -2.442281
H       -4.290911     8.311225    -3.854153
H       -5.033202     8.251705    -2.215636
H       -4.678322     6.052801    -4.217498
H       -3.859089     3.704588    -3.900417
H       -1.609019     5.058570    -0.491646
H       -2.490289     7.369452    -0.902710
C       -6.768344    -6.489656     1.791745
N       -5.692604    -5.488675     1.790929
C       -5.180776    -5.058160     2.967435
C       -4.175074    -4.109012     2.995465
C       -3.703922    -3.601426     1.790442
C       -2.563575    -2.522454     1.790074
N       -2.052410    -1.978921     0.665767
N       -1.114286    -1.114286     1.114286
N       -1.078334    -1.151823     2.464977
N       -1.992566    -2.041402     2.914050
C       -4.239211    -4.042049     0.585857
C       -5.243403    -4.992774     0.614589
H       -6.700759    -7.091057     0.881448
H       -6.653358    -7.140547     2.662383
H       -7.718036    -5.950501     1.832005
H       -5.586167    -5.480399     3.882055
H       -3.760408    -3.763142     3.940544
H       -3.874858    -3.643649    -0.359273
H       -5.697462    -5.364200    -0.299211
41
ex_0163 frame12 T-4-1-reembed3
Zn       0.000000     0.000000     0.000000
Br       1.397188     1.397188     1.397188
Br       1.397188    -1.397188    -1.397188
C       -8.154290     2.788042    -4.107413
N       -6.790389     2.580079    -3.601740
C       -5.798198     3.411273    -3.996899
C       -4.503583     3.231617    -3.544352
C       -4.240394     2.176089    -2.679308
C       -2.780677     1.946139    -2.149287
N       -2.441780     0.945668    -1.309649
N       -1.114286     1.114286    -1.114286
N       -0.688963     2.185075    -1.821095
N       -1.733812     2.728043    -2.486163
C       -5.262352     1.321349    -2.283417
C       -6.539093     1.546004    -2.765668
H       -8.872029     2.442281    -3.358954
H       -8.311225     3.854153    -4.290911
H       -8.251705     2.215636    -5.033202
H       -6.052801     4.217498    -4.678322
H       -3.704588     3.900417    -3.859089
H       -5.058570     0.491646    -1.609019
H       -7.369452     0.902710    -2.490289
C       -6.768344    -6.489656     1.791745
N       -5.692604    -5.488675     1.790929
C       -5.180776    -5.058160     2.967435
C       -4.175074    -4.109012     2.995465
C       -3.703922    -3.601426     1.790442
C       -2.563575    -2.522454     1.790074
N       -2.052410    -1.978921     0.665767
N       -1.114286    -1.114286     1.114286
N       -1.078334    -1.151823     2.464977
N       -1.992566    -2.041402     2.914050
C       -4.239211    -4.042049     0.585857
C       -5.243403    -4.992774     0.614589
H       -6.700759    -7.091057     0.881448
H       -6.653358    -7.140547     2.662383
H       -7.718036    -5.950501     1.832005
H       -5.586167    -5.480399     3.882055
H       -3.760408    -3.763142     3.940544
H       -3.874858    -3.643649    -0.359273
H       -5.697462    -5.364200    -0.299211
41
ex_0163 frame13 T-4-1-reembed4
Zn       0.000000     0.000000     0.000000
Br       1.397188     1.397188     1.397188
Br       1.397188    -1.397188    -1.397188
C       -2.788042     4.107413    -8.154290
N       -2.580079     3.601740    -6.790389
C       -3.411273     3.996899    -5.798198
C       -3.231617     3.544352    -4.503583
C       -2.176089     2.679308    -4.240394
C       -1.946139     2.149287    -2.780677
N       -0.945668     1.309649    -2.441780
N       -1.114286     1.114286    -1.114286
N       -2.185075     1.821095    -0.688963
N       -2.728043     2.486163    -1.733812
C       -1.321349     2.283417    -5.262352
C       -1.546004     2.765668    -6.539093
H       -2.442281     3.358954    -8.872029
H       -3.854153     4.290911    -8.311225
H       -2.215636     5.033202    -8.251705
H       -4.217498     4.678322    -6.052801
H       -3.900417     3.859089    -3.704588
H       -0.491646     1.609019    -5.058570
H       -0.902710     2.490289    -7.369452
C       -6.489656    -1.791745     6.768344
N       -5.488675    -1.790929     5.692604
C       -5.058160    -2.967435     5.180776
C       -4.109012    -2.995465     4.175074
C       -3.601426    -1.790442     3.703922
C       -2.522454    -1.790074     2.563575
N       -1.978921    -0.665767     2.052410
N       -1.114286    -1.114286     1.114286
N       -1.151823    -2.464977     1.078334
N       -2.041402    -2.914050     1.992566
C       -4.042049    -0.585857     4.239211
C       -4.992774    -0.614589     5.243403
H       -7.091057    -0.881448     6.700759
H       -7.140547    -2.662383     6.653358
H       -5.950501    -1.832005     7.718036
H       -5.480399    -3.882055     5.586167
H       -3.763142    -3.940544     3.760408
H       -3.643649     0.359273     3.874858
H       -5.364200     0.299211     5.697462
41
ex_0163 frame14 T-4-1-reembed5
Zn       0.000000     0.000000     0.000000
Br       1.397188     1.397188     1.397188
Br       1.397188    -1.397188    -1.397188
C       -2.788042     4.107413    -8.154290
N       -2.580079     3.601740    -6.790389
C       -3.411273     3.996899    -5.798198
C       -3.231617     3.544352    -4.503583
C       -2.176089     2.679308    -4.240394
C       -1.946139     2.149287    -2.780677
N       -0.945668     1.309649    -2.441780
N       -1.114286     1.114286    -1.114286
N       -2.185075     1.821095    -0.688963
N       -2.728043     2.486163    -1.733812
C       -1.321349     2.283417    -5.262352
C       -1.546004     2.765668    -6.539093
H       -2.442281     3.358954    -8.872029
H       -3.854153     4.290911    -8.311225
H       -2.215636     5.033202    -8.251705
H       -4.217498     4.678322    -6.052801
H       -3.900417     3.859089    -3.704588
H       -0.491646     1.609019    -5.058570
H       -0.902710     2.490289    -7.369452
C       -1.791745    -6.768344     6.489656
N       -1.790929    -5.692604     5.488675
C       -2.967435    -5.180776     5.058160
C       -2.995465    -4.175074     4.109012
C       -1.790442    -3.703922     3.601426
C       -1.790074    -2.563575     2.522454
N       -0.665767    -2.052410     1.978921
N       -1.114286    -1.114286     1.114286
N       -2.464977    -1.078334     1.151823
N       -2.914050    -1.992566     2.041402
C       -0.585857    -4.239211     4.042049
C       -0.614589    -5.243403     4.992774
H       -0.881448    -6.700759     7.091057
H       -2.662383    -6.653358     7.140547
H       -1.832005    -7.718036     5.950501
H       -3.882055    -5.586167     5.480399
H       -3.940544    -3.760408     3.763142
H        0.359273    -3.874858     3.643649
H        0.299211    -5.697462     5.364200
41
ex_0163 frame15 T-4-1-reembed6
Zn       0.000000     0.000000     0.000000
Br       1.397188     1.397188     1.397188
Br       1.397188    -1.397188    -1.397188
C       -4.107413     8.154290    -2.788042
N       -3.601740     6.790389    -2.580079
C       -3.996899     5.798198    -3.411273
C       -3.544352     4.503583    -3.231617
C       -2.679308     4.240394    -2.176089
C       -2.149287     2.780677    -1.946139
N       -1.309649     2.441780    -0.945668
N       -1.114286     1.114286    -1.114286
N       -1.821095     0.688963    -2.185075
N       -2.486163     1.733812    -2.728043
C       -2.283417     5.262352    -1.321349
C       -2.765668     6.539093    -1.546004
H       -3.358954     8.872029    -2.442281
H       -4.290911     8.311225    -3.854153
H       -5.033202     8.251705    -2.215636
H       -4.678322     6.052801    -4.217498
H       -3.859089     3.704588    -3.900417
H       -1.609019     5.058570    -0.491646
H       -2.490289     7.369452    -0.902710
C       -6.489656    -1.791745     6.768344
N       -5.488675    -1.790929     5.692604
C       -5.058160    -2.967435     5.180776
C       -4.109012    -2.995465     4.175074
C       -3.601426    -1.790442     3.703922
C       -2.522454    -1.790074     2.563575
N       -1.978921    -0.665767     2.052410
N       -1.114286    -1.114286     1.114286
N       -1.151823    -2.464977     1.078334
N       -2.041402    -2.914050     1.992566
C       -4.042049    -0.585857     4.239211
C       -4.992774    -0.614589     5.243403
H       -7.091057    -0.881448     6.700759
H       -7.140547    -2.662383     6.653358
H       -5.950501    -1.832005     7.718036
H       -5.480399    -3.882055     5.586167
H       -3.763142    -3.940544     3.760408
H       -3.643649     0.359273     3.874858
H       -5.364200     0.299211     5.697462
41
ex_0163 frame16 SP-4-1
Zn       0.000000     0.000000     0.000000
Br       2.420000     0.000000     0.000000
Br       0.000000     2.420000     0.000000
C       -8.687623    -3.880033     0.775760
N       -7.488444    -3.045301     0.619645
C       -7.624099    -1.726844     0.346249
C       -6.511931    -0.920688     0.184078
C       -5.250936    -1.493140     0.301967
C       -3.969710    -0.603887     0.122356
N       -2.711493    -1.081667     0.219325
N       -1.930000     0.000000     0.000000
N       -2.711114     1.081144    -0.219219
N       -4.011692     0.717943    -0.145575
C       -5.118438    -2.849428     0.575166
C       -6.263432    -3.610149     0.728124
H       -8.947915    -4.268240    -0.212049
H       -9.499821    -3.270685     1.180636
H       -8.469907    -4.696260     1.469493
H       -8.630128    -1.327788     0.257834
H       -6.618848     0.140430    -0.033508
H       -4.132233    -3.301303     0.664367
H       -6.212071    -4.674627     0.936468
C        3.714673    -8.687623     1.362961
N        2.913859    -7.488444     1.080390
C        1.653097    -7.624099     0.607576
C        0.881450    -6.511931     0.323415
C        1.428978    -5.250936     0.527897
C        0.577902    -3.969710     0.213728
N        1.035098    -2.711493     0.382987
N        0.000000    -1.930000     0.000000
N       -1.034597    -2.711114    -0.382802
N       -0.687033    -4.011692    -0.254204
C        2.727151    -5.118438     1.006331
C        3.455319    -6.263432     1.274406
H        4.250108    -8.947915     0.446565
H        3.050332    -9.499821     1.669358
H        4.414562    -8.469907     2.173915
H        1.272374    -8.630128     0.458871
H       -0.133611    -6.618848    -0.054696
H        3.159944    -4.132233     1.163932
H        4.475120    -6.212071     1.643900
41
ex_0163 frame17 SP-4-2
Zn       0.000000     0.000000     0.000000
Br       2.420000     0.000000     0.000000
C       -3.927856     8.687623     0.477922
N       -3.083657     7.488444     0.385850
C       -1.748203     7.624099     0.213690
C       -0.932036     6.511931     0.113405
C       -1.511805     5.250936     0.187341
C       -0.611454     3.969710     0.075995
N       -1.095232     2.711493     0.136285
N        0.000000     1.930000     0.000000
N        1.094702     2.711114    -0.136219
N        0.726947     4.011692    -0.090459
C       -2.884964     5.118438     0.356422
C       -3.655127     6.263432     0.450984
H       -4.239683     8.947915    -0.536592
H       -3.351122     9.499821     0.928041
H       -4.794560     8.469907     1.107457
H       -1.343571     8.630128     0.155933
H        0.142575     6.618848    -0.022713
H       -3.342321     4.132233     0.410940
H       -4.732384     6.212071     0.577629
Br      -2.420000     0.000000     0.000000
C        3.714673    -8.687623     1.362961
N        2.913859    -7.488444     1.080390
C        1.653097    -7.624099     0.607576
C        0.881450    -6.511931     0.323415
C        1.428978    -5.250936     0.527897
C        0.577902    -3.969710     0.213728
N        1.035098    -2.711493     0.382987
N        0.000000    -1.930000     0.000000
N       -1.034597    -2.711114    -0.382802
N       -0.687033    -4.011692    -0.254204
C        2.727151    -5.118438     1.006331
C        3.455319    -6.263432     1.274406
H        4.250108    -8.947915     0.446565
H        3.050332    -9.499821     1.669358
H        4.414562    -8.469907     2.173915
H        1.272374    -8.630128     0.458871
H       -0.133611    -6.618848    -0.054696
H        3.159944    -4.132233     1.163932
H        4.475120    -6.212071     1.643900
