43
ex_0310 frame0 trans
C        1.996629    -0.825986     2.643521
N        1.555574    -1.788687     1.618718
C        2.699139    -2.602109     1.146736
C        0.489582    -2.718364     2.104414
C       -0.147045    -3.562197     0.950136
N       -0.799577    -2.725475    -0.067017
Cd       0.278565    -0.666321     0.029625
Se       2.132452    -1.304756    -1.790755
C        3.780728    -0.607267    -1.173131
N        4.811844    -0.202741    -0.837813
Se      -1.420360     0.118841     1.931072
C       -0.517292     0.785381     3.460270
N        0.008224     1.196673     4.401095
N        1.208123     1.464794     0.114003
C        0.571505     2.168942    -1.019314
C       -0.929806     1.792723    -1.191799
N       -1.119355     0.356280    -1.524298
C       -0.728436     0.063187    -2.914372
C       -2.532594    -0.035701    -1.349481
H        1.628181     0.169094     2.350589
H        3.098897    -0.688813     2.673867
H        1.638826    -1.082042     3.662811
H        2.460562    -3.107507     0.194809
H        2.967596    -3.391247     1.882423
H        3.600855    -1.988911     0.971725
H       -0.321699    -2.166901     2.607353
H        0.893972    -3.403398     2.881500
H       -0.889461    -4.279242     1.364574
H        0.631319    -4.182429     0.468215
H       -1.794906    -2.564958     0.213569
H       -0.773407    -3.182436    -1.006829
H        0.899619     1.932279     0.996742
H        2.246724     1.524375     0.031025
H        0.654208     3.267520    -0.863633
H        1.109087     1.937718    -1.958851
H       -1.436436     2.040828    -0.232970
H       -1.405504     2.430540    -1.971445
H       -0.952167    -0.997109    -3.164840
H        0.348465     0.217813    -3.070486
H       -1.261231     0.726211    -3.629573
H       -3.191022     0.489760    -2.074970
H       -2.646261    -1.131273    -1.493373
H       -2.904151     0.199212    -0.335239
43
ex_0310 frame1 pucker r0:base+r1:1
C        2.005624    -0.860383     2.671372
N        1.555574    -1.788687     1.618718
C        2.740518    -2.478800     1.073933
C        0.609589    -2.825020     2.165802
C       -0.653524    -3.259146     1.301714
N       -0.799577    -2.725475    -0.067017
Cd       0.278565    -0.666321     0.029625
Se       2.132452    -1.304756    -1.790755
C        3.541405    -0.094515    -1.423324
N        4.409520     0.638976    -1.204979
Se      -1.420360     0.118841     1.931072
C       -0.552543     1.507842     2.882122
N       -0.026589     2.355270     3.469160
N        1.208123     1.464794     0.114003
C        0.722526     2.071521    -1.131143
C       -0.791257     1.800369    -1.366089
N       -1.119355     0.356280    -1.524298
C       -0.800216    -0.109146    -2.888400
C       -2.562112     0.137900    -1.294409
H        2.579078    -0.023679     2.219285
H        2.644423    -1.377644     3.422002
H        1.148185    -0.428368     3.215619
H        2.442528    -3.187404     0.272367
H        3.265035    -3.065979     1.861524
H        3.475211    -1.749223     0.679880
H        0.194578    -2.482183     3.140813
H        1.153551    -3.754361     2.453695
H       -1.563907    -2.980193     1.878294
H       -0.677649    -4.370785     1.253313
H       -1.810144    -2.695457    -0.327229
H       -0.291825    -3.349377    -0.734780
H        0.871634     2.051125     0.903431
H        2.249092     1.495352     0.138609
H        0.884454     3.171689    -1.090531
H        1.318708     1.697186    -1.986701
H       -1.330598     2.225829    -0.490377
H       -1.128673     2.377815    -2.256718
H       -0.860379    -1.217818    -2.929388
H        0.219020     0.187626    -3.197642
H       -1.500439     0.317509    -3.641366
H       -3.173276     0.675021    -2.054264
H       -2.808078    -0.941087    -1.351630
H       -2.885244     0.515142    -0.307738
