45
ex_0099 frame0 TBP-5-chelate-1
Zn       0.000000     0.000000     0.000000
N        0.053196     0.000000     1.929267
C       -0.968880     0.000028     2.790857
C       -0.752488     0.000012     4.349450
C        0.526863    -0.000029     4.681235
C        1.731623    -0.000056     3.846263
C        1.468849    -0.000021     2.502743
C        2.501730     0.000010     1.469601
C        3.844189     0.000044     1.731143
C        4.683337     0.000082     0.526657
C        4.347919     0.000075    -0.751543
C        2.790171     0.000017    -0.967579
N        1.929267     0.000000     0.053196
H       -1.910165     0.000047     2.362994
H       -1.602565     0.000031     4.960512
H        0.724564    -0.000045     5.765106
H        2.735433    -0.000093     4.176586
H        4.176684     0.000063     2.735221
H        5.763322     0.000142     0.725314
H        4.959131     0.000113    -1.602796
H        2.362060     0.000005    -1.910200
N       -0.964633     1.670794    -0.053196
C       -1.395453     2.416939     0.968880
C       -2.174735     3.766728     0.752488
C       -2.340592     4.054083    -0.526863
C       -1.923083     3.330990    -1.731623
C       -1.251353     2.167450    -1.468849
C       -0.734809     1.272707    -2.501730
C       -0.865610     1.499191    -3.844189
C       -0.263400     0.456057    -4.683337
C        0.375707    -0.650893    -4.347919
C        0.483774    -0.837957    -2.790171
N       -0.026598     0.046069    -1.929267
H       -1.181538     2.046389     1.910165
H       -2.480283     4.295914     1.602565
H       -2.882514     4.992751    -0.724564
H       -2.088212     3.617076    -2.735433
H       -1.367665     2.368740    -4.176684
H       -0.362780     0.628069    -5.763322
H        0.801300    -1.388118    -4.959131
H        0.955095    -1.654284    -2.362060
O       -2.803222    -2.703920     0.011342
N       -1.561091    -2.703890    -0.000000
O       -0.940052    -3.779621    -0.011342
O       -0.940000    -1.628128     0.000000
45
ex_0099 frame1 TBP-5-chelate-1-conf2
Zn       0.000000     0.000000     0.000000
N        0.053196     0.000000     1.929267
C       -0.968880     0.000028     2.790857
C       -0.752488     0.000012     4.349450
C        0.526863    -0.000029     4.681235
C        1.731623    -0.000056     3.846263
C        1.468849    -0.000021     2.502743
C        2.501730     0.000010     1.469601
C        3.844189     0.000044     1.731143
C        4.683337     0.000082     0.526657
C        4.347919     0.000075    -0.751543
C        2.790171     0.000017    -0.967579
N        1.929267     0.000000     0.053196
H       -1.910165     0.000047     2.362994
H       -1.602565     0.000031     4.960512
H        0.724564    -0.000045     5.765106
H        2.735433    -0.000093     4.176586
H        4.176684     0.000063     2.735221
H        5.763322     0.000142     0.725314
H        4.959131     0.000113    -1.602796
H        2.362060     0.000005    -1.910200
N       -0.038207     0.066176    -1.928487
C        0.480593    -0.832399    -2.787007
C        0.375653    -0.650664    -4.335241
C       -0.264499     0.458081    -4.685862
C       -0.863341     1.495300    -3.852721
C       -0.734810     1.272704    -2.512450
C       -1.241967     2.151134    -1.474105
C       -1.908313     3.305274    -1.693407
C       -2.329174     4.034231    -0.493487
C       -2.130657     3.690401     0.768109
C       -1.369605     2.372235     0.953918
N       -0.964243     1.670118    -0.076413
H        0.951480    -1.647958    -2.357925
H        0.798133    -1.382405    -4.951013
H       -0.354418     0.613777    -5.771293
H       -1.368104     2.369586    -4.179383
H       -2.079112     3.601097    -2.692773
H       -2.872460     4.975243    -0.671672
H       -2.442776     4.231014     1.630727
H       -1.144010     1.981500     1.902224
O       -2.803222    -2.703920     0.011342
N       -1.561091    -2.703890    -0.000000
O       -0.940052    -3.779621    -0.011342
O       -0.940000    -1.628128     0.000000
45
ex_0099 frame2 TBP-5-chelate-1-conf3
Zn       0.000000     0.000000     0.000000
N        1.928399    -0.000000     0.078585
C        2.788728     0.000040    -0.960137
C        4.335616    -0.000019    -0.746789
C        4.691118    -0.000097     0.529276
C        3.854238    -0.000134     1.729260
C        2.514541    -0.000072     1.470052
C        1.474176    -0.000065     2.480620
C        1.687193    -0.000112     3.811090
C        0.493274    -0.000091     4.648976
C       -0.768376    -0.000022     4.251263
C       -0.952150     0.000029     2.733196
N        0.078585    -0.000000     1.928399
H        2.360566     0.000105    -1.901684
H        4.953621     0.000021    -1.598785
H        5.767375    -0.000127     0.713360
H        4.180621    -0.000208     2.736168
H        2.697816    -0.000166     4.163234
H        0.671705    -0.000129     5.735762
H       -1.630536    -0.000003     4.878601
H       -1.901457     0.000078     2.279668
N       -0.964633     1.670794    -0.053196
C       -1.395453     2.416939     0.968880
C       -2.174735     3.766728     0.752488
C       -2.340592     4.054083    -0.526863
C       -1.923083     3.330990    -1.731623
C       -1.251353     2.167450    -1.468849
C       -0.734809     1.272707    -2.501730
C       -0.865610     1.499191    -3.844189
C       -0.263400     0.456057    -4.683337
C        0.375707    -0.650893    -4.347919
C        0.483774    -0.837957    -2.790171
N       -0.026598     0.046069    -1.929267
H       -1.181538     2.046389     1.910165
H       -2.480283     4.295914     1.602565
H       -2.882514     4.992751    -0.724564
H       -2.088212     3.617076    -2.735433
H       -1.367665     2.368740    -4.176684
H       -0.362780     0.628069    -5.763322
H        0.801300    -1.388118    -4.959131
H        0.955095    -1.654284    -2.362060
O       -2.803222    -2.703920     0.011342
N       -1.561091    -2.703890    -0.000000
O       -0.940052    -3.779621    -0.011342
O       -0.940000    -1.628128     0.000000
45
ex_0099 frame3 TBP-5-chelate-1-conf4
Zn       0.000000     0.000000     0.000000
N        1.928399    -0.000000     0.078585
C        2.788728     0.000040    -0.960137
C        4.335616    -0.000019    -0.746789
C        4.691118    -0.000097     0.529276
C        3.854238    -0.000134     1.729260
C        2.514541    -0.000072     1.470052
C        1.474176    -0.000065     2.480620
C        1.687193    -0.000112     3.811090
C        0.493274    -0.000091     4.648976
C       -0.768376    -0.000022     4.251263
C       -0.952150     0.000029     2.733196
N        0.078585    -0.000000     1.928399
H        2.360566     0.000105    -1.901684
H        4.953621     0.000021    -1.598785
H        5.767375    -0.000127     0.713360
H        4.180621    -0.000208     2.736168
H        2.697816    -0.000166     4.163234
H        0.671705    -0.000129     5.735762
H       -1.630536    -0.000003     4.878601
H       -1.901457     0.000078     2.279668
N       -0.038207     0.066176    -1.928487
C        0.480593    -0.832399    -2.787007
C        0.375653    -0.650664    -4.335241
C       -0.264499     0.458081    -4.685862
C       -0.863341     1.495300    -3.852721
C       -0.734810     1.272704    -2.512450
C       -1.241967     2.151134    -1.474105
C       -1.908313     3.305274    -1.693407
C       -2.329174     4.034231    -0.493487
C       -2.130657     3.690401     0.768109
C       -1.369605     2.372235     0.953918
N       -0.964243     1.670118    -0.076413
H        0.951480    -1.647958    -2.357925
H        0.798133    -1.382405    -4.951013
H       -0.354418     0.613777    -5.771293
H       -1.368104     2.369586    -4.179383
H       -2.079112     3.601097    -2.692773
H       -2.872460     4.975243    -0.671672
H       -2.442776     4.231014     1.630727
H       -1.144010     1.981500     1.902224
O       -2.803222    -2.703920     0.011342
N       -1.561091    -2.703890    -0.000000
O       -0.940052    -3.779621    -0.011342
O       -0.940000    -1.628128     0.000000
45
ex_0099 frame4 TBP-5-chelate-2
Zn       0.000000     0.000000     0.000000
N        0.053196     0.000000     1.929267
C       -0.968880     0.000028     2.790857
C       -0.752488     0.000012     4.349450
C        0.526863    -0.000029     4.681235
C        1.731623    -0.000056     3.846263
C        1.468849    -0.000021     2.502743
C        2.501730     0.000010     1.469601
C        3.844189     0.000044     1.731143
C        4.683337     0.000082     0.526657
C        4.347919     0.000075    -0.751543
C        2.790171     0.000017    -0.967579
N        1.929267     0.000000     0.053196
H       -1.910165     0.000047     2.362994
H       -1.602565     0.000031     4.960512
H        0.724564    -0.000045     5.765106
H        2.735433    -0.000093     4.176586
H        4.176684     0.000063     2.735221
H        5.763322     0.000142     0.725314
H        4.959131     0.000113    -1.602796
H        2.362060     0.000005    -1.910200
N       -0.964633    -1.670794    -0.053196
C       -1.395404    -2.416967     0.968880
C       -2.174714    -3.766740     0.752488
C       -2.340643    -4.054054    -0.526863
C       -1.923180    -3.330934    -1.731623
C       -1.251390    -2.167428    -1.468849
C       -0.734792    -1.272717    -2.501730
C       -0.865533    -1.499236    -3.844189
C       -0.263257    -0.456140    -4.683337
C        0.375836     0.650818    -4.347919
C        0.483804     0.837939    -2.790171
N       -0.026598    -0.046069    -1.929267
H       -1.181456    -2.046436     1.910165
H       -2.480229    -4.295945     1.602565
H       -2.882592    -4.992705    -0.724564
H       -2.088374    -3.616983    -2.735433
H       -1.367556    -2.368802    -4.176684
H       -0.362534    -0.628211    -5.763322
H        0.801496     1.388005    -4.959131
H        0.955105     1.654279    -2.362060
O       -0.940001     3.779651    -0.001637
N       -1.561091     2.703890    -0.000000
O       -2.803273     2.703890     0.001637
O       -0.940000     1.628128     0.000000
45
ex_0099 frame5 TBP-5-chelate-2-conf2
Zn       0.000000     0.000000     0.000000
N        0.053196     0.000000     1.929267
C       -0.968880     0.000028     2.790857
C       -0.752488     0.000012     4.349450
C        0.526863    -0.000029     4.681235
C        1.731623    -0.000056     3.846263
C        1.468849    -0.000021     2.502743
C        2.501730     0.000010     1.469601
C        3.844189     0.000044     1.731143
C        4.683337     0.000082     0.526657
C        4.347919     0.000075    -0.751543
C        2.790171     0.000017    -0.967579
N        1.929267     0.000000     0.053196
H       -1.910165     0.000047     2.362994
H       -1.602565     0.000031     4.960512
H        0.724564    -0.000045     5.765106
H        2.735433    -0.000093     4.176586
H        4.176684     0.000063     2.735221
H        5.763322     0.000142     0.725314
H        4.959131     0.000113    -1.602796
H        2.362060     0.000005    -1.910200
N       -0.964633    -1.670794    -0.053196
C       -1.395404    -2.416967     0.968880
C       -2.174714    -3.766740     0.752488
C       -2.340643    -4.054054    -0.526863
C       -1.923180    -3.330934    -1.731623
C       -1.251390    -2.167428    -1.468849
C       -0.734792    -1.272717    -2.501730
C       -0.865533    -1.499236    -3.844189
C       -0.263257    -0.456140    -4.683337
C        0.375836     0.650818    -4.347919
C        0.483804     0.837939    -2.790171
N       -0.026598    -0.046069    -1.929267
H       -1.181456    -2.046436     1.910165
H       -2.480229    -4.295945     1.602565
H       -2.882592    -4.992705    -0.724564
H       -2.088374    -3.616983    -2.735433
H       -1.367556    -2.368802    -4.176684
H       -0.362534    -0.628211    -5.763322
H        0.801496     1.388005    -4.959131
H        0.955105     1.654279    -2.362060
O       -2.747522     2.736078     0.366556
N       -1.561091     2.703890    -0.000000
O       -0.995752     3.747463    -0.366556
O       -0.940000     1.628128     0.000000
45
ex_0099 frame6 TBP-5-chelate-2-conf3
Zn       0.000000     0.000000     0.000000
N        0.053196     0.000000     1.929267
C       -0.968880     0.000028     2.790857
C       -0.752488     0.000012     4.349450
C        0.526863    -0.000029     4.681235
C        1.731623    -0.000056     3.846263
C        1.468849    -0.000021     2.502743
C        2.501730     0.000010     1.469601
C        3.844189     0.000044     1.731143
C        4.683337     0.000082     0.526657
C        4.347919     0.000075    -0.751543
C        2.790171     0.000017    -0.967579
N        1.929267     0.000000     0.053196
H       -1.910165     0.000047     2.362994
H       -1.602565     0.000031     4.960512
H        0.724564    -0.000045     5.765106
H        2.735433    -0.000093     4.176586
H        4.176684     0.000063     2.735221
H        5.763322     0.000142     0.725314
H        4.959131     0.000113    -1.602796
H        2.362060     0.000005    -1.910200
N       -0.039293    -0.068057    -1.928399
C        0.480103     0.831483    -2.788728
C        0.373378     0.646748    -4.335616
C       -0.264722    -0.458318    -4.691118
C       -0.864746    -1.497516    -3.854238
C       -0.735088    -1.273067    -2.514541
C       -1.240367    -2.148248    -1.474176
C       -1.905643    -3.300445    -1.687193
C       -2.324567    -4.026086    -0.493274
C       -2.125651    -3.681690     0.768376
C       -1.366573    -2.367032     0.952150
N       -0.964200    -1.670043    -0.078585
H        0.950933     1.646854    -2.360566
H        0.799411     1.384578    -4.953621
H       -0.356790    -0.617724    -5.767375
H       -1.368264    -2.369487    -4.180621
H       -2.081761    -3.605383    -2.697816
H       -2.867993    -4.967251    -0.671705
H       -2.439303    -4.224991     1.630536
H       -1.139766    -1.974289     1.901457
O       -0.940001     3.779651    -0.001637
N       -1.561091     2.703890    -0.000000
O       -2.803273     2.703890     0.001637
O       -0.940000     1.628128     0.000000
45
ex_0099 frame7 TBP-5-chelate-2-conf4
Zn       0.000000     0.000000     0.000000
N        1.928399    -0.000000     0.078585
C        2.788728     0.000040    -0.960137
C        4.335616    -0.000019    -0.746789
C        4.691118    -0.000097     0.529276
C        3.854238    -0.000134     1.729260
C        2.514541    -0.000072     1.470052
C        1.474176    -0.000065     2.480620
C        1.687193    -0.000112     3.811090
C        0.493274    -0.000091     4.648976
C       -0.768376    -0.000022     4.251263
C       -0.952150     0.000029     2.733196
N        0.078585    -0.000000     1.928399
H        2.360566     0.000105    -1.901684
H        4.953621     0.000021    -1.598785
H        5.767375    -0.000127     0.713360
H        4.180621    -0.000208     2.736168
H        2.697816    -0.000166     4.163234
H        0.671705    -0.000129     5.735762
H       -1.630536    -0.000003     4.878601
H       -1.901457     0.000078     2.279668
N       -0.964633    -1.670794    -0.053196
C       -1.395404    -2.416967     0.968880
C       -2.174714    -3.766740     0.752488
C       -2.340643    -4.054054    -0.526863
C       -1.923180    -3.330934    -1.731623
C       -1.251390    -2.167428    -1.468849
C       -0.734792    -1.272717    -2.501730
C       -0.865533    -1.499236    -3.844189
C       -0.263257    -0.456140    -4.683337
C        0.375836     0.650818    -4.347919
C        0.483804     0.837939    -2.790171
N       -0.026598    -0.046069    -1.929267
H       -1.181456    -2.046436     1.910165
H       -2.480229    -4.295945     1.602565
H       -2.882592    -4.992705    -0.724564
H       -2.088374    -3.616983    -2.735433
H       -1.367556    -2.368802    -4.176684
H       -0.362534    -0.628211    -5.763322
H        0.801496     1.388005    -4.959131
H        0.955105     1.654279    -2.362060
O       -0.940001     3.779651    -0.001637
N       -1.561091     2.703890    -0.000000
O       -2.803273     2.703890     0.001637
O       -0.940000     1.628128     0.000000
45
ex_0099 frame8 TBP-5-chelate-2-conf5
Zn       0.000000     0.000000     0.000000
N        0.053196     0.000000     1.929267
C       -0.968880     0.000028     2.790857
C       -0.752488     0.000012     4.349450
C        0.526863    -0.000029     4.681235
C        1.731623    -0.000056     3.846263
C        1.468849    -0.000021     2.502743
C        2.501730     0.000010     1.469601
C        3.844189     0.000044     1.731143
C        4.683337     0.000082     0.526657
C        4.347919     0.000075    -0.751543
C        2.790171     0.000017    -0.967579
N        1.929267     0.000000     0.053196
H       -1.910165     0.000047     2.362994
H       -1.602565     0.000031     4.960512
H        0.724564    -0.000045     5.765106
H        2.735433    -0.000093     4.176586
H        4.176684     0.000063     2.735221
H        5.763322     0.000142     0.725314
H        4.959131     0.000113    -1.602796
H        2.362060     0.000005    -1.910200
N       -0.039293    -0.068057    -1.928399
C        0.480103     0.831483    -2.788728
C        0.373378     0.646748    -4.335616
C       -0.264722    -0.458318    -4.691118
C       -0.864746    -1.497516    -3.854238
C       -0.735088    -1.273067    -2.514541
C       -1.240367    -2.148248    -1.474176
C       -1.905643    -3.300445    -1.687193
C       -2.324567    -4.026086    -0.493274
C       -2.125651    -3.681690     0.768376
C       -1.366573    -2.367032     0.952150
N       -0.964200    -1.670043    -0.078585
H        0.950933     1.646854    -2.360566
H        0.799411     1.384578    -4.953621
H       -0.356790    -0.617724    -5.767375
H       -1.368264    -2.369487    -4.180621
H       -2.081761    -3.605383    -2.697816
H       -2.867993    -4.967251    -0.671705
H       -2.439303    -4.224991     1.630536
H       -1.139766    -1.974289     1.901457
O       -2.747522     2.736078     0.366556
N       -1.561091     2.703890    -0.000000
O       -0.995752     3.747463    -0.366556
O       -0.940000     1.628128     0.000000
45
ex_0099 frame9 TBP-5-chelate-2-conf6
Zn       0.000000     0.000000     0.000000
N        1.928399    -0.000000     0.078585
C        2.788728     0.000040    -0.960137
C        4.335616    -0.000019    -0.746789
C        4.691118    -0.000097     0.529276
C        3.854238    -0.000134     1.729260
C        2.514541    -0.000072     1.470052
C        1.474176    -0.000065     2.480620
C        1.687193    -0.000112     3.811090
C        0.493274    -0.000091     4.648976
C       -0.768376    -0.000022     4.251263
C       -0.952150     0.000029     2.733196
N        0.078585    -0.000000     1.928399
H        2.360566     0.000105    -1.901684
H        4.953621     0.000021    -1.598785
H        5.767375    -0.000127     0.713360
H        4.180621    -0.000208     2.736168
H        2.697816    -0.000166     4.163234
H        0.671705    -0.000129     5.735762
H       -1.630536    -0.000003     4.878601
H       -1.901457     0.000078     2.279668
N       -0.964633    -1.670794    -0.053196
C       -1.395404    -2.416967     0.968880
C       -2.174714    -3.766740     0.752488
C       -2.340643    -4.054054    -0.526863
C       -1.923180    -3.330934    -1.731623
C       -1.251390    -2.167428    -1.468849
C       -0.734792    -1.272717    -2.501730
C       -0.865533    -1.499236    -3.844189
C       -0.263257    -0.456140    -4.683337
C        0.375836     0.650818    -4.347919
C        0.483804     0.837939    -2.790171
N       -0.026598    -0.046069    -1.929267
H       -1.181456    -2.046436     1.910165
H       -2.480229    -4.295945     1.602565
H       -2.882592    -4.992705    -0.724564
H       -2.088374    -3.616983    -2.735433
H       -1.367556    -2.368802    -4.176684
H       -0.362534    -0.628211    -5.763322
H        0.801496     1.388005    -4.959131
H        0.955105     1.654279    -2.362060
O       -2.747522     2.736078     0.366556
N       -1.561091     2.703890    -0.000000
O       -0.995752     3.747463    -0.366556
O       -0.940000     1.628128     0.000000
45
ex_0099 frame10 TBP-5-chelate-2-conf7
Zn       0.000000     0.000000     0.000000
N        1.928399    -0.000000     0.078585
C        2.788728     0.000040    -0.960137
C        4.335616    -0.000019    -0.746789
C        4.691118    -0.000097     0.529276
C        3.854238    -0.000134     1.729260
C        2.514541    -0.000072     1.470052
C        1.474176    -0.000065     2.480620
C        1.687193    -0.000112     3.811090
C        0.493274    -0.000091     4.648976
C       -0.768376    -0.000022     4.251263
C       -0.952150     0.000029     2.733196
N        0.078585    -0.000000     1.928399
H        2.360566     0.000105    -1.901684
H        4.953621     0.000021    -1.598785
H        5.767375    -0.000127     0.713360
H        4.180621    -0.000208     2.736168
H        2.697816    -0.000166     4.163234
H        0.671705    -0.000129     5.735762
H       -1.630536    -0.000003     4.878601
H       -1.901457     0.000078     2.279668
N       -0.039293    -0.068057    -1.928399
C        0.480103     0.831483    -2.788728
C        0.373378     0.646748    -4.335616
C       -0.264722    -0.458318    -4.691118
C       -0.864746    -1.497516    -3.854238
C       -0.735088    -1.273067    -2.514541
C       -1.240367    -2.148248    -1.474176
C       -1.905643    -3.300445    -1.687193
C       -2.324567    -4.026086    -0.493274
C       -2.125651    -3.681690     0.768376
C       -1.366573    -2.367032     0.952150
N       -0.964200    -1.670043    -0.078585
H        0.950933     1.646854    -2.360566
H        0.799411     1.384578    -4.953621
H       -0.356790    -0.617724    -5.767375
H       -1.368264    -2.369487    -4.180621
H       -2.081761    -3.605383    -2.697816
H       -2.867993    -4.967251    -0.671705
H       -2.439303    -4.224991     1.630536
H       -1.139766    -1.974289     1.901457
O       -0.940001     3.779651    -0.001637
N       -1.561091     2.703890    -0.000000
O       -2.803273     2.703890     0.001637
O       -0.940000     1.628128     0.000000
45
ex_0099 frame11 TBP-5-chelate-2-conf8
Zn       0.000000     0.000000     0.000000
N        1.928399    -0.000000     0.078585
C        2.788728     0.000040    -0.960137
C        4.335616    -0.000019    -0.746789
C        4.691118    -0.000097     0.529276
C        3.854238    -0.000134     1.729260
C        2.514541    -0.000072     1.470052
C        1.474176    -0.000065     2.480620
C        1.687193    -0.000112     3.811090
C        0.493274    -0.000091     4.648976
C       -0.768376    -0.000022     4.251263
C       -0.952150     0.000029     2.733196
N        0.078585    -0.000000     1.928399
H        2.360566     0.000105    -1.901684
H        4.953621     0.000021    -1.598785
H        5.767375    -0.000127     0.713360
H        4.180621    -0.000208     2.736168
H        2.697816    -0.000166     4.163234
H        0.671705    -0.000129     5.735762
H       -1.630536    -0.000003     4.878601
H       -1.901457     0.000078     2.279668
N       -0.039293    -0.068057    -1.928399
C        0.480103     0.831483    -2.788728
C        0.373378     0.646748    -4.335616
C       -0.264722    -0.458318    -4.691118
C       -0.864746    -1.497516    -3.854238
C       -0.735088    -1.273067    -2.514541
C       -1.240367    -2.148248    -1.474176
C       -1.905643    -3.300445    -1.687193
C       -2.324567    -4.026086    -0.493274
C       -2.125651    -3.681690     0.768376
C       -1.366573    -2.367032     0.952150
N       -0.964200    -1.670043    -0.078585
H        0.950933     1.646854    -2.360566
H        0.799411     1.384578    -4.953621
H       -0.356790    -0.617724    -5.767375
H       -1.368264    -2.369487    -4.180621
H       -2.081761    -3.605383    -2.697816
H       -2.867993    -4.967251    -0.671705
H       -2.439303    -4.224991     1.630536
H       -1.139766    -1.974289     1.901457
O       -2.747522     2.736078     0.366556
N       -1.561091     2.703890    -0.000000
O       -0.995752     3.747463    -0.366556
O       -0.940000     1.628128     0.000000
