44
ex_0169 frame0 see-saw N0-N1-ax-conf4
C        3.084535     1.004590     4.448676
C        1.870707     1.587681     4.790280
C        0.815721     1.587218     3.882271
C        0.958522     1.019269     2.600793
C        2.235453     0.469584     2.215180
C        3.263101     0.444044     3.183684
C        2.601196    -0.103454     0.829700
N        1.667465    -1.070095     0.254899
C        1.942723    -1.369743    -1.151423
C        2.178318    -0.143890    -2.089003
C        1.270159     1.123682    -1.990113
N       -0.164479     0.907953    -1.772177
C       -0.752016    -0.173155    -2.564127
C       -2.191881    -0.585303    -2.165569
C       -3.142710    -0.595202    -3.205839
C       -4.458427    -1.004317    -2.984212
C       -4.867465    -1.399313    -1.715442
C       -3.971691    -1.369170    -0.651920
C       -2.640920    -0.955304    -0.842323
N       -1.758199    -0.907191     0.268849
C       -2.077904    -0.643096     1.669460
C       -1.551400     0.778805     2.126004
N       -0.161654     1.004973     1.718891
Cu       0.000000     0.000000     0.000000
H        3.898524     1.001996     5.162953
H        1.743838     2.040798     5.765598
H       -0.112744     2.050596     4.184840
H        4.232820     0.020413     2.952348
H        3.626196    -0.539040     0.824595
H        1.051327    -1.913786    -1.526638
H        2.799618    -2.071887    -1.236202
H        3.220462     0.217562    -1.943969
H        2.122816    -0.539017    -3.125264
H        1.616333     1.705086    -1.108348
H        1.438244     1.772068    -2.876018
H       -0.678605     0.085331    -3.643464
H       -2.860956    -0.312294    -4.212203
H       -5.162640    -1.027267    -3.805326
H       -5.885106    -1.730471    -1.552413
H       -4.325810    -1.686076     0.318547
H       -3.160519    -0.715108     1.886403
H       -1.555893    -1.414831     2.275060
H       -2.172272     1.563102     1.645957
H       -1.687716     0.854436     3.223042
44
ex_0169 frame1 see-saw N0-N1-ax-conf5
C        3.137261    -1.095318     4.382382
C        1.917106    -1.652154     4.745762
C        0.845461    -1.627881     3.857438
C        0.977163    -1.059572     2.574915
C        2.255977    -0.527008     2.170530
C        3.303320    -0.531626     3.117126
C        2.600746     0.057191     0.784200
N        1.673443     1.059541     0.260274
C        1.915271     1.405616    -1.141797
C        2.148986     0.214490    -2.123097
C        1.286512    -1.083319    -2.015290
N       -0.149534    -0.911532    -1.771785
C       -0.773634     0.146511    -2.565180
C       -2.219370     0.518924    -2.158544
C       -3.178343     0.487656    -3.190823
C       -4.503012     0.861206    -2.963240
C       -4.911671     1.262650    -1.696549
C       -4.006340     1.271816    -0.640351
C       -2.666254     0.889996    -0.835502
N       -1.774130     0.875339     0.270783
C       -2.087834     0.598601     1.671169
C       -1.543349    -0.818600     2.120729
N       -0.153377    -1.025691     1.707049
Cu       0.000000     0.000000     0.000000
H        3.964903    -1.113849     5.080411
H        1.798951    -2.104827     5.722326
H       -0.086098    -2.073487     4.176403
H        4.276744    -0.126865     2.868099
H        3.636987     0.463293     0.754360
H        1.004842     1.943849    -1.479118
H        2.756496     2.126756    -1.224321
H        3.206493    -0.116193    -2.029990
H        2.037650     0.633968    -3.145893
H        1.668404    -1.661754    -1.147012
H        1.456440    -1.717102    -2.911116
H       -0.702065    -0.118767    -3.643167
H       -2.897133     0.198774    -4.195771
H       -5.214442     0.851689    -3.778420
H       -5.936863     1.567079    -1.529314
H       -4.362079     1.591470     0.328428
H       -3.170975     0.654210     1.890267
H       -1.576933     1.374376     2.280642
H       -1.675762    -0.901937     3.217403
H       -2.155950    -1.607588     1.637291
44
ex_0169 frame2 square-planar cis-conf3
C        4.398554     3.162867     0.825749
C        4.817222     1.941785     1.341613
C        3.945741     0.855254     1.365701
C        2.625675     0.975917     0.893203
C        2.168270     2.256066     0.403967
C        3.096713     3.315828     0.352729
C        0.743623     2.596254    -0.078731
N        0.156091     1.686712    -1.060203
C       -1.272800     1.929262    -1.282578
C       -2.147252     2.168460    -0.010877
C       -1.929138     1.296718     1.265509
N       -1.691662    -0.134216     1.054002
C       -2.584031    -0.742683     0.069453
C       -2.236365    -2.192782    -0.326472
C       -3.284142    -3.128478    -0.212433
C       -3.113210    -4.457906    -0.594418
C       -1.887930    -4.893655    -1.086456
C       -0.815171    -4.009798    -1.180378
C       -0.953025    -2.663377    -0.795101
N        0.168689    -1.788363    -0.872235
C        1.582692    -2.117191    -0.694052
C        2.155836    -1.558392     0.678396
N        1.770231    -0.163567     0.909671
Cu       0.000000     0.000000     0.000000
H        5.081450     4.002600     0.805751
H        5.823653     1.835868     1.725308
H        4.304677    -0.077469     1.777293
H        2.804630     4.289633    -0.021881
H        0.668010     3.641234    -0.455250
H       -1.659326     1.020619    -1.789836
H       -1.417772     2.771037    -1.993058
H       -2.022688     3.224030     0.316205
H       -3.203529     2.063924    -0.340215
H       -2.774181     1.452094     1.969693
H       -1.021464     1.677031     1.779792
H       -3.635795    -0.648228     0.420913
H       -4.259117    -2.824878     0.149518
H       -3.941302    -5.151041    -0.519633
H       -1.767404    -5.923726    -1.395973
H        0.119651    -4.385958    -1.569353
H        2.135792    -1.622645    -1.520545
H        1.780506    -3.204252    -0.757605
H        1.733506    -2.160613     1.509921
H        3.255154    -1.695637     0.676164
44
ex_0169 frame3 Λ-conf3
C        0.876621    -0.925827     5.329856
C        2.037565    -1.427286     4.752632
C        2.189645    -1.424181     3.367910
C        1.169492    -0.938348     2.529080
C       -0.060496    -0.463885     3.120150
C       -0.153445    -0.440102     4.526746
C       -1.309794     0.030060     2.362742
N       -1.084835     1.032310     1.323187
C       -2.267339     1.267644     0.488734
C       -3.051567     0.002749     0.015301
C       -2.277697    -1.262579    -0.471268
N       -1.098627    -1.031909    -1.311059
C       -1.302117    -0.027691    -2.353217
C       -0.032089     0.386438    -3.125162
C       -0.111272     0.299242    -4.529626
C        0.948569     0.699566    -5.341417
C        2.121959     1.183645    -4.773885
C        2.255474     1.251300    -3.388813
C        1.206987     0.847089    -2.541673
N        1.381447     0.897640    -1.128623
C        2.614369     0.708610    -0.364852
C        2.628623    -0.678624     0.409493
N        1.370163    -0.927044     1.118309
Cu       0.000000     0.000000     0.000000
H        0.765684    -0.927001     6.406697
H        2.825229    -1.820975     5.381872
H        3.104149    -1.825259     2.954333
H       -1.049620    -0.077449     5.015916
H       -2.103181     0.391128     3.055290
H       -1.899482     1.793268    -0.417223
H       -2.966861     1.966795     0.994926
H       -3.708982    -0.341928     0.843381
H       -3.725436     0.346015    -0.799060
H       -2.983336    -1.959118    -0.972287
H       -1.903352    -1.793236     0.429434
H       -2.111799    -0.368206    -3.036679
H       -1.014525    -0.055748    -5.011154
H        0.853177     0.645277    -6.418320
H        2.934716     1.507456    -5.411031
H        3.181590     1.634891    -2.986514
H        2.653567     1.521189     0.391291
H        3.522662     0.786451    -0.992418
H        2.758391    -1.495952    -0.330504
H        3.502940    -0.686559     1.089822
44
ex_0169 frame4 conf3
C        5.329856     0.876623    -0.925827
C        4.752632     2.037571    -1.427279
C        3.367910     2.189650    -1.424174
C        2.529080     1.169495    -0.938346
C        3.120149    -0.060495    -0.463890
C        4.526745    -0.153446    -0.440108
C        2.362740    -1.309794     0.030051
N        1.323189    -1.084836     1.032306
C        0.488736    -2.267338     1.267643
C        0.015300    -3.051568     0.002750
C       -0.471271    -2.277697    -1.262577
N       -1.311061    -1.098627    -1.031906
C       -2.353216    -1.302117    -0.027684
C       -3.125162    -0.032089     0.386442
C       -4.529626    -0.111273     0.299247
C       -5.341417     0.948569     0.699566
C       -4.773885     2.121962     1.183640
C       -3.388813     2.255477     1.251295
C       -2.541673     1.206988     0.847088
N       -1.128623     1.381448     0.897639
C       -0.364853     2.614371     0.708612
C        0.409495     2.628626    -0.678620
N        1.118308     1.370165    -0.927041
Cu       0.000000     0.000000     0.000000
H        6.406697     0.765686    -0.927001
H        5.381872     2.825237    -1.820963
H        2.954334     3.104156    -1.825246
H        5.015915    -1.049622    -0.077459
H        3.055287    -2.103185     0.391112
H       -0.417219    -1.899480     1.793269
H        0.994929    -2.966860     1.966795
H        0.843378    -3.708983    -0.341928
H       -0.799062    -3.725434     0.346019
H       -0.972291    -2.983335    -1.959116
H        0.429430    -1.903352    -1.793236
H       -3.036677    -2.111802    -0.368194
H       -5.011153    -1.014527    -0.055740
H       -6.418320     0.853177     0.645276
H       -5.411031     2.934721     1.507447
H       -2.986515     3.181595     1.634882
H        0.391287     2.653570     1.521193
H       -0.992420     3.522663     0.786450
H       -0.330500     2.758398    -1.495950
H        1.089825     3.502942    -0.686550
44
ex_0169 frame5 see-saw N0-N1-ax
C        3.126268     1.149463     4.379924
C        1.900463     1.696177     4.739447
C        0.828766     1.654396     3.851431
C        0.966360     1.079174     2.572522
C        2.250790     0.558487     2.172281
C        3.297824     0.579079     3.118803
C        2.603749    -0.029133     0.790960
N        1.687185    -1.038484     0.261679
C        1.941649    -1.368693    -1.141728
C        2.171109    -0.163860    -2.107040
C        1.281180     1.115139    -2.002175
N       -0.153015     0.915625    -1.769301
C       -0.761793    -0.152469    -2.561249
C       -2.211140    -0.518560    -2.160236
C       -3.167927    -0.481912    -3.194118
C       -4.496320    -0.843519    -2.967725
C       -4.910104    -1.241087    -1.701390
C       -4.005795    -1.260167    -0.644711
C       -2.662550    -0.889002    -0.838327
N       -1.769741    -0.883699     0.267781
C       -2.080191    -0.618185     1.670757
C       -1.550357     0.802778     2.124283
N       -0.164248     1.027034     1.704286
Cu       0.000000     0.000000     0.000000
H        3.954192     1.181360     5.077160
H        1.778238     2.154612     5.712751
H       -0.107443     2.092631     4.167163
H        4.275511     0.183153     2.872100
H        3.643552    -0.426460     0.764665
H        2.792752    -2.078141    -1.223840
H        1.040905    -1.913980    -1.492689
H        3.220199     0.187021    -1.989794
H        2.088026    -0.574214    -3.135646
H        1.446963     1.758019    -2.892187
H        1.643188     1.696757    -1.127289
H       -0.683495     0.106018    -3.640233
H       -2.882983    -0.194107    -4.198241
H       -5.207267    -0.826467    -3.783122
H       -5.938580    -1.534597    -1.534598
H       -4.366165    -1.576348     0.323372
H       -1.553320    -1.389110     2.272903
H       -3.160281    -0.693059     1.897887
H       -2.175057     1.588391     1.651070
H       -1.676413     0.875167     3.222699
44
ex_0169 frame6 conf5
C        5.353122     0.865926     0.757334
C        4.796114     2.035569     1.261627
C        3.412674     2.191302     1.303853
C        2.555195     1.168225     0.857523
C        3.126625    -0.068025     0.375521
C        4.531401    -0.167719     0.311280
C        2.345874    -1.315433    -0.085486
N        1.294710    -1.078797    -1.073194
C        0.444559    -2.248787    -1.312969
C       -0.014720    -3.050686    -0.054442
C       -0.458603    -2.293871     1.236743
N       -1.294414    -1.105397     1.045789
C       -2.362160    -1.296839     0.065173
C       -3.140506    -0.024945    -0.325022
C       -4.543325    -0.103639    -0.212918
C       -5.361099     0.959592    -0.591283
C       -4.800766     2.135853    -1.076475
C       -3.416788     2.268101    -1.167843
C       -2.563362     1.215267    -0.786686
N       -1.150630     1.386737    -0.861189
C       -0.385087     2.621246    -0.693763
C        0.434642     2.632949     0.665645
N        1.144547     1.370808     0.891791
Cu       0.000000     0.000000     0.000000
H        6.429147     0.752326     0.724071
H        5.439999     2.827269     1.622325
H        3.016554     3.112795     1.706465
H        5.005260    -1.069808    -0.056825
H        3.021742    -2.120469    -0.451509
H       -0.466722    -1.859846    -1.814099
H        0.928081    -2.939879    -2.035921
H        0.807983    -3.730110     0.257193
H       -0.849724    -3.701517    -0.393715
H        0.458618    -1.936806     1.750157
H       -0.949224    -3.006523     1.933444
H       -3.039367    -2.108664     0.413018
H       -5.019359    -1.009336     0.143240
H       -6.437053     0.864652    -0.519229
H       -5.442687     2.951636    -1.383034
H       -3.021582     3.196820    -1.552188
H       -1.017746     3.528212    -0.741127
H        0.340005     2.668084    -1.533537
H        1.117729     3.505057     0.646310
H       -0.275098     2.768378     1.508612
44
ex_0169 frame7 square-planar cis
C        4.392760     3.167546     0.851068
C        4.813897     1.943275     1.357000
C        3.945246     0.854243     1.370149
C        2.625275     0.975215     0.896619
C        2.166035     2.257560     0.416064
C        3.091521     3.320648     0.376131
C        0.742116     2.596301    -0.068349
N        0.159182     1.689302    -1.055290
C       -1.269299     1.930046    -1.280512
C       -2.145997     2.167089    -0.009989
C       -1.930365     1.292617     1.265007
N       -1.693444    -0.137866     1.050858
C       -2.583168    -0.744073     0.061867
C       -2.235515    -2.194353    -0.333480
C       -3.283624    -3.130151    -0.223272
C       -3.110807    -4.459942    -0.603585
C       -1.883357    -4.895865    -1.090002
C       -0.810845    -4.011507    -1.181321
C       -0.950942    -2.664513    -0.798208
N        0.169422    -1.787910    -0.873423
C        1.584957    -2.114208    -0.707625
C        2.167888    -1.557342     0.660775
N        1.771984    -0.166802     0.903810
Cu       0.000000     0.000000     0.000000
H        5.073340     4.009427     0.840229
H        5.819845     1.836805     1.741995
H        4.306079    -0.080716     1.775027
H        2.797366     4.296805     0.009435
H        0.663745     3.643270    -0.438513
H       -1.413724     2.772133    -1.990617
H       -1.653297     1.021247    -1.789397
H       -2.021247     3.221919     0.319384
H       -3.201588     2.063486    -0.341428
H       -2.776148     1.447043     1.968434
H       -1.023064     1.670915     1.781494
H       -3.636249    -0.648703     0.408914
H       -4.259987    -2.826441     0.134677
H       -3.938858    -5.153416    -0.531539
H       -1.760957    -5.926392    -1.397454
H        0.125283    -4.388398    -1.566204
H        2.129107    -1.616551    -1.538173
H        1.786108    -3.200438    -0.775310
H        1.764397    -2.167710     1.495982
H        3.268619    -1.683803     0.640214
44
ex_0169 frame8 square-planar cis-conf5
C        4.393890     3.170172    -0.791684
C        4.825713     1.946549    -1.290391
C        3.957316     0.858170    -1.324832
C        2.628817     0.977731    -0.875000
C        2.160513     2.258068    -0.397851
C        3.083158     3.322499    -0.342742
C        0.728112     2.589023     0.066902
N        0.159674     1.683762     1.064114
C       -1.266932     1.910490     1.313038
C       -2.167463     2.147523     0.059896
C       -1.955095     1.292676    -1.228885
N       -1.704331    -0.137756    -1.033189
C       -2.586833    -0.753045    -0.042741
C       -2.235892    -2.202188     0.346879
C       -3.284672    -3.138294     0.244789
C       -3.108090    -4.468046     0.622904
C       -1.876190    -4.903272     1.098146
C       -0.803325    -4.018083     1.180160
C       -0.947382    -2.670373     0.798878
N        0.173038    -1.791259     0.863501
C        1.586024    -2.125158     0.689291
C        2.166331    -1.556566    -0.673950
N        1.774421    -0.162857    -0.901135
Cu       0.000000     0.000000     0.000000
H        5.074558     4.011429    -0.764672
H        5.839992     1.839751    -1.652825
H        4.328081    -0.075486    -1.723323
H        2.781277     4.297205     0.021199
H        0.636905     3.638479     0.426223
H       -1.632329     0.993006     1.820490
H       -1.408578     2.743998     2.033615
H       -2.067974     3.208262    -0.257155
H       -3.215704     2.019016     0.407082
H       -1.057647     1.686223    -1.750391
H       -2.810633     1.446456    -1.920448
H       -3.642824    -0.657262    -0.380843
H       -4.264498    -2.834563    -0.103544
H       -3.936660    -5.161735     0.558295
H       -1.750694    -5.933828     1.404375
H        0.135684    -4.395445     1.557247
H        1.779751    -3.213903     0.736482
H        2.136894    -1.645160     1.525467
H        3.265961    -1.690200    -0.659417
H        1.756427    -2.156002    -1.513472
44
ex_0169 frame9 Λ-conf5
C        0.866879     0.756278     5.353420
C        2.038543     1.255963     4.796696
C        2.194155     1.299011     3.413259
C        1.169235     0.856898     2.555547
C       -0.068322     0.379033     3.126846
C       -0.168696     0.315052     4.531500
C       -1.316292    -0.077641     2.345256
N       -1.079828    -1.068967     1.297326
C       -2.249201    -1.311323     0.447341
C       -3.051552    -0.054246    -0.014387
C       -2.294521     1.235652    -0.461101
N       -1.106280     1.042257    -1.296061
C       -1.297017     0.058711    -2.361700
C       -0.024667    -0.327668    -3.140643
C       -0.104066    -0.216490    -4.543457
C        0.960637    -0.590796    -5.361174
C        2.138799    -1.071301    -4.800818
C        2.271193    -1.162492    -3.416855
C        1.216938    -0.785103    -2.563344
N        1.387601    -0.858918    -1.150382
C        2.622958    -0.691787    -0.385706
C        2.633772     0.666305     0.435105
N        1.371425     0.891269     1.145186
Cu       0.000000     0.000000     0.000000
H        0.753295     0.722486     6.429386
H        2.832100     1.612380     5.440709
H        3.117427     1.697957     3.017840
H       -1.072184    -0.049984     5.004899
H       -2.123645    -0.439638     3.020446
H       -1.859429    -1.814005    -0.462785
H       -2.939846    -2.033932     0.931946
H       -3.730609     0.259097     0.807947
H       -3.702411    -0.395327    -0.848589
H       -1.937020     1.751148     0.454820
H       -3.006897     1.931583    -0.953139
H       -2.110767     0.402747    -3.038452
H       -1.011140     0.136326    -5.019281
H        0.865516    -0.519046    -6.437093
H        2.955984    -1.374381    -5.442609
H        3.201496    -1.543256    -3.022012
H        3.529477    -0.736575    -1.018910
H        2.671237    -1.532643     0.337874
H        3.505691     0.645794     1.118013
H        2.769393     1.510173    -0.273206
44
ex_0169 frame10 Δ-conf3
C        0.795868     0.876405     5.351200
C        1.305816     2.039973     4.786908
C        1.338127     2.191676     3.402563
C        0.877897     1.169361     2.551471
C        0.393039    -0.061780     3.130394
C        0.335726    -0.155953     4.535913
C       -0.078486    -1.310324     2.358730
N       -1.061972    -1.082249     1.301692
C       -1.285637    -2.262220     0.460896
C       -0.014970    -3.051639     0.012721
C        1.263616    -2.282191    -0.444825
N        1.055289    -1.102446    -1.289030
C        0.070997    -1.301527    -2.351129
C       -0.313994    -0.029939    -3.134232
C       -0.194799    -0.111093    -4.536160
C       -0.564795     0.952357    -5.357565
C       -1.050415     2.130795    -4.802005
C       -1.151049     2.265055    -3.419006
C       -0.777497     1.212789    -2.562041
N       -0.861134     1.386685    -1.150170
C       -0.687145     2.620502    -0.384500
C        0.677472     2.628944     0.427119
N        0.901950     1.368876     1.140565
Cu       0.000000     0.000000     0.000000
H        0.769918     0.765712     6.427747
H        1.678572     2.830062     5.425858
H        1.745214     3.108474     3.000316
H       -0.035270    -1.053902     5.015370
H       -0.449317    -2.108197     3.040698
H       -1.790588    -1.889868    -0.454930
H       -1.998759    -2.958827     0.951214
H        0.308986    -3.712181     0.846531
H       -0.344002    -3.721840    -0.810474
H        1.968762    -2.989760    -0.930662
H        1.775640    -1.909667     0.467309
H        0.418052    -2.116213    -3.025139
H        0.162991    -1.018017    -5.008543
H       -0.485213     0.856203    -6.432816
H       -1.349810     2.946897    -5.446823
H       -1.535027     3.195372    -3.027083
H       -1.521179     2.666971     0.347362
H       -0.739799     3.528139    -1.015606
H        1.516037     2.757568    -0.288833
H        0.667667     3.502870     1.107898
44
ex_0169 frame11 Isomer 1
C        1.068929    -2.655580    -5.243115
C        1.258976    -1.307245    -5.523589
C        1.150747    -0.359202    -4.509140
C        0.827957    -0.739334    -3.193445
C        0.579938    -2.133468    -2.905396
C        0.745296    -3.064935    -3.950907
C        0.144886    -2.723134    -1.549025
N        0.933059    -2.320931    -0.385160
C        0.322023    -2.717974     0.886790
C       -1.215867    -2.484487     1.025568
C       -1.859222    -1.164772     0.495457
N       -1.117845     0.075143     0.741406
C       -0.576678     0.184592     2.095462
C        0.372290     1.378819     2.328270
C        0.051761     2.217024     3.415766
C        0.863495     3.296388     3.761912
C        2.007887     3.577636     3.025121
C        2.341747     2.795151     1.921426
C        1.538638     1.703618     1.541139
N        1.885016     0.937395     0.390633
C        2.566309     1.389859    -0.820869
C        1.583759     1.456040    -2.065053
N        0.750464     0.255724    -2.176566
Cu       0.534911    -0.365371    -0.290897
H        1.157872    -3.388348    -6.035005
H        1.491554    -0.994405    -6.533188
H        1.301213     0.680311    -4.765482
H        0.585672    -4.122836    -3.779334
H        0.072886    -3.833715    -1.579635
H        0.556353    -3.779504     1.115530
H        0.826056    -2.110252     1.667134
H       -1.751182    -3.312386     0.511227
H       -1.445378    -2.585169     2.108179
H       -2.899280    -1.079442     0.876100
H       -1.938133    -1.250416    -0.608874
H       -1.414684     0.170431     2.827388
H       -0.821767     2.021184     4.025281
H        0.607977     3.910805     4.615906
H        2.641395     4.408101     3.308767
H        3.239927     3.045202     1.376958
H        3.352169     0.638547    -1.047459
H        3.063446     2.370798    -0.694976
H        0.899840     2.322748    -1.934340
H        2.193078     1.632359    -2.973141
44
ex_0169 frame12 Δ-conf5
C       -0.915396     0.862302     5.329779
C       -1.401541     2.032995     4.759213
C       -1.406159     2.188378     3.374947
C       -0.937198     1.164735     2.530343
C       -0.471678    -0.070907     3.114785
C       -0.448671    -0.172045     4.520648
C        0.012454    -1.315855     2.344675
N        1.035175    -1.072982     1.330957
C        1.312992    -2.240409     0.487957
C        0.076610    -3.051499    -0.012037
C       -1.204828    -2.304268    -0.498685
N       -0.993374    -1.114628    -1.329042
C        0.024713    -1.296562    -2.360343
C        0.420843    -0.021095    -3.129606
C        0.352322    -0.102099    -4.535001
C        0.737616     0.966819    -5.341815
C        1.187728     2.150570    -4.768130
C        1.237753     2.283590    -3.382037
C        0.848007     1.225146    -2.539875
N        0.879777     1.395986    -1.124250
C        0.682285     2.630054    -0.366670
C       -0.697894     2.630187     0.416291
N       -0.932631     1.366251     1.118490
Cu       0.000000     0.000000     0.000000
H       -0.911732     0.748718     6.406281
H       -1.777351     2.825874     5.392956
H       -1.795958     3.111091     2.969257
H       -0.094978    -1.074823     5.003883
H        0.353891    -2.123948     3.030102
H        1.840108    -1.846008    -0.405349
H        2.024905    -2.924937     0.995404
H       -0.257541    -3.732811     0.800440
H        0.448511    -3.700225    -0.834796
H       -1.750551    -1.950191     0.399688
H       -1.878893    -3.021031    -1.012866
H       -0.287630    -2.115261    -3.047112
H        0.023943    -1.013291    -5.020404
H        0.698003     0.871006    -6.419376
H        1.499178     2.971407    -5.401159
H        1.596141     3.218636    -2.977369
H        0.735771     3.537105    -0.998639
H        1.502649     2.686606     0.379563
H       -0.701968     3.502606     1.099219
H       -1.522876     2.760456    -0.314989
44
ex_0169 frame13 Δ
C        0.812046     0.866438     5.352140
C        1.316543     2.032613     4.788477
C        1.341033     2.188247     3.404401
C        0.878647     1.167292     2.552534
C        0.398428    -0.065801     3.130502
C        0.349052    -0.164242     4.536246
C       -0.075923    -1.312117     2.357586
N       -1.060787    -1.081320     1.303412
C       -1.287213    -2.259909     0.460974
C       -0.017608    -3.050662     0.012165
C        1.261344    -2.282315    -0.446263
N        1.053434    -1.102764    -1.291114
C        0.067503    -1.299839    -2.351740
C       -0.314356    -0.027540    -3.135395
C       -0.195772    -0.108352    -4.537273
C       -0.562266     0.956942    -5.357996
C       -1.043588     2.136856    -4.801736
C       -1.144289     2.270325    -3.418874
C       -0.774646     1.215976    -2.562838
N       -0.858974     1.388406    -1.149957
C       -0.697970     2.620175    -0.381050
C        0.661853     2.635256     0.437890
N        0.896453     1.371079     1.142133
Cu       0.000000     0.000000     0.000000
H        0.792569     0.752512     6.428502
H        1.691471     2.821578     5.427634
H        1.744497     3.106879     3.002641
H       -0.017539    -1.064307     5.015116
H       -0.444336    -2.111891     3.038746
H       -2.001391    -2.955592     0.950858
H       -1.791628    -1.885491    -0.454298
H        0.306276    -3.711042     0.846110
H       -0.347810    -3.720653    -0.810560
H        1.965813    -2.990355    -0.932239
H        1.774090    -1.909570     0.465376
H        0.411330    -2.115923    -3.025719
H        0.158773    -1.016264    -5.009996
H       -0.483166     0.861270    -6.433311
H       -1.339853     2.954593    -5.445910
H       -1.525036     3.201835    -3.026628
H       -1.536024     2.656873     0.346850
H       -0.754763     3.530042    -1.008174
H        1.504120     2.781162    -0.270067
H        0.635404     3.502750     1.126922
44
ex_0169 frame14 Λ
C        0.875245    -0.981107     5.321980
C        2.046921    -1.453724     4.742303
C        2.202035    -1.432177     3.358180
C        1.175683    -0.953636     2.521796
C       -0.062121    -0.505717     3.115063
C       -0.160957    -0.503687     4.521502
C       -1.312796    -0.019450     2.357251
N       -1.090250     1.005364     1.338503
C       -2.270444     1.251585     0.504645
C       -3.051214    -0.007603     0.011470
C       -2.272392    -1.263749    -0.490104
N       -1.094637    -1.017331    -1.326482
C       -1.299738     0.003987    -2.352189
C       -0.030499     0.420272    -3.122624
C       -0.111118     0.348213    -4.527757
C        0.951801     0.747901    -5.335934
C        2.128982     1.217234    -4.763974
C        2.261972     1.273248    -3.378354
C        1.209912     0.869214    -2.534780
N        1.380990     0.908028    -1.120675
C        2.615246     0.729321    -0.357691
C        2.640324    -0.656843     0.414927
N        1.378574    -0.923534     1.111191
Cu       0.000000     0.000000     0.000000
H        0.761670    -0.997564     6.398426
H        2.840592    -1.839632     5.368957
H        3.125167    -1.812035     2.943893
H       -1.064910    -0.162778     5.011830
H       -2.117589     0.315786     3.049317
H       -2.971793     1.943092     1.018427
H       -1.899604     1.790531    -0.392198
H       -3.709712    -0.365196     0.833035
H       -3.723099     0.345657    -0.800149
H       -2.974577    -1.956869    -1.000338
H       -1.895705    -1.804615     0.403479
H       -2.114098    -0.321759    -3.037050
H       -1.016955     0.003896    -5.011997
H        0.856472     0.703721    -6.413283
H        2.945059     1.538963    -5.398034
H        3.191460     1.646162    -2.974217
H        2.648306     1.543338     0.397018
H        3.524215     0.811624    -0.983676
H        2.791451    -1.474037    -0.320839
H        3.508247    -0.647152     1.103621
44
ex_0169 frame15 Isomer 2
C        5.321580     0.880420    -0.977185
C        4.743649     2.060727    -1.429968
C        3.359511     2.215515    -1.410648
C        2.521208     1.181741    -0.950173
C        3.113190    -0.061647    -0.518883
C        4.519292    -0.163236    -0.519234
C        2.350561    -1.314287    -0.048763
N        1.346675    -1.093598     0.991343
C        0.513649    -2.271926     1.248190
C        0.006426    -3.054530    -0.003940
C       -0.502215    -2.276433    -1.257282
N       -1.333030    -1.096891    -1.005465
C       -2.350302    -1.299172     0.025803
C       -3.123495    -0.029411     0.430473
C       -4.528586    -0.113054     0.362378
C       -5.337259     0.954508     0.748242
C       -4.765674     2.138284     1.200897
C       -3.380055     2.272022     1.256253
C       -2.535637     1.214978     0.865290
N       -1.120466     1.384172     0.902940
C       -0.361209     2.620538     0.724492
C        0.413462     2.644049    -0.658371
N        1.109968     1.380772    -0.920548
Cu       0.000000     0.000000     0.000000
H        6.398063     0.766935    -0.992815
H        5.371639     2.861478    -1.798785
H        2.948690     3.145940    -1.775654
H        5.007815    -1.073200    -0.192105
H        3.039396    -2.129545     0.267000
H        1.033285    -2.972428     1.936145
H       -0.376668    -1.897891     1.795482
H        0.821956    -3.717348    -0.367015
H       -0.805139    -3.721677     0.358543
H       -1.020151    -2.977892    -1.945150
H        0.387330    -1.902433    -1.806161
H       -3.033434    -2.120526    -0.285618
H       -5.011912    -1.023694     0.029806
H       -6.414580     0.858208     0.705378
H       -5.400053     2.958934     1.510335
H       -2.978077     3.207183     1.616628
H        0.389555     2.659206     1.541777
H       -0.989342     3.528491     0.799217
H       -0.319405     2.794937    -1.478276
H        1.100695     3.512986    -0.645555
44
ex_0169 frame16 see-saw N0-N1-ax-conf3
C        3.125686     1.124772     4.387265
C        1.901722     1.675683     4.746787
C        0.831520     1.642588     3.856617
C        0.968832     1.071763     2.575717
C        2.251465     0.546663     2.175781
C        3.296950     0.558684     3.124119
C        2.603126    -0.037111     0.792465
N        1.684018    -1.042790     0.260091
C        1.940353    -1.371619    -1.143489
C        2.171679    -0.166099    -2.107618
C        1.284742     1.114847    -2.001298
N       -0.149841     0.918383    -1.768122
C       -0.760226    -0.147760    -2.561130
C       -2.210183    -0.511959    -2.161113
C       -3.165780    -0.473644    -3.196135
C       -4.494844    -0.833527    -2.971488
C       -4.910579    -1.231081    -1.705830
C       -4.007531    -1.251694    -0.647968
C       -2.663523    -0.882121    -0.839638
N       -1.772950    -0.878443     0.268205
C       -2.087021    -0.602712     1.668756
C       -1.549449     0.817121     2.116900
N       -0.159590     1.028092     1.705120
Cu       0.000000     0.000000     0.000000
H        3.952404     1.150052     5.086172
H        1.779713     2.130684     5.721742
H       -0.102945     2.084022     4.172724
H        4.273227     0.159278     2.877433
H        3.642060    -0.436561     0.765171
H        1.039792    -1.916195    -1.495968
H        2.791321    -2.081284    -1.225581
H        3.221559     0.182518    -1.990991
H        2.087156    -0.575448    -3.136597
H        1.451475     1.757720    -2.891210
H        1.648646     1.695071    -1.126304
H       -0.680850     0.111357    -3.639921
H       -2.879406    -0.185794    -4.199872
H       -5.204765    -0.815153    -3.787788
H       -5.939630    -1.523340    -1.540494
H       -4.369354    -1.567797     0.319633
H       -1.569915    -1.374478     2.278142
H       -3.169062    -0.666348     1.890202
H       -2.164589     1.603195     1.631888
H       -1.683242     0.900892     3.213358
44
ex_0169 frame17 conf4
C        5.333800     0.960019    -0.801437
C        4.752960     2.129910    -1.276685
C        3.367108     2.265254    -1.297624
C        2.530455     1.221110    -0.860803
C        3.126198    -0.018973    -0.419673
C        4.533385    -0.096155    -0.369585
C        2.372591    -1.293742     0.011230
N        1.319492    -1.112860     1.006929
C        0.495562    -2.310128     1.198493
C        0.021121    -3.045820    -0.094745
C       -0.492813    -2.227599    -1.321008
N       -1.338335    -1.065871    -1.032227
C       -2.350125    -1.311567    -0.004718
C       -3.117187    -0.064910     0.483966
C       -4.523436    -0.154777     0.450695
C       -5.327347     0.883453     0.918921
C       -4.750601     2.046737     1.416389
C       -3.365108     2.191004     1.432768
C       -2.526577     1.162308     0.963641
N       -1.113721     1.344169     0.968093
C       -0.359450     2.587937     0.824356
C        0.409420     2.657620    -0.562905
N        1.117512     1.409672    -0.865606
Cu       0.000000     0.000000     0.000000
H        6.411787     0.863212    -0.781693
H        5.379904     2.938485    -1.629696
H        2.951427     3.188662    -1.675540
H        5.026205    -0.997830    -0.026293
H        3.068302    -2.091502     0.356303
H       -0.409410    -1.971872     1.745009
H        1.011371    -3.033301     1.865681
H        0.854217    -3.676196    -0.475689
H       -0.780283    -3.744717     0.228177
H        0.396769    -1.823841    -1.849184
H       -0.999189    -2.909839    -2.036789
H       -3.037839    -2.115679    -0.349441
H       -5.011154    -1.051326     0.087513
H       -6.404745     0.778985     0.906988
H       -5.380770     2.842604     1.792059
H       -2.955761     3.108000     1.830629
H       -0.992594     3.489226     0.933669
H        0.397195     2.601913     1.637346
H       -0.330510     2.823509    -1.373325
H        1.089154     3.532012    -0.532699
44
ex_0169 frame18 square-planar cis-conf4
C        4.448363     3.121719     0.693096
C        4.864852     1.902123     1.213736
C        3.980541     0.828012     1.274472
C        2.650740     0.958337     0.831811
C        2.195555     2.238913     0.342138
C        3.135680     3.286317     0.254378
C        0.761705     2.589692    -0.103970
N        0.149588     1.680936    -1.070048
C       -1.278785     1.936892    -1.277547
C       -2.139873     2.170181     0.004159
C       -1.928135     1.276139     1.266334
N       -1.703352    -0.153118     1.032683
C       -2.588618    -0.733330     0.022737
C       -2.248558    -2.175432    -0.407954
C       -3.306929    -3.103951    -0.342077
C       -3.139643    -4.424304    -0.756964
C       -1.907328    -4.858752    -1.232332
C       -0.825490    -3.982387    -1.279851
C       -0.961290    -2.644367    -0.864499
N        0.166268    -1.775075    -0.899636
C        1.578195    -2.115779    -0.736140
C        2.166012    -1.567067     0.632555
N        1.784223    -0.172737     0.878382
Cu       0.000000     0.000000     0.000000
H        5.142177     3.951141     0.642825
H        5.879942     1.786815     1.571230
H        4.339871    -0.104031     1.687305
H        2.846515     4.258928    -0.125305
H        0.688468     3.632903    -0.485796
H       -1.676642     1.037387    -1.791947
H       -1.422889     2.786860    -1.978216
H       -1.998988     3.218990     0.345696
H       -3.199410     2.084109    -0.319855
H       -1.015242     1.639822     1.783682
H       -2.770666     1.427621     1.974374
H       -3.645104    -0.636605     0.358583
H       -4.287063    -2.800454     0.005444
H       -3.975475    -5.111254    -0.720640
H       -1.788738    -5.881481    -1.566425
H        0.113867    -4.357233    -1.659083
H        1.766958    -3.204594    -0.799594
H        2.127110    -1.625230    -1.567750
H        1.756577    -2.174266     1.466490
H        3.264918    -1.706807     0.612184
44
ex_0169 frame19 Δ-conf4
C        0.664108     0.931775     5.358329
C        1.198257     2.084279     4.794170
C        1.270108     2.217827     3.409835
C        0.824713     1.188930     2.558555
C        0.320887    -0.034084     3.138690
C        0.222706    -0.109292     4.543419
C       -0.130271    -1.291998     2.369436
N       -1.087559    -1.073335     1.288154
C       -1.301406    -2.262080     0.457645
C       -0.024519    -3.048076     0.021600
C        1.248050    -2.277939    -0.452318
N        1.030904    -1.106116    -1.305450
C        0.025928    -1.312231    -2.348394
C       -0.386708    -0.047923    -3.130688
C       -0.311742    -0.140520    -4.535086
C       -0.710272     0.915417    -5.353358
C       -1.177892     2.098722    -4.792599
C       -1.233933     2.244576    -3.408323
C       -0.835041     1.198404    -2.555287
N       -0.878420     1.381299    -1.143489
C       -0.709233     2.619151    -0.384914
C        0.653423     2.633838     0.429198
N        0.882876     1.376172     1.146674
Cu       0.000000     0.000000     0.000000
H        0.605202     0.836480     6.435027
H        1.557546     2.880815     5.432887
H        1.693164     3.127561     3.007909
H       -0.167881    -0.998254     5.023931
H       -0.523562    -2.078273     3.052465
H       -1.806686    -1.902379    -0.462860
H       -2.011881    -2.958188     0.952459
H        0.305454    -3.693524     0.864827
H       -0.349890    -3.733054    -0.790755
H        1.762934    -1.894463     0.453866
H        1.952808    -2.987389    -0.936146
H        0.358287    -2.131103    -3.024609
H        0.030162    -1.051640    -5.011009
H       -0.667270     0.809697    -6.429828
H       -1.499293     2.909011    -5.434295
H       -1.606746     3.177628    -3.011931
H       -0.759268     3.523052    -1.021783
H       -1.545999     2.668252     0.343737
H        1.493928     2.766461    -0.283449
H        0.635918     3.509737     1.107388
44
ex_0169 frame20 Λ-conf2
C        0.992742    -0.950465     5.301436
C        2.158475    -1.410216     4.700171
C        2.284664    -1.392918     3.313666
C        1.235202    -0.932808     2.496472
C       -0.001867    -0.509348     3.111475
C       -0.069042    -0.497108     4.520165
C       -1.283474    -0.059926     2.378157
N       -1.112047     0.964397     1.351506
C       -2.312498     1.175163     0.536518
C       -3.041835    -0.105991     0.020592
C       -2.218620    -1.309954    -0.536670
N       -1.061800    -0.985842    -1.376005
C       -1.318776     0.076564    -2.348520
C       -0.080835     0.615925    -3.096147
C       -0.178023     0.650184    -4.502047
C        0.849557     1.170795    -5.287335
C        2.010520     1.652597    -4.692945
C        2.163260     1.600766    -3.309259
C        1.144778     1.080012    -2.489266
N        1.335934     1.018223    -1.079389
C        2.585596     0.843436    -0.341329
C        2.658253    -0.571439     0.375416
N        1.416097    -0.897394     1.083259
Cu       0.000000     0.000000     0.000000
H        0.903595    -0.959939     6.380195
H        2.971235    -1.780614     5.311542
H        3.205172    -1.759177     2.881498
H       -0.967110    -0.167326     5.028456
H       -2.075590     0.266555     3.089175
H       -1.979094     1.752748    -0.350880
H       -3.038555     1.821515     1.074245
H       -3.743506     0.239868    -0.768926
H       -3.668994    -0.517860     0.841106
H       -1.808833    -1.864845     0.333728
H       -2.898436    -2.012217    -1.064844
H       -2.119756    -0.249976    -3.048751
H       -1.073449     0.301953    -5.002597
H        0.738213     1.212453    -6.363346
H        2.797653     2.069725    -5.307859
H        3.077669     1.989011    -2.884819
H        2.610335     1.629141     0.443205
H        3.480931     0.970422    -0.979918
H        3.539628    -0.571446     1.046942
H        2.813441    -1.353882    -0.396200
44
ex_0169 frame21 square-planar cis-conf2
C        4.465694     3.098237     0.673629
C        4.874588     1.879469     1.202220
C        3.984670     0.811311     1.269121
C        2.655088     0.946700     0.825457
C        2.206855     2.227813     0.329762
C        3.153418     3.268393     0.234446
C        0.772774     2.586468    -0.115841
N        0.150911     1.677449    -1.074803
C       -1.278019     1.937230    -1.276716
C       -2.135378     2.168726     0.008127
C       -1.924722     1.270480     1.267634
N       -1.705170    -0.158842     1.029122
C       -2.592869    -0.729874     0.016153
C       -2.255675    -2.165821    -0.438903
C       -3.318284    -3.090453    -0.395288
C       -3.155960    -4.403297    -0.835821
C       -1.922942    -4.834528    -1.312984
C       -0.836600    -3.963482    -1.336320
C       -0.967992    -2.632614    -0.897269
N        0.164426    -1.769828    -0.911127
C        1.573104    -2.120311    -0.739436
C        2.157337    -1.575090     0.632395
N        1.784261    -0.179287     0.877515
Cu       0.000000     0.000000     0.000000
H        5.164733     3.922702     0.618009
H        5.889001     1.760005     1.560708
H        4.337602    -0.120593     1.687324
H        2.870688     4.240532    -0.151124
H        0.707711     3.627593    -0.505105
H       -1.679204     1.039620    -1.791809
H       -1.423251     2.788454    -1.975398
H       -3.195847     2.085256    -0.314124
H       -1.992254     3.216307     0.352156
H       -1.009716     1.629888     1.784169
H       -2.765914     1.422105     1.977250
H       -3.648784    -0.636979     0.355345
H       -4.299335    -2.788946    -0.048142
H       -3.995639    -5.085988    -0.818821
H       -1.808378    -5.850822    -1.667916
H        0.103411    -4.334726    -1.718356
H        2.130598    -1.634717    -1.568200
H        1.753004    -3.211097    -0.800301
H        3.254969    -1.725035     0.621964
H        1.736338    -2.180678     1.463457
44
ex_0169 frame22 Λ-conf4
C        0.960702    -0.801334     5.334495
C        2.135675    -1.264920     4.754486
C        2.271469    -1.286457     3.368660
C        1.223485    -0.859522     2.531096
C       -0.019718    -0.428300     3.126138
C       -0.099206    -0.380320     4.533212
C       -1.294870    -0.006374     2.369545
N       -1.113883     0.998392     1.324269
C       -2.310049     1.196614     0.500749
C       -3.047180    -0.092760     0.018865
C       -2.228707    -1.318026    -0.496479
N       -1.066820    -1.027352    -1.340859
C       -1.311565     0.005166    -2.348182
C       -0.064323     0.488080    -3.116674
C       -0.155448     0.455801    -4.522772
C        0.885320     0.917275    -5.327228
C        2.051889     1.407592    -4.751079
C        2.196346     1.424388    -3.365630
C        1.165222     0.961713    -2.526327
N        1.346890     0.966664    -1.113814
C        2.591129     0.821633    -0.360995
C        2.659170    -0.563881     0.409467
N        1.411182    -0.864135     1.117801
Cu       0.000000     0.000000     0.000000
H        0.863416    -0.781537     6.412438
H        2.947892    -1.608424     5.382057
H        3.199144    -1.655490     2.954802
H       -1.004448    -0.045112     5.025006
H       -2.098977     0.326958     3.063600
H       -1.968936     1.747148    -0.400591
H       -3.032357     1.862770     1.018974
H       -3.680567    -0.475759     0.848643
H       -3.742876     0.234629    -0.783567
H       -1.824946    -1.847684     0.392113
H       -2.910363    -2.033108    -1.004362
H       -2.119597    -0.332466    -3.034753
H       -1.054392     0.097734    -5.009779
H        0.780533     0.905331    -6.404572
H        2.850125     1.777536    -5.381629
H        3.116115     1.816894    -2.957471
H        3.491898     0.925333    -0.995858
H        2.609488     1.636801     0.393017
H        2.824491    -1.375989    -0.328783
H        3.534127    -0.532607     1.088344
44
ex_0169 frame23 Δ-conf2
C        0.597754     0.960566     5.358896
C        1.146661     2.106223     4.795004
C        1.236695     2.231153     3.411169
C        0.796317     1.199740     2.560468
C        0.279459    -0.018277     3.140761
C        0.161102    -0.083229     4.544608
C       -0.166012    -1.281349     2.373987
N       -1.105422    -1.069007     1.276221
C       -1.306549    -2.260531     0.446002
C       -0.022980    -3.043552     0.023385
C        1.251771    -2.272051    -0.442931
N        1.038419    -1.104135    -1.302062
C        0.039554    -1.317766    -2.349518
C       -0.390143    -0.059323    -3.132912
C       -0.324917    -0.157174    -4.537639
C       -0.741746     0.890519    -5.357499
C       -1.215997     2.071915    -4.798363
C       -1.260052     2.224340    -3.414362
C       -0.845078     1.185778    -2.559829
N       -0.879326     1.376017    -1.148821
C       -0.707929     2.618700    -0.398217
C        0.651935     2.633392     0.421336
N        0.872419     1.379793     1.148749
Cu       0.000000     0.000000     0.000000
H        0.524193     0.872526     6.435288
H        1.503072     2.904350     5.433363
H        1.670301     3.135816     3.008916
H       -0.240875    -0.966744     5.025718
H       -0.574847    -2.059246     3.057562
H       -1.803622    -1.904222    -0.480397
H       -2.020199    -2.958063     0.934050
H       -0.339427    -3.730976    -0.790603
H        0.301309    -3.686396     0.870583
H        1.758006    -1.884278     0.466346
H        1.961956    -2.981287    -0.919228
H        0.381803    -2.133279    -3.025005
H        0.020796    -1.067406    -5.012556
H       -0.708526     0.779448    -6.433828
H       -1.552434     2.875277    -5.441107
H       -1.639104     3.155221    -3.018395
H       -1.547863     2.677639     0.326021
H       -0.749516     3.517511    -1.043148
H        0.639028     3.515212     1.091924
H        1.494763     2.754817    -0.290679
44
ex_0169 frame24 conf2
C        5.301776     0.993347    -0.950329
C        4.701828     2.164252    -1.398469
C        3.315315     2.291271    -1.381569
C        2.496976     1.238233    -0.931421
C        3.110809    -0.002152    -0.517845
C        4.519210    -0.071902    -0.507630
C        2.374336    -1.284107    -0.077396
N        1.356041    -1.113015     0.956464
C        0.542090    -2.312316     1.173322
C        0.019711    -3.043098    -0.103983
C       -0.539519    -2.219894    -1.306761
N       -1.378058    -1.063447    -0.981036
C       -2.345666    -1.319334     0.086810
C       -3.095193    -0.080551     0.619844
C       -4.500891    -0.178962     0.654829
C       -5.287172     0.851330     1.168487
C       -4.693777     2.015581     1.643415
C       -3.310103     2.168436     1.592224
C       -2.488968     1.147497     1.077534
N       -1.078284     1.339109     1.015671
C       -0.343316     2.589290     0.840757
C        0.375780     2.660487    -0.572314
N        1.083777     1.417721    -0.895560
Cu       0.000000     0.000000     0.000000
H        6.380458     0.903346    -0.959893
H        5.314266     2.980406    -1.759558
H        2.885401     3.216143    -1.739067
H        5.026045    -0.973673    -0.185909
H        3.083269    -2.082777     0.237149
H       -0.341805    -1.976523     1.754812
H        1.082548    -3.037210     1.818541
H       -0.769959    -3.742512     0.246031
H        0.837587    -3.672232    -0.517886
H        0.329540    -1.809590    -1.863254
H       -1.068915    -2.899312    -2.008268
H       -3.044280    -2.124555    -0.232479
H       -5.000421    -1.076780     0.311472
H       -6.363167     0.739802     1.209744
H       -5.309461     2.805240     2.054670
H       -2.887255     3.085656     1.975424
H        0.438761     2.617785     1.628624
H       -0.983786     3.483852     0.963144
H        1.046519     3.542446    -0.570245
H       -0.394273     2.816076    -1.356326
44
ex_0169 frame25 see-saw N0-N1-ax-conf2
C        3.057023     1.005289     4.499830
C        1.859205     1.643410     4.793664
C        0.819126     1.633053     3.869576
C        0.963580     1.009515     2.614764
C        2.229379     0.405737     2.270008
C        3.236451     0.381819     3.263590
C        2.614969    -0.229566     0.911203
N        1.640707    -1.108146     0.265520
C        1.941930    -1.368945    -1.143383
C        2.195606    -0.121707    -2.049949
C        1.287047     1.150400    -1.967633
N       -0.153205     0.947702    -1.752365
C       -0.757092    -0.106649    -2.565512
C       -2.179220    -0.587095    -2.148931
C       -3.132860    -0.626241    -3.185422
C       -4.424669    -1.108200    -2.968876
C       -4.815720    -1.533528    -1.704188
C       -3.926596    -1.462499    -0.639020
C       -2.617288    -0.992736    -0.827861
N       -1.746601    -0.924972     0.285015
C       -2.050373    -0.663606     1.689468
C       -1.540733     0.772013     2.123914
N       -0.148550     0.998690     1.723995
Cu       0.000000     0.000000     0.000000
H        3.859272     1.011536     5.227922
H        1.732872     2.148054     5.743717
H       -0.099092     2.139696     4.132648
H        4.197214    -0.080579     3.071496
H        3.588781    -0.768465     0.982214
H        1.055238    -1.896384    -1.551336
H        2.797702    -2.072450    -1.231584
H        2.164149    -0.502743    -3.092557
H        3.236388     0.234746    -1.880271
H        1.637500     1.739436    -1.092151
H        1.464574     1.788731    -2.860223
H       -0.725531     0.208808    -3.632299
H       -2.866411    -0.323975    -4.190165
H       -5.122777    -1.166988    -3.792684
H       -5.812592    -1.923531    -1.545827
H       -4.259285    -1.805273     0.331056
H       -1.494623    -1.414869     2.292519
H       -3.127413    -0.766108     1.922391
H       -1.684782     0.880363     3.217569
H       -2.164578     1.535616     1.615407
44
ex_0169 frame26 Λ-conf6
C       -0.756910    -2.097301     4.368600
C        0.393192    -2.680651     3.838334
C        1.139482    -2.013326     2.859344
C        0.735400    -0.748808     2.384422
C       -0.435023    -0.157302     2.935465
C       -1.160458    -0.834207     3.936040
C       -0.905979     1.191505     2.455673
N       -1.374844     0.926827     1.115924
C       -1.939107     2.003635     0.313895
C       -2.814554     1.385722    -0.817319
C       -2.117279     0.379716    -1.786265
N       -1.553707    -0.733062    -1.022124
C       -1.273624    -2.009040    -1.659818
C       -0.281514    -1.963546    -2.776740
C       -0.606749    -2.692897    -3.919931
C        0.277070    -2.743840    -4.991227
C        1.477184    -2.028461    -4.940847
C        1.805953    -1.269965    -3.806152
C        0.926503    -1.233886    -2.711359
N        1.193741    -0.492921    -1.529797
C        2.434349    -0.041405    -0.941497
C        2.529966    -0.585927     0.509199
N        1.469708    -0.049600     1.362981
Cu       0.000000     0.000000     0.000000
H       -1.340214    -2.627727     5.113002
H        0.702170    -3.659473     4.183280
H        2.021367    -2.500717     2.473537
H       -2.067392    -0.408172     4.351150
H       -1.774404     1.544333     3.058059
H       -1.120772     2.620116    -0.113013
H       -2.590088     2.649240     0.944924
H       -3.246076     2.216350    -1.417320
H       -3.661855     0.852111    -0.332063
H       -1.307813     0.893300    -2.346178
H       -2.876281     0.002553    -2.505263
H       -0.844093    -2.665051    -0.872819
H       -1.529908    -3.262030    -3.956084
H        0.027200    -3.345174    -5.855492
H        2.152251    -2.070204    -5.783855
H        2.735845    -0.719595    -3.791233
H        2.439868     1.072265    -0.909569
H        3.300239    -0.384885    -1.539696
H        3.505132    -0.277821     0.935759
H        2.483239    -1.692687     0.466356
44
ex_0169 frame27 Δ-conf6
C        3.745153    -0.388776     3.140026
C        3.923720     0.808838     2.449183
C        2.834746     1.445185     1.839393
C        1.544808     0.879903     1.902802
C        1.369667    -0.338300     2.615010
C        2.473301    -0.951981     3.241396
C        0.009330    -0.980149     2.705549
N       -0.232370    -1.445782     1.360216
C       -1.463688    -2.156894     1.044693
C       -1.251268    -2.981665    -0.259949
C       -0.810876    -2.194288    -1.533736
N        0.438750    -1.481863    -1.266827
C        1.305932    -1.065484    -2.356616
C        0.697490    -0.114002    -3.335764
C        0.949292    -0.374943    -4.681850
C        0.462945     0.481263    -5.662243
C       -0.317777     1.583550    -5.301783
C       -0.601501     1.843554    -3.951556
C       -0.091146     0.995129    -2.955032
N       -0.331391     1.199818    -1.572135
C       -0.646628     2.391513    -0.816920
C        0.426792     2.588061     0.289617
N        0.410778     1.499099     1.266856
Cu       0.000000     0.000000     0.000000
H        4.595887    -0.885647     3.593623
H        4.914024     1.241255     2.379119
H        3.016003     2.368522     1.311842
H        2.362251    -1.892847     3.769281
H        0.035810    -1.870155     3.375441
H       -2.293633    -1.430386     0.921136
H       -1.717883    -2.863786     1.865991
H       -2.194367    -3.525326    -0.486128
H       -0.470035    -3.745876    -0.050500
H       -1.599208    -1.466957    -1.819994
H       -0.666123    -2.921113    -2.362068
H        2.165504    -0.539657    -1.888565
H        1.568711    -1.220085    -4.963970
H        0.701251     0.286906    -6.699688
H       -0.695781     2.237567    -6.074731
H       -1.211644     2.698038    -3.695698
H       -1.644237     2.268502    -0.336350
H       -0.677910     3.276578    -1.481373
H        0.210303     3.534035     0.824610
H        1.418158     2.664999    -0.201164
44
ex_0169 frame28 conf6
C        4.367630    -0.754967    -2.095009
C        3.836761     0.395132    -2.677857
C        2.857633     1.141218    -2.010004
C        2.383175     0.736815    -0.745310
C        2.934757    -0.433794    -0.154730
C        3.935493    -1.158849    -0.831879
C        2.455237    -0.905520     1.193766
N        1.115477    -1.374075     0.928431
C        0.313683    -1.938973     2.005104
C       -0.817001    -2.814954     1.387198
C       -1.786675    -2.117758     0.382037
N       -1.023414    -1.553657    -0.731097
C       -1.663063    -1.272056    -2.005595
C       -2.779743    -0.279387    -1.958954
C       -3.920912    -0.602822    -2.691831
C       -4.991769     0.281342    -2.743635
C       -4.943222     1.479504    -2.024924
C       -3.810883     1.806023    -1.261795
C       -2.715863     0.926640    -1.225504
N       -1.538042     1.193386    -0.481139
C       -0.945357     2.432978    -0.032063
C        0.504576     2.528497    -0.581259
N        1.361787     1.470792    -0.045024
Cu       0.000000     0.000000     0.000000
H        5.111814    -1.338295    -2.625868
H        4.181220     0.704046    -3.656916
H        2.471002     2.022897    -2.497027
H        4.350786    -2.066041    -0.406378
H        3.057496    -1.774380     1.545948
H       -0.113691    -1.121021     2.621781
H        0.945016    -2.589764     2.650615
H       -1.416498    -3.247105     2.217838
H       -0.331394    -3.661819     0.853159
H       -2.346618    -1.308713     0.896150
H       -2.505511    -2.876998     0.005006
H       -0.876902    -0.842077    -2.662413
H       -3.955288    -1.524170    -3.264047
H       -5.853935     0.033310    -3.348698
H       -5.785772     2.155106    -2.068028
H       -3.797193     2.734731    -0.709400
H       -0.911680     2.441284     1.081438
H       -1.543232     3.298643    -0.377169
H        0.931378     3.505009    -0.277603
H        0.458859     2.478544    -1.687932
44
ex_0169 frame29 see-saw N0-N1-ax-conf6
C       -0.420367     4.336721     1.711799
C       -1.236494     3.604208     2.571018
C       -1.050940     2.233453     2.711026
C       -0.079632     1.567857     1.948585
C        0.801844     2.324374     1.110036
C        0.610298     3.707483     1.011904
C        1.950773     1.732866     0.302854
N        1.936643     0.289948     0.403330
C        2.741337    -0.409089    -0.617553
C        2.415563    -0.085968    -2.107851
C        1.061506    -0.585688    -2.666414
N       -0.040130     0.052478    -1.994490
C       -0.974032     0.946583    -2.565141
C       -2.065407     1.451336    -1.901450
C       -2.839801     2.481698    -2.687920
C       -3.948582     3.200297    -1.991960
C       -4.326749     2.861616    -0.758959
C       -3.665026     1.776360    -0.013259
C       -2.590246     1.110550    -0.490470
N       -1.969273     0.110247     0.322791
C       -2.338472    -0.409322     1.617615
C       -1.028738    -0.804168     2.320623
N        0.032753     0.143174     2.000939
Cu       0.000000     0.000000     0.000000
H       -0.586627     5.397205     1.588324
H       -2.030201     4.093630     3.118593
H       -1.704708     1.691461     3.377336
H        1.232250     4.293648     0.347187
H        2.939556     2.137814     0.601710
H        2.627095    -1.505702    -0.464436
H        3.810957    -0.172098    -0.432653
H        3.193907    -0.607310    -2.709692
H        2.527456     1.001090    -2.293216
H        0.987722    -1.685614    -2.516469
H        1.014189    -0.384513    -3.758367
H       -0.784591     1.259566    -3.588954
H       -2.520994     2.813372    -3.699346
H       -4.451908     4.011706    -2.505008
H       -5.135680     3.403534    -0.281253
H       -4.066954     1.569200     0.968172
H       -2.862892     0.348856     2.211421
H       -3.009862    -1.291381     1.526629
H       -1.162233    -0.948770     3.412104
H       -0.695789    -1.779549     1.896464
44
ex_0169 frame30 square-planar cis-conf6
C        1.493762    -0.470721     4.336145
C        2.368274    -1.293342     3.630583
C        2.567894    -1.096191     2.268845
C        1.860181    -0.099615     1.582686
C        0.997166     0.784743     2.314752
C        0.836666     0.577217     3.690528
C        0.224142     1.953918     1.714063
N        0.348108     1.948655     0.273424
C       -0.675454     2.734662    -0.434756
C       -2.147711     2.357572    -0.132949
C       -2.658121     0.998863    -0.663541
N       -1.997550    -0.131653    -0.036848
C       -2.566048    -0.905814     0.820071
C       -1.886997    -2.085796     1.455548
C       -2.620906    -2.714447     2.475585
C       -2.115001    -3.820424     3.151217
C       -0.872648    -4.341113     2.807283
C       -0.123237    -3.755622     1.790046
C       -0.591729    -2.608903     1.121090
N        0.211539    -1.983801     0.130350
C        1.501927    -2.363025    -0.382848
C        2.200210    -1.054159    -0.806051
N        1.999039     0.027627     0.162047
Cu       0.000000     0.000000     0.000000
H        1.325577    -0.644379     5.389406
H        2.884892    -2.098929     4.133794
H        3.249659    -1.749723     1.746381
H        0.158659     1.203302     4.256894
H        0.517164     2.937163     2.136092
H       -0.506305     2.637374    -1.530190
H       -0.527195     3.806194    -0.180033
H       -2.770360     3.126618    -0.645341
H       -2.351648     2.446045     0.953678
H       -2.523190     0.936700    -1.765139
H       -3.754260     0.962328    -0.468716
H       -3.589347    -0.687788     1.118831
H       -3.595316    -2.337080     2.763561
H       -2.692483    -4.274355     3.944891
H       -0.483164    -5.199163     3.337688
H        0.839756    -4.186444     1.564685
H        2.094119    -2.888398     0.376864
H        1.395762    -3.038715    -1.259685
H        3.267924    -1.190009    -1.070991
H        1.686943    -0.715837    -1.736561
44
ex_0169 frame31 Λ-conf3
C        0.905294    -0.706852    -5.355913
C        2.078617    -1.199687    -4.796137
C        2.223936    -1.261086    -3.411572
C        1.186422    -0.843868    -2.556572
C       -0.051545    -0.373739    -3.132731
C       -0.142100    -0.290818    -4.536749
C       -1.310369     0.055724    -2.355231
N       -1.098339     1.045970    -1.301079
C       -2.283462     1.261181    -0.465581
C       -3.059649    -0.015288    -0.012538
C       -2.275068    -1.282039     0.452632
N       -1.096696    -1.054395     1.294755
C       -1.311059    -0.061352     2.345314
C       -0.049271     0.354892     3.127149
C       -0.140839     0.263671     4.530553
C        0.910301     0.664492     5.352849
C        2.087593     1.152430     4.797095
C        2.233101     1.224473     3.413364
C        1.192877     0.821369     2.555243
N        1.380744     0.879571     1.143419
C        2.625795     0.671404     0.401395
C        2.618269    -0.699508    -0.399814
N        1.372599    -0.891686    -1.144007
Cu       0.000000     0.000000     0.000000
H        0.799444    -0.658457    -6.432181
H        2.881482    -1.536075    -5.439205
H        3.149228    -1.653243    -3.015422
H       -1.046547     0.069711    -5.012135
H       -2.119571     0.408436    -3.033351
H       -1.919831     1.776419     0.447887
H       -2.986533     1.963508    -0.962309
H       -3.734465     0.311186     0.808139
H       -3.716337    -0.350810    -0.844848
H       -1.898764    -1.796734    -0.456298
H       -2.975120    -1.990593     0.944666
H       -2.124274    -0.410113     3.020452
H       -1.047665    -0.094441     5.003064
H        0.804824     0.607475     6.428662
H        2.893710     1.476396     5.442473
H        3.161621     1.612073     3.020074
H        2.713356     1.501264    -0.331264
H        3.519241     0.696415     1.054519
H        3.512589    -0.736759    -1.051167
H        2.693049    -1.530171     0.333380
44
ex_0169 frame32 Δ-conf3
C        0.773427     0.915069    -5.344984
C        1.242151     2.094890    -4.778201
C        1.281238     2.240927    -3.392916
C        0.865447     1.197843    -2.543992
C        0.420447    -0.046242    -3.126779
C        0.359470    -0.137870    -4.531857
C       -0.003561    -1.310582    -2.355275
N       -1.012094    -1.111355    -1.315890
C       -1.224510    -2.299383    -0.483643
C        0.055010    -3.059166    -0.011690
C        1.304446    -2.258389     0.472216
N        1.049200    -1.083400     1.310909
C        0.043273    -1.310487     2.346332
C       -0.400219    -0.054238     3.121954
C       -0.328572    -0.144881     4.526557
C       -0.754350     0.901129     5.342823
C       -1.248566     2.072365     4.779890
C       -1.302221     2.217068     3.395236
C       -0.873725     1.181993     2.543147
N       -0.913670     1.369188     1.130578
C       -0.711289     2.617029     0.391699
C        0.670704     2.627651    -0.390049
N        0.890008     1.384457    -1.130874
Cu       0.000000     0.000000     0.000000
H        0.742323     0.808660    -6.421835
H        1.577139     2.902260    -5.416352
H        1.655090     3.171393    -2.991223
H        0.018150    -1.047062    -5.012329
H       -0.334863    -2.124737    -3.038195
H       -1.757831    -1.942331     0.422001
H       -1.910420    -3.011445    -0.990352
H       -0.274917    -3.738105     0.804205
H        0.411289    -3.711457    -0.838790
H        1.827724    -1.875379    -0.428990
H        2.014525    -2.949199     0.975022
H        0.392420    -2.119294     3.026573
H        0.033786    -1.047253     5.004323
H       -0.711769     0.796267     6.419365
H       -1.591788     2.874394     5.420396
H       -1.695456     3.140809     2.996352
H       -1.531918     2.694073    -0.352436
H       -0.756892     3.509943     1.044445
H        0.704867     3.522261    -1.041185
H        1.489993     2.713840     0.354585
44
ex_0169 frame33 conf3
C       -5.355754     0.907871    -0.705996
C       -4.795954     2.083929    -1.192157
C       -3.411448     2.229054    -1.253645
C       -2.556361     1.189134    -0.841849
C       -3.132534    -0.050614    -0.377599
C       -4.536558    -0.141999    -0.296011
C       -2.353686    -1.310000     0.046547
N       -1.303600    -1.098462     1.041635
C       -0.468162    -2.282958     1.260083
C       -0.011032    -3.059544    -0.014611
C        0.456445    -2.274948    -1.280308
N        1.298264    -1.097170    -1.050639
C        2.344804    -1.310616    -0.053054
C        3.127689    -0.048554     0.358449
C        4.531072    -0.141084     0.268644
C        5.353411     0.912167     0.663860
C        4.797641     2.092021     1.145457
C        3.413932     2.237483     1.217545
C        2.555660     1.195120     0.819430
N        1.143520     1.382195     0.877123
C        0.403436     2.628472     0.670267
C       -0.401244     2.621307    -0.697662
N       -1.143593     1.374592    -0.889221
Cu       0.000000     0.000000     0.000000
H       -6.432030     0.802175    -0.657774
H       -5.438867     2.889144    -1.523305
H       -3.015988     3.156705    -1.640762
H       -5.011734    -1.048364     0.059801
H       -3.030883    -2.122794     0.392366
H        0.443374    -1.917826     1.777659
H       -0.965968    -2.985806     1.961752
H        0.809813    -3.732926     0.314403
H       -0.841665    -3.717282    -0.351953
H       -0.451245    -1.898288    -1.796898
H        0.950223    -2.974588    -1.987992
H        3.019186    -2.126819    -0.396067
H        5.003331    -1.049742    -0.085013
H        6.429215     0.806625     0.607061
H        5.442941     2.900206     1.464482
H        3.021397     3.168236     1.600372
H       -0.325397     2.719007     1.503083
H        1.057859     3.521099     0.690348
H       -1.053849     3.514935    -0.729565
H        0.328171     2.699398    -1.531246
44
ex_0169 frame34 square-planar cis-conf4
C       -3.142015    -4.429685     0.720491
C       -1.911683    -4.866121     1.198623
C       -0.829797    -3.989758     1.254951
C       -0.962810    -2.649252     0.845430
C       -2.249407    -2.179556     0.389140
C       -3.307499    -3.107498     0.313150
C       -2.590789    -0.737913    -0.031827
N       -1.704277    -0.145857    -1.032344
C       -1.951891     1.282199    -1.251025
C       -2.170621     2.155859     0.023993
C       -1.278797     1.932408     1.285255
N        0.147981     1.694451     1.048008
C        0.731751     2.584362     0.046290
C        2.176244     2.245791    -0.369937
C        3.103400     3.303809    -0.285081
C        4.428424     3.139846    -0.684192
C        4.868152     1.911746    -1.165094
C        3.992146     0.830525    -1.233007
C        2.649431     0.961386    -0.830809
N        1.781832    -0.169092    -0.884067
C        2.141387    -1.573738    -0.680215
C        1.572738    -2.138998     0.689130
N        0.167475    -1.780746     0.887061
Cu       0.000000     0.000000     0.000000
H       -3.978036    -5.115994     0.676420
H       -1.794858    -5.890608     1.527569
H        0.107936    -4.366874     1.636023
H       -4.286469    -2.802098    -0.036437
H       -3.646408    -0.641109    -0.370957
H       -1.051858     1.667715    -1.773949
H       -2.804702     1.426479    -1.948185
H       -2.067593     3.212042    -0.306611
H       -3.221260     2.034299     0.367050
H       -1.651492     1.024572     1.804447
H       -1.420554     2.776729     1.993131
H        0.631900     3.639015     0.387201
H        2.795935     4.280790     0.068062
H        5.114812     3.975176    -0.630846
H        5.895007     1.795869    -1.486890
H        4.371753    -0.105679    -1.615541
H        1.687485    -2.152277    -1.512191
H        3.235194    -1.742142    -0.703813
H        1.742298    -3.232537     0.717714
H        2.147755    -1.680934     1.521299
44
ex_0169 frame35 Isomer 1
C       -0.630168     1.917884    -4.147758
C        0.263432     0.909599    -4.490310
C        0.705576     0.006913    -3.525640
C        0.248599     0.087114    -2.196069
C       -0.713900     1.103812    -1.844912
C       -1.106301     2.019925    -2.841904
C       -1.368977     1.293015    -0.463155
N       -0.446392     1.375865     0.668408
C       -1.121966     1.352798     1.968859
C       -2.264348     0.303476     2.144460
C       -2.091242    -1.143577     1.585699
N       -0.776077    -1.765898     1.762730
C       -0.204140    -1.568056     3.093204
C        1.255120    -2.038473     3.257233
C        1.501143    -2.915376     4.333028
C        2.787941    -3.367636     4.620098
C        3.862410    -2.968999     3.833215
C        3.657608    -2.130940     2.739743
C        2.369244    -1.663127     2.418209
N        2.186125    -0.830839     1.275623
C        2.939418    -0.874067     0.020932
C        2.067135    -1.446380    -1.173341
N        0.740353    -0.831353    -1.223070
Cu       0.309778    -0.473046     0.693823
H       -0.967362     2.618208    -4.901267
H        0.616960     0.826732    -5.509997
H        1.397262    -0.763543    -3.833373
H       -1.815305     2.808431    -2.619934
H       -2.054535     2.169632    -0.444375
H       -1.506207     2.363214     2.224971
H       -0.333141     1.119503     2.714123
H       -2.461158     0.245090     3.236781
H       -3.191923     0.701686     1.678151
H       -2.889828    -1.797307     1.996812
H       -2.256652    -1.101324     0.488572
H       -0.876516    -2.023898     3.853886
H        0.693746    -3.235633     4.980379
H        2.953542    -4.022050     5.466268
H        4.861116    -3.312088     4.070765
H        4.518881    -1.841772     2.155247
H        3.865222    -1.475860     0.099252
H        3.228417     0.169405    -0.225176
H        1.918310    -2.534092    -1.007057
H        2.632486    -1.318988    -2.116473
44
ex_0169 frame36 Isomer 2
C       -5.357574     0.924517    -0.685450
C       -4.796160     2.102031    -1.165835
C       -3.411670     2.242358    -1.233358
C       -2.557779     1.196973    -0.831353
C       -3.135597    -0.043212    -0.372264
C       -4.539811    -0.131106    -0.286559
C       -2.356234    -1.305487     0.041669
N       -1.307251    -1.097315     1.039093
C       -0.473131    -2.281845     1.259427
C       -0.010407    -3.057235    -0.013806
C        0.462102    -2.273084    -1.277777
N        1.302989    -1.095615    -1.045608
C        2.346448    -1.306933    -0.043594
C        3.129811    -0.043158     0.360377
C        4.533461    -0.133852     0.270704
C        5.354243     0.924042     0.657459
C        4.796624     2.105995     1.131453
C        3.412867     2.248274     1.205356
C        2.555968     1.201365     0.814708
N        1.143020     1.384493     0.873172
C        0.405310     2.632355     0.668942
C       -0.403066     2.625253    -0.694644
N       -1.144381     1.377754    -0.883443
Cu       0.000000     0.000000     0.000000
H       -6.434038     0.822808    -0.632753
H       -5.437573     2.912352    -1.487686
H       -3.016350     3.171886    -1.615861
H       -5.016287    -1.038135     0.065480
H       -3.033721    -2.119783     0.383092
H       -0.974264    -2.984988     1.958391
H        0.436117    -1.916815     1.781041
H        0.809345    -3.730223     0.318589
H       -0.839501    -3.714863    -0.354829
H        0.958325    -2.972656    -1.983693
H       -0.443484    -1.895588    -1.797360
H        3.020994    -2.125586    -0.380003
H        5.007016    -1.043788    -0.077607
H        6.430249     0.821069     0.599656
H        5.440327     2.918412     1.443194
H        3.020227     3.181224     1.582511
H        1.060662     3.524301     0.682344
H       -0.318488     2.726420     1.505790
H        0.321510     2.706016    -1.532021
H       -1.055800     3.518946    -0.720133
44
ex_0169 frame37 Δ
C        0.829755     0.938290    -5.334610
C        1.268184     2.125539    -4.759586
C        1.292071     2.266648    -3.373786
C        0.886403     1.212850    -2.531772
C        0.470052    -0.035996    -3.122625
C        0.428959    -0.125711    -4.528675
C        0.058011    -1.305577    -2.354705
N       -0.977357    -1.115109    -1.339788
C       -1.205397    -2.302777    -0.512361
C        0.064521    -3.057357    -0.008352
C        1.299594    -2.252258     0.503249
N        1.020723    -1.078966     1.335779
C       -0.011361    -1.306778     2.345967
C       -0.456227    -0.049855     3.117547
C       -0.408269    -0.140370     4.523199
C       -0.832913     0.912197     5.332065
C       -1.304722     2.088317     4.760512
C       -1.339444     2.229947     3.375168
C       -0.909720     1.188325     2.530255
N       -0.928778     1.370879     1.116291
C       -0.724089     2.622222     0.385119
C        0.661759     2.638176    -0.383286
N        0.892876     1.393707    -1.117348
Cu       0.000000     0.000000     0.000000
H        0.811102     0.835950    -6.412122
H        1.591333     2.942907    -5.391358
H        1.643081     3.204056    -2.968152
H        0.110158    -1.039794    -5.014911
H       -0.244632    -2.127604    -3.041163
H       -1.876464    -3.017117    -1.035282
H       -1.762026    -1.945955     0.379214
H       -0.282955    -3.734952     0.801278
H        0.442469    -3.709823    -0.825383
H        2.001154    -2.939818     1.021836
H        1.841294    -1.865989    -0.385556
H        0.314010    -2.122206     3.029649
H       -0.062552    -1.045972     5.006792
H       -0.805982     0.809655     6.409313
H       -1.645376     2.896744     5.394554
H       -1.716448     3.158344     2.971924
H       -0.769288     3.513437     1.040152
H       -1.541668     2.703909    -0.361590
H        1.476985     2.734177     0.364297
H        0.689522     3.531977    -1.035715
44
ex_0169 frame38 Λ
C        0.928815    -0.684508    -5.356863
C        2.110860    -1.154783    -4.795529
C        2.251376    -1.222772    -3.411247
C        1.200264    -0.830603    -2.558108
C       -0.041701    -0.380134    -3.135098
C       -0.131424    -0.296289    -4.539195
C       -1.305312     0.026552    -2.350872
N       -1.096499     1.035960    -1.309892
C       -2.279126     1.258928    -0.474599
C       -3.054571    -0.012549    -0.006296
C       -2.269439    -1.276665     0.462958
N       -1.094401    -1.044179     1.304864
C       -1.304467    -0.030935     2.342167
C       -0.042444     0.366872     3.129619
C       -0.134877     0.280431     4.533061
C        0.926961     0.657317     5.354128
C        2.113715     1.120487     4.796855
C        2.255253     1.194929     3.413135
C        1.203759     0.813222     2.555973
N        1.384259     0.872815     1.142111
C        2.636714     0.667843     0.409047
C        2.630304    -0.691019    -0.408664
N        1.377815    -0.884246    -1.142570
Cu       0.000000     0.000000     0.000000
H        0.827584    -0.631185    -6.433193
H        2.925200    -1.467924    -5.436601
H        3.184375    -1.597827    -3.017039
H       -1.041771     0.048658    -5.014828
H       -2.127960     0.351650    -3.029175
H       -2.980884     1.957124    -0.976454
H       -1.908210     1.781809     0.430520
H       -3.723896     0.322831     0.815517
H       -3.715316    -0.354662    -0.832889
H       -2.968391    -1.983711     0.959627
H       -1.888132    -1.794962    -0.439479
H       -2.133716    -0.347813     3.015309
H       -1.048283    -0.060331     5.005621
H        0.823925     0.598773     6.430007
H        2.929964     1.423469     5.440682
H        3.193017     1.564153     3.021914
H        3.527640     0.665909     1.069315
H        2.741019     1.510120    -0.304742
H        2.720876    -1.535690     0.308993
H        3.524357    -0.704557    -1.063675
44
ex_0169 frame39 see-saw N0-N1-ax-conf4
C       -4.534390     0.713760    -2.931771
C       -4.941508     1.130111    -1.669670
C       -4.026994     1.184710    -0.623425
C       -2.679593     0.831724    -0.822785
C       -2.234474     0.448373    -2.143706
C       -3.202143     0.372587    -3.165604
C       -0.783322     0.107245    -2.558815
N       -0.139445    -0.933583    -1.761094
C        1.295345    -1.099477    -2.018786
C        2.155304     0.200068    -2.127496
C        1.935982     1.381583    -1.132014
N        1.696777     1.020616     0.265996
C        2.608510    -0.010629     0.764441
C        2.270900    -0.595946     2.149699
C        3.328980    -0.630460     3.083422
C        3.162403    -1.191743     4.349335
C        1.931490    -1.715648     4.725504
C        0.851628    -1.666066     3.847023
C        0.985483    -1.102672     2.561860
N       -0.147113    -1.043812     1.695633
C       -1.541348    -0.862700     2.101766
C       -2.090964     0.558285     1.676754
N       -1.781273     0.858676     0.278829
Cu       0.000000     0.000000     0.000000
H       -5.253530     0.667130    -3.738715
H       -5.972908     1.409599    -1.497468
H       -4.382835     1.513333     0.342302
H       -2.923486     0.069960    -4.167155
H       -0.716513    -0.170778    -3.633959
H        1.459447    -1.727708    -2.919508
H        1.686768    -1.683293    -1.158587
H        3.213675    -0.132311    -2.047841
H        2.035010     0.629064    -3.145142
H        2.784348     2.095404    -1.208178
H        1.028729     1.931373    -1.458629
H        3.655131     0.366144     0.719569
H        4.309575    -0.250327     2.823617
H        3.997115    -1.232629     5.038184
H        1.812206    -2.163764     5.704103
H       -0.085874    -2.088920     4.177626
H       -2.141532    -1.644023     1.590403
H       -1.684669    -0.976498     3.193678
H       -3.173702     0.605641     1.898964
H       -1.582749     1.324765     2.299803
44
ex_0169 frame40 see-saw N0-N1-ax-conf5
C       -4.504837     0.822354    -2.954943
C       -4.914741     1.227473    -1.690062
C       -4.007795     1.250659    -0.635874
C       -2.665319     0.875256    -0.829390
C       -2.217841     0.498984    -2.151292
C       -3.177512     0.458560    -3.182626
C       -0.771439     0.130344    -2.556836
N       -0.160681    -0.931750    -1.760371
C        1.270341    -1.138037    -2.007197
C        2.163323     0.137504    -2.125678
C        1.953820     1.340843    -1.154528
N        1.706377     1.008458     0.249414
C        2.607365    -0.023473     0.765566
C        2.263714    -0.583652     2.159270
C        3.318279    -0.604029     3.096802
C        3.146117    -1.143422     4.371255
C        1.912973    -1.659120     4.751615
C        0.836234    -1.622579     3.868666
C        0.975608    -1.080227     2.575098
N       -0.152295    -1.031462     1.703517
C       -1.551030    -0.859720     2.094404
C       -2.104839     0.559813     1.670088
N       -1.774120     0.873016     0.279083
Cu       0.000000     0.000000     0.000000
H       -5.217894     0.801296    -3.768397
H       -5.942363     1.523217    -1.522182
H       -4.365414     1.572713     0.331535
H       -2.895950     0.164854    -4.186020
H       -0.698624    -0.136802    -3.634210
H        1.639918    -1.720178    -1.136069
H        1.423936    -1.782765    -2.898074
H        2.066615     0.550374    -3.152235
H        3.212566    -0.217736    -2.024910
H        2.811329     2.042089    -1.240951
H        1.055315     1.896120    -1.495414
H        3.657335     0.342905     0.715293
H        4.300287    -0.229879     2.833745
H        3.978305    -1.173740     5.063539
H        1.789422    -2.090427     5.737137
H       -0.102715    -2.038157     4.203690
H       -1.709786    -0.986207     3.182541
H       -2.139623    -1.639540     1.567411
H       -1.621660     1.330057     2.308012
H       -3.192808     0.585493     1.870275
44
ex_0169 frame41 square-planar cis-conf2
C       -3.126460    -4.443170     0.715887
C       -1.889179    -4.882705     1.172542
C       -0.810594    -4.002901     1.231021
C       -0.952138    -2.656696     0.839863
C       -2.243484    -2.186023     0.402433
C       -3.300927    -3.115206     0.329887
C       -2.586025    -0.740292    -0.000615
N       -1.713005    -0.153395    -1.017316
C       -1.961391     1.272460    -1.244980
C       -2.166947     2.157174     0.024518
C       -1.265774     1.941530     1.280470
N        0.158397     1.701851     1.034006
C        0.733954     2.579966     0.015692
C        2.180488     2.242652    -0.389355
C        3.107605     3.301505    -0.312854
C        4.436850     3.130192    -0.696218
C        4.879471     1.895300    -1.156404
C        4.001038     0.816212    -1.222265
C        2.654033     0.954174    -0.833020
N        1.782564    -0.173769    -0.882380
C        2.149140    -1.576382    -0.679086
C        1.578501    -2.145423     0.684136
N        0.174646    -1.783348     0.881159
Cu       0.000000     0.000000     0.000000
H       -3.959962    -5.132539     0.670532
H       -1.763789    -5.912298     1.482878
H        0.131490    -4.385264     1.595514
H       -4.284437    -2.807829    -0.004528
H       -3.647618    -0.636398    -0.317340
H       -2.820206     1.411406    -1.935883
H       -1.065108     1.651290    -1.779188
H       -2.063462     3.210190    -0.316284
H       -3.214783     2.041435     0.377604
H       -1.401085     2.790657     1.983876
H       -1.633347     1.036332     1.807608
H        0.626977     3.640632     0.333709
H        2.798185     4.282826     0.025635
H        5.125098     3.964119    -0.645069
H        5.910305     1.771962    -1.463642
H        4.385449    -0.124314    -1.588853
H        3.243589    -1.741476    -0.690618
H        1.707743    -2.155845    -1.516354
H        2.153471    -1.698135     1.521886
H        1.746897    -3.239493     0.700512
44
ex_0169 frame42 Λ-conf5
C        0.972737    -0.563731    -5.350449
C        2.144294    -1.060080    -4.790377
C        2.272506    -1.160745    -3.406993
C        1.221188    -0.777218    -2.553375
C       -0.016939    -0.306220    -3.130924
C       -0.090843    -0.185525    -4.533304
C       -1.291120     0.085841    -2.356334
N       -1.093328     1.064596    -1.290511
C       -2.280749     1.279996    -0.458410
C       -3.057782     0.005529    -0.002108
C       -2.274641    -1.261836     0.464829
N       -1.099249    -1.032273     1.310348
C       -1.326531    -0.026568     2.347929
C       -0.078896     0.431411     3.127675
C       -0.183723     0.382870     4.532294
C        0.852201     0.826595     5.351661
C        2.029035     1.311276     4.791987
C        2.188608     1.338809     3.407848
C        1.161331     0.896685     2.553062
N        1.358816     0.914491     1.141549
C        2.611002     0.732217     0.406822
C        2.633724    -0.640528    -0.389746
N        1.395014    -0.859612    -1.140437
Cu       0.000000     0.000000     0.000000
H        0.881607    -0.482788    -6.426012
H        2.960061    -1.367199    -5.431861
H        3.197835    -1.552840    -3.010696
H       -0.992569     0.179957    -5.009836
H       -2.097243     0.443273    -3.035546
H       -1.917603     1.797461     0.454221
H       -2.982555     1.983117    -0.955584
H       -3.718952    -0.329312    -0.830418
H       -3.727955     0.335726     0.821550
H       -2.976147    -1.968334     0.957886
H       -1.896874    -1.776804    -0.443174
H       -2.139786    -0.371609     3.025033
H       -1.091510     0.029969     5.006996
H        0.734578     0.806165     6.427618
H        2.822957     1.668805     5.434811
H        3.115529     1.726952     3.011455
H        3.500383     0.778170     1.064369
H        2.683077     1.561392    -0.328451
H        2.721832    -1.467258     0.346287
H        3.532617    -0.661958    -1.035293
44
ex_0169 frame43 conf5
C       -5.351293     0.972494    -0.563620
C       -4.791160     2.144060    -1.059922
C       -3.407775     2.272255    -1.160325
C       -2.554175     1.220851    -0.776734
C       -3.131669    -0.017132    -0.305740
C       -4.534122    -0.091092    -0.185177
C       -2.356612    -1.291034     0.086402
N       -1.289877    -1.092682     1.064421
C       -0.458237    -2.280518     1.280005
C       -0.002157    -3.057618     0.005475
C        0.464707    -2.274632    -1.262015
N        1.310516    -1.099469    -1.032929
C        2.347881    -1.326498    -0.027026
C        3.127574    -0.078889     0.431280
C        4.532211    -0.183683     0.382752
C        5.351584     0.852194     0.826600
C        4.791916     2.028997     1.311352
C        3.407767     2.188554     1.338929
C        2.552965     1.161235     0.896824
N        1.141709     1.358983     0.915086
C        0.406458     2.610758     0.732647
C       -0.390494     2.633309    -0.640015
N       -1.141507     1.395027    -0.859273
Cu       0.000000     0.000000     0.000000
H       -6.426893     0.881387    -0.482958
H       -5.432531     2.959851    -1.367306
H       -3.011386     3.197539    -1.552414
H       -5.010658    -0.992857     0.180204
H       -3.035556    -2.097477     0.443601
H        0.454416    -1.917394     1.797363
H       -0.955196    -2.982300     1.983255
H       -0.830464    -3.718836    -0.329208
H        0.821547    -3.727781     0.335636
H        0.957813    -2.976216    -1.968405
H       -0.443409    -1.896946    -1.776860
H        3.025072    -2.139663    -0.372189
H        5.006933    -1.091425     0.029773
H        6.427548     0.734564     0.806173
H        5.434755     2.822891     1.668926
H        3.011351     3.115449     1.727144
H        1.064027     3.500229     0.777987
H       -0.328387     2.683083     1.562188
H        0.345360     2.721148    -1.466810
H       -1.035998     3.532340    -0.661564
44
ex_0169 frame44 Δ-conf5
C        0.668868     0.967024    -5.339723
C        1.163823     2.134923    -4.770875
C        1.241269     2.262280    -3.385907
C        0.834476     1.213853    -2.539157
C        0.363723    -0.020060    -3.125073
C        0.268075    -0.093541    -4.529393
C       -0.053044    -1.289924    -2.356884
N       -1.050936    -1.081953    -1.310630
C       -1.294511    -2.266994    -0.483094
C       -0.036914    -3.057278    -0.003430
C        1.229447    -2.287371     0.487612
N        0.996219    -1.110022     1.329208
C       -0.032114    -1.326358     2.346900
C       -0.488684    -0.073802     3.119274
C       -0.466596    -0.179182     4.524523
C       -0.911412     0.862486     5.336101
C       -1.371115     2.045289     4.768131
C       -1.372574     2.204766     3.383776
C       -0.928458     1.171707     2.536689
N       -0.919339     1.368788     1.125081
C       -0.710758     2.619821     0.395173
C        0.674530     2.627827    -0.378662
N        0.893707     1.386789    -1.125092
Cu       0.000000     0.000000     0.000000
H        0.606314     0.876454    -6.416564
H        1.488040     2.948499    -5.406769
H        1.633168     3.184824    -2.983060
H       -0.095867    -0.992503    -5.012225
H       -0.403033    -2.094318    -3.041856
H       -1.825228    -1.898310     0.419619
H       -1.995545    -2.961265    -0.993534
H        0.306646    -3.721394    -0.825781
H       -0.389435    -3.724323     0.813427
H        1.919342    -2.996177     0.993523
H        1.765257    -1.914495    -0.410298
H        0.289422    -2.144624     3.029437
H       -0.133634    -1.091260     5.005184
H       -0.911269     0.744971     6.412268
H       -1.729618     2.843960     5.404550
H       -1.742223     3.136473     2.981033
H       -0.756743     3.509076     1.052692
H       -1.527611     2.702436    -0.352878
H        1.490432     2.709049     0.369989
H        0.714004     3.526179    -1.024253
44
ex_0169 frame45 see-saw N0-N1-ax-conf2
C       -4.527304     0.714428    -2.945333
C       -4.939599     1.125098    -1.682967
C       -4.028278     1.180022    -0.633421
C       -2.679065     0.831990    -0.829732
C       -2.230104     0.452731    -2.150188
C       -3.193579     0.378092    -3.175851
C       -0.778083     0.114940    -2.560238
N       -0.139701    -0.929777    -1.763197
C        1.293471    -1.102082    -2.024366
C        2.157511     0.194321    -2.133872
C        1.939950     1.376152    -1.138523
N        1.700460     1.016008     0.259864
C        2.607083    -0.020600     0.755936
C        2.271139    -0.597695     2.144454
C        3.331711    -0.631403     3.074952
C        3.166437    -1.184619     4.344370
C        1.934445    -1.701545     4.726863
C        0.852300    -1.653180     3.850983
C        0.984648    -1.097578     2.562292
N       -0.149647    -1.039643     1.698573
C       -1.542754    -0.852026     2.106411
C       -2.091029     0.567295     1.672970
N       -1.781546     0.859335     0.273406
Cu       0.000000     0.000000     0.000000
H       -5.243468     0.667889    -3.754982
H       -5.972628     1.400017    -1.513472
H       -4.388545     1.504336     0.331979
H       -2.910422     0.079228    -4.177353
H       -0.705675    -0.157948    -3.636307
H        1.452370    -1.729222    -2.926912
H        1.684433    -1.689314    -1.166397
H        3.215018    -0.140939    -2.055022
H        2.037806     0.623681    -3.151501
H        1.033758     1.927677    -1.465127
H        2.789519     2.088412    -1.215206
H        3.656314     0.347744     0.704093
H        4.312918    -0.256296     2.810066
H        4.002958    -1.224405     5.031023
H        1.816230    -2.143237     5.708445
H       -0.085958    -2.070494     4.186451
H       -2.145822    -1.635984     1.602679
H       -1.683330    -0.957175     3.199561
H       -1.580373     1.336401     2.290841
H       -3.173287     0.619086     1.896103
44
ex_0169 frame46 square-planar cis-conf6
C       -3.094933    -4.470098     0.587809
C       -1.867790    -4.901651     1.078821
C       -0.799125    -4.013928     1.173755
C       -0.940043    -2.667105     0.789029
C       -2.226095    -2.201409     0.322227
C       -3.270563    -3.140490     0.208624
C       -2.578564    -0.753820    -0.071757
N       -1.688012    -0.146440    -1.058334
C       -1.940593     1.279563    -1.282379
C       -2.164572     2.159453    -0.012868
C       -1.276947     1.944005     1.253404
N        0.151392     1.710525     1.021735
C        0.721473     2.597398     0.007363
C        2.155605     2.264738    -0.446676
C        3.074706     3.332796    -0.404505
C        4.387545     3.176121    -0.844213
C        4.824855     1.944920    -1.319085
C        3.958528     0.853306    -1.341332
C        2.626749     0.978856    -0.902538
N        1.767948    -0.158770    -0.914669
C        2.135631    -1.562328    -0.725906
C        1.587448    -2.136834     0.648028
N        0.181255    -1.789226     0.865506
Cu       0.000000     0.000000     0.000000
H       -3.920083    -5.166158     0.511569
H       -1.743157    -5.931979     1.386156
H        0.137258    -4.388047     1.562149
H       -4.246814    -2.840165    -0.152996
H       -3.630861    -0.662960    -0.422796
H       -1.039806     1.664686    -1.804619
H       -2.790092     1.419535    -1.984451
H       -3.216693     2.042233     0.325697
H       -2.057753     3.213630    -0.349892
H       -1.422900     2.792689     1.955284
H       -1.649562     1.037527     1.774730
H        0.623217     3.654103     0.342653
H        2.767795     4.312633    -0.059008
H        5.065591     4.019985    -0.828055
H        5.841672     1.834936    -1.673126
H        4.334891    -0.084712    -1.722056
H        3.229779    -1.725088    -0.767677
H        1.670197    -2.137200    -1.554157
H        2.170525    -1.678334     1.474307
H        1.766096    -3.229113     0.670687
44
ex_0169 frame47 conf2
C       -5.357469     0.984401    -0.493764
C       -4.801127     2.154855    -0.996972
C       -3.418919     2.277406    -1.122881
C       -2.562861     1.221546    -0.756356
C       -3.138109    -0.013988    -0.278393
C       -4.538253    -0.083377    -0.133364
C       -2.360811    -1.289741     0.096645
N       -1.285981    -1.096533     1.066451
C       -0.465022    -2.292825     1.274091
C       -0.015229    -3.062829    -0.006867
C        0.470057    -2.273187    -1.263107
N        1.318516    -1.103183    -1.017747
C        2.337342    -1.333271     0.006470
C        3.119774    -0.087396     0.462845
C        4.524205    -0.203074     0.437253
C        5.344615     0.833267     0.878301
C        4.786517     2.020737     1.338099
C        3.403239     2.189532     1.344961
C        2.547122     1.161813     0.905761
N        1.136566     1.369635     0.905305
C        0.420834     2.627926     0.685252
C       -0.383898     2.620495    -0.682616
N       -1.150108     1.386426    -0.861675
Cu       0.000000     0.000000     0.000000
H       -6.431750     0.897428    -0.393128
H       -5.444784     2.974252    -1.289467
H       -3.027263     3.202630    -1.518899
H       -5.011519    -0.984196     0.238717
H       -3.037412    -2.096514     0.457663
H       -0.971871    -2.996446     1.968527
H        0.449048    -1.944426     1.798375
H        0.796176    -3.749133     0.319785
H       -0.851729    -3.707798    -0.353593
H       -0.430509    -1.886183    -1.784448
H        0.966345    -2.972409    -1.969730
H        3.011947    -2.156635    -0.318613
H        4.997313    -1.118821     0.103328
H        6.419951     0.708246     0.874614
H        5.429807     2.815611     1.692786
H        3.007796     3.124362     1.715107
H       -0.302300     2.746177     1.519485
H        1.096556     3.505223     0.687409
H        0.351174     2.670061    -1.513385
H       -1.014878     3.528152    -0.734937
44
ex_0169 frame48 square-planar cis-conf3
C       -3.088544    -4.488722     0.479594
C       -1.863703    -4.927268     0.969598
C       -0.798588    -4.037716     1.094634
C       -0.942666    -2.682772     0.740511
C       -2.226599    -2.211811     0.276392
C       -3.266992    -3.151449     0.131694
C       -2.581461    -0.756908    -0.083878
N       -1.691872    -0.125654    -1.055257
C       -1.959186     1.302346    -1.249711
C       -2.176222     2.154605     0.039724
C       -1.265620     1.929506     1.287630
N        0.159840     1.704338     1.030231
C        0.710015     2.595367     0.008721
C        2.141090     2.271497    -0.460232
C        3.052454     3.346160    -0.432675
C        4.362339     3.196984    -0.883837
C        4.804231     1.966309    -1.356304
C        3.945389     0.869007    -1.365958
C        2.616417     0.986883    -0.916479
N        1.766223    -0.157489    -0.919022
C        2.151078    -1.555055    -0.714094
C        1.586759    -2.130515     0.652786
N        0.173604    -1.801077     0.844488
Cu       0.000000     0.000000     0.000000
H       -3.910530    -5.185905     0.379595
H       -1.737258    -5.964168     1.252509
H        0.135587    -4.418292     1.480296
H       -4.241396    -2.845872    -0.230237
H       -3.633217    -0.661487    -0.435536
H       -2.820231     1.446893    -1.936654
H       -1.070460     1.706523    -1.777428
H       -2.090169     3.216202    -0.279146
H       -3.221203     2.016332     0.393033
H       -1.624880     1.014858     1.804295
H       -1.404006     2.769147     2.002004
H        0.606978     3.652067     0.342561
H        2.741803     4.325547    -0.088960
H        5.034377     4.045793    -0.878235
H        5.818689     1.861910    -1.718692
H        4.324294    -0.068744    -1.745886
H        1.717314    -2.142863    -1.550417
H        3.249112    -1.697427    -0.725214
H        2.147349    -1.652852     1.483810
H        1.782673    -3.218856     0.694453
44
ex_0169 frame49 Δ-conf4
C        0.544885     1.023441    -5.345059
C        0.979358     2.215485    -4.776919
C        1.073282     2.339508    -3.392544
C        0.742933     1.264398    -2.545708
C        0.337525     0.008304    -3.132089
C        0.222500    -0.063587    -4.534998
C        0.011604    -1.286729    -2.363818
N       -0.987018    -1.144429    -1.307320
C       -1.150107    -2.349529    -0.489323
C        0.158732    -3.054990    -0.014505
C        1.364896    -2.205021     0.495168
N        1.045974    -1.050204     1.339601
C        0.015324    -1.330813     2.339442
C       -0.516624    -0.108655     3.112060
C       -0.511860    -0.221415     4.517072
C       -1.018573     0.793046     5.327198
C       -1.525642     1.955869     4.758385
C       -1.515195     2.122318     3.375035
C       -1.009864     1.116463     2.529232
N       -0.993396     1.322613     1.118739
C       -0.825269     2.590636     0.406631
C        0.556130     2.654033    -0.370227
N        0.812890     1.430128    -1.130883
Cu       0.000000     0.000000     0.000000
H        0.468671     0.935405    -6.421242
H        1.243029     3.050581    -5.412904
H        1.416062     3.282063    -2.991927
H       -0.095721    -0.980081    -5.017205
H       -0.295817    -2.108605    -3.048553
H       -1.799482    -3.086607    -1.008068
H       -1.707724    -2.027091     0.414533
H       -0.149078    -3.756998     0.790763
H        0.553038    -3.681201    -0.844077
H        2.096161    -2.868858     1.004066
H        1.882931    -1.790779    -0.395177
H        0.368278    -2.136537     3.021223
H       -0.142197    -1.119029     4.998138
H       -1.028865     0.669899     6.402701
H       -1.930737     2.733375     5.393179
H       -1.923482     3.037542     2.971392
H       -1.650110     2.665498    -0.332839
H       -0.885739     3.467012     1.080825
H        0.571365     3.563031    -1.001347
H        1.369505     2.748011     0.379738
44
ex_0169 frame50 see-saw N0-N1-ax-conf3
C       -4.462703     0.964766    -2.991301
C       -4.873966     1.364737    -1.725024
C       -3.978171     1.345691    -0.660770
C       -2.644867     0.937446    -0.846940
C       -2.195056     0.565360    -2.168861
C       -3.144993     0.563182    -3.209735
C       -0.756169     0.162624    -2.567120
N       -0.156790    -0.908807    -1.772482
C        1.276896    -1.103915    -2.014654
C        2.158843     0.180300    -2.128143
C        1.939296     1.378058    -1.152692
N        1.687088     1.040731     0.249211
C        2.596841     0.027574     0.783355
C        2.246242    -0.505005     2.187193
C        3.289251    -0.483417     3.137880
C        3.110717    -0.993895     4.423501
C        1.883463    -1.525390     4.800907
C        0.817781    -1.531671     3.904295
C        0.961700    -1.015194     2.600746
N       -0.159052    -1.006014     1.718040
C       -1.559622    -0.818782     2.099150
C       -2.102280     0.601370     1.659360
N       -1.762579     0.897746     0.267634
Cu       0.000000     0.000000     0.000000
H       -5.166126     0.978192    -3.813284
H       -5.893542     1.690748    -1.564743
H       -4.334888     1.666390     0.307528
H       -2.860884     0.276474    -4.214559
H       -0.681539    -0.099267    -3.645776
H        1.650187    -1.685202    -1.144678
H        1.437328    -1.742700    -2.908749
H        3.211539    -0.164672    -2.032628
H        2.054775     0.597541    -3.152755
H        1.038559     1.929309    -1.494526
H        2.791482     2.086338    -1.234344
H        3.641368     0.409953     0.737859
H        4.266742    -0.095021     2.878813
H        3.933539    -0.989107     5.127549
H        1.755238    -1.934366     5.795321
H       -0.117555    -1.956544     4.237923
H       -2.151659    -1.598326     1.575851
H       -1.725946    -0.935654     3.187194
H       -3.190989     0.638930     1.853352
H       -1.614051     1.373644     2.291376
44
ex_0169 frame51 Λ-conf2
C        0.986533    -0.495426    -5.358219
C        2.161119    -0.988305    -4.801410
C        2.284113    -1.113257    -3.419142
C        1.225143    -0.754161    -2.563165
C       -0.012875    -0.284887    -3.138864
C       -0.084160    -0.143038    -4.539215
C       -1.288829     0.083511    -2.359911
N       -1.096197     1.060167    -1.290616
C       -2.291994     1.272480    -0.470550
C       -3.062477    -0.006149    -0.015611
C       -2.272650    -1.261026     0.472484
N       -1.103893    -1.013623     1.321640
C       -1.332708     0.016060     2.335453
C       -0.086076     0.466498     3.119327
C       -0.202100     0.441556     4.523714
C        0.837205     0.875452     5.344343
C        2.027352     1.328311     4.786406
C        2.195320     1.336320     3.403150
C        1.164729     0.903533     2.546748
N        1.371471     0.903735     1.136029
C        2.630908     0.684263     0.422369
C        2.623870    -0.680627    -0.385356
N        1.388819    -0.858103    -1.149879
Cu       0.000000     0.000000     0.000000
H        0.899072    -0.396018    -6.432582
H        2.983389    -1.273618    -5.444724
H        3.212854    -1.501458    -3.028236
H       -0.987918     0.221744    -5.012454
H       -2.100363     0.435012    -3.035635
H       -2.994993     1.965633    -0.979888
H       -1.942251     1.800232     0.440942
H       -3.747692     0.323553     0.795413
H       -3.708048    -0.355277    -0.850577
H       -1.884177    -1.783676    -0.426703
H       -2.971567    -1.967384     0.969305
H       -2.159552    -0.302005     3.008991
H       -1.119664     0.112417     4.996504
H        0.712810     0.871190     6.419722
H        2.825056     1.676734     5.429685
H        3.132545     1.701256     3.008677
H        2.752521     1.521077    -0.297108
H        3.507340     0.681392     1.099245
H        2.676321    -1.514506     0.345871
H        3.531145    -0.727655    -1.017272
44
ex_0169 frame52 see-saw N0-N1-ax
C       -4.474724     0.960640    -2.976473
C       -4.881583     1.360488    -1.708855
C       -3.981592     1.343027    -0.648378
C       -2.648182     0.935920    -0.839617
C       -2.202687     0.565056    -2.163045
C       -3.157032     0.561217    -3.200136
C       -0.763883     0.165312    -2.566501
N       -0.160139    -0.905295    -1.774176
C        1.273173    -1.099224    -2.018822
C        2.155980     0.184897    -2.126526
C        1.940505     1.379300    -1.146012
N        1.687679     1.038126     0.254797
C        2.596927     0.024330     0.788991
C        2.242738    -0.512242     2.190981
C        3.282446    -0.492519     3.145691
C        3.100016    -1.007181     4.429375
C        1.872305    -1.541582     4.800815
C        0.810039    -1.546145     3.900512
C        0.957501    -1.024567     2.599307
N       -0.161046    -1.012664     1.713914
C       -1.561422    -0.826288     2.095680
C       -2.100801     0.596410     1.663402
N       -1.763227     0.896739     0.272232
Cu       0.000000     0.000000     0.000000
H       -5.181782     0.972602    -3.795379
H       -5.901063     1.684882    -1.544287
H       -4.335497     1.663176     0.321089
H       -2.876787     0.274561    -4.205967
H       -0.694057    -0.097991    -3.645124
H        1.432274    -1.733530    -2.916375
H        1.647314    -1.684820    -1.152062
H        3.208299    -0.161923    -2.033959
H        2.051105     0.606904    -3.149092
H        2.794531     2.085636    -1.225501
H        1.040827     1.933816    -1.485483
H        3.640950     0.408626     0.748693
H        4.260388    -0.102156     2.891531
H        3.920034    -1.003619     5.136697
H        1.740771    -1.953972     5.793472
H       -0.125726    -1.973285     4.230057
H       -1.728431    -0.947323     3.183095
H       -2.154390    -1.602762     1.568900
H       -1.610291     1.365199     2.297797
H       -3.189181     0.634524     1.859525
44
ex_0169 frame53 conf4
C       -5.358187     0.999954    -0.468065
C       -4.800782     2.172800    -0.964117
C       -3.419243     2.291941    -1.096266
C       -2.564042     1.230610    -0.740881
C       -3.140290    -0.005733    -0.268746
C       -4.539991    -0.073199    -0.119766
C       -2.361925    -1.284078     0.095677
N       -1.287172    -1.094309     1.066765
C       -0.465672    -2.290215     1.273088
C       -0.017095    -3.059315    -0.008638
C        0.465867    -2.269396    -1.265403
N        1.317268    -1.101610    -1.021522
C        2.337292    -1.331059     0.002030
C        3.123195    -0.084354     0.449673
C        4.527579    -0.198447     0.417328
C        5.349385     0.841440     0.848099
C        4.792423     2.030474     1.305245
C        3.409253     2.196409     1.320739
C        2.551371     1.165603     0.891248
N        1.141077     1.369970     0.898729
C        0.426309     2.629987     0.685739
C       -0.386235     2.626396    -0.674928
N       -1.151328     1.391914    -0.851879
Cu       0.000000     0.000000     0.000000
H       -6.432170     0.915766    -0.362986
H       -5.443177     2.997079    -1.246274
H       -3.028049     3.219594    -1.486731
H       -5.013966    -0.975444     0.247574
H       -3.038091    -2.093666     0.450766
H       -0.971112    -2.993771     1.968387
H        0.448633    -1.940557     1.795938
H        0.795229    -3.745106     0.316657
H       -0.854080    -3.704087    -0.354322
H        0.958476    -2.968174    -1.974761
H       -0.435457    -1.879415    -1.783166
H        3.009986    -2.156686    -0.321070
H        4.999823    -1.115068     0.084743
H        6.424883     0.718668     0.838137
H        5.436433     2.828703     1.651165
H        3.015857     3.132989     1.688941
H       -0.290204     2.748138     1.526037
H        1.102114     3.507463     0.684370
H       -1.018556     3.533943    -0.714630
H        0.340816     2.682509    -1.511961
44
ex_0169 frame54 Λ-conf4
C        1.000430    -0.468478    -5.358132
C        2.174477    -0.961784    -4.800749
C        2.293637    -1.093801    -3.419033
C        1.231707    -0.740585    -2.563990
C       -0.005639    -0.270815    -3.140239
C       -0.073432    -0.122567    -4.540185
C       -1.283949     0.091517    -2.361828
N       -1.094325     1.064593    -1.288530
C       -2.290043     1.272449    -0.467429
C       -3.059390    -0.008534    -0.017308
C       -2.269294    -1.264791     0.466587
N       -1.101997    -1.020101     1.318222
C       -1.331215     0.005052     2.336813
C       -0.084150     0.451105     3.122875
C       -0.198369     0.418677     4.527353
C        0.842393     0.847494     5.349135
C        2.031950     1.303042     4.792256
C        2.197736     1.319142     3.408998
C        1.165847     0.891147     2.551496
N        1.370647     0.899090     1.140623
C        2.630682     0.686709     0.426352
C        2.627202    -0.674273    -0.386141
N        1.392365    -0.851035    -1.151023
Cu       0.000000     0.000000     0.000000
H        0.916145    -0.363613    -6.432204
H        2.999463    -1.241853    -5.442977
H        3.222312    -1.482150    -3.028105
H       -0.976521     0.242887    -5.014007
H       -2.094804     0.444271    -3.037589
H       -2.993469     1.967465    -0.973503
H       -1.940093     1.796378     0.446251
H       -3.744896     0.317603     0.794858
H       -3.704215    -0.354945    -0.853904
H       -2.968008    -1.974144     0.959291
H       -1.878822    -1.782995    -0.434345
H       -2.157636    -0.316397     3.009171
H       -1.115330     0.087118     4.999474
H        0.719855     0.837112     6.424672
H        2.831020     1.647242     5.436201
H        3.134742     1.686042     3.015894
H        2.749763     1.526891    -0.289584
H        3.507596     0.683078     1.102506
H        3.534537    -0.713630    -1.018452
H        2.683379    -1.511965     0.340382
44
ex_0169 frame55 Δ-conf2
C        0.434743     1.008433    -5.360056
C        0.870668     2.205866    -4.804416
C        0.994004     2.334561    -3.422569
C        0.689213     1.259161    -2.565953
C        0.278893     0.000254    -3.140228
C        0.137646    -0.078296    -4.540193
C       -0.025805    -1.290885    -2.359372
N       -1.010626    -1.142860    -1.290690
C       -1.169729    -2.346260    -0.470277
C        0.141877    -3.059354    -0.016068
C        1.361211    -2.214387     0.470002
N        1.063665    -1.057842     1.319769
C        0.045546    -1.331585     2.334430
C       -0.453720    -0.105664     3.120924
C       -0.419604    -0.220708     4.525175
C       -0.892474     0.800263     5.347352
C       -1.395481     1.970851     4.791024
C       -1.415999     2.137727     3.407845
C       -0.944138     1.125599     2.550036
N       -0.957866     1.331142     1.138926
C       -0.798038     2.599568     0.425792
C        0.561551     2.652904    -0.387967
N        0.789053     1.426552    -1.152957
Cu       0.000000     0.000000     0.000000
H        0.336598     0.916376    -6.434112
H        1.112760     3.041451    -5.448312
H        1.337198     3.281388    -3.033178
H       -0.183844    -0.998875    -5.012342
H       -0.338459    -2.119381    -3.033514
H       -1.831723    -3.079111    -0.978944
H       -1.711931    -2.019955     0.441655
H       -0.156364    -3.758069     0.795619
H        0.518223    -3.689138    -0.851193
H        1.864421    -1.802856    -0.429978
H        2.098907    -2.881176     0.965336
H        0.398089    -2.145833     3.006074
H       -0.051373    -1.123971     4.996614
H       -0.878977     0.676637     6.422712
H       -1.773318     2.754156     5.435400
H       -1.820482     3.059247     3.015099
H       -1.643053     2.685139    -0.289326
H       -0.829606     3.475004     1.103006
H        1.396204     2.743606     0.338718
H        0.563687     3.561168    -1.020085
44
ex_0169 frame56 square-planar cis-conf5
C       -3.075678    -4.498889     0.485385
C       -1.844349    -4.938189     0.957741
C       -0.781288    -4.046306     1.080630
C       -0.932523    -2.688274     0.738612
C       -2.221203    -2.218157     0.289784
C       -3.261497    -3.158872     0.150963
C       -2.578568    -0.761618    -0.059187
N       -1.699169    -0.133498    -1.042708
C       -1.966692     1.293170    -1.242185
C       -2.175583     2.150965     0.044588
C       -1.258774     1.929378     1.288328
N        0.165572     1.707344     1.024556
C        0.710383     2.592911    -0.005161
C        2.143222     2.269270    -0.467653
C        3.055636     3.343304    -0.441572
C        4.368303     3.189879    -0.883996
C        4.811059     1.956389    -1.347861
C        3.950000     0.861173    -1.358947
C        2.618364     0.983007    -0.916953
N        1.765220    -0.159101    -0.920064
C        2.154997    -1.555824    -0.718400
C        1.592948    -2.134838     0.645699
N        0.181230    -1.802798     0.839559
Cu       0.000000     0.000000     0.000000
H       -3.896265    -5.198100     0.387568
H       -1.711132    -5.977559     1.228729
H        0.156936    -4.429329     1.453252
H       -4.240186    -2.852857    -0.198622
H       -3.634893    -0.663117    -0.395389
H       -2.831069     1.434800    -1.925362
H       -1.080147     1.693419    -1.776521
H       -2.089890     3.211103    -0.278898
H       -3.218575     2.014316     0.403993
H       -1.395455     2.768789     2.002999
H       -1.612851     1.013988     1.807303
H        0.603920     3.651946     0.319629
H        2.744390     4.324424    -0.103569
H        5.042318     4.036937    -0.877664
H        5.827972     1.847703    -1.702435
H        4.331085    -0.077950    -1.732931
H        1.725346    -2.142797    -1.557071
H        3.253226    -1.696702    -0.725858
H        1.787840    -3.223487     0.676550
H        2.155632    -1.665428     1.479792
44
ex_0169 frame57 see-saw N0-N1-ax-conf6
C       -4.569469     1.925189    -2.155752
C       -4.924465     1.501152    -0.882513
C       -4.065729     0.681426    -0.148172
C       -2.807348     0.270958    -0.668230
C       -2.469870     0.720533    -1.978925
C       -3.346361     1.547095    -2.693844
C       -1.211265     0.377769    -2.695928
N       -0.012779     0.586700    -1.910743
C        0.754556     1.780938    -1.806048
C        2.226860     1.311570    -1.643856
C        2.461022    -0.215224    -1.283276
N        1.881571    -0.675666    -0.001786
C        2.625078     0.011681     1.055071
C        2.155799    -0.335281     2.432473
C        3.072661    -0.946188     3.316723
C        2.706767    -1.263502     4.620714
C        1.424783    -0.974855     5.063830
C        0.500479    -0.376632     4.203961
C        0.833359    -0.064996     2.852816
N       -0.126296     0.504964     1.931692
C       -1.551739     0.506562     2.212326
C       -2.113620    -0.750955     1.532057
N       -1.914710    -0.566522     0.106974
Cu       0.000000     0.000000     0.000000
H       -5.242811     2.547695    -2.730051
H       -5.872922     1.808259    -0.460657
H       -4.409815     0.404007     0.833678
H       -3.090606     1.876824    -3.694188
H       -1.272794    -0.711896    -2.914629
H        0.411787     2.267250    -0.866862
H        0.613058     2.477781    -2.657332
H        2.759598     2.004010    -0.956809
H        2.698412     1.424114    -2.641963
H        3.555041    -0.422438    -1.302651
H        2.032746    -0.843821    -2.090944
H        3.711379    -0.219389     0.961576
H        4.084235    -1.173690     3.002270
H        3.419681    -1.729991     5.290787
H        1.141498    -1.222297     6.080385
H       -0.468628    -0.204451     4.633674
H       -2.013495     1.418178     1.779796
H       -1.794180     0.536252     3.284540
H       -3.166272    -0.972913     1.788730
H       -1.523042    -1.623713     1.884590
44
ex_0169 frame58 square-planar cis
C        0.424529    -1.473673     4.328178
C        1.311371    -2.286004     3.627594
C        1.136941    -2.497740     2.265203
C        0.103806    -1.853313     1.569066
C       -0.837763    -1.046208     2.292768
C       -0.659745    -0.889147     3.674679
C       -2.042043    -0.326548     1.685035
N       -1.952293    -0.355963     0.235276
C       -2.735315     0.661317    -0.494727
C       -2.352831     2.149868    -0.246955
C       -0.973646     2.640712    -0.747883
N        0.133858     1.999327    -0.067749
C        0.854443     2.557409     0.839211
C        2.006891     1.869457     1.516583
C        2.575474     2.569019     2.594581
C        3.650344     2.045535     3.307674
C        4.196294     0.818717     2.947739
C        3.668429     0.102408     1.876348
C        2.557430     0.591357     1.160200
N        1.988948    -0.168627     0.100102
C        2.376303    -1.460133    -0.411275
C        1.078783    -2.193552    -0.811552
N       -0.007116    -2.000005     0.150681
Cu       0.000000     0.000000     0.000000
H        0.578032    -1.294642     5.382613
H        2.147826    -2.744721     4.136312
H        1.838772    -3.135210     1.751572
H       -1.333039    -0.256161     4.239585
H       -1.967946     0.721156     2.033273
H       -3.809278     0.524163    -0.244731
H       -2.630638     0.464394    -1.584602
H       -3.101045     2.752243    -0.810304
H       -2.481288     2.423926     0.817250
H       -0.874445     2.469769    -1.841242
H       -0.934390     3.741962    -0.585753
H        0.608106     3.570360     1.150461
H        2.177850     3.531202     2.895588
H        4.061800     2.597175     4.142118
H        5.031140     0.416362     3.505672
H        4.123783    -0.846211     1.641390
H        2.943268    -2.037971     0.328233
H        3.023511    -1.346077    -1.308087
H        0.726458    -1.704371    -1.749395
H        1.238155    -3.262070    -1.060024
