127
ex_0458 frame0 Isomer 2
C       -1.778970    -4.940762    -0.863244
C       -0.751661    -5.779563    -0.207979
N        0.192955    -4.895062     0.323221
C        1.379472    -5.267013     1.045800
C        2.325135    -6.098997     0.144542
C        2.926926    -7.272255     0.907548
C        1.747814    -8.164393     1.344917
C        0.754230    -7.450590     2.294026
C        0.988193    -5.937920     2.379362
C       -0.175868    -3.625596     0.063665
Se       0.770790    -2.140108     0.585514
Ag       0.044552     0.405952     0.698022
Se      -1.687945     1.934734     1.995627
C       -3.506728     1.639201     1.989186
N       -4.140897     0.556142     2.543488
C       -3.469379    -0.537954     3.208767
C       -4.199375    -1.883988     3.004438
C       -4.681705    -2.477477     4.326850
C       -3.500499    -2.609234     5.298637
C       -2.727156    -1.274553     5.501954
C       -3.329386    -0.120202     4.691627
C       -5.533484     0.707696     2.347016
C       -5.721438     1.944381     1.641902
N       -4.461803     2.476667     1.432936
C       -4.214559     3.716258     0.738236
C       -3.564713     3.436526    -0.630295
C       -3.494179     4.748333    -1.450306
C       -3.545592     6.026185    -0.571434
C       -2.681647     5.783435     0.661325
C       -3.433254     4.792978     1.575101
Se       2.164170     1.952053     0.324802
C        2.523125     2.027912    -1.464038
N        2.120135     3.073769    -2.289056
C        1.344786     4.237920    -1.854383
C        1.383586     5.324000    -2.949872
C        2.791431     5.930462    -2.884021
C        2.828093     6.848448    -1.644701
C        2.009877     6.308677    -0.444601
C        1.949007     4.794472    -0.497551
C        2.585956     2.805261    -3.577572
C        3.276035     1.611408    -3.554766
N        3.231246     1.132175    -2.198282
C        3.858566    -0.107198    -1.758826
C        4.546724     0.103947    -0.373301
C        5.940085    -0.507875    -0.240872
C        5.996377    -1.879177    -0.901930
C        5.646559    -1.807832    -2.400598
C        4.914593    -0.539934    -2.806523
N       -1.378529    -3.596141    -0.655073
C       -2.064379    -2.393933    -1.092208
C       -3.560097    -2.612951    -1.403013
C       -3.830052    -3.047298    -2.851057
C       -3.206663    -2.014355    -3.800542
C       -1.681298    -2.050144    -3.628473
C       -1.275248    -1.648257    -2.203517
H       -2.684896    -5.295718    -1.382766
H       -0.761277    -6.846857    -0.173888
H        1.957807    -4.354587     1.366955
H        3.095440    -5.443296    -0.315290
H        1.735999    -6.525846    -0.700796
H        3.518035    -6.910267     1.777298
H        3.584627    -7.838232     0.213790
H        1.189850    -8.434714     0.410721
H        2.099496    -9.113352     1.791360
H        0.899170    -7.832197     3.336952
H       -0.282138    -7.689593     1.972857
H        0.121260    -5.401519     2.876657
H        1.872760    -5.798015     3.030843
H       -2.396088    -0.660888     2.822388
H       -5.099657    -1.769692     2.364970
H       -3.532744    -2.576753     2.447771
H       -5.430817    -1.796523     4.788990
H       -5.185984    -3.456495     4.136098
H       -3.899491    -2.956578     6.283321
H       -2.784530    -3.388750     4.921853
H       -1.653198    -1.421264     5.206007
H       -2.779384    -0.973780     6.571520
H       -4.345754     0.124084     5.050268
H       -2.713558     0.812230     4.803025
H       -6.305117     0.029132     2.638186
H       -6.679857     2.370189     1.306416
H       -5.213744     4.144772     0.490137
H       -2.533410     3.053214    -0.455295
H       -4.157851     2.659551    -1.192411
H       -2.539725     4.720482    -2.030763
H       -4.331592     4.785043    -2.180681
H       -4.598107     6.230031    -0.241173
H       -3.236104     6.905160    -1.167551
H       -1.718853     5.340266     0.321681
H       -2.470180     6.716037     1.221418
H       -4.203842     5.355387     2.162157
H       -2.711581     4.389073     2.321461
H        0.284599     3.896122    -1.658458
H        1.111374     4.911599    -3.942584
H        0.614274     6.095995    -2.749783
H        3.060155     6.497994    -3.800244
H        3.571675     5.126358    -2.760749
H        3.886105     7.046176    -1.370884
H        2.358793     7.816197    -1.928627
H        2.439812     6.658996     0.535369
H        0.953998     6.644015    -0.541765
H        1.327810     4.436052     0.369710
H        3.014114     4.463322    -0.394030
H        2.465336     3.404907    -4.496139
H        3.771888     1.161884    -4.445818
H        3.108203    -0.920946    -1.658486
H        4.712358     1.185056    -0.149402
H        3.851409    -0.317750     0.403747
H        6.217212    -0.539023     0.843081
H        6.642770     0.165456    -0.771283
H        5.270088    -2.547753    -0.371673
H        7.027001    -2.278180    -0.795034
H        6.562659    -1.802825    -3.024053
H        5.011934    -2.683354    -2.654481
H        4.443202    -0.724424    -3.798201
H        5.629616     0.315991    -2.861634
H       -2.061900    -1.743436    -0.175038
H       -3.997517    -3.348669    -0.673665
H       -4.084774    -1.637749    -1.268651
H       -3.408094    -4.055387    -3.095699
H       -4.938408    -3.084293    -3.006318
H       -3.466369    -2.274224    -4.849260
H       -3.606993    -0.997650    -3.579942
H       -1.336300    -3.085905    -3.859156
H       -1.212252    -1.329817    -4.343811
H       -1.460634    -0.556653    -2.089666
H       -0.171090    -1.839229    -2.105427
127
ex_0458 frame1 Isomer 1
C        4.268957     3.869457     3.838913
C        4.199666     4.514039     2.598721
N        3.837286     3.506465     1.684525
C        3.665113     3.763525     0.255615
C        4.567583     4.851287    -0.254500
C        4.220635     5.205668    -1.708516
C        3.315758     4.151755    -2.348189
C        1.996106     4.032504    -1.561430
C        2.248408     4.236870    -0.063252
C        3.693222     2.337942     2.294811
Se       3.246177     0.822721     1.515902
Ag       0.845512     0.453841     0.456075
Se       0.694013    -0.249086    -2.094502
C       -0.646910    -1.200256    -2.721749
N       -0.962766    -2.510668    -2.421328
C       -0.242182    -3.401705    -1.506000
C        1.273482    -3.398485    -1.825727
C        1.866618    -4.802113    -1.763738
C        1.242012    -5.605415    -2.925868
C       -0.244908    -5.281836    -3.084159
C       -0.775086    -4.831070    -1.718924
C       -2.120111    -2.835913    -3.166973
C       -2.481006    -1.731260    -3.915154
N       -1.556492    -0.732303    -3.615546
C       -1.556458     0.607289    -4.168640
C       -0.436903     0.682869    -5.198601
C       -0.915826     0.050974    -6.487954
C       -1.970187     0.980961    -7.033467
C       -3.212948     0.869532    -6.167441
C       -2.952444     1.015943    -4.664696
Se      -1.099033    -0.416868     2.031864
C       -2.799283    -0.045357     1.755238
N       -3.354781     1.134729     1.391055
C       -2.636462     2.365662     1.147356
C       -2.663866     3.152553     2.451869
C       -2.224181     4.595378     2.290215
C       -3.063669     5.222379     1.191844
C       -2.724172     4.534150    -0.108210
C       -3.266420     3.123855    -0.027973
C       -4.747378     0.987110     1.283192
C       -5.079937    -0.351625     1.677534
N       -3.830119    -0.980781     1.900871
C       -3.642458    -2.400826     2.235040
C       -2.570943    -2.584621     3.333144
C       -2.969111    -3.652173     4.318392
C       -4.168398    -3.147735     5.115412
C       -5.253857    -2.592485     4.184842
C       -4.984499    -2.977510     2.735108
N        3.948583     2.479825     3.635048
C        3.932450     1.529337     4.698562
C        5.140792     0.600478     4.649805
C        5.046478    -0.227293     5.933484
C        3.787272    -1.106540     5.962639
C        2.840002    -0.758555     4.818600
C        2.610997     0.756056     4.767709
H        4.521969     4.293257     4.769169
H        4.391250     5.551379     2.408667
H        3.933050     2.831952    -0.292898
H        4.365557     5.788534     0.337378
H        5.652431     4.587648    -0.116850
H        5.135322     5.324416    -2.287134
H        3.633458     6.147818    -1.739245
H        3.085943     4.463444    -3.352659
H        3.835888     3.158373    -2.393969
H        1.280069     4.809424    -1.884687
H        1.539111     3.047472    -1.787816
H        2.197249     5.339687     0.123624
H        1.468576     3.780372     0.551931
H       -0.372815    -3.088691    -0.448982
H        1.390673    -3.069912    -2.881545
H        1.824387    -2.725063    -1.157029
H        2.934741    -4.734016    -1.914051
H        1.681295    -5.278397    -0.763683
H        1.764926    -5.272313    -3.839701
H        1.366671    -6.700822    -2.812922
H       -0.812707    -6.109756    -3.522034
H       -0.320455    -4.430168    -3.805052
H       -0.400146    -5.480517    -0.910108
H       -1.855993    -4.895771    -1.679849
H       -2.632214    -3.747949    -3.190338
H       -3.297531    -1.661029    -4.587851
H       -1.302022     1.275805    -3.336366
H       -0.098086     1.733703    -5.360854
H        0.405970     0.090552    -4.825307
H       -1.346788    -0.947304    -6.271161
H       -0.090294    -0.069652    -7.214041
H       -2.256338     0.658543    -8.051309
H       -1.544270     2.013942    -7.029124
H       -3.926345     1.650940    -6.452618
H       -3.684760    -0.108559    -6.399021
H       -3.159213     2.045197    -4.345911
H       -3.698277     0.398502    -4.141665
H       -1.586753     2.153836     0.896024
H       -3.707468     3.149750     2.835124
H       -1.981851     2.668219     3.166204
H       -1.129326     4.670214     2.091357
H       -2.432607     5.115831     3.231735
H       -2.904498     6.318639     1.118979
H       -4.127523     5.003532     1.418232
H       -1.626099     4.546558    -0.249262
H       -3.229394     5.059524    -0.934202
H       -4.371089     3.235880     0.080886
H       -3.063344     2.577142    -0.955038
H       -5.448654     1.738582     1.006687
H       -6.064018    -0.790709     1.749568
H       -3.347333    -2.945519     1.330803
H       -2.478949    -1.640590     3.928435
H       -1.594074    -2.867373     2.882979
H       -2.153115    -3.851056     4.996582
H       -3.223996    -4.595224     3.783199
H       -4.568251    -3.994492     5.713953
H       -3.841546    -2.326556     5.795827
H       -5.340683    -1.488677     4.305515
H       -6.204143    -3.054501     4.459258
H       -4.924463    -4.079412     2.689331
H       -5.828185    -2.698465     2.122049
H        4.034700     2.078072     5.659238
H        6.048413     1.210368     4.705679
H        5.146584    -0.046757     3.734819
H        4.954835     0.502698     6.760897
H        5.955575    -0.819440     6.122266
H        4.104097    -2.145315     5.815800
H        3.272295    -1.043728     6.950303
H        3.322319    -1.145767     3.885914
H        1.881365    -1.261176     4.957118
H        2.065193     0.999827     5.693970
H        1.976531     1.062651     3.927962
127
ex_0458 frame2 conf4
C        6.386666     1.342642    -0.231599
C        6.337944     0.586792    -1.443040
N        5.071258     0.003816    -1.516604
C        4.653431    -0.898995    -2.610300
C        3.322253    -1.643963    -2.432750
C        3.375626    -2.798786    -3.409698
C        4.263699    -3.872334    -2.767655
C        5.552164    -3.239716    -2.210780
C        5.809633    -1.884507    -2.847282
C        4.296752     0.395887    -0.410868
Se       2.650000     0.000000     0.000000
Ag       0.000000     0.000000     0.000000
Se      -1.325029     2.294950     0.000000
C       -1.620053     3.994447     0.310055
N       -0.885571     5.071826    -0.055369
C        0.345110     5.054679    -0.819506
C        0.559840     6.411711    -1.469340
C       -0.542713     6.737574    -2.495893
C       -1.419936     5.554694    -2.929937
C       -0.698320     4.210864    -3.012464
C        0.423033     4.039816    -1.982271
C       -1.500091     6.237218     0.422579
C       -2.643112     5.862734     1.088306
N       -2.717236     4.476781     1.025228
C       -3.813704     3.753901     1.645319
C       -5.076676     3.795050     0.783509
C       -6.236149     3.352181     1.664429
C       -6.002046     1.952109     2.217498
C       -4.706408     1.911022     3.008968
C       -3.548249     2.322202     2.116781
Se      -1.325029    -2.294950     0.000000
C       -2.226892    -3.873410     0.028491
N       -1.674978    -5.137505     0.119987
C       -0.269470    -5.491778     0.240362
C        0.656905    -4.728903    -0.714196
C        0.206143    -5.004361    -2.147343
C        0.580644    -6.459966    -2.408658
C       -0.335569    -7.312747    -1.553480
C       -0.074826    -6.975910    -0.072301
C       -2.723510    -6.061135     0.076887
C       -3.923004    -5.377323     0.001550
N       -3.613015    -4.002523    -0.050308
C       -4.578445    -2.920546    -0.165689
C       -4.453202    -1.891584     0.953573
C       -4.513096    -2.556476     2.321210
C       -5.652740    -3.592473     2.380872
C       -6.657843    -3.480594     1.230927
C       -6.026405    -3.447467    -0.170696
N        5.157583     1.235011     0.379910
C        4.846350     1.892351     1.627498
C        5.326468     1.085635     2.835461
C        4.426380     1.259212     4.058152
C        3.823284     2.665809     4.243697
C        3.532210     3.414679     2.944085
C        3.420094     2.418685     1.801084
H        7.204951     1.892108     0.138633
H        7.128041     0.471314    -2.088064
H        4.580817    -0.217013    -3.455363
H        3.210815    -2.105255    -1.416536
H        2.471344    -0.993163    -2.670649
H        2.376467    -3.164524    -3.632529
H        3.845994    -2.460487    -4.362579
H        3.706766    -4.318699    -1.913606
H        4.496667    -4.673699    -3.496342
H        5.465277    -3.114035    -1.108170
H        6.403842    -3.884565    -2.449865
H        6.764011    -1.526522    -2.484728
H        5.903428    -2.029731    -3.943461
H        1.221512     4.840849    -0.152451
H        0.650797     7.222586    -0.722446
H        1.516084     6.359411    -2.007262
H       -0.048783     7.184747    -3.370221
H       -1.234090     7.493790    -2.080531
H       -1.837459     5.791179    -3.914581
H       -2.296115     5.451240    -2.238515
H       -0.269095     4.086650    -4.021950
H       -1.455807     3.417024    -2.871630
H        1.363576     4.278991    -2.508778
H        0.567856     2.988753    -1.675235
H       -1.180514     7.232500     0.307386
H       -3.344687     6.511413     1.579359
H       -4.047894     4.327227     2.571688
H       -4.967736     3.125318    -0.103908
H       -5.260176     4.843885     0.467020
H       -6.274486     4.053049     2.526656
H       -7.197100     3.380884     1.121684
H       -6.831378     1.733851     2.911620
H       -5.946442     1.208692     1.390520
H       -4.788709     2.627593     3.853546
H       -4.538163     0.902877     3.417816
H       -2.623117     2.317490     2.722006
H       -3.505587     1.606942     1.260692
H        0.045321    -5.306002     1.279504
H        1.674913    -5.145326    -0.565699
H        0.788475    -3.665713    -0.475722
H        0.678298    -4.326677    -2.873502
H       -0.897561    -4.873542    -2.238806
H        1.630639    -6.649718    -2.075304
H        0.494281    -6.717156    -3.478222
H       -0.096186    -8.378809    -1.680115
H       -1.378758    -7.119078    -1.907397
H       -0.658451    -7.618636     0.601372
H        0.977939    -7.192009     0.118657
H       -2.626478    -7.108539     0.126397
H       -4.855297    -5.870108    -0.035129
H       -4.385283    -2.430904    -1.138319
H       -5.321830    -1.226356     0.842168
H       -3.555376    -1.271150     0.905770
H       -4.656801    -1.750022     3.068354
H       -3.538239    -3.046448     2.566857
H       -5.247762    -4.624545     2.388611
H       -6.207300    -3.425715     3.313416
H       -7.242356    -2.543876     1.369117
H       -7.336912    -4.337872     1.282532
H       -6.637551    -2.752622    -0.771749
H       -6.143638    -4.417378    -0.685068
H        5.494056     2.804608     1.607603
H        6.365052     1.358093     3.103675
H        5.292264     0.014405     2.556455
H        3.592419     0.518872     3.949504
H        4.980103     0.994052     4.961053
H        4.457600     3.296004     4.887160
H        2.859851     2.513938     4.758628
H        2.640862     4.056832     3.045189
H        4.400079     4.093473     2.749125
H        3.090332     2.900077     0.861573
H        2.717852     1.612559     2.120605
127
ex_0458 frame3 Isomer 3
C        6.507391    -0.475006     0.803450
C        6.590879     0.161633    -0.440246
N        5.269684     0.377307    -0.838542
C        4.898211     1.026717    -2.091848
C        5.877137     0.737537    -3.192585
C        5.551902     1.581954    -4.431682
C        4.152801     2.192912    -4.353356
C        4.037783     3.110844    -3.120012
C        4.856633     2.541345    -1.954101
C        4.419339    -0.077783     0.080672
Se       2.650000     0.000000     0.000000
Ag       0.000000     0.000000     0.000000
Se      -1.325029     2.294950     0.000000
C       -2.251274     3.676830     0.574760
N       -3.626010     3.762957     0.704920
C       -4.613632     2.722102     0.391720
C       -4.367241     2.148520    -1.026528
C       -5.671224     1.946383    -1.789084
C       -6.259717     3.350531    -2.053373
C       -6.081267     4.261361    -0.836121
C       -6.011716     3.371251     0.408559
C       -3.908617     5.056613     1.202274
C       -2.714458     5.736593     1.352953
N       -1.711797     4.856782     0.963719
C       -0.288534     5.142695     0.966691
C        0.142584     5.361279    -0.476987
C       -0.234546     6.767746    -0.888531
C        0.666979     7.682105    -0.099077
C        0.223403     7.669283     1.353785
C        0.056759     6.267515     1.951496
Se      -1.325029    -2.294950     0.000000
C       -2.003987    -3.846622    -0.466286
N       -3.280099    -4.129516    -0.842665
C       -4.366040    -3.171475    -0.938964
C       -5.112688    -3.225254     0.387148
C       -6.452209    -2.513071     0.345192
C       -7.248243    -3.076848    -0.817805
C       -6.537815    -2.702919    -2.095991
C       -5.251111    -3.499083    -2.146334
C       -3.404590    -5.496168    -1.129583
C       -2.147591    -6.088879    -0.872137
N       -1.280980    -5.040826    -0.500849
C        0.151537    -5.166588    -0.196414
C        0.557765    -4.293196     1.010694
C        1.544733    -5.008996     1.881665
C        0.853456    -6.180169     2.557897
C        0.085500    -7.018639     1.528471
C        0.480665    -6.641162     0.106962
N        5.147205    -0.624252     1.122711
C        4.670759    -1.247219     2.339671
C        4.105041    -2.640012     2.092870
C        3.846764    -3.199681     3.493435
C        2.767180    -2.401366     4.244755
C        2.413077    -1.116717     3.503066
C        3.691365    -0.359787     3.124330
H        7.297412    -0.810027     1.408639
H        7.482798     0.409037    -0.968063
H        3.909347     0.602563    -2.414951
H        6.892869     1.091558    -2.846841
H        5.949688    -0.358661    -3.408944
H        5.649894     0.968756    -5.324119
H        6.242420     2.448944    -4.493933
H        3.991506     2.787244    -5.234139
H        3.369301     1.388881    -4.317448
H        4.438591     4.115332    -3.343781
H        2.963345     3.230948    -2.869604
H        5.900301     2.926179    -2.079170
H        4.502914     2.907363    -0.985949
H       -4.563400     1.882763     1.117613
H       -3.799636     2.914193    -1.599106
H       -3.802963     1.209457    -0.986945
H       -5.449172     1.473107    -2.733599
H       -6.378653     1.284101    -1.219904
H       -5.672304     3.771942    -2.886661
H       -7.331145     3.327148    -2.335839
H       -6.848511     5.039134    -0.775269
H       -5.103346     4.789302    -0.963152
H       -6.777676     2.578904     0.377629
H       -6.206961     3.944555     1.306912
H       -4.845763     5.472502     1.414352
H       -2.589679     6.729537     1.692706
H        0.200679     4.229323     1.336540
H        1.235300     5.175904    -0.611546
H       -0.417778     4.663382    -1.106740
H       -1.298082     6.951607    -0.636741
H       -0.094665     6.926042    -1.974079
H        0.549950     8.719812    -0.461411
H        1.714569     7.313212    -0.222995
H        0.961466     8.197755     1.964397
H       -0.725380     8.243401     1.409923
H        0.957062     5.989517     2.513573
H       -0.743933     6.326104     2.702721
H       -3.965883    -2.156209    -1.069097
H       -5.296394    -4.292217     0.639073
H       -4.495729    -2.739477     1.155348
H       -6.325025    -1.405238     0.284704
H       -6.981426    -2.742599     1.276279
H       -8.297558    -2.713176    -0.821036
H       -7.224808    -4.182069    -0.733205
H       -6.346470    -1.609023    -2.101086
H       -7.165887    -2.994704    -2.952520
H       -5.565051    -4.570922    -2.168119
H       -4.696381    -3.281099    -3.066505
H       -4.273828    -6.009668    -1.449763
H       -1.932449    -7.058826    -1.063646
H        0.723838    -4.857139    -1.083058
H       -0.339271    -4.106516     1.656265
H        1.007228    -3.332760     0.671584
H        1.858922    -4.345902     2.623574
H        2.421755    -5.352435     1.287629
H        1.623922    -6.800445     3.065126
H        0.122198    -5.798770     3.310273
H       -1.012427    -6.917114     1.688235
H        0.368926    -8.061792     1.663126
H        1.574502    -6.774454     0.019374
H        0.036705    -7.331112    -0.589906
H        5.548703    -1.409324     2.995461
H        4.881539    -3.249623     1.623336
H        3.176253    -2.618845     1.464437
H        4.787284    -3.092742     4.050754
H        3.638037    -4.277700     3.492847
H        1.858156    -3.007063     4.288619
H        3.079586    -2.195034     5.293471
H        1.821872    -1.427360     2.603845
H        1.793420    -0.478523     4.132720
H        4.135859    -0.044581     4.082659
H        3.493155     0.547726     2.543680
127
ex_0458 frame4 T-shaped Se-Se-ax/Se-eq-conf2
C        6.619046    -0.305343    -0.916656
C        6.688172    -0.331035     0.495897
N        5.404845    -0.446749     1.017025
C        5.115663    -0.502076     2.454443
C        5.548187    -1.963900     2.958827
C        4.820594    -2.359902     4.271598
C        4.630577    -1.129642     5.153199
C        3.689241    -0.113745     4.459713
C        3.746228    -0.175469     2.910531
C        4.594959    -0.308777    -0.066302
Se       2.650000     0.000000     0.000000
Ag       0.000000     0.000000     0.000000
Se      -2.650000     0.000000     0.000000
C       -4.421896    -0.623765    -0.512011
N       -5.121537    -0.168336    -1.643322
C       -4.612917     0.835032    -2.595514
C       -4.611344     2.186816    -1.828543
C       -6.029021     2.786256    -1.684834
C       -6.619303     3.052573    -3.074361
C       -6.749240     1.735367    -3.827860
C       -5.381007     1.012566    -3.943874
C       -6.376871    -0.824725    -1.713583
C       -6.475258    -1.617060    -0.584215
N       -5.250792    -1.542947     0.163934
C       -5.007862    -2.315093     1.382975
C       -6.158700    -2.039014     2.441731
C       -5.689497    -1.178777     3.608478
C       -4.559250    -1.908510     4.375517
C       -3.620164    -2.744932     3.455981
C       -3.587233    -2.136215     2.077033
Se       0.000000     2.650000     0.000000
C        0.420792     4.445074     0.587446
N       -0.501842     5.271228     1.178753
C       -1.819343     5.059903     1.747439
C       -2.319474     3.644407     2.031705
C       -3.746490     3.730774     2.653204
C       -4.598137     4.916773     2.112206
C       -4.193703     5.223400     0.680656
C       -2.730743     5.712829     0.652488
C        0.102012     6.539061     1.150176
C        1.393917     6.412585     0.681806
N        1.646072     5.046596     0.401922
C        2.951259     4.506064     0.012645
C        2.754386     3.803061    -1.339224
C        2.154305     4.729593    -2.430582
C        2.625011     6.197565    -2.320176
C        4.007592     6.268604    -1.671962
C        4.034163     5.622169    -0.245302
N        5.273258    -0.349498    -1.271606
C        4.710518    -0.422524    -2.619303
C        5.757848    -0.894553    -3.755349
C        6.295274     0.300460    -4.612229
C        6.649470     1.499914    -3.729892
C        5.417005     1.970169    -2.936075
C        4.257879     0.941289    -2.882848
H        7.452337    -0.223581    -1.554015
H        7.595931    -0.269744     1.055069
H        5.801975     0.199261     2.942708
H        5.307348    -2.753445     2.211325
H        6.650132    -1.950665     3.096045
H        3.806482    -2.754915     4.039405
H        5.394212    -3.164485     4.775641
H        5.638497    -0.677828     5.290776
H        4.228274    -1.375283     6.158787
H        2.624951    -0.286886     4.740586
H        3.970373     0.894560     4.836475
H        3.401282     0.803795     2.524918
H        3.062142    -0.979354     2.563714
H       -3.566365     0.587914    -2.881281
H       -4.150299     2.090200    -0.831753
H       -3.997282     2.918869    -2.403578
H       -6.677176     2.116163    -1.101061
H       -5.972405     3.764126    -1.157514
H       -5.961795     3.750653    -3.636012
H       -7.618000     3.526154    -2.973372
H       -7.508635     1.130686    -3.309076
H       -7.150209     1.930330    -4.848494
H       -5.474247     0.055813    -4.476423
H       -4.751139     1.690476    -4.576491
H       -7.170350    -0.671732    -2.401647
H       -7.344485    -2.202640    -0.323560
H       -5.135628    -3.402397     1.135664
H       -7.062889    -1.602206     1.962737
H       -6.484395    -3.014180     2.889755
H       -6.506566    -0.928928     4.304789
H       -5.311675    -0.232738     3.170442
H       -4.963923    -2.602897     5.141819
H       -3.993631    -1.116102     4.910018
H       -4.009391    -3.780973     3.361725
H       -2.620984    -2.793747     3.917740
H       -3.358754    -1.094205     2.215629
H       -2.829284    -2.633540     1.407150
H       -1.955381     5.603876     2.710053
H       -2.402516     3.114369     1.062632
H       -1.655191     3.068077     2.708295
H       -4.241908     2.758958     2.440841
H       -3.700578     3.857562     3.755736
H       -4.399684     5.842387     2.698403
H       -5.678503     4.679876     2.212726
H       -4.269160     4.274328     0.121033
H       -4.849336     5.972027     0.184204
H       -2.353866     5.503235    -0.374407
H       -2.690712     6.814004     0.802291
H       -0.375375     7.462097     1.444296
H        2.100936     7.217662     0.546252
H        3.376405     3.817953     0.775017
H        3.773066     3.528897    -1.650889
H        2.206445     2.855592    -1.311348
H        2.467287     4.297704    -3.407245
H        1.042815     4.733302    -2.411557
H        1.917818     6.776422    -1.709443
H        2.596334     6.676452    -3.323179
H        4.407850     7.304400    -1.630463
H        4.674001     5.686866    -2.346950
H        5.048873     5.173562    -0.167113
H        4.013104     6.370893     0.570916
H        3.876849    -1.199406    -2.701775
H        5.257066    -1.567780    -4.485293
H        6.596512    -1.490547    -3.320489
H        5.506924     0.645446    -5.315882
H        7.160616    -0.025137    -5.222150
H        7.455744     1.190293    -3.049670
H        7.069208     2.344731    -4.308947
H        5.753637     2.269745    -1.919539
H        4.997665     2.878513    -3.428908
H        3.765004     0.929678    -3.884401
H        3.488044     1.264964    -2.191707
127
ex_0458 frame5 conf6
C        6.574232     0.647278    -0.468907
C        6.633652    -0.467961     0.398830
N        5.305336    -0.854170     0.684215
C        4.924844    -1.962565     1.533631
C        3.985129    -1.529590     2.688248
C        3.010807    -2.608977     3.102795
C        2.184733    -3.097392     1.930587
C        2.973376    -3.493628     0.669763
C        4.460591    -3.157331     0.671315
C        4.435573     0.009180     0.012076
Se       2.650000     0.000000     0.000000
Ag       0.000000     0.000000     0.000000
Se      -1.325029     2.294950     0.000000
C       -2.225155     3.846413     0.016462
N       -1.722113     5.049994    -0.476845
C       -0.420423     5.244577    -1.089781
C        0.529130     6.022839    -0.173305
C        0.170378     7.503331    -0.035670
C       -0.117380     8.187894    -1.392902
C        0.060009     7.269269    -2.611201
C       -0.621775     5.902717    -2.470133
C       -2.693595     6.049701    -0.279594
C       -3.797098     5.438873     0.325940
N       -3.500675     4.069529     0.489599
C       -4.418817     3.123217     1.060051
C       -5.776463     3.274244     0.363907
C       -6.872703     2.599845     1.195608
C       -6.299584     1.490549     2.116271
C       -5.222275     0.747345     1.372326
C       -4.050069     1.628453     0.940102
Se      -1.325029    -2.294950     0.000000
C       -2.227248    -3.855288    -0.017526
N       -1.769182    -5.039579     0.550750
C       -0.522025    -5.208930     1.252183
C        0.493259    -6.020347     0.451720
C        0.152476    -7.500820     0.351338
C       -0.229028    -8.125696     1.714697
C       -0.138158    -7.156222     2.903997
C       -0.811885    -5.798908     2.656468
C       -2.722867    -6.045748     0.328782
C       -3.782319    -5.470797    -0.381944
N       -3.459390    -4.101819    -0.559789
C       -4.321992    -3.136662    -1.218511
C       -5.737932    -3.292421    -0.638434
C       -6.773552    -2.655585    -1.571423
C       -6.135815    -1.584548    -2.495116
C       -5.111884    -0.808086    -1.710303
C       -3.974287    -1.667534    -1.156594
N        5.201004     0.927887    -0.685108
C        4.633727     1.989187    -1.493443
C        4.032487     1.354094    -2.767158
C        5.164263     0.707906    -3.578977
C        6.346440     1.684802    -3.803581
C        6.038265     3.095253    -3.287068
C        5.664945     3.096301    -1.806703
H        7.416517     1.152986    -0.901628
H        7.523450    -0.959373     0.740022
H        5.857331    -2.330937     2.006912
H        3.382033    -0.644842     2.419687
H        4.583617    -1.237615     3.571103
H        2.299779    -2.169728     3.836987
H        3.549595    -3.460453     3.560670
H        1.648479    -3.965630     2.341299
H        1.453311    -2.313901     1.625441
H        2.479662    -3.052736    -0.221156
H        2.921049    -4.583369     0.516084
H        4.794504    -3.028879    -0.377416
H        5.003175    -4.065083     1.035752
H        0.084032     4.255267    -1.235898
H        1.535874     5.962754    -0.631581
H        0.566154     5.556296     0.835570
H       -0.704002     7.628828     0.642091
H        1.027756     8.002348     0.461297
H       -1.144189     8.611828    -1.378538
H        0.579479     9.040655    -1.527734
H       -0.357463     7.776229    -3.504563
H        1.146733     7.100498    -2.767501
H       -1.707937     6.025366    -2.662101
H       -0.236977     5.241645    -3.274298
H       -2.624881     7.058882    -0.588190
H       -4.720938     5.910720     0.572357
H       -4.504130     3.387138     2.133601
H       -5.683074     2.771887    -0.628232
H       -6.084773     4.311202     0.182439
H       -7.402935     3.347786     1.815004
H       -7.592624     2.163651     0.467172
H       -7.109001     0.789592     2.372022
H       -5.836245     1.913435     3.025460
H       -5.809294     0.570097     0.516566
H       -4.876986    -0.194474     1.835188
H       -3.191011     1.376780     1.591035
H       -3.822392     1.400185    -0.141360
H       -0.099044    -4.207982     1.371430
H        1.445089    -5.967136     0.998117
H        0.616235    -5.587052    -0.565531
H       -0.670061    -7.652475    -0.380193
H        1.046290    -8.013343    -0.059743
H       -1.252181    -8.550355     1.645527
H        0.456451    -8.969971     1.933515
H       -0.616061    -7.627133     3.786322
H        0.936269    -6.978801     3.129464
H       -1.905979    -5.913856     2.782426
H       -0.474445    -5.102896     3.457182
H       -2.677264    -7.034207     0.696872
H       -4.677881    -5.932401    -0.656214
H       -4.347698    -3.476742    -2.306629
H       -5.716901    -2.751811     0.336842
H       -6.062392    -4.323288    -0.436784
H       -7.260168    -3.429226    -2.195894
H       -7.543289    -2.191348    -0.914715
H       -6.924333    -0.896492    -2.836523
H       -5.610107    -2.044641    -3.350535
H       -5.760622    -0.585677    -0.913331
H       -4.731518     0.113149    -2.185025
H       -3.072141    -1.445383    -1.755236
H       -3.824488    -1.399833    -0.073480
H        3.812126     2.460456    -0.911496
H        3.284004     0.583750    -2.528108
H        3.511532     2.124015    -3.375891
H        5.544084    -0.176270    -3.016487
H        4.752435     0.336006    -4.540988
H        7.249700     1.295115    -3.285036
H        6.561201     1.765059    -4.886909
H        5.146374     3.467013    -3.831010
H        6.870511     3.790841    -3.481733
H        6.544294     3.063299    -1.131319
H        5.214072     4.080508    -1.584057
127
ex_0458 frame6 T-shaped Se-Se-ax/Se-eq-conf6
C        6.625705     0.676176    -0.344392
C        6.645902    -0.433340     0.544533
N        5.298366    -0.849656     0.752001
C        4.924556    -2.002607     1.590593
C        3.999429    -1.592340     2.772193
C        3.120495    -2.771026     3.199962
C        2.177995    -3.152561     2.032001
C        2.899064    -3.344081     0.670293
C        4.422318    -3.237470     0.794126
C        4.434620     0.030368     0.038676
Se       2.650000     0.000000     0.000000
Ag       0.000000     0.000000     0.000000
Se      -2.650000     0.000000     0.000000
C       -4.426128     0.058942    -0.057103
N       -5.249684    -0.719894    -0.908605
C       -4.795702    -1.771589    -1.815429
C       -4.998801    -1.380812    -3.292288
C       -6.452727    -1.512581    -3.784496
C       -7.140209    -2.814326    -3.297842
C       -6.143154    -3.813300    -2.690561
C       -5.459906    -3.144616    -1.476354
C       -6.600789    -0.309744    -0.737123
C       -6.626252     0.684297     0.268277
N       -5.294776     0.889961     0.729134
C       -4.962135     1.818109     1.831590
C       -5.867961     1.618715     3.061494
C       -5.755446     2.848474     4.008644
C       -4.378591     3.557021     3.942605
C       -3.294253     2.512478     3.739728
C       -3.485317     1.805252     2.368877
Se       0.000000     2.650000     0.000000
C       -0.034766     4.422570     0.107607
N        1.043165     5.254679     0.493077
C        2.413394     4.840725     0.739896
C        2.831977     5.008925     2.215519
C        3.225070     6.446023     2.602078
C        4.181471     7.099994     1.570635
C        4.626008     6.133198     0.453374
C        3.359446     5.599065    -0.237562
C        0.573963     6.591504     0.606028
C       -0.762199     6.621232     0.185301
N       -1.162464     5.290079    -0.177817
C       -2.489280     4.951521    -0.730750
C       -2.907273     5.882207    -1.880536
C       -4.422495     5.757817    -2.118969
C       -5.007558     4.367176    -1.745652
C       -3.983295     3.297478    -2.092990
C       -2.701142     3.492035    -1.244870
N        5.258601     0.962556    -0.650788
C        4.769897     2.035583    -1.528317
C        4.099578     1.472567    -2.791798
C        5.123784     0.750666    -3.696585
C        6.500684     1.465520    -3.777523
C        6.355974     2.939673    -3.435384
C        5.859271     3.092142    -1.970676
H        7.505415     1.199749    -0.696508
H        7.520164    -0.887271     0.975193
H        5.868451    -2.382321     2.040476
H        3.300149    -0.782228     2.487405
H        4.615249    -1.194721     3.603786
H        2.508061    -2.497485     4.084583
H        3.766750    -3.629052     3.482844
H        1.606807    -4.064495     2.304764
H        1.431327    -2.337984     1.899031
H        2.524600    -2.620041    -0.066794
H        2.632812    -4.336619     0.243333
H        4.950327    -3.348660    -0.176855
H        4.697674    -4.132966     1.394888
H       -3.698108    -1.897431    -1.702226
H       -4.403334    -2.110711    -3.885022
H       -4.576278    -0.378988    -3.520760
H       -7.077197    -0.642415    -3.494961
H       -6.404246    -1.504555    -4.894726
H       -7.860428    -2.563230    -2.489652
H       -7.739617    -3.258929    -4.120521
H       -6.678668    -4.726900    -2.352479
H       -5.395624    -4.120202    -3.452417
H       -6.247895    -2.991948    -0.706357
H       -4.717336    -3.833235    -1.017934
H       -7.463577    -0.683869    -1.261648
H       -7.510057     1.193451     0.627423
H       -5.207680     2.831138     1.443212
H       -5.514968     0.695726     3.575688
H       -6.942736     1.471861     2.833176
H       -6.514585     3.619196     3.753952
H       -5.973875     2.485186     5.036475
H       -4.227721     4.166919     4.858612
H       -4.336047     4.248473     3.070881
H       -3.404797     1.780828     4.570569
H       -2.268505     2.937637     3.801170
H       -2.848942     2.316107     1.635683
H       -3.108345     0.775396     2.533451
H        2.510516     3.755369     0.546467
H        3.754140     4.402173     2.354272
H        2.076452     4.583491     2.910664
H        2.334115     7.092125     2.745481
H        3.723126     6.395819     3.595283
H        3.631521     7.933646     1.079206
H        5.048832     7.561834     2.084909
H        5.249671     6.684278    -0.284743
H        5.234701     5.299932     0.860348
H        2.850381     6.501880    -0.650928
H        3.568356     4.968196    -1.124044
H        1.130707     7.455456     0.921771
H       -1.408524     7.483457     0.130842
H       -3.174835     5.164941     0.111645
H       -2.332295     5.561769    -2.777801
H       -2.672198     6.957859    -1.719364
H       -4.995201     6.501030    -1.518397
H       -4.608158     5.992656    -3.193188
H       -5.983525     4.217627    -2.255394
H       -5.192461     4.307472    -0.651032
H       -3.755430     3.426391    -3.172041
H       -4.377369     2.269873    -1.954371
H       -2.764668     2.856430    -0.356943
H       -1.868599     3.143011    -1.892679
H        4.044198     2.603063    -0.911659
H        3.246428     0.804697    -2.586846
H        3.676748     2.347369    -3.349888
H        5.316907    -0.292161    -3.357463
H        4.659849     0.690112    -4.704234
H        7.202948     1.035602    -3.035835
H        6.943621     1.305552    -4.785084
H        5.601060     3.365577    -4.141985
H        7.295704     3.512941    -3.576131
H        6.692575     3.126522    -1.242048
H        5.441778     4.126247    -1.942738
127
ex_0458 frame7 T-shaped Se-Se-ax/Se-eq-conf4
C        6.491150     1.388658    -0.308094
C        6.465428     0.609341    -1.454303
N        5.151812     0.114678    -1.652781
C        4.774820    -0.753916    -2.788244
C        3.380847    -1.482579    -2.615570
C        3.293607    -2.752058    -3.457253
C        4.258216    -3.827639    -2.880052
C        5.529628    -3.220631    -2.235563
C        5.894698    -1.933633    -2.962070
C        4.441918     0.528793    -0.514158
Se       2.650000     0.000000     0.000000
Ag       0.000000     0.000000     0.000000
Se      -2.650000     0.000000     0.000000
C       -4.400902     0.600572     0.464768
N       -4.864643     1.790877    -0.003028
C       -4.203799     2.883855    -0.665005
C       -5.323030     3.810231    -1.362884
C       -6.116516     3.129108    -2.543021
C       -5.649366     1.692798    -2.835084
C       -4.129183     1.550433    -2.925391
C       -3.385960     2.391868    -1.869498
C       -6.167906     1.787283     0.277444
C       -6.491154     0.479386     1.037042
N       -5.267622    -0.185210     1.206788
C       -5.134526    -1.378879     1.994748
C       -5.831228    -2.376305     1.058158
C       -5.973506    -3.760668     1.722566
C       -4.600498    -4.283199     2.150021
C       -3.919489    -3.264772     3.084434
C       -3.759376    -1.886008     2.381236
Se       0.000000     2.650000     0.000000
C       -0.156497     4.574738    -0.058351
N       -0.313527     5.352780    -1.197362
C       -0.573904     5.013852    -2.609051
C        0.136413     3.832806    -3.118947
C        1.630329     4.186920    -3.177229
C        1.839762     5.344179    -4.163945
C        1.028887     6.567423    -3.734856
C       -0.468189     6.208337    -3.576826
C       -0.164315     6.668520    -0.716743
C        0.006058     6.636667     0.646259
N       -0.032368     5.322459     1.048034
C        0.045053     4.829660     2.397436
C       -0.809201     3.857378     3.046965
C       -2.157784     4.570868     3.287127
C       -2.004865     6.088388     3.581105
C       -0.696623     6.353455     4.320624
C        0.520497     5.920837     3.455485
N        5.223320     1.371318     0.261115
C        4.875716     2.127040     1.446664
C        5.388853     1.104822     2.590157
C        4.488454     1.124869     3.842633
C        4.112063     2.537051     4.310606
C        3.669542     3.452557     3.146468
C        3.515284     2.713926     1.787380
H        7.353482     1.899836     0.098942
H        7.327617     0.434021    -2.066144
H        4.845153    -0.219874    -3.683075
H        3.223499    -1.882770    -1.598515
H        2.588411    -0.746933    -2.868300
H        2.267753    -3.177576    -3.492923
H        3.586617    -2.475036    -4.492955
H        3.769174    -4.438836    -2.089934
H        4.516986    -4.508066    -3.719703
H        5.347909    -2.948909    -1.171203
H        6.343832    -3.977474    -2.254534
H        6.915270    -1.617626    -2.696423
H        5.953970    -2.199155    -4.040607
H       -3.641434     3.540079    -0.012911
H       -6.027952     4.304131    -0.637801
H       -4.791710     4.680746    -1.812045
H       -6.015253     3.758162    -3.443821
H       -7.201119     3.082145    -2.290932
H       -6.143123     1.271180    -3.736799
H       -5.967116     1.037100    -2.009316
H       -3.756459     1.859110    -3.931182
H       -3.888883     0.475954    -2.807442
H       -3.127289     3.322131    -2.407968
H       -2.405126     1.992530    -1.638052
H       -6.836489     2.572313    -0.043686
H       -7.458197     0.144602     1.340948
H       -5.758189    -1.292808     2.937367
H       -5.252400    -2.487353     0.107825
H       -6.867163    -2.066970     0.768727
H       -6.632577    -3.672019     2.609008
H       -6.444978    -4.489568     1.015554
H       -4.721130    -5.254478     2.671653
H       -3.971442    -4.447658     1.245783
H       -4.518697    -3.144468     4.004491
H       -2.912907    -3.652229     3.361754
H       -3.258964    -1.182718     3.060296
H       -3.137183    -2.078426     1.489104
H       -1.766831     4.789692    -2.670150
H       -0.201162     3.577411    -4.147662
H       -0.029824     2.914970    -2.546771
H        2.209358     3.307422    -3.530791
H        1.999003     4.462272    -2.163952
H        1.510860     5.022988    -5.176629
H        2.917161     5.611461    -4.218783
H        1.138568     7.373902    -4.491903
H        1.468506     6.939930    -2.792820
H       -1.061561     7.097094    -3.273182
H       -0.846720     5.905678    -4.577835
H       -0.145902     7.572580    -1.295154
H        0.173010     7.520768     1.249928
H        1.121717     4.302109     2.128451
H       -0.351154     3.568239     4.021113
H       -0.982615     2.908737     2.507994
H       -2.644282     4.036473     4.130012
H       -2.813624     4.478568     2.394845
H       -1.957551     6.661605     2.631922
H       -2.896218     6.448023     4.134493
H       -0.734425     5.731163     5.242357
H       -0.579201     7.412151     4.636003
H        1.262071     5.535297     4.186826
H        1.051281     6.780054     3.007118
H        5.559716     2.968491     1.568202
H        6.437032     1.368674     2.860497
H        5.393265     0.054173     2.230239
H        3.538892     0.621671     3.559818
H        4.924132     0.535051     4.679699
H        4.944322     3.030354     4.859257
H        3.273343     2.421770     5.034195
H        2.777765     4.015397     3.454785
H        4.457792     4.226894     3.009475
H        3.255385     3.449034     0.997874
H        2.705396     1.964826     1.862312
127
ex_0458 frame8 conf2
C        6.532668    -0.277122    -1.064873
C        6.691898    -0.296539     0.317599
N        5.359821    -0.214450     0.870710
C        5.120623    -0.220880     2.288429
C        5.620220    -1.644412     2.810090
C        4.766149    -2.207032     3.946547
C        4.468776    -1.084046     4.920415
C        3.549808     0.055704     4.262608
C        3.653491     0.048606     2.783239
C        4.374209    -0.124607    -0.168484
Se       2.650000     0.000000     0.000000
Ag       0.000000     0.000000     0.000000
Se      -1.325029     2.294950     0.000000
C       -2.343154     3.652749    -0.524484
N       -1.922177     4.748292    -1.265044
C       -0.574198     4.939112    -1.729578
C        0.255420     5.449023    -0.555932
C       -0.135956     6.853908    -0.200810
C        0.307795     7.779449    -1.325514
C       -0.388710     7.462130    -2.690342
C       -0.612157     5.894938    -2.994185
C       -3.057639     5.653292    -1.486354
C       -4.183936     5.046083    -0.920756
N       -3.723867     3.833700    -0.271890
C       -4.602096     2.967931     0.512866
C       -5.415346     3.894725     1.483058
C       -5.050003     3.691952     2.930581
C       -5.308523     2.198615     3.285966
C       -4.985319     1.201821     2.105721
C       -3.931246     1.741506     1.287023
Se      -1.325029    -2.294950     0.000000
C       -2.468936    -3.586597    -0.386180
N       -3.440825    -4.156064     0.471951
C       -3.689148    -3.776608     1.802296
C       -3.404974    -2.291903     2.218413
C       -4.239139    -2.036800     3.466599
C       -4.373807    -3.294183     4.412158
C       -3.147187    -4.178805     4.241511
C       -3.120571    -4.798703     2.793000
C       -4.174415    -5.200044    -0.180168
C       -3.640919    -5.267495    -1.482160
N       -2.601318    -4.251468    -1.614109
C       -1.840596    -3.993265    -2.838655
C       -0.284715    -4.157470    -2.715796
C        0.099121    -5.422382    -1.937421
C       -0.739889    -6.693411    -2.369716
C       -1.658552    -6.506315    -3.673946
C       -2.244333    -5.008633    -3.920259
N        5.081036    -0.155354    -1.361232
C        4.484534    -0.079585    -2.688319
C        5.529167    -0.576040    -3.767578
C        6.340075     0.582223    -4.476103
C        6.525648     1.898137    -3.596827
C        5.276307     2.270843    -2.703955
C        4.088799     1.391192    -3.029162
H        7.283890    -0.264579    -1.771119
H        7.461293    -0.333907     0.870917
H        5.698385     0.587104     2.726037
H        5.609729    -2.358740     1.973757
H        6.611157    -1.456830     3.176578
H        3.756580    -2.586109     3.521775
H        5.274749    -2.992314     4.367457
H        5.455394    -0.631432     5.192731
H        3.953749    -1.454716     5.784119
H        2.553100    -0.128213     4.494790
H        3.885565     1.063110     4.626764
H        3.237341     0.966182     2.356021
H        3.043859    -0.865374     2.391033
H       -0.206879     3.986029    -2.111791
H        0.116074     4.775695     0.283692
H        1.359979     5.436136    -0.855454
H       -1.235080     6.929395     0.002233
H        0.412067     7.167155     0.706392
H        1.381759     7.641358    -1.454149
H        0.062569     8.817708    -1.115079
H       -1.355790     7.949066    -2.728159
H        0.231107     7.806507    -3.484358
H       -1.556895     5.811890    -3.496383
H        0.109229     5.562922    -3.697503
H       -3.033455     6.556397    -1.955121
H       -5.080560     5.416770    -0.870490
H       -5.283726     2.519866    -0.260869
H       -5.259256     4.940149     1.256910
H       -6.459421     3.634745     1.318179
H       -5.589266     4.352463     3.531325
H       -3.920341     3.887066     3.033979
H       -6.379518     2.064726     3.533836
H       -4.686999     1.974209     4.187790
H       -5.874538     1.123507     1.503216
H       -4.717171     0.280764     2.494641
H       -3.066574     2.221116     1.914206
H       -3.529882     1.041220     0.598539
H       -4.772902    -3.851482     1.844579
H       -2.311635    -2.205770     2.520667
H       -3.628149    -1.602861     1.380187
H       -3.794313    -1.188633     4.008306
H       -5.290184    -1.731626     3.113176
H       -5.238906    -3.887433     4.023917
H       -4.512414    -2.978704     5.381835
H       -2.195497    -3.494673     4.358917
H       -3.131213    -4.949663     4.940600
H       -2.079037    -5.163885     2.510679
H       -3.774676    -5.655989     2.809575
H       -4.934205    -5.730980     0.258786
H       -3.994694    -5.924912    -2.178273
H       -2.071253    -3.006146    -3.199331
H        0.110020    -4.210522    -3.696313
H        0.173072    -3.243587    -2.218411
H        1.156252    -5.641491    -2.126422
H       -0.068194    -5.293942    -0.852863
H       -1.391456    -6.952423    -1.527481
H       -0.108604    -7.473793    -2.593642
H       -2.442963    -7.169062    -3.576121
H       -1.046837    -6.703518    -4.532428
H       -1.829611    -4.674358    -4.836571
H       -3.316130    -5.072590    -4.036995
H        3.631387    -0.804802    -2.735432
H        4.997085    -1.080780    -4.534843
H        6.211979    -1.273202    -3.324725
H        5.683991     0.905895    -5.337014
H        7.234065     0.237281    -4.809693
H        7.412302     1.754409    -2.967522
H        6.681189     2.693260    -4.292824
H        5.583051     2.134728    -1.629399
H        5.050828     3.317519    -2.792372
H        3.829236     1.469849    -4.097595
H        3.197374     1.705454    -2.429882
127
ex_0458 frame9 conf3
C        6.251759    -1.561708     0.046999
C        6.259780    -0.941333    -1.176012
N        5.035560    -0.332173    -1.345852
C        4.627342     0.429830    -2.497712
C        5.760637     0.487127    -3.499284
C        5.588667     1.619640    -4.491232
C        5.879569     2.924150    -3.777503
C        5.433646     2.832591    -2.328506
C        4.279207     1.870231    -2.136710
C        4.279382    -0.586507    -0.215238
Se       2.650000     0.000000     0.000000
Ag       0.000000     0.000000     0.000000
Se      -1.325029     2.294950     0.000000
C       -2.438786     3.648856     0.178204
N       -3.453875     3.969060    -0.603264
C       -3.856414     3.259164    -1.780273
C       -2.788387     3.264776    -2.873602
C       -3.268964     2.263635    -3.898132
C       -4.574574     2.639694    -4.526322
C       -5.605209     3.231624    -3.594437
C       -5.066111     3.940632    -2.390241
C       -4.053319     5.093639    -0.095457
C       -3.382092     5.480163     1.044874
N       -2.364888     4.586578     1.229445
C       -1.437549     4.661169     2.318155
C       -1.029332     6.117228     2.568268
C       -0.454445     6.244906     3.983406
C        0.244909     4.935095     4.340509
C        0.908364     4.433037     3.065684
C       -0.138399     3.909041     2.098889
Se      -1.325029    -2.294950     0.000000
C       -2.056395    -3.839693    -0.246868
N       -1.899203    -4.987434     0.463415
C       -1.069474    -5.189090     1.610500
C        0.058935    -6.152095     1.316813
C       -0.302236    -7.610611     1.341116
C       -1.231417    -8.051902     2.436436
C       -2.235135    -7.047841     2.938965
C       -1.828085    -5.608967     2.850323
C       -2.679142    -5.967152    -0.095330
C       -3.332433    -5.422973    -1.171395
N       -2.965474    -4.106616    -1.287277
C       -3.492736    -3.264554    -2.332687
C       -2.702469    -2.060568    -2.724693
C       -3.239486    -0.728909    -2.270659
C       -4.283270    -0.679866    -1.199997
C       -4.912740    -1.993696    -0.829038
C       -4.922444    -2.889655    -2.025231
N        5.029179    -1.342050     0.636333
C        4.704451    -1.863313     1.925322
C        5.545654    -1.203818     3.023429
C        4.958280    -1.603362     4.373662
C        3.610041    -0.921674     4.619813
C        3.027364    -0.619668     3.235777
C        3.275375    -1.848607     2.359672
H        7.058898    -2.121520     0.462255
H        7.088827    -0.952961    -1.847953
H        3.781535    -0.111509    -2.964834
H        5.918805    -0.473708    -4.001505
H        6.682891     0.742734    -2.920869
H        6.340788     1.460046    -5.268978
H        4.567411     1.637373    -4.942281
H        6.949364     3.195262    -3.807542
H        5.335538     3.740563    -4.305837
H        5.065742     3.821727    -2.045892
H        6.269289     2.571465    -1.646708
H        3.931614     2.011833    -1.109614
H        3.480072     2.196986    -2.828747
H       -4.131955     2.208998    -1.540765
H       -2.769803     4.256830    -3.357262
H       -1.798790     2.926017    -2.517111
H       -2.534737     2.111424    -4.700063
H       -3.356091     1.510066    -3.404821
H       -4.347572     3.297647    -5.382929
H       -5.033263     1.714734    -4.947350
H       -6.374563     2.479905    -3.281074
H       -6.161155     3.989582    -4.186737
H       -5.876779     3.953866    -1.631999
H       -4.813902     4.999758    -2.621874
H       -4.901056     5.553394    -0.548931
H       -3.645534     6.329731     1.630823
H       -1.955989     4.252755     3.208112
H       -0.217777     6.334239     1.838228
H       -1.822532     6.836539     2.407144
H       -1.244648     6.527284     4.713606
H        0.339683     7.033359     4.010041
H        1.062193     5.087764     5.060183
H       -0.448772     4.164764     4.730440
H        1.596708     3.630599     3.332724
H        1.425623     5.300021     2.599261
H        0.271226     4.087317     1.082483
H       -0.283049     2.845480     2.354344
H       -0.570830    -4.254431     1.893265
H        0.922518    -5.935005     1.986441
H        0.412104    -5.921325     0.288766
H        0.660080    -8.156781     1.500188
H       -0.619293    -7.960416     0.327670
H       -0.659526    -8.519217     3.274747
H       -1.830717    -8.896423     2.017506
H       -2.367608    -7.274978     4.027883
H       -3.264589    -7.205611     2.535651
H       -1.150090    -5.416889     3.715044
H       -2.717515    -4.984337     2.988008
H       -2.784895    -6.975967     0.219282
H       -4.010680    -5.939110    -1.810534
H       -3.605830    -3.927089    -3.230881
H       -2.743963    -1.995896    -3.847147
H       -1.603017    -2.155568    -2.582075
H       -2.364232    -0.126274    -1.950007
H       -3.700802    -0.367129    -3.098544
H       -3.848432    -0.266400    -0.266361
H       -5.113566     0.010885    -1.447638
H       -5.967633    -1.849384    -0.504186
H       -4.408970    -2.492660     0.013496
H       -5.457401    -3.836457    -1.812852
H       -5.304042    -2.389940    -2.932746
H        5.056233    -2.924450     1.918505
H        5.631018    -0.108021     2.894499
H        6.554879    -1.607809     2.977812
H        5.704027    -1.356874     5.136830
H        4.803739    -2.703792     4.318582
H        2.959203    -1.602885     5.205147
H        3.750797     0.039613     5.176167
H        1.985207    -0.331000     3.278963
H        3.615661     0.270908     2.904807
H        3.155064    -2.713381     3.071246
H        2.512441    -2.043555     1.610208
127
ex_0458 frame10 Isomer 2
C       -1.778970    -4.940762    -0.863244
C       -0.751661    -5.779563    -0.207979
N        0.191791    -4.894997     0.325172
C        1.379472    -5.267013     1.045800
C        2.325135    -6.098997     0.144542
C        2.926926    -7.272255     0.907548
C        1.747814    -8.164393     1.344917
C        0.754230    -7.450590     2.294026
C        0.988193    -5.937920     2.379362
C       -0.176673    -3.625554     0.065009
Se       0.770790    -2.140108     0.585514
Ag       0.044552     0.405952     0.698022
Se      -1.687945     1.934734     1.995627
C       -3.506991     1.640796     1.992020
N       -4.140971     0.556648     2.544397
C       -3.469379    -0.537954     3.208767
C       -4.199375    -1.883988     3.004438
C       -4.681705    -2.477477     4.326850
C       -3.500499    -2.609234     5.298637
C       -2.727156    -1.274553     5.501954
C       -3.329386    -0.120202     4.691627
C       -5.533484     0.707696     2.347016
C       -5.721438     1.944381     1.641902
N       -4.461876     2.477197     1.433855
C       -4.214559     3.716258     0.738236
C       -3.564713     3.436526    -0.630295
C       -3.494179     4.748333    -1.450306
C       -3.545592     6.026185    -0.571434
C       -2.681647     5.783435     0.661325
C       -3.433254     4.792978     1.575101
Se       2.164170     1.952053     0.324802
C        2.533420     2.033916    -1.461635
N        2.123396     3.075665    -2.288284
C        1.344786     4.237920    -1.854383
C        1.383586     5.324000    -2.949872
C        2.791431     5.930462    -2.884021
C        2.828093     6.848448    -1.644701
C        2.009877     6.308677    -0.444601
C        1.949007     4.794472    -0.497551
C        2.585956     2.805261    -3.577572
C        3.276035     1.611408    -3.554766
N        3.234727     1.134215    -2.197459
C        3.858566    -0.107198    -1.758826
C        4.546724     0.103947    -0.373301
C        5.940085    -0.507875    -0.240872
C        5.996377    -1.879177    -0.901930
C        5.646559    -1.807832    -2.400598
C        4.914593    -0.539934    -2.806523
N       -1.378782    -3.596131    -0.654649
C       -2.064379    -2.393933    -1.092208
C       -3.560097    -2.612951    -1.403013
C       -3.830052    -3.047298    -2.851057
C       -3.206663    -2.014355    -3.800542
C       -1.681298    -2.050144    -3.628473
C       -1.275248    -1.648257    -2.203517
H       -2.684896    -5.295718    -1.382766
H       -0.761277    -6.846857    -0.173888
H        1.957807    -4.354587     1.366955
H        3.095440    -5.443296    -0.315290
H        1.735999    -6.525846    -0.700796
H        3.518035    -6.910267     1.777298
H        3.584627    -7.838232     0.213790
H        1.189850    -8.434714     0.410721
H        2.099496    -9.113352     1.791360
H        0.899170    -7.832197     3.336952
H       -0.282138    -7.689593     1.972857
H        0.121260    -5.401519     2.876657
H        1.872760    -5.798015     3.030843
H       -2.396088    -0.660888     2.822388
H       -5.099657    -1.769692     2.364970
H       -3.532744    -2.576753     2.447771
H       -5.430817    -1.796523     4.788990
H       -5.185984    -3.456495     4.136098
H       -3.899491    -2.956578     6.283321
H       -2.784530    -3.388750     4.921853
H       -1.653198    -1.421264     5.206007
H       -2.779384    -0.973780     6.571520
H       -4.345754     0.124084     5.050268
H       -2.713558     0.812230     4.803025
H       -6.305117     0.029132     2.638186
H       -6.679857     2.370189     1.306416
H       -5.213744     4.144772     0.490137
H       -2.533410     3.053214    -0.455295
H       -4.157851     2.659551    -1.192411
H       -2.539725     4.720482    -2.030763
H       -4.331592     4.785043    -2.180681
H       -4.598107     6.230031    -0.241173
H       -3.236104     6.905160    -1.167551
H       -1.718853     5.340266     0.321681
H       -2.470180     6.716037     1.221418
H       -4.203842     5.355387     2.162157
H       -2.711581     4.389073     2.321461
H        0.284599     3.896122    -1.658458
H        1.111374     4.911599    -3.942584
H        0.614274     6.095995    -2.749783
H        3.060155     6.497994    -3.800244
H        3.571675     5.126358    -2.760749
H        3.886105     7.046176    -1.370884
H        2.358793     7.816197    -1.928627
H        2.439812     6.658996     0.535369
H        0.953998     6.644015    -0.541765
H        1.327810     4.436052     0.369710
H        3.014114     4.463322    -0.394030
H        2.465336     3.404907    -4.496139
H        3.771888     1.161884    -4.445818
H        3.108203    -0.920946    -1.658486
H        4.712358     1.185056    -0.149402
H        3.851409    -0.317750     0.403747
H        6.217212    -0.539023     0.843081
H        6.642770     0.165456    -0.771283
H        5.270088    -2.547753    -0.371673
H        7.027001    -2.278180    -0.795034
H        6.562659    -1.802825    -3.024053
H        5.011934    -2.683354    -2.654481
H        4.443202    -0.724424    -3.798201
H        5.629616     0.315991    -2.861634
H       -2.061900    -1.743436    -0.175038
H       -3.997517    -3.348669    -0.673665
H       -4.084774    -1.637749    -1.268651
H       -3.408094    -4.055387    -3.095699
H       -4.938408    -3.084293    -3.006318
H       -3.466369    -2.274224    -4.849260
H       -3.606993    -0.997650    -3.579942
H       -1.336300    -3.085905    -3.859156
H       -1.212252    -1.329817    -4.343811
H       -1.460634    -0.556653    -2.089666
H       -0.171090    -1.839229    -2.105427
127
ex_0458 frame11 Isomer 1
C        4.268957     3.869457     3.838913
C        4.199666     4.514039     2.598721
N        3.840578     3.505773     1.683996
C        3.665113     3.763525     0.255615
C        4.567583     4.851287    -0.254500
C        4.220635     5.205668    -1.708516
C        3.315758     4.151755    -2.348189
C        1.996106     4.032504    -1.561430
C        2.248408     4.236870    -0.063252
C        3.695488     2.337464     2.294434
Se       3.246177     0.822721     1.515902
Ag       0.845512     0.453841     0.456075
Se       0.694013    -0.249086    -2.094502
C       -0.645566    -1.200987    -2.723506
N       -0.962332    -2.510904    -2.421899
C       -0.242182    -3.401705    -1.506000
C        1.273482    -3.398485    -1.825727
C        1.866618    -4.802113    -1.763738
C        1.242012    -5.605415    -2.925868
C       -0.244908    -5.281836    -3.084159
C       -0.775086    -4.831070    -1.718924
C       -2.120111    -2.835913    -3.166973
C       -2.481006    -1.731260    -3.915154
N       -1.556052    -0.732539    -3.616119
C       -1.556458     0.607289    -4.168640
C       -0.436903     0.682869    -5.198601
C       -0.915826     0.050974    -6.487954
C       -1.970187     0.980961    -7.033467
C       -3.212948     0.869532    -6.167441
C       -2.952444     1.015943    -4.664696
Se      -1.099033    -0.416868     2.031864
C       -2.799691    -0.044305     1.759222
N       -3.354921     1.135073     1.392373
C       -2.636462     2.365662     1.147356
C       -2.663866     3.152553     2.451869
C       -2.224181     4.595378     2.290215
C       -3.063669     5.222379     1.191844
C       -2.724172     4.534150    -0.108210
C       -3.266420     3.123855    -0.027973
C       -4.747378     0.987110     1.283192
C       -5.079937    -0.351625     1.677534
N       -3.830205    -0.980487     1.902175
C       -3.642458    -2.400826     2.235040
C       -2.570943    -2.584621     3.333144
C       -2.969111    -3.652173     4.318392
C       -4.168398    -3.147735     5.115412
C       -5.253857    -2.592485     4.184842
C       -4.984499    -2.977510     2.735108
N        3.949353     2.479667     3.634919
C        3.932450     1.529337     4.698562
C        5.140792     0.600478     4.649805
C        5.046478    -0.227293     5.933484
C        3.787272    -1.106540     5.962639
C        2.840002    -0.758555     4.818600
C        2.610997     0.756056     4.767709
H        4.521969     4.293257     4.769169
H        4.391250     5.551379     2.408667
H        3.933050     2.831952    -0.292898
H        4.365557     5.788534     0.337378
H        5.652431     4.587648    -0.116850
H        5.135322     5.324416    -2.287134
H        3.633458     6.147818    -1.739245
H        3.085943     4.463444    -3.352659
H        3.835888     3.158373    -2.393969
H        1.280069     4.809424    -1.884687
H        1.539111     3.047472    -1.787816
H        2.197249     5.339687     0.123624
H        1.468576     3.780372     0.551931
H       -0.372815    -3.088691    -0.448982
H        1.390673    -3.069912    -2.881545
H        1.824387    -2.725063    -1.157029
H        2.934741    -4.734016    -1.914051
H        1.681295    -5.278397    -0.763683
H        1.764926    -5.272313    -3.839701
H        1.366671    -6.700822    -2.812922
H       -0.812707    -6.109756    -3.522034
H       -0.320455    -4.430168    -3.805052
H       -0.400146    -5.480517    -0.910108
H       -1.855993    -4.895771    -1.679849
H       -2.632214    -3.747949    -3.190338
H       -3.297531    -1.661029    -4.587851
H       -1.302022     1.275805    -3.336366
H       -0.098086     1.733703    -5.360854
H        0.405970     0.090552    -4.825307
H       -1.346788    -0.947304    -6.271161
H       -0.090294    -0.069652    -7.214041
H       -2.256338     0.658543    -8.051309
H       -1.544270     2.013942    -7.029124
H       -3.926345     1.650940    -6.452618
H       -3.684760    -0.108559    -6.399021
H       -3.159213     2.045197    -4.345911
H       -3.698277     0.398502    -4.141665
H       -1.586753     2.153836     0.896024
H       -3.707468     3.149750     2.835124
H       -1.981851     2.668219     3.166204
H       -1.129326     4.670214     2.091357
H       -2.432607     5.115831     3.231735
H       -2.904498     6.318639     1.118979
H       -4.127523     5.003532     1.418232
H       -1.626099     4.546558    -0.249262
H       -3.229394     5.059524    -0.934202
H       -4.371089     3.235880     0.080886
H       -3.063344     2.577142    -0.955038
H       -5.448654     1.738582     1.006687
H       -6.064018    -0.790709     1.749568
H       -3.347333    -2.945519     1.330803
H       -2.478949    -1.640590     3.928435
H       -1.594074    -2.867373     2.882979
H       -2.153115    -3.851056     4.996582
H       -3.223996    -4.595224     3.783199
H       -4.568251    -3.994492     5.713953
H       -3.841546    -2.326556     5.795827
H       -5.340683    -1.488677     4.305515
H       -6.204143    -3.054501     4.459258
H       -4.924463    -4.079412     2.689331
H       -5.828185    -2.698465     2.122049
H        4.034700     2.078072     5.659238
H        6.048413     1.210368     4.705679
H        5.146584    -0.046757     3.734819
H        4.954835     0.502698     6.760897
H        5.955575    -0.819440     6.122266
H        4.104097    -2.145315     5.815800
H        3.272295    -1.043728     6.950303
H        3.322319    -1.145767     3.885914
H        1.881365    -1.261176     4.957118
H        2.065193     0.999827     5.693970
H        1.976531     1.062651     3.927962
127
ex_0458 frame12 conf4
C        6.386666     1.342642    -0.231599
C        6.337944     0.586792    -1.443040
N        5.072645     0.000561    -1.514462
C        4.653431    -0.898995    -2.610300
C        3.322253    -1.643963    -2.432750
C        3.375626    -2.798786    -3.409698
C        4.263699    -3.872334    -2.767655
C        5.552164    -3.239716    -2.210780
C        5.809633    -1.884507    -2.847282
C        4.297622     0.393692    -0.409477
Se       2.650000     0.000000     0.000000
Ag       0.000000     0.000000     0.000000
Se      -1.325029     2.294950     0.000000
C       -1.618737     3.994281     0.312195
N       -0.885130     5.071768    -0.054659
C        0.345110     5.054679    -0.819506
C        0.559840     6.411711    -1.469340
C       -0.542713     6.737574    -2.495893
C       -1.419936     5.554694    -2.929937
C       -0.698320     4.210864    -3.012464
C        0.423033     4.039816    -1.982271
C       -1.500091     6.237218     0.422579
C       -2.643112     5.862734     1.088306
N       -2.716791     4.476725     1.025950
C       -3.813704     3.753901     1.645319
C       -5.076676     3.795050     0.783509
C       -6.236149     3.352181     1.664429
C       -6.002046     1.952109     2.217498
C       -4.706408     1.911022     3.008968
C       -3.548249     2.322202     2.116781
Se      -1.325029    -2.294950     0.000000
C       -2.226685    -3.873584     0.024973
N       -1.674890    -5.137552     0.118833
C       -0.269470    -5.491778     0.240362
C        0.656905    -4.728903    -0.714196
C        0.206143    -5.004361    -2.147343
C        0.580644    -6.459966    -2.408658
C       -0.335569    -7.312747    -1.553480
C       -0.074826    -6.975910    -0.072301
C       -2.723510    -6.061135     0.076887
C       -3.923004    -5.377323     0.001550
N       -3.612947    -4.002582    -0.051443
C       -4.578445    -2.920546    -0.165689
C       -4.453202    -1.891584     0.953573
C       -4.513096    -2.556476     2.321210
C       -5.652740    -3.592473     2.380872
C       -6.657843    -3.480594     1.230927
C       -6.026405    -3.447467    -0.170696
N        5.157867     1.234301     0.380355
C        4.846350     1.892351     1.627498
C        5.326468     1.085635     2.835461
C        4.426380     1.259212     4.058152
C        3.823284     2.665809     4.243697
C        3.532210     3.414679     2.944085
C        3.420094     2.418685     1.801084
H        7.204951     1.892108     0.138633
H        7.128041     0.471314    -2.088064
H        4.580817    -0.217013    -3.455363
H        3.210815    -2.105255    -1.416536
H        2.471344    -0.993163    -2.670649
H        2.376467    -3.164524    -3.632529
H        3.845994    -2.460487    -4.362579
H        3.706766    -4.318699    -1.913606
H        4.496667    -4.673699    -3.496342
H        5.465277    -3.114035    -1.108170
H        6.403842    -3.884565    -2.449865
H        6.764011    -1.526522    -2.484728
H        5.903428    -2.029731    -3.943461
H        1.221512     4.840849    -0.152451
H        0.650797     7.222586    -0.722446
H        1.516084     6.359411    -2.007262
H       -0.048783     7.184747    -3.370221
H       -1.234090     7.493790    -2.080531
H       -1.837459     5.791179    -3.914581
H       -2.296115     5.451240    -2.238515
H       -0.269095     4.086650    -4.021950
H       -1.455807     3.417024    -2.871630
H        1.363576     4.278991    -2.508778
H        0.567856     2.988753    -1.675235
H       -1.180514     7.232500     0.307386
H       -3.344687     6.511413     1.579359
H       -4.047894     4.327227     2.571688
H       -4.967736     3.125318    -0.103908
H       -5.260176     4.843885     0.467020
H       -6.274486     4.053049     2.526656
H       -7.197100     3.380884     1.121684
H       -6.831378     1.733851     2.911620
H       -5.946442     1.208692     1.390520
H       -4.788709     2.627593     3.853546
H       -4.538163     0.902877     3.417816
H       -2.623117     2.317490     2.722006
H       -3.505587     1.606942     1.260692
H        0.045321    -5.306002     1.279504
H        1.674913    -5.145326    -0.565699
H        0.788475    -3.665713    -0.475722
H        0.678298    -4.326677    -2.873502
H       -0.897561    -4.873542    -2.238806
H        1.630639    -6.649718    -2.075304
H        0.494281    -6.717156    -3.478222
H       -0.096186    -8.378809    -1.680115
H       -1.378758    -7.119078    -1.907397
H       -0.658451    -7.618636     0.601372
H        0.977939    -7.192009     0.118657
H       -2.626478    -7.108539     0.126397
H       -4.855297    -5.870108    -0.035129
H       -4.385283    -2.430904    -1.138319
H       -5.321830    -1.226356     0.842168
H       -3.555376    -1.271150     0.905770
H       -4.656801    -1.750022     3.068354
H       -3.538239    -3.046448     2.566857
H       -5.247762    -4.624545     2.388611
H       -6.207300    -3.425715     3.313416
H       -7.242356    -2.543876     1.369117
H       -7.336912    -4.337872     1.282532
H       -6.637551    -2.752622    -0.771749
H       -6.143638    -4.417378    -0.685068
H        5.494056     2.804608     1.607603
H        6.365052     1.358093     3.103675
H        5.292264     0.014405     2.556455
H        3.592419     0.518872     3.949504
H        4.980103     0.994052     4.961053
H        4.457600     3.296004     4.887160
H        2.859851     2.513938     4.758628
H        2.640862     4.056832     3.045189
H        4.400079     4.093473     2.749125
H        3.090332     2.900077     0.861573
H        2.717852     1.612559     2.120605
127
ex_0458 frame13 Isomer 3
C        6.507391    -0.475006     0.803450
C        6.590879     0.161633    -0.440246
N        5.269725     0.380660    -0.836828
C        4.898211     1.026717    -2.091848
C        5.877137     0.737537    -3.192585
C        5.551902     1.581954    -4.431682
C        4.152801     2.192912    -4.353356
C        4.037783     3.110844    -3.120012
C        4.856633     2.541345    -1.954101
C        4.419382    -0.075491     0.081850
Se       2.650000     0.000000     0.000000
Ag       0.000000     0.000000     0.000000
Se      -1.325029     2.294950     0.000000
C       -2.251418     3.677544     0.572804
N       -3.626056     3.763191     0.704286
C       -4.613632     2.722102     0.391720
C       -4.367241     2.148520    -1.026528
C       -5.671224     1.946383    -1.789084
C       -6.259717     3.350531    -2.053373
C       -6.081267     4.261361    -0.836121
C       -6.011716     3.371251     0.408559
C       -3.908617     5.056613     1.202274
C       -2.714458     5.736593     1.352953
N       -1.711842     4.857013     0.963082
C       -0.288534     5.142695     0.966691
C        0.142584     5.361279    -0.476987
C       -0.234546     6.767746    -0.888531
C        0.666979     7.682105    -0.099077
C        0.223403     7.669283     1.353785
C        0.056759     6.267515     1.951496
Se      -1.325029    -2.294950     0.000000
C       -2.004702    -3.847143    -0.463494
N       -3.280335    -4.129689    -0.841740
C       -4.366040    -3.171475    -0.938964
C       -5.112688    -3.225254     0.387148
C       -6.452209    -2.513071     0.345192
C       -7.248243    -3.076848    -0.817805
C       -6.537815    -2.702919    -2.095991
C       -5.251111    -3.499083    -2.146334
C       -3.404590    -5.496168    -1.129583
C       -2.147591    -6.088879    -0.872137
N       -1.281185    -5.040978    -0.499946
C        0.151537    -5.166588    -0.196414
C        0.557765    -4.293196     1.010694
C        1.544733    -5.008996     1.881665
C        0.853456    -6.180169     2.557897
C        0.085500    -7.018639     1.528471
C        0.480665    -6.641162     0.106962
N        5.147214    -0.623493     1.123104
C        4.670759    -1.247219     2.339671
C        4.105041    -2.640012     2.092870
C        3.846764    -3.199681     3.493435
C        2.767180    -2.401366     4.244755
C        2.413077    -1.116717     3.503066
C        3.691365    -0.359787     3.124330
H        7.297412    -0.810027     1.408639
H        7.482798     0.409037    -0.968063
H        3.909347     0.602563    -2.414951
H        6.892869     1.091558    -2.846841
H        5.949688    -0.358661    -3.408944
H        5.649894     0.968756    -5.324119
H        6.242420     2.448944    -4.493933
H        3.991506     2.787244    -5.234139
H        3.369301     1.388881    -4.317448
H        4.438591     4.115332    -3.343781
H        2.963345     3.230948    -2.869604
H        5.900301     2.926179    -2.079170
H        4.502914     2.907363    -0.985949
H       -4.563400     1.882763     1.117613
H       -3.799636     2.914193    -1.599106
H       -3.802963     1.209457    -0.986945
H       -5.449172     1.473107    -2.733599
H       -6.378653     1.284101    -1.219904
H       -5.672304     3.771942    -2.886661
H       -7.331145     3.327148    -2.335839
H       -6.848511     5.039134    -0.775269
H       -5.103346     4.789302    -0.963152
H       -6.777676     2.578904     0.377629
H       -6.206961     3.944555     1.306912
H       -4.845763     5.472502     1.414352
H       -2.589679     6.729537     1.692706
H        0.200679     4.229323     1.336540
H        1.235300     5.175904    -0.611546
H       -0.417778     4.663382    -1.106740
H       -1.298082     6.951607    -0.636741
H       -0.094665     6.926042    -1.974079
H        0.549950     8.719812    -0.461411
H        1.714569     7.313212    -0.222995
H        0.961466     8.197755     1.964397
H       -0.725380     8.243401     1.409923
H        0.957062     5.989517     2.513573
H       -0.743933     6.326104     2.702721
H       -3.965883    -2.156209    -1.069097
H       -5.296394    -4.292217     0.639073
H       -4.495729    -2.739477     1.155348
H       -6.325025    -1.405238     0.284704
H       -6.981426    -2.742599     1.276279
H       -8.297558    -2.713176    -0.821036
H       -7.224808    -4.182069    -0.733205
H       -6.346470    -1.609023    -2.101086
H       -7.165887    -2.994704    -2.952520
H       -5.565051    -4.570922    -2.168119
H       -4.696381    -3.281099    -3.066505
H       -4.273828    -6.009668    -1.449763
H       -1.932449    -7.058826    -1.063646
H        0.723838    -4.857139    -1.083058
H       -0.339271    -4.106516     1.656265
H        1.007228    -3.332760     0.671584
H        1.858922    -4.345902     2.623574
H        2.421755    -5.352435     1.287629
H        1.623922    -6.800445     3.065126
H        0.122198    -5.798770     3.310273
H       -1.012427    -6.917114     1.688235
H        0.368926    -8.061792     1.663126
H        1.574502    -6.774454     0.019374
H        0.036705    -7.331112    -0.589906
H        5.548703    -1.409324     2.995461
H        4.881539    -3.249623     1.623336
H        3.176253    -2.618845     1.464437
H        4.787284    -3.092742     4.050754
H        3.638037    -4.277700     3.492847
H        1.858156    -3.007063     4.288619
H        3.079586    -2.195034     5.293471
H        1.821872    -1.427360     2.603845
H        1.793420    -0.478523     4.132720
H        4.135859    -0.044581     4.082659
H        3.493155     0.547726     2.543680
127
ex_0458 frame14 T-shaped Se-Se-ax/Se-eq-conf2
C        6.619217    -0.313658    -0.916947
C        6.688802    -0.361682     0.494823
N        5.405403    -0.406417     1.018202
C        5.118316    -0.462709     2.456557
C        5.548187    -1.963900     2.958827
C        4.820594    -2.359902     4.271598
C        4.630577    -1.129642     5.153199
C        3.689241    -0.113745     4.459713
C        3.746228    -0.175469     2.910531
C        4.611915    -0.269004    -0.064261
Se       2.650000     0.000000     0.000000
Ag       0.000000     0.000000     0.000000
Se      -2.650000     0.000000     0.000000
C       -4.428673    -0.611393    -0.503086
N       -5.123763    -0.164432    -1.640427
C       -4.612917     0.835032    -2.595514
C       -4.611344     2.186816    -1.828543
C       -6.029021     2.786256    -1.684834
C       -6.619303     3.052573    -3.074361
C       -6.749240     1.735367    -3.827860
C       -5.381007     1.012566    -3.943874
C       -6.376871    -0.824725    -1.713583
C       -6.475258    -1.617060    -0.584215
N       -5.252937    -1.538829     0.166995
C       -5.007862    -2.315093     1.382975
C       -6.158700    -2.039014     2.441731
C       -5.689497    -1.178777     3.608478
C       -4.559250    -1.908510     4.375517
C       -3.620164    -2.744932     3.455981
C       -3.587233    -2.136215     2.077033
Se       0.000000     2.650000     0.000000
C        0.406227     4.472664     0.539260
N       -0.530603     5.288686     1.098785
C       -1.881465     5.095111     1.565715
C       -2.319474     3.644407     2.031705
C       -3.746490     3.730774     2.653204
C       -4.598137     4.916773     2.112206
C       -4.193703     5.223400     0.680656
C       -2.730743     5.712829     0.652488
C        0.107118     6.536167     1.165114
C        1.399684     6.409316     0.698676
N        1.620185     5.063684     0.321011
C        2.888151     4.541830    -0.171963
C        2.754386     3.803061    -1.339224
C        2.154305     4.729593    -2.430582
C        2.625011     6.197565    -2.320176
C        4.007592     6.268604    -1.671962
C        4.034163     5.622169    -0.245302
N        5.273113    -0.291909    -1.269823
C        4.711778    -0.293448    -2.613950
C        5.757848    -0.894553    -3.755349
C        6.295274     0.300460    -4.612229
C        6.649470     1.499914    -3.729892
C        5.417005     1.970169    -2.936075
C        4.257879     0.941289    -2.882848
H        7.453936    -0.274113    -1.555667
H        7.590596    -0.363835     1.085840
H        5.801975     0.199261     2.942708
H        5.307348    -2.753445     2.211325
H        6.650132    -1.950665     3.096045
H        3.806482    -2.754915     4.039405
H        5.394212    -3.164485     4.775641
H        5.638497    -0.677828     5.290776
H        4.228274    -1.375283     6.158787
H        2.624951    -0.286886     4.740586
H        3.970373     0.894560     4.836475
H        3.401282     0.803795     2.524918
H        3.062142    -0.979354     2.563714
H       -3.566365     0.587914    -2.881281
H       -4.150299     2.090200    -0.831753
H       -3.997282     2.918869    -2.403578
H       -6.677176     2.116163    -1.101061
H       -5.972405     3.764126    -1.157514
H       -5.961795     3.750653    -3.636012
H       -7.618000     3.526154    -2.973372
H       -7.508635     1.130686    -3.309076
H       -7.150209     1.930330    -4.848494
H       -5.474247     0.055813    -4.476423
H       -4.751139     1.690476    -4.576491
H       -7.170350    -0.671732    -2.401647
H       -7.344485    -2.202640    -0.323560
H       -5.135628    -3.402397     1.135664
H       -7.062889    -1.602206     1.962737
H       -6.484395    -3.014180     2.889755
H       -6.506566    -0.928928     4.304789
H       -5.311675    -0.232738     3.170442
H       -4.963923    -2.602897     5.141819
H       -3.993631    -1.116102     4.910018
H       -4.009391    -3.780973     3.361725
H       -2.620984    -2.793747     3.917740
H       -3.358754    -1.094205     2.215629
H       -2.829284    -2.633540     1.407150
H       -1.955381     5.603876     2.710053
H       -2.402516     3.114369     1.062632
H       -1.655191     3.068077     2.708295
H       -4.241908     2.758958     2.440841
H       -3.700578     3.857562     3.755736
H       -4.399684     5.842387     2.698403
H       -5.678503     4.679876     2.212726
H       -4.269160     4.274328     0.121033
H       -4.849336     5.972027     0.184204
H       -2.353866     5.503235    -0.374407
H       -2.690712     6.814004     0.802291
H       -0.356083     7.451163     1.500731
H        2.121461     7.206029     0.606295
H        3.376405     3.817953     0.775017
H        3.773066     3.528897    -1.650889
H        2.206445     2.855592    -1.311348
H        2.467287     4.297704    -3.407245
H        1.042815     4.733302    -2.411557
H        1.917818     6.776422    -1.709443
H        2.596334     6.676452    -3.323179
H        4.407850     7.304400    -1.630463
H        4.674001     5.686866    -2.346950
H        5.048873     5.173562    -0.167113
H        4.013104     6.370893     0.570916
H        3.876849    -1.199406    -2.701775
H        5.257066    -1.567780    -4.485293
H        6.596512    -1.490547    -3.320489
H        5.506924     0.645446    -5.315882
H        7.160616    -0.025137    -5.222150
H        7.455744     1.190293    -3.049670
H        7.069208     2.344731    -4.308947
H        5.753637     2.269745    -1.919539
H        4.997665     2.878513    -3.428908
H        3.765004     0.929678    -3.884401
H        3.488044     1.264964    -2.191707
127
ex_0458 frame15 conf6
C        6.574232     0.647278    -0.468907
C        6.633652    -0.467961     0.398830
N        5.305336    -0.854200     0.684177
C        4.924844    -1.962565     1.533631
C        3.985129    -1.529590     2.688248
C        3.010807    -2.608977     3.102795
C        2.184733    -3.097392     1.930587
C        2.973376    -3.493628     0.669763
C        4.460591    -3.157331     0.671315
C        4.435573     0.009160     0.012050
Se       2.650000     0.000000     0.000000
Ag       0.000000     0.000000     0.000000
Se      -1.325029     2.294950     0.000000
C       -2.226589     3.845608     0.013006
N       -1.722595     5.049745    -0.477951
C       -0.420423     5.244577    -1.089781
C        0.529130     6.022839    -0.173305
C        0.170378     7.503331    -0.035670
C       -0.117380     8.187894    -1.392902
C        0.060009     7.269269    -2.611201
C       -0.621775     5.902717    -2.470133
C       -2.693595     6.049701    -0.279594
C       -3.797098     5.438873     0.325940
N       -3.501148     4.069290     0.488444
C       -4.418817     3.123217     1.060051
C       -5.776463     3.274244     0.363907
C       -6.872703     2.599845     1.195608
C       -6.299584     1.490549     2.116271
C       -5.222275     0.747345     1.372326
C       -4.050069     1.628453     0.940102
Se      -1.325029    -2.294950     0.000000
C       -2.229238    -3.854169    -0.013552
N       -1.769846    -5.039231     0.552018
C       -0.522025    -5.208930     1.252183
C        0.493259    -6.020347     0.451720
C        0.152476    -7.500820     0.351338
C       -0.229028    -8.125696     1.714697
C       -0.138158    -7.156222     2.903997
C       -0.811885    -5.798908     2.656468
C       -2.722867    -6.045748     0.328782
C       -3.782319    -5.470797    -0.381944
N       -3.460045    -4.101493    -0.558458
C       -4.321992    -3.136662    -1.218511
C       -5.737932    -3.292421    -0.638434
C       -6.773552    -2.655585    -1.571423
C       -6.135815    -1.584548    -2.495116
C       -5.111884    -0.808086    -1.710303
C       -3.974287    -1.667534    -1.156594
N        5.201004     0.927880    -0.685117
C        4.633727     1.989187    -1.493443
C        4.032487     1.354094    -2.767158
C        5.164263     0.707906    -3.578977
C        6.346440     1.684802    -3.803581
C        6.038265     3.095253    -3.287068
C        5.664945     3.096301    -1.806703
H        7.416517     1.152986    -0.901628
H        7.523450    -0.959373     0.740022
H        5.857331    -2.330937     2.006912
H        3.382033    -0.644842     2.419687
H        4.583617    -1.237615     3.571103
H        2.299779    -2.169728     3.836987
H        3.549595    -3.460453     3.560670
H        1.648479    -3.965630     2.341299
H        1.453311    -2.313901     1.625441
H        2.479662    -3.052736    -0.221156
H        2.921049    -4.583369     0.516084
H        4.794504    -3.028879    -0.377416
H        5.003175    -4.065083     1.035752
H        0.084032     4.255267    -1.235898
H        1.535874     5.962754    -0.631581
H        0.566154     5.556296     0.835570
H       -0.704002     7.628828     0.642091
H        1.027756     8.002348     0.461297
H       -1.144189     8.611828    -1.378538
H        0.579479     9.040655    -1.527734
H       -0.357463     7.776229    -3.504563
H        1.146733     7.100498    -2.767501
H       -1.707937     6.025366    -2.662101
H       -0.236977     5.241645    -3.274298
H       -2.624881     7.058882    -0.588190
H       -4.720938     5.910720     0.572357
H       -4.504130     3.387138     2.133601
H       -5.683074     2.771887    -0.628232
H       -6.084773     4.311202     0.182439
H       -7.402935     3.347786     1.815004
H       -7.592624     2.163651     0.467172
H       -7.109001     0.789592     2.372022
H       -5.836245     1.913435     3.025460
H       -5.809294     0.570097     0.516566
H       -4.876986    -0.194474     1.835188
H       -3.191011     1.376780     1.591035
H       -3.822392     1.400185    -0.141360
H       -0.099044    -4.207982     1.371430
H        1.445089    -5.967136     0.998117
H        0.616235    -5.587052    -0.565531
H       -0.670061    -7.652475    -0.380193
H        1.046290    -8.013343    -0.059743
H       -1.252181    -8.550355     1.645527
H        0.456451    -8.969971     1.933515
H       -0.616061    -7.627133     3.786322
H        0.936269    -6.978801     3.129464
H       -1.905979    -5.913856     2.782426
H       -0.474445    -5.102896     3.457182
H       -2.677264    -7.034207     0.696872
H       -4.677881    -5.932401    -0.656214
H       -4.347698    -3.476742    -2.306629
H       -5.716901    -2.751811     0.336842
H       -6.062392    -4.323288    -0.436784
H       -7.260168    -3.429226    -2.195894
H       -7.543289    -2.191348    -0.914715
H       -6.924333    -0.896492    -2.836523
H       -5.610107    -2.044641    -3.350535
H       -5.760622    -0.585677    -0.913331
H       -4.731518     0.113149    -2.185025
H       -3.072141    -1.445383    -1.755236
H       -3.824488    -1.399833    -0.073480
H        3.812126     2.460456    -0.911496
H        3.284004     0.583750    -2.528108
H        3.511532     2.124015    -3.375891
H        5.544084    -0.176270    -3.016487
H        4.752435     0.336006    -4.540988
H        7.249700     1.295115    -3.285036
H        6.561201     1.765059    -4.886909
H        5.146374     3.467013    -3.831010
H        6.870511     3.790841    -3.481733
H        6.544294     3.063299    -1.131319
H        5.214072     4.080508    -1.584057
127
ex_0458 frame16 T-shaped Se-Se-ax/Se-eq-conf6
C        6.625705     0.676176    -0.344392
C        6.645902    -0.433340     0.544533
N        5.298107    -0.846981     0.755588
C        4.924556    -2.002607     1.590593
C        3.999429    -1.592340     2.772193
C        3.120495    -2.771026     3.199962
C        2.177995    -3.152561     2.032001
C        2.899064    -3.344081     0.670293
C        4.422318    -3.237470     0.794126
C        4.434533     0.032202     0.041038
Se       2.650000     0.000000     0.000000
Ag       0.000000     0.000000     0.000000
Se      -2.650000     0.000000     0.000000
C       -4.426052     0.060092    -0.058232
N       -5.249626    -0.719545    -0.908981
C       -4.795702    -1.771589    -1.815429
C       -4.998801    -1.380812    -3.292288
C       -6.452727    -1.512581    -3.784496
C       -7.140209    -2.814326    -3.297842
C       -6.143154    -3.813300    -2.690561
C       -5.459906    -3.144616    -1.476354
C       -6.600789    -0.309744    -0.737123
C       -6.626252     0.684297     0.268277
N       -5.294716     0.890356     0.728784
C       -4.962135     1.818109     1.831590
C       -5.867961     1.618715     3.061494
C       -5.755446     2.848474     4.008644
C       -4.378591     3.557021     3.942605
C       -3.294253     2.512478     3.739728
C       -3.485317     1.805252     2.368877
Se       0.000000     2.650000     0.000000
C       -0.034943     4.422531     0.108187
N        1.043122     5.254648     0.493265
C        2.413394     4.840725     0.739896
C        2.831977     5.008925     2.215519
C        3.225070     6.446023     2.602078
C        4.181471     7.099994     1.570635
C        4.626008     6.133198     0.453374
C        3.359446     5.599065    -0.237562
C        0.573963     6.591504     0.606028
C       -0.762199     6.621232     0.185301
N       -1.162533     5.290050    -0.177635
C       -2.489280     4.951521    -0.730750
C       -2.907273     5.882207    -1.880536
C       -4.422495     5.757817    -2.118969
C       -5.007558     4.367176    -1.745652
C       -3.983295     3.297478    -2.092990
C       -2.701142     3.492035    -1.244870
N        5.258559     0.963146    -0.650044
C        4.769897     2.035583    -1.528317
C        4.099578     1.472567    -2.791798
C        5.123784     0.750666    -3.696585
C        6.500684     1.465520    -3.777523
C        6.355974     2.939673    -3.435384
C        5.859271     3.092142    -1.970676
H        7.505415     1.199749    -0.696508
H        7.520164    -0.887271     0.975193
H        5.868451    -2.382321     2.040476
H        3.300149    -0.782228     2.487405
H        4.615249    -1.194721     3.603786
H        2.508061    -2.497485     4.084583
H        3.766750    -3.629052     3.482844
H        1.606807    -4.064495     2.304764
H        1.431327    -2.337984     1.899031
H        2.524600    -2.620041    -0.066794
H        2.632812    -4.336619     0.243333
H        4.950327    -3.348660    -0.176855
H        4.697674    -4.132966     1.394888
H       -3.698108    -1.897431    -1.702226
H       -4.403334    -2.110711    -3.885022
H       -4.576278    -0.378988    -3.520760
H       -7.077197    -0.642415    -3.494961
H       -6.404246    -1.504555    -4.894726
H       -7.860428    -2.563230    -2.489652
H       -7.739617    -3.258929    -4.120521
H       -6.678668    -4.726900    -2.352479
H       -5.395624    -4.120202    -3.452417
H       -6.247895    -2.991948    -0.706357
H       -4.717336    -3.833235    -1.017934
H       -7.463577    -0.683869    -1.261648
H       -7.510057     1.193451     0.627423
H       -5.207680     2.831138     1.443212
H       -5.514968     0.695726     3.575688
H       -6.942736     1.471861     2.833176
H       -6.514585     3.619196     3.753952
H       -5.973875     2.485186     5.036475
H       -4.227721     4.166919     4.858612
H       -4.336047     4.248473     3.070881
H       -3.404797     1.780828     4.570569
H       -2.268505     2.937637     3.801170
H       -2.848942     2.316107     1.635683
H       -3.108345     0.775396     2.533451
H        2.510516     3.755369     0.546467
H        3.754140     4.402173     2.354272
H        2.076452     4.583491     2.910664
H        2.334115     7.092125     2.745481
H        3.723126     6.395819     3.595283
H        3.631521     7.933646     1.079206
H        5.048832     7.561834     2.084909
H        5.249671     6.684278    -0.284743
H        5.234701     5.299932     0.860348
H        2.850381     6.501880    -0.650928
H        3.568356     4.968196    -1.124044
H        1.130707     7.455456     0.921771
H       -1.408524     7.483457     0.130842
H       -3.174835     5.164941     0.111645
H       -2.332295     5.561769    -2.777801
H       -2.672198     6.957859    -1.719364
H       -4.995201     6.501030    -1.518397
H       -4.608158     5.992656    -3.193188
H       -5.983525     4.217627    -2.255394
H       -5.192461     4.307472    -0.651032
H       -3.755430     3.426391    -3.172041
H       -4.377369     2.269873    -1.954371
H       -2.764668     2.856430    -0.356943
H       -1.868599     3.143011    -1.892679
H        4.044198     2.603063    -0.911659
H        3.246428     0.804697    -2.586846
H        3.676748     2.347369    -3.349888
H        5.316907    -0.292161    -3.357463
H        4.659849     0.690112    -4.704234
H        7.202948     1.035602    -3.035835
H        6.943621     1.305552    -4.785084
H        5.601060     3.365577    -4.141985
H        7.295704     3.512941    -3.576131
H        6.692575     3.126522    -1.242048
H        5.441778     4.126247    -1.942738
127
ex_0458 frame17 T-shaped Se-Se-ax/Se-eq-conf4
C        6.489574     1.402232    -0.316393
C        6.465857     0.596062    -1.446621
N        5.176327     0.032546    -1.593919
C        4.814249    -0.878687    -2.702158
C        3.380847    -1.482579    -2.615570
C        3.293607    -2.752058    -3.457253
C        4.258216    -3.827639    -2.880052
C        5.529628    -3.220631    -2.235563
C        5.894698    -1.933633    -2.962070
C        4.458507     0.486537    -0.482155
Se       2.650000     0.000000     0.000000
Ag       0.000000     0.000000     0.000000
Se      -2.650000     0.000000     0.000000
C       -4.432781     0.556276     0.380064
N       -4.992834     1.753447    -0.038340
C       -4.331435     2.847505    -0.697970
C       -5.450666     3.773881    -1.395849
C       -6.244152     3.092758    -2.575986
C       -5.777002     1.656448    -2.868049
C       -4.256819     1.514083    -2.958356
C       -3.513596     2.355518    -1.902463
C       -6.342108     1.723500     0.294308
C       -6.584971     0.550370     0.999207
N       -5.381481    -0.134759     1.117710
C       -5.252144    -1.337307     1.892517
C       -5.948846    -2.334733     0.955927
C       -6.091124    -3.719096     1.620335
C       -4.718116    -4.241627     2.047790
C       -4.037107    -3.223200     2.982203
C       -3.876994    -1.844436     2.279005
Se       0.000000     2.650000     0.000000
C       -0.111352     4.579569    -0.067776
N       -0.269855     5.351339    -1.206020
C       -0.489501     5.017261    -2.619636
C        0.136413     3.832806    -3.118947
C        1.630329     4.186920    -3.177229
C        1.839762     5.344179    -4.163945
C        1.028887     6.567423    -3.734856
C       -0.468189     6.208337    -3.576826
C       -0.172534     6.665993    -0.715742
C       -0.001173     6.639891     0.647214
N        0.012171     5.321290     1.040453
C        0.135085     4.818182     2.385936
C       -0.809201     3.857378     3.046965
C       -2.157784     4.570868     3.287127
C       -2.004865     6.088388     3.581105
C       -0.696623     6.353455     4.320624
C        0.520497     5.920837     3.455485
N        5.232873     1.348080     0.276655
C        4.884846     2.091462     1.470380
C        5.388853     1.104822     2.590157
C        4.488454     1.124869     3.842633
C        4.112063     2.537051     4.310606
C        3.669542     3.452557     3.146468
C        3.515284     2.713926     1.787380
H        7.330116     1.963157     0.053935
H        7.294886     0.423414    -2.109824
H        4.845153    -0.219874    -3.683075
H        3.223499    -1.882770    -1.598515
H        2.588411    -0.746933    -2.868300
H        2.267753    -3.177576    -3.492923
H        3.586617    -2.475036    -4.492955
H        3.769174    -4.438836    -2.089934
H        4.516986    -4.508066    -3.719703
H        5.347909    -2.948909    -1.171203
H        6.343832    -3.977474    -2.254534
H        6.915270    -1.617626    -2.696423
H        5.953970    -2.199155    -4.040607
H       -3.769070     3.503729    -0.045876
H       -6.155588     4.267781    -0.670766
H       -4.919346     4.644396    -1.845010
H       -6.142889     3.721812    -3.476786
H       -7.328755     3.045795    -2.323897
H       -6.270759     1.234830    -3.769764
H       -6.094752     1.000750    -2.042281
H       -3.884095     1.822760    -3.964147
H       -4.016519     0.439604    -2.840407
H       -3.254925     3.285781    -2.440933
H       -2.532762     1.956180    -1.671017
H       -7.010691     2.508530    -0.026822
H       -7.552014     0.215586     1.303113
H       -5.875807    -1.251236     2.835136
H       -5.370018    -2.445781     0.005594
H       -6.984781    -2.025398     0.666496
H       -6.750195    -3.630447     2.506777
H       -6.562596    -4.447996     0.913323
H       -4.838748    -5.212906     2.569422
H       -4.089060    -4.406086     1.143552
H       -4.636315    -3.102896     3.902260
H       -3.030525    -3.610657     3.259523
H       -3.376582    -1.141146     2.958065
H       -3.254801    -2.036854     1.386873
H       -1.766831     4.789692    -2.670150
H       -0.201162     3.577411    -4.147662
H       -0.029824     2.914970    -2.546771
H        2.209358     3.307422    -3.530791
H        1.999003     4.462272    -2.163952
H        1.510860     5.022988    -5.176629
H        2.917161     5.611461    -4.218783
H        1.138568     7.373902    -4.491903
H        1.468506     6.939930    -2.792820
H       -1.061561     7.097094    -3.273182
H       -0.846720     5.905678    -4.577835
H       -0.208993     7.551234    -1.325643
H        0.116621     7.521314     1.257039
H        1.121717     4.302109     2.128451
H       -0.351154     3.568239     4.021113
H       -0.982615     2.908737     2.507994
H       -2.644282     4.036473     4.130012
H       -2.813624     4.478568     2.394845
H       -1.957551     6.661605     2.631922
H       -2.896218     6.448023     4.134493
H       -0.734425     5.731163     5.242357
H       -0.579201     7.412151     4.636003
H        1.262071     5.535297     4.186826
H        1.051281     6.780054     3.007118
H        5.559716     2.968491     1.568202
H        6.437032     1.368674     2.860497
H        5.393265     0.054173     2.230239
H        3.538892     0.621671     3.559818
H        4.924132     0.535051     4.679699
H        4.944322     3.030354     4.859257
H        3.273343     2.421770     5.034195
H        2.777765     4.015397     3.454785
H        4.457792     4.226894     3.009475
H        3.255385     3.449034     0.997874
H        2.705396     1.964826     1.862312
127
ex_0458 frame18 conf2
C        6.532668    -0.277122    -1.064873
C        6.691898    -0.296539     0.317599
N        5.359956    -0.212534     0.870744
C        5.120623    -0.220880     2.288429
C        5.620220    -1.644412     2.810090
C        4.766149    -2.207032     3.946547
C        4.468776    -1.084046     4.920415
C        3.549808     0.055704     4.262608
C        3.653491     0.048606     2.783239
C        4.374303    -0.123326    -0.168463
Se       2.650000     0.000000     0.000000
Ag       0.000000     0.000000     0.000000
Se      -1.325029     2.294950     0.000000
C       -2.342876     3.653374    -0.523404
N       -1.922085     4.748492    -1.264696
C       -0.574198     4.939112    -1.729578
C        0.255420     5.449023    -0.555932
C       -0.135956     6.853908    -0.200810
C        0.307795     7.779449    -1.325514
C       -0.388710     7.462130    -2.690342
C       -0.612157     5.894938    -2.994185
C       -3.057639     5.653292    -1.486354
C       -4.183936     5.046083    -0.920756
N       -3.723774     3.833922    -0.271542
C       -4.602096     2.967931     0.512866
C       -5.415346     3.894725     1.483058
C       -5.050003     3.691952     2.930581
C       -5.308523     2.198615     3.285966
C       -4.985319     1.201821     2.105721
C       -3.931246     1.741506     1.287023
Se      -1.325029    -2.294950     0.000000
C       -2.470660    -3.584833    -0.386954
N       -3.441393    -4.155499     0.471684
C       -3.689148    -3.776608     1.802296
C       -3.404974    -2.291903     2.218413
C       -4.239139    -2.036800     3.466599
C       -4.373807    -3.294183     4.412158
C       -3.147187    -4.178805     4.241511
C       -3.120571    -4.798703     2.793000
C       -4.174415    -5.200044    -0.180168
C       -3.640919    -5.267495    -1.482160
N       -2.601903    -4.250902    -1.614354
C       -1.840596    -3.993265    -2.838655
C       -0.284715    -4.157470    -2.715796
C        0.099121    -5.422382    -1.937421
C       -0.739889    -6.693411    -2.369716
C       -1.658552    -6.506315    -3.673946
C       -2.244333    -5.008633    -3.920259
N        5.081070    -0.154934    -1.361223
C        4.484534    -0.079585    -2.688319
C        5.529167    -0.576040    -3.767578
C        6.340075     0.582223    -4.476103
C        6.525648     1.898137    -3.596827
C        5.276307     2.270843    -2.703955
C        4.088799     1.391192    -3.029162
H        7.283890    -0.264579    -1.771119
H        7.461293    -0.333907     0.870917
H        5.698385     0.587104     2.726037
H        5.609729    -2.358740     1.973757
H        6.611157    -1.456830     3.176578
H        3.756580    -2.586109     3.521775
H        5.274749    -2.992314     4.367457
H        5.455394    -0.631432     5.192731
H        3.953749    -1.454716     5.784119
H        2.553100    -0.128213     4.494790
H        3.885565     1.063110     4.626764
H        3.237341     0.966182     2.356021
H        3.043859    -0.865374     2.391033
H       -0.206879     3.986029    -2.111791
H        0.116074     4.775695     0.283692
H        1.359979     5.436136    -0.855454
H       -1.235080     6.929395     0.002233
H        0.412067     7.167155     0.706392
H        1.381759     7.641358    -1.454149
H        0.062569     8.817708    -1.115079
H       -1.355790     7.949066    -2.728159
H        0.231107     7.806507    -3.484358
H       -1.556895     5.811890    -3.496383
H        0.109229     5.562922    -3.697503
H       -3.033455     6.556397    -1.955121
H       -5.080560     5.416770    -0.870490
H       -5.283726     2.519866    -0.260869
H       -5.259256     4.940149     1.256910
H       -6.459421     3.634745     1.318179
H       -5.589266     4.352463     3.531325
H       -3.920341     3.887066     3.033979
H       -6.379518     2.064726     3.533836
H       -4.686999     1.974209     4.187790
H       -5.874538     1.123507     1.503216
H       -4.717171     0.280764     2.494641
H       -3.066574     2.221116     1.914206
H       -3.529882     1.041220     0.598539
H       -4.772902    -3.851482     1.844579
H       -2.311635    -2.205770     2.520667
H       -3.628149    -1.602861     1.380187
H       -3.794313    -1.188633     4.008306
H       -5.290184    -1.731626     3.113176
H       -5.238906    -3.887433     4.023917
H       -4.512414    -2.978704     5.381835
H       -2.195497    -3.494673     4.358917
H       -3.131213    -4.949663     4.940600
H       -2.079037    -5.163885     2.510679
H       -3.774676    -5.655989     2.809575
H       -4.934205    -5.730980     0.258786
H       -3.994694    -5.924912    -2.178273
H       -2.071253    -3.006146    -3.199331
H        0.110020    -4.210522    -3.696313
H        0.173072    -3.243587    -2.218411
H        1.156252    -5.641491    -2.126422
H       -0.068194    -5.293942    -0.852863
H       -1.391456    -6.952423    -1.527481
H       -0.108604    -7.473793    -2.593642
H       -2.442963    -7.169062    -3.576121
H       -1.046837    -6.703518    -4.532428
H       -1.829611    -4.674358    -4.836571
H       -3.316130    -5.072590    -4.036995
H        3.631387    -0.804802    -2.735432
H        4.997085    -1.080780    -4.534843
H        6.211979    -1.273202    -3.324725
H        5.683991     0.905895    -5.337014
H        7.234065     0.237281    -4.809693
H        7.412302     1.754409    -2.967522
H        6.681189     2.693260    -4.292824
H        5.583051     2.134728    -1.629399
H        5.050828     3.317519    -2.792372
H        3.829236     1.469849    -4.097595
H        3.197374     1.705454    -2.429882
127
ex_0458 frame19 conf3
C        6.251759    -1.561708     0.046999
C        6.259780    -0.941333    -1.176012
N        5.035547    -0.332203    -1.345867
C        4.627342     0.429830    -2.497712
C        5.760637     0.487127    -3.499284
C        5.588667     1.619640    -4.491232
C        5.879569     2.924150    -3.777503
C        5.433646     2.832591    -2.328506
C        4.279207     1.870231    -2.136710
C        4.279373    -0.586528    -0.215249
Se       2.650000     0.000000     0.000000
Ag       0.000000     0.000000     0.000000
Se      -1.325029     2.294950     0.000000
C       -2.438964     3.648689     0.178366
N       -3.453933     3.969005    -0.603211
C       -3.856414     3.259164    -1.780273
C       -2.788387     3.264776    -2.873602
C       -3.268964     2.263635    -3.898132
C       -4.574574     2.639694    -4.526322
C       -5.605209     3.231624    -3.594437
C       -5.066111     3.940632    -2.390241
C       -4.053319     5.093639    -0.095457
C       -3.382092     5.480163     1.044874
N       -2.364945     4.586523     1.229498
C       -1.437549     4.661169     2.318155
C       -1.029332     6.117228     2.568268
C       -0.454445     6.244906     3.983406
C        0.244909     4.935095     4.340509
C        0.908364     4.433037     3.065684
C       -0.138399     3.909041     2.098889
Se      -1.325029    -2.294950     0.000000
C       -2.056495    -3.839658    -0.246789
N       -1.899236    -4.987423     0.463441
C       -1.069474    -5.189090     1.610500
C        0.058935    -6.152095     1.316813
C       -0.302236    -7.610611     1.341116
C       -1.231417    -8.051902     2.436436
C       -2.235135    -7.047841     2.938965
C       -1.828085    -5.608967     2.850323
C       -2.679142    -5.967152    -0.095330
C       -3.332433    -5.422973    -1.171395
N       -2.965508    -4.106604    -1.287251
C       -3.492736    -3.264554    -2.332687
C       -2.702469    -2.060568    -2.724693
C       -3.239486    -0.728909    -2.270659
C       -4.283270    -0.679866    -1.199997
C       -4.912740    -1.993696    -0.829038
C       -4.922444    -2.889655    -2.025231
N        5.029176    -1.342058     0.636329
C        4.704451    -1.863313     1.925322
C        5.545654    -1.203818     3.023429
C        4.958280    -1.603362     4.373662
C        3.610041    -0.921674     4.619813
C        3.027364    -0.619668     3.235777
C        3.275375    -1.848607     2.359672
H        7.058898    -2.121520     0.462255
H        7.088827    -0.952961    -1.847953
H        3.781535    -0.111509    -2.964834
H        5.918805    -0.473708    -4.001505
H        6.682891     0.742734    -2.920869
H        6.340788     1.460046    -5.268978
H        4.567411     1.637373    -4.942281
H        6.949364     3.195262    -3.807542
H        5.335538     3.740563    -4.305837
H        5.065742     3.821727    -2.045892
H        6.269289     2.571465    -1.646708
H        3.931614     2.011833    -1.109614
H        3.480072     2.196986    -2.828747
H       -4.131955     2.208998    -1.540765
H       -2.769803     4.256830    -3.357262
H       -1.798790     2.926017    -2.517111
H       -2.534737     2.111424    -4.700063
H       -3.356091     1.510066    -3.404821
H       -4.347572     3.297647    -5.382929
H       -5.033263     1.714734    -4.947350
H       -6.374563     2.479905    -3.281074
H       -6.161155     3.989582    -4.186737
H       -5.876779     3.953866    -1.631999
H       -4.813902     4.999758    -2.621874
H       -4.901056     5.553394    -0.548931
H       -3.645534     6.329731     1.630823
H       -1.955989     4.252755     3.208112
H       -0.217777     6.334239     1.838228
H       -1.822532     6.836539     2.407144
H       -1.244648     6.527284     4.713606
H        0.339683     7.033359     4.010041
H        1.062193     5.087764     5.060183
H       -0.448772     4.164764     4.730440
H        1.596708     3.630599     3.332724
H        1.425623     5.300021     2.599261
H        0.271226     4.087317     1.082483
H       -0.283049     2.845480     2.354344
H       -0.570830    -4.254431     1.893265
H        0.922518    -5.935005     1.986441
H        0.412104    -5.921325     0.288766
H        0.660080    -8.156781     1.500188
H       -0.619293    -7.960416     0.327670
H       -0.659526    -8.519217     3.274747
H       -1.830717    -8.896423     2.017506
H       -2.367608    -7.274978     4.027883
H       -3.264589    -7.205611     2.535651
H       -1.150090    -5.416889     3.715044
H       -2.717515    -4.984337     2.988008
H       -2.784895    -6.975967     0.219282
H       -4.010680    -5.939110    -1.810534
H       -3.605830    -3.927089    -3.230881
H       -2.743963    -1.995896    -3.847147
H       -1.603017    -2.155568    -2.582075
H       -2.364232    -0.126274    -1.950007
H       -3.700802    -0.367129    -3.098544
H       -3.848432    -0.266400    -0.266361
H       -5.113566     0.010885    -1.447638
H       -5.967633    -1.849384    -0.504186
H       -4.408970    -2.492660     0.013496
H       -5.457401    -3.836457    -1.812852
H       -5.304042    -2.389940    -2.932746
H        5.056233    -2.924450     1.918505
H        5.631018    -0.108021     2.894499
H        6.554879    -1.607809     2.977812
H        5.704027    -1.356874     5.136830
H        4.803739    -2.703792     4.318582
H        2.959203    -1.602885     5.205147
H        3.750797     0.039613     5.176167
H        1.985207    -0.331000     3.278963
H        3.615661     0.270908     2.904807
H        3.155064    -2.713381     3.071246
H        2.512441    -2.043555     1.610208
