71
ex_0248 frame0 linear-1
C        0.046027    -5.206770     0.534880
C       -0.855896    -4.140998     0.385126
C       -0.651777    -2.960683     1.094599
C        0.474529    -2.834711     1.905723
P        0.798869    -1.314693     2.760713
Se       2.439200    -0.216917     1.732637
Au       2.546570    -0.830871    -0.636758
Se       1.171141    -0.366930    -2.610448
P        0.368963     1.705951    -2.640940
C        0.207519     2.363576    -4.316278
C        0.115497     1.461573    -5.407902
C       -0.001340     1.969695    -6.710746
C       -0.026769     3.354953    -6.903468
C        0.070357     4.221912    -5.808408
C        0.174461     3.719169    -4.528621
C        1.569676     2.751894    -1.817561
C        1.224774     3.377807    -0.595614
C        2.172913     4.187697     0.042740
C        3.431943     4.362172    -0.540781
C        3.743100     3.740542    -1.753037
C        2.813230     2.939313    -2.375221
C       -1.300131     1.689940    -1.951849
C       -1.961586     2.905439    -1.682888
C       -3.235989     2.877838    -1.115275
C       -3.850167     1.646435    -0.852470
C       -3.183637     0.450861    -1.140552
C       -1.922153     0.488912    -1.691012
C        1.319109    -1.753411     4.477711
C        0.665120    -2.805099     5.134256
C        1.023440    -3.142296     6.432225
C        2.045253    -2.451985     7.084238
C        2.704459    -1.405248     6.445280
C        2.351412    -1.051503     5.123740
C       -0.579143    -0.179705     2.946741
C       -1.886133    -0.662119     3.158514
C       -2.933061     0.252068     3.286312
C       -2.671139     1.629956     3.200460
C       -1.359227     2.082969     3.015938
C       -0.342431     1.180418     2.879540
C        1.360691    -3.899342     2.056511
C        1.159738    -5.073030     1.365980
H       -0.107060    -6.138646     0.001761
H       -1.699426    -4.250194    -0.263957
H       -1.325210    -2.112610     0.962413
H        0.135783     0.368020    -5.267703
H       -0.078352     1.298618    -7.558298
H       -0.117551     3.791645    -7.883134
H        0.059639     5.290562    -5.925719
H        0.243061     4.398254    -3.714688
H        0.227820     3.238724    -0.124140
H        1.953713     4.673345     0.978923
H        4.185022     4.974662    -0.076035
H        4.697652     3.871031    -2.207920
H        3.025923     2.463118    -3.301991
H       -1.472847     3.863746    -1.870320
H       -3.757346     3.784742    -0.878156
H       -4.840820     1.596292    -0.423958
H       -3.646295    -0.489440    -0.946249
H       -1.418097    -0.424386    -1.907219
H       -0.125700    -3.319961     4.631013
H        0.510035    -3.952742     6.919900
H        2.308776    -2.734537     8.085094
H        3.486643    -0.865114     6.967819
H        2.850096    -0.218209     4.636588
H       -2.068855    -1.738396     3.230213
H       -3.940934    -0.076167     3.424570
H       -3.469840     2.352031     3.285929
H       -1.138926     3.127605     2.959108
H        0.653674     1.526340     2.769295
H        2.219134    -3.784553     2.685128
H        1.849373    -5.872464     1.485753
71
ex_0248 frame1 linear-2
C       -2.698452     0.243857    -7.683464
C       -1.371992    -0.125421    -7.415884
C       -0.968164    -0.401698    -6.114683
C       -1.887455    -0.313150    -5.089007
P       -1.411799    -0.669040    -3.396969
Se      -3.046969    -0.320317    -1.934424
Au      -2.328201     0.764912     0.141184
Se      -2.210653     1.226455     2.544444
P       -0.269951     0.538158     3.437383
C        1.041398     1.673164     2.947083
C        2.342638     1.481415     3.431646
C        3.353486     2.362744     3.057963
C        3.063838     3.423506     2.196468
C        1.763571     3.611410     1.725761
C        0.757983     2.732177     2.092051
C       -0.469120     0.590749     5.278574
C        0.450220    -0.087735     6.095735
C        0.341088    -0.016963     7.487606
C       -0.698834     0.710713     8.070093
C       -1.624934     1.375400     7.263343
C       -1.526209     1.299307     5.869492
C       -0.029317    -1.167592     2.988116
C       -1.115989    -2.032971     3.129266
C       -1.016787    -3.345644     2.707327
C        0.195002    -3.812946     2.201718
C        1.300248    -2.954615     2.105116
C        1.191882    -1.626730     2.514086
C       -0.899834    -2.430820    -3.407281
C       -0.177388    -2.935142    -2.316201
C        0.271987    -4.255531    -2.325987
C       -0.037565    -5.087798    -3.402691
C       -0.779949    -4.594476    -4.476821
C       -1.217460    -3.270087    -4.478909
C       -0.100101     0.493694    -3.041385
C       -0.395799     1.826990    -2.842098
C        0.628510     2.714075    -2.543673
C        1.953085     2.264156    -2.464704
C        2.254428     0.919634    -2.679303
C        1.227403     0.031345    -2.968615
C       -3.219684     0.058491    -5.346812
C       -3.627347     0.334317    -6.644490
H       -3.004160     0.457026    -8.694534
H       -0.649096    -0.202089    -8.209269
H        0.047241    -0.693755    -5.891975
H        2.569421     0.670954     4.117139
H        4.357082     2.225923     3.435573
H        3.842061     4.105366     1.898795
H        1.526466     4.437612     1.075145
H       -0.243358     2.903207     1.732720
H        1.276375    -0.636296     5.661160
H        1.066077    -0.519656     8.115418
H       -0.783161     0.769492     9.146504
H       -2.413744     1.957677     7.721748
H       -2.231578     1.852019     5.269546
H       -2.071991    -1.661246     3.487967
H       -1.886225    -3.985571     2.762558
H        0.266888    -4.835962     1.873468
H        2.233353    -3.310837     1.697736
H        2.029085    -0.953063     2.407196
H        0.088951    -2.285804    -1.488786
H        0.866054    -4.631552    -1.506324
H        0.300910    -6.113424    -3.411681
H       -1.010940    -5.238012    -5.311936
H       -1.775920    -2.904923    -5.325288
H       -1.423487     2.158928    -2.893900
H        0.383361     3.746943    -2.369814
H        2.745643     2.955027    -2.234694
H        3.277390     0.567531    -2.620910
H        1.476781    -1.012025    -3.136513
H       -3.950759     0.123137    -4.545169
H       -4.657470     0.613904    -6.836774
71
ex_0248 frame2 linear
C        6.522978    -4.040771     1.011587
C        5.159330    -3.876051     1.090396
C        4.532770    -2.672759     0.807117
C        5.329604    -1.611607     0.433135
P        4.684223    -0.000454     0.036030
Se       2.450000     0.000000     0.000000
Au       0.000000     0.000000     0.000000
Se      -2.450000     0.000000     0.000000
P       -4.669759     0.045980     0.014287
C       -5.283360     1.525027    -0.757459
C       -5.845055     2.563655    -0.056275
C       -6.287466     3.665063    -0.768991
C       -6.188444     3.759890    -2.133394
C       -5.621444     2.713116    -2.848623
C       -5.183904     1.620569    -2.129182
C       -5.248483    -0.094284     1.693699
C       -6.577760     0.154079     1.982229
C       -7.088797     0.062997     3.260182
C       -6.260312    -0.288333     4.309740
C       -4.931934    -0.539674     4.041088
C       -4.431244    -0.443925     2.748288
C       -5.359154    -1.361187    -0.881003
C       -6.413641    -1.198254    -1.757564
C       -6.939404    -2.274429    -2.440992
C       -6.378695    -3.519707    -2.221529
C       -5.316225    -3.710175    -1.343929
C       -4.808517    -2.612508    -0.671532
C        5.239429     0.421244    -1.606226
C        4.438246     0.091896    -2.696693
C        4.803598     0.386953    -3.995127
C        6.005302     1.033829    -4.254492
C        6.777742     1.347713    -3.157843
C        6.427669     1.060890    -1.862842
C        5.222521     1.179408     1.262080
C        5.896521     0.796209     2.402252
C        6.320818     1.666732     3.356020
C        6.069066     3.019875     3.187009
C        5.395906     3.421624     2.052299
C        4.967280     2.528884     1.085970
C        6.695114    -1.785249     0.356681
C        7.317043    -2.978696     0.637597
H        7.027826    -4.970102     1.228444
H        4.563014    -4.723142     1.385272
H        3.466702    -2.529794     0.864700
H       -5.926166     2.497283     1.010866
H       -6.737970     4.505699    -0.240578
H       -6.534901     4.622724    -2.692894
H       -5.515908     2.729462    -3.924549
H       -4.744185     0.812620    -2.700998
H       -7.296057     0.437253     1.206276
H       -8.128668     0.254639     3.502490
H       -6.646066    -0.365913     5.329606
H       -4.281026    -0.814476     4.858012
H       -3.376976    -0.646937     2.557158
H       -6.834067    -0.211653    -1.910862
H       -7.758990    -2.095082    -3.111067
H       -6.788925    -4.373448    -2.757767
H       -4.891182    -4.692121    -1.185658
H       -3.978773    -2.727953     0.020925
H        3.493222    -0.411448    -2.559162
H        4.158476     0.118777    -4.836304
H        6.284067     1.261272    -5.273836
H        7.734498     1.859776    -3.327694
H        7.068511     1.329025    -1.048834
H        6.085045    -0.259807     2.519741
H        6.841495     1.263825     4.214137
H        6.405398     3.715947     3.944321
H        5.201451     4.474099     1.923307
H        4.438806     2.881011     0.202941
H        7.342698    -0.946229     0.059370
H        8.403509    -3.052886     0.558648
71
ex_0248 frame3 linear-conf2
C        6.169367     2.005287     3.807507
C        4.920095     1.396334     3.781831
C        4.461085     0.784838     2.628331
C        5.249078     0.778557     1.492695
P        4.687389    -0.006819    -0.028287
Se       2.450000     0.000000     0.000000
Au       0.000000     0.000000     0.000000
Se      -2.450000     0.000000     0.000000
P       -4.678912    -0.057888     0.012300
C       -5.335528     1.559059     0.470242
C       -5.445821     2.570377    -0.464889
C       -5.944177     3.824369    -0.153924
C       -6.349778     4.068242     1.161842
C       -6.233660     3.050254     2.082397
C       -5.742451     1.815782     1.773787
C       -5.311350    -1.227621     1.179954
C       -4.522065    -2.208127     1.757754
C       -5.029447    -3.119590     2.672030
C       -6.370844    -3.030449     3.005339
C       -7.155377    -2.050533     2.426586
C       -6.652337    -1.142647     1.516613
C       -5.257893    -0.406366    -1.637651
C       -6.369516    -1.229451    -1.775679
C       -6.797361    -1.483783    -3.057331
C       -6.187096    -0.970847    -4.182889
C       -5.074591    -0.147652    -4.034158
C       -4.627025     0.121061    -2.745709
C        5.240962     0.862128    -1.474349
C        5.090304     2.221975    -1.629878
C        5.517058     2.905919    -2.749502
C        6.128851     2.219765    -3.781316
C        6.294057     0.852423    -3.653354
C        5.860700     0.168843    -2.520171
C        5.331489    -1.653313    -0.009297
C        6.699157    -1.818260    -0.078107
C        7.236246    -3.097176    -0.065367
C        6.429933    -4.227620     0.015414
C        5.052664    -4.043507     0.084125
C        4.493460    -2.766527     0.072647
C        6.508292     1.387214     1.503415
C        6.968909     2.000968     2.661295
H        6.485314     2.467420     4.723099
H        4.266717     1.375328     4.646119
H        3.493783     0.297970     2.563138
H       -5.142250     2.420789    -1.494723
H       -6.029246     4.620358    -0.897005
H       -6.747167     5.027654     1.465256
H       -6.543010     3.218667     3.109969
H       -5.654951     1.014664     2.514015
H       -3.468833    -2.282884     1.500013
H       -4.424428    -3.891507     3.131887
H       -6.769056    -3.742675     3.720300
H       -8.217814    -1.967727     2.680399
H       -7.319514    -0.393529     1.094669
H       -6.878160    -1.653112    -0.913551
H       -7.659045    -2.119986    -3.200128
H       -6.578964    -1.212978    -5.176200
H       -4.588915     0.259844    -4.915623
H       -3.752204     0.768237    -2.625889
H        4.620772     2.804643    -0.857277
H        5.383326     3.980879    -2.842135
H        6.454713     2.779994    -4.649304
H        6.777769     0.347934    -4.482235
H        6.018497    -0.901943    -2.478859
H        7.394600    -0.987242    -0.143062
H        8.311651    -3.263330    -0.118281
H        6.893032    -5.195413     0.021977
H        4.402934    -4.908692     0.147725
H        3.402444    -2.634548     0.127525
H        7.140067     1.386642     0.606090
H        7.952843     2.479328     2.677840
71
ex_0248 frame4 linear-conf3
C        6.385892    -0.857866     4.103391
C        7.207664    -0.585079     3.028032
C        6.704738    -0.331616     1.766616
C        5.332175    -0.364178     1.631103
P        4.675081    -0.036457    -0.001266
Se       2.450000     0.000000     0.000000
Au       0.000000     0.000000     0.000000
Se      -2.450000     0.000000     0.000000
P       -4.687587     0.036292    -0.099517
C       -5.284663    -0.084296     1.586108
C       -6.395456    -0.821660     1.928105
C       -6.751120    -0.832401     3.264892
C       -6.034074    -0.139691     4.224371
C       -4.921950     0.597017     3.873574
C       -4.551662     0.619142     2.541431
C       -5.197243    -1.435487    -0.946392
C       -6.177316    -1.461015    -1.915347
C       -6.532906    -2.653026    -2.545063
C       -5.896901    -3.825813    -2.195985
C       -4.910828    -3.820696    -1.225932
C       -4.588419    -2.618437    -0.626404
C       -5.293831     1.521297    -0.831443
C       -5.309581     1.769481    -2.190808
C       -5.801846     2.964356    -2.715225
C       -6.300403     3.960811    -1.879815
C       -6.286068     3.716639    -0.525629
C       -5.797147     2.531884    -0.017589
C        5.258443     1.576180    -0.499358
C        4.476445     2.673801    -0.160737
C        4.822968     3.965440    -0.490294
C        5.998125     4.162306    -1.185568
C        6.773783     3.074787    -1.521569
C        6.428466     1.774571    -1.191838
C        5.288919    -1.294951    -1.108549
C        6.179536    -2.264440    -0.730674
C        6.640653    -3.232344    -1.614640
C        6.207141    -3.247971    -2.928192
C        5.302149    -2.270281    -3.329423
C        4.853756    -1.314386    -2.435786
C        4.515774    -0.632420     2.686814
C        5.022799    -0.886761     3.953093
H        6.766855    -1.059972     5.105063
H        8.267276    -0.579205     3.220613
H        7.376489    -0.118596     0.933065
H       -6.942306    -1.356349     1.161500
H       -7.616752    -1.397883     3.581207
H       -6.300137    -0.138619     5.273928
H       -4.324232     1.157778     4.582612
H       -3.677644     1.198027     2.265268
H       -6.667555    -0.552892    -2.183447
H       -7.294558    -2.700586    -3.304593
H       -6.122790    -4.787787    -2.644166
H       -4.382847    -4.729792    -0.920983
H       -3.801459    -2.654045     0.138438
H       -4.924082     1.002939    -2.862087
H       -5.822953     3.176230    -3.764972
H       -6.684048     4.886839    -2.255411
H       -6.671501     4.480831     0.159763
H       -5.810000     2.390910     1.069609
H        3.551863     2.532843     0.384886
H        4.171234     4.778420    -0.197795
H        6.255816     5.181385    -1.436570
H        7.694440     3.282328    -2.071661
H        7.033746     0.934484    -1.454899
H        6.539963    -2.289675     0.272836
H        7.349899    -3.983929    -1.266297
H        6.550166    -3.990927    -3.638918
H        4.962671    -2.282956    -4.359031
H        4.137674    -0.560890    -2.799887
H        3.453358    -0.655354     2.571582
H        4.327608    -1.096287     4.765861
71
ex_0248 frame5 linear-conf4
C        5.954901    -4.349185     0.699226
C        4.754596    -4.041333     0.076785
C        4.403067    -2.726587    -0.116039
C        5.198753    -1.663826     0.285684
P        4.717576     0.035600     0.022609
Se       2.450000     0.000000     0.000000
Au       0.000000     0.000000     0.000000
Se      -2.450000     0.000000     0.000000
P       -4.697835     0.064458     0.031891
C       -5.227051     0.445718    -1.635029
C       -5.308728    -0.604248    -2.528971
C       -5.712281    -0.403861    -3.851957
C       -6.032603     0.879131    -4.256715
C       -5.939238     1.902125    -3.336613
C       -5.543410     1.712406    -2.035029
C       -5.370695    -1.531675     0.451627
C       -6.622618    -1.866434    -0.048270
C       -7.201387    -3.094825     0.242508
C       -6.540465    -4.009385     1.036881
C       -5.298039    -3.687430     1.537975
C       -4.733296    -2.448499     1.234651
C       -5.280264     1.227787     1.223339
C       -6.514079     1.832465     1.131863
C       -6.920508     2.742909     2.102019
C       -6.073137     3.037001     3.162489
C       -4.840471     2.447828     3.274891
C       -4.459701     1.550552     2.303666
C        5.192816     1.106443     1.333751
C        6.528230     1.471826     1.498957
C        6.933268     2.313410     2.521811
C        6.027049     2.824567     3.420178
C        4.699706     2.477373     3.277242
C        4.310565     1.639081     2.254946
C        5.197952     0.641875    -1.583513
C        4.791805    -0.091003    -2.681123
C        5.128047     0.319762    -3.956967
C        5.875722     1.469047    -4.164330
C        6.275159     2.194171    -3.036345
C        5.942020     1.787684    -1.766846
C        6.392773    -2.008475     0.905193
C        6.770252    -3.321597     1.111405
H        6.241286    -5.386927     0.856030
H        4.121842    -4.835085    -0.243111
H        3.455974    -2.467882    -0.607298
H       -5.066755    -1.620955    -2.250512
H       -5.765310    -1.245596    -4.524250
H       -6.346471     1.046738    -5.278940
H       -6.198594     2.897938    -3.689013
H       -5.479728     2.536006    -1.335185
H       -7.183164    -1.186880    -0.675279
H       -8.170508    -3.375460    -0.134010
H       -6.971005    -4.973706     1.277748
H       -4.786337    -4.404083     2.157165
H       -3.751206    -2.190561     1.629067
H       -7.166721     1.584831     0.285376
H       -7.885558     3.227567     2.046938
H       -6.352990     3.739977     3.937471
H       -4.174586     2.671688     4.098065
H       -3.478426     1.096474     2.414144
H        7.311140     1.118795     0.840739
H        7.965606     2.599918     2.654912
H        6.286135     3.485297     4.237382
H        3.915708     2.829688     3.934772
H        3.261948     1.345101     2.115810
H        4.209564    -0.991355    -2.579447
H        4.817279    -0.244646    -4.837404
H        6.151560     1.809944    -5.167226
H        6.861372     3.093635    -3.217162
H        6.254967     2.351890    -0.926746
H        7.066943    -1.233977     1.246647
H        7.692224    -3.553227     1.589479
71
ex_0248 frame6 linear-conf5
C        6.377810     4.232672    -0.892971
C        5.122632     4.083119    -0.369755
C        4.563284     2.856721    -0.080821
C        5.282116     1.704410    -0.320895
P        4.694042     0.073143    -0.000605
Se       2.450000     0.000000     0.000000
Au       0.000000     0.000000     0.000000
Se      -2.450000     0.000000     0.000000
P       -4.662266     0.080729    -0.013072
C       -5.252313    -1.497403    -0.609176
C       -4.755682    -1.927220    -1.838892
C       -5.212710    -3.142074    -2.293387
C       -6.106682    -3.933331    -1.621125
C       -6.579746    -3.484847    -0.411206
C       -6.153446    -2.272979     0.090239
C       -5.337641     1.358812    -1.042704
C       -6.143842     1.054840    -2.143901
C       -6.650818     2.066614    -2.920511
C       -6.401697     3.394627    -2.666520
C       -5.601852     3.692832    -1.573740
C       -5.070020     2.686154    -0.762880
C       -5.216723     0.226205     1.679509
C       -4.348735     0.191655     2.754834
C       -4.888646     0.313276     4.017138
C       -6.236139     0.465980     4.258286
C       -7.114204     0.500947     3.170556
C       -6.551425     0.377483     1.918497
C        5.276402    -1.096502    -1.235414
C        4.810785    -0.887565    -2.529576
C        5.254944    -1.782902    -3.481692
C        6.106217    -2.827504    -3.197222
C        6.558836    -3.014568    -1.888733
C        6.129604    -2.133328    -0.918386
C        5.224982    -0.537055     1.591384
C        6.370651    -0.071850     2.191267
C        6.816127    -0.515058     3.417402
C        6.046235    -1.476895     4.047227
C        4.884883    -1.966363     3.467702
C        4.455609    -1.507879     2.236195
C        6.549614     1.858447    -0.849419
C        7.109164     3.079135    -1.138168
H        6.758808     5.217136    -1.096946
H        4.523747     4.965397    -0.165939
H        3.579279     2.771521     0.327796
H       -4.043208    -1.315182    -2.392967
H       -4.848956    -3.512289    -3.248728
H       -6.418540    -4.878246    -2.045510
H       -7.291139    -4.063887     0.173662
H       -6.529593    -1.926425     1.042389
H       -6.361089     0.004639    -2.372891
H       -7.276574     1.799082    -3.773039
H       -6.799659     4.188529    -3.276156
H       -5.358498     4.706375    -1.305775
H       -4.443964     2.912656     0.092964
H       -3.287684     0.071730     2.571320
H       -4.164708     0.280685     4.841614
H       -6.584741     0.555190     5.279438
H       -8.164746     0.619138     3.341373
H       -7.240335     0.405707     1.080331
H        4.141113    -0.067924    -2.759865
H        4.900403    -1.636570    -4.507155
H        6.447346    -3.524508    -3.957926
H        7.228208    -3.843730    -1.689536
H        6.466614    -2.262558     0.087490
H        6.981671     0.683064     1.704846
H        7.718606    -0.144645     3.883594
H        6.359988    -1.850633     5.008716
H        4.298387    -2.720046     3.980842
H        3.558273    -1.859375     1.745866
H        7.159980     0.984390    -1.058323
H        8.097004     3.218276    -1.550977
71
ex_0248 frame7 linear-conf6
C        6.204756    -2.731667     3.296942
C        4.848222    -2.519512     3.169075
C        4.370787    -1.687730     2.166895
C        5.280778    -1.076241     1.299674
P        4.691579    -0.000000     0.000000
Se       2.450000     0.000000     0.000000
Au       0.000000     0.000000     0.000000
Se      -2.450000     0.000000     0.000000
P       -4.696520    -0.000000     0.000000
C       -5.290660     0.095834     1.680857
C       -4.719929     1.034678     2.532883
C       -5.166758     1.129846     3.852261
C       -6.169170     0.298224     4.311453
C       -6.736549    -0.632186     3.471406
C       -6.289219    -0.720585     2.166996
C       -5.165043    -1.616029    -0.623998
C       -4.489041    -2.698339    -0.092821
C       -4.779371    -3.979760    -0.509765
C       -5.747887    -4.173872    -1.459443
C       -6.420240    -3.077639    -1.985617
C       -6.145182    -1.780834    -1.581654
C       -5.321708     1.319640    -1.021817
C       -4.451578     2.140078    -1.710079
C       -4.936003     3.159924    -2.499706
C       -6.287693     3.339851    -2.585716
C       -7.150890     2.510750    -1.890869
C       -6.689874     1.475000    -1.087624
C        5.225724     1.671135     0.205029
C        6.240968     2.065200     1.051691
C        6.623376     3.371238     1.180470
C        5.967642     4.341620     0.432439
C        4.935652     3.992285    -0.436604
C        4.598221     2.655739    -0.519994
C        5.326496    -0.612044    -1.557228
C        5.983226     0.198288    -2.461649
C        6.444210    -0.346191    -3.641260
C        6.251088    -1.695342    -3.918879
C        5.592833    -2.479110    -2.998443
C        5.116095    -1.973083    -1.806440
C        6.630548    -1.311146     1.457002
C        7.129831    -2.136169     2.448377
H        6.575148    -3.392906     4.094586
H        4.192299    -3.021830     3.871996
H        3.310324    -1.536756     2.085742
H       -3.922365     1.699743     2.175634
H       -4.742163     1.851761     4.542299
H       -6.496405     0.387393     5.324308
H       -7.531412    -1.296867     3.822970
H       -6.721982    -1.451139     1.476287
H       -3.723788    -2.565932     0.655278
H       -4.236208    -4.820734    -0.079884
H       -5.957796    -5.179596    -1.769457
H       -7.176850    -3.282671    -2.733277
H       -6.653785    -0.937242    -1.978120
H       -3.389734     1.981392    -1.628722
H       -4.241941     3.811083    -3.046097
H       -6.637303     4.152710    -3.216617
H       -8.208647     2.720964    -2.013298
H       -7.398198     0.855444    -0.565740
H        6.748173     1.310860     1.630898
H        7.408003     3.722513     1.827146
H        6.210357     5.389009     0.478299
H        4.409489     4.740869    -1.031889
H        3.783748     2.419148    -1.212278
H        6.123877     1.259852    -2.220812
H        6.963277     0.268800    -4.368562
H        6.588035    -2.166157    -4.816741
H        5.418077    -3.537348    -3.170090
H        4.600139    -2.597638    -1.090002
H        7.380384    -0.849740     0.796100
H        8.182732    -2.332179     2.587246
