46
ex_0057 frame0 As-C-conf3
F        6.192076    -0.002203    -0.018763
C        4.829503    -0.001141    -0.009764
C        4.126647    -0.140198    -1.202872
F        4.808984    -0.275301    -2.361999
C        2.720131    -0.140801    -1.208101
F        2.056465    -0.276890    -2.375829
C        2.000000     0.000000     0.000000
Au       0.000000     0.000000     0.000000
As      -2.550000     0.000000     0.000000
C       -3.402186     0.325118     1.728233
C       -4.792573     0.436345     1.847758
C       -5.355850     0.672274     3.112361
C       -4.540454     0.792496     4.245984
C       -3.159311     0.679868     4.122607
C       -2.594860     0.448278     2.868077
C       -3.286527    -1.701743    -0.616022
C       -3.729556    -2.653470     0.309869
C       -4.232641    -3.879221    -0.135182
C       -4.320364    -4.147079    -1.501486
C       -3.887358    -3.196904    -2.430408
C       -3.373693    -1.975348    -1.991058
C       -3.324115     1.366261    -1.118914
C       -2.761480     2.647405    -1.112511
C       -3.293983     3.649111    -1.930534
C       -4.397646     3.370701    -2.741661
C       -4.961704     2.092609    -2.742549
C       -4.430338     1.093600    -1.928439
C        2.732455     0.140383     1.204378
F        2.075610     0.277435     2.380140
C        4.143678     0.138970     1.192312
F        4.833691     0.273975     2.350631
H       -5.419217     0.344543     0.971307
H       -6.421393     0.764346     3.227927
H       -4.971236     0.972847     5.221232
H       -2.536528     0.772188     5.002773
H       -1.522430     0.362538     2.794183
H       -3.646701    -2.465652     1.371532
H       -4.560035    -4.623036     0.572558
H       -4.722838    -5.092171    -1.832032
H       -3.951919    -3.392438    -3.493566
H       -3.031578    -1.250011    -2.715968
H       -1.896981     2.842741    -0.489116
H       -2.851411     4.635449    -1.930970
H       -4.815233     4.143288    -3.367154
H       -5.816562     1.875848    -3.370586
H       -4.891044     0.121897    -1.956731
46
ex_0057 frame1 As-C-conf4
F        6.188828    -0.001741    -0.000774
C        4.831667     0.003052     0.001251
C        4.127046     1.117423     0.463841
F        4.809005     2.197262     0.912078
C        2.714092     1.118243     0.464201
F        2.042663     2.201296     0.913812
C        2.000000     0.000000     0.000000
Au       0.000000     0.000000     0.000000
As      -2.550000     0.000000     0.000000
C       -3.384579    -1.227748     1.228048
C       -4.764732    -1.365622     1.276555
C       -5.332449    -2.270936     2.181055
C       -4.519208    -3.029502     3.033205
C       -3.131446    -2.888302     2.983952
C       -2.571096    -1.986084     2.078928
C       -3.323643    -0.482335    -1.737360
C       -3.605459     0.501849    -2.694974
C       -4.148866     0.141998    -3.934501
C       -4.417518    -1.198554    -4.218257
C       -4.134951    -2.174473    -3.262896
C       -3.597747    -1.817493    -2.026943
C       -3.326624     1.715917     0.473923
C       -2.609011     2.545991     1.338592
C       -3.099031     3.791456     1.713600
C       -4.326839     4.215488     1.222034
C       -5.058800     3.392450     0.353750
C       -4.564809     2.132049    -0.021296
C        2.737150    -1.126393    -0.467543
F        2.097973    -2.214396    -0.919133
C        4.141914    -1.110346    -0.460903
F        4.829587    -2.180220    -0.905012
H       -5.377123    -0.775841     0.610969
H       -6.400787    -2.387377     2.225196
H       -4.966370    -3.723826     3.728432
H       -2.494462    -3.473389     3.642824
H       -1.499675    -1.870126     2.033830
H       -3.391756     1.535476    -2.486452
H       -4.364160     0.899264    -4.672719
H       -4.840578    -1.486415    -5.172809
H       -4.335214    -3.208992    -3.473043
H       -3.375663    -2.579011    -1.304259
H       -1.657944     2.220243     1.713513
H       -2.531223     4.426231     2.384659
H       -4.699534     5.182252     1.521545
H       -6.007595     3.736958    -0.020534
H       -5.126510     1.498322    -0.695200
46
ex_0057 frame2 As-C-conf5
F        6.190229    -0.000021     0.000084
C        4.831605    -0.000739     0.003736
C        4.136016     0.229308    -1.180174
F        4.820494     0.452267    -2.327599
C        2.731033     0.230957    -1.188652
F        2.080050     0.456607    -2.349979
C        2.000000     0.000000     0.000000
Au       0.000000     0.000000     0.000000
As      -2.550000     0.000000     0.000000
C       -3.327196     1.773115    -0.220524
C       -3.703864     2.235089    -1.483970
C       -4.250482     3.509801    -1.621216
C       -4.432963     4.327893    -0.498571
C       -4.056861     3.864522     0.764270
C       -3.509114     2.590034     0.897589
C       -3.327177    -1.090499    -1.405250
C       -4.600528    -0.811577    -1.874716
C       -5.170365    -1.567239    -2.889497
C       -4.463246    -2.633164    -3.436102
C       -3.179148    -2.934520    -2.968280
C       -2.599741    -2.165296    -1.949386
C       -3.389429    -0.678984     1.609832
C       -2.656104    -1.527611     2.453510
C       -3.229895    -2.029842     3.625290
C       -4.539033    -1.680489     3.949626
C       -5.268693    -0.833406     3.107220
C       -4.696812    -0.338185     1.934939
C        2.738741    -0.232272     1.195286
F        2.091656    -0.458701     2.360510
C        4.144744    -0.228942     1.178166
F        4.832306    -0.451887     2.325554
H       -3.558391     1.622575    -2.362569
H       -4.529885     3.851502    -2.603600
H       -4.860116     5.315957    -0.606386
H       -4.185838     4.480099     1.645282
H       -3.211013     2.238710     1.870139
H       -5.137648     0.008524    -1.453339
H       -6.161566    -1.324137    -3.246740
H       -4.919240    -3.218006    -4.218468
H       -2.642130    -3.763750    -3.398599
H       -1.600164    -2.405767    -1.595336
H       -1.640212    -1.790503     2.193546
H       -2.675033    -2.687879     4.285316
H       -4.983559    -2.068004     4.852579
H       -6.278788    -0.558550     3.358076
H       -5.258827     0.320211     1.292867
46
ex_0057 frame3 As-C
F        6.186528     0.003871     0.010447
C        4.823353     0.000802     0.002132
C        4.133190     0.411099     1.127514
F        4.816157     0.812255     2.227789
C        2.730717     0.414757     1.137585
F        2.076332     0.819732     2.248378
C        2.000000     0.000000     0.000000
Au       0.000000     0.000000     0.000000
As      -2.550000     0.000000     0.000000
C       -3.342113    -1.239839     1.296673
C       -2.648869    -1.530989     2.482276
C       -3.200996    -2.422660     3.409183
C       -4.437392    -3.016150     3.165816
C       -5.125480    -2.726167     1.992961
C       -4.581801    -1.837001     1.061232
C       -3.335933     1.740289     0.402822
C       -4.587551     1.844970     1.012910
C       -5.115732     3.111356     1.294825
C       -4.397551     4.260580     0.961166
C       -3.150673     4.160783     0.350459
C       -2.623882     2.903679     0.070148
C       -3.337565    -0.500929    -1.688960
C       -4.673526    -0.221733    -1.967722
C       -5.216003    -0.592679    -3.195003
C       -4.432593    -1.243481    -4.143137
C       -3.098365    -1.525178    -3.869398
C       -2.542500    -1.156303    -2.643805
C        2.732311    -0.416039    -1.141037
F        2.076198    -0.821394    -2.252711
C        4.137192    -0.410685    -1.126406
F        4.824861    -0.811686    -2.226237
H       -1.679980    -1.084437     2.688040
H       -2.679081    -2.660541     4.322653
H       -4.868251    -3.702858     3.882142
H       -6.081192    -3.195706     1.816970
H       -5.125410    -1.633593     0.161889
H       -5.140491     0.955592     1.276770
H       -6.080087     3.220468     1.770145
H       -4.811186     5.231376     1.177939
H       -2.595109     5.056466     0.095007
H       -1.652114     2.846535    -0.398605
H       -5.292747     0.285373    -1.246382
H       -6.245274    -0.378429    -3.420481
H       -4.862455    -1.528798    -5.092169
H       -2.510427    -2.031733    -4.619534
H       -1.499187    -1.383314    -2.442612
46
ex_0057 frame4 As-C-conf2
F        6.189967    -0.006680     0.004130
C        4.832661    -0.003884     0.002376
C        4.131073    -1.042179     0.616996
F        4.813137    -2.052890     1.215316
C        2.717268    -1.042637     0.617239
F        2.043014    -2.055414     1.216775
C        2.000000     0.000000     0.000000
Au       0.000000     0.000000     0.000000
As      -2.550000     0.000000     0.000000
C       -3.314503    -1.575030    -0.808682
C       -2.831158    -1.973444    -2.055016
C       -3.327756    -3.102677    -2.686392
C       -4.336285    -3.846237    -2.072230
C       -4.833453    -3.453220    -0.817105
C       -4.324593    -2.310105    -0.180409
C       -3.230701     0.110963     1.785990
C       -4.467041     0.697234     2.074553
C       -4.909011     0.767646     3.401538
C       -4.117836     0.237049     4.429149
C       -2.885756    -0.352590     4.133800
C       -2.448887    -0.417571     2.815631
C       -3.413132     1.471689    -0.973532
C       -3.663296     2.688201    -0.324848
C       -4.270012     3.743629    -1.017655
C       -4.630927     3.582968    -2.354770
C       -4.382983     2.379051    -3.005419
C       -3.783982     1.318362    -2.317570
C        2.729197     1.051810    -0.622691
F        2.086239     2.065671    -1.222957
C        4.141922     1.036249    -0.613431
F        4.833877     2.035131    -1.204771
H       -2.043529    -1.403891    -2.519613
H       -2.923622    -3.384366    -3.649693
H       -4.719336    -4.721609    -2.577770
H       -5.613962    -4.030259    -0.341888
H       -4.709871    -2.014977     0.790495
H       -5.078799     1.110580     1.291836
H       -5.868671     1.233083     3.617958
H       -4.453759     0.280126     5.451436
H       -2.267605    -0.764308     4.919997
H       -1.486852    -0.870332     2.599975
H       -3.375746     2.819058     0.709433
H       -4.465597     4.679043    -0.523241
H       -5.100563     4.388446    -2.893413
H       -4.662411     2.273004    -4.039911
H       -3.587239     0.399836    -2.838967
46
ex_0057 frame5 As-C-conf6
F        6.149272     0.022647     0.047672
C        4.796896     0.014439     0.029970
C        4.118532    -0.517388    -1.063021
F        4.808581    -1.028282    -2.113659
C        2.712567    -0.524326    -1.076458
F        2.052380    -1.040685    -2.135784
C        2.000000     0.000000     0.000000
Au       0.000000     0.000000     0.000000
As      -2.550000     0.000000     0.000000
C       -3.210802     0.422412     1.775867
C       -2.275015     0.575683     2.806086
C       -2.691549     0.854172     4.106953
C       -4.051356     0.995947     4.381427
C       -4.993043     0.857930     3.352635
C       -4.574409     0.574061     2.043703
C       -3.047407     1.348447    -1.309947
C       -2.022844     1.914786    -2.074421
C       -2.299545     2.887659    -3.029361
C       -3.614065     3.308521    -3.226015
C       -4.646812     2.746213    -2.466056
C       -4.369429     1.758175    -1.504545
C       -3.269169    -1.747826    -0.428051
C       -4.134407    -1.942087    -1.507509
C       -4.559637    -3.241393    -1.817674
C       -4.146584    -4.328067    -1.035181
C       -3.317877    -4.122421     0.067956
C       -2.899138    -2.831800     0.378755
C        2.679790     0.534813     1.099444
F        1.981975     1.042900     2.144440
C        4.077513     0.543222     1.114944
F        4.745883     1.065030     2.183894
H       -1.218753     0.457418     2.594534
H       -1.963165     0.956008     4.902192
H       -4.368068     1.209887     5.393315
H       -6.046053     0.967178     3.572927
H       -5.304824     0.459295     1.258985
H       -0.996778     1.596160    -1.929292
H       -1.494468     3.310375    -3.609537
H       -3.823050     4.069143    -3.968845
H       -5.661236     3.080517    -2.625877
H       -5.167927     1.331010    -0.923536
H       -4.436446    -1.112135    -2.130425
H       -5.199302    -3.412095    -2.670594
H       -4.462669    -5.329973    -1.283616
H       -2.986510    -4.956702     0.677392
H       -2.235389    -2.679823     1.219414
46
ex_0057 frame6 
F       -4.130117     6.444046     0.657994
C       -3.655505     5.176041     0.607953
C       -3.184446     4.715217    -0.583027
F       -3.199171     5.518156    -1.674006
C       -2.694294     3.451884    -0.700835
F       -2.222191     2.998076    -1.905976
C       -2.636835     2.544821     0.371249
Au      -1.996601     0.895988     0.217361
As      -0.685621    -1.021917    -0.834053
C       -1.243290    -2.899293    -0.172260
C       -0.663175    -3.945357    -0.754432
C       -1.081268    -5.173754    -0.264612
C       -2.017485    -5.299533     0.739191
C       -2.569327    -4.155581     1.287711
C       -2.143810    -2.939470     0.790411
C        1.233915    -0.913843    -0.484783
C        1.827784    -1.631587     0.537411
C        3.177565    -1.553488     0.780523
C        3.967250    -0.732748    -0.020690
C        3.408002     0.002619    -1.055838
C        2.047023    -0.097060    -1.275093
C       -0.877738    -1.158942    -2.769419
C       -2.155531    -0.940288    -3.293455
C       -2.338224    -1.026773    -4.655973
C       -1.260504    -1.327880    -5.488371
C        0.007339    -1.544082    -4.959424
C        0.169560    -1.453555    -3.600963
C       -3.135065     3.070076     1.576721
F       -3.124800     2.266893     2.685507
C       -3.625009     4.332667     1.694760
F       -4.099768     4.807048     2.880820
H        0.082419    -3.878377    -1.552667
H       -0.678653    -6.106496    -0.661325
H       -2.350207    -6.252743     1.128120
H       -3.310671    -4.237036     2.081927
H       -2.595201    -2.056658     1.240956
H        1.210010    -2.266077     1.155108
H        3.641471    -2.123222     1.590187
H        5.023837    -0.700256     0.204388
H        4.028667     0.643852    -1.680890
H        1.628425     0.486498    -2.090456
H       -3.000748    -0.704282    -2.643061
H       -3.313851    -0.866891    -5.133933
H       -1.362505    -1.404588    -6.559132
H        0.866464    -1.779253    -5.569849
H        1.154927    -1.620844    -3.180233
46
ex_0057 frame7 As-C-conf6
F        6.149272     0.022647     0.047672
C        4.796896     0.014555     0.029914
C        4.118532    -0.517366    -1.063032
F        4.808581    -1.028282    -2.113659
C        2.712567    -0.524319    -1.076462
F        2.052380    -1.040685    -2.135784
C        2.000000     0.000000     0.000000
Au       0.000000     0.000000     0.000000
As      -2.550000     0.000000     0.000000
C       -3.210802     0.422412     1.775867
C       -2.275015     0.575683     2.806086
C       -2.691549     0.854172     4.106953
C       -4.051356     0.995947     4.381427
C       -4.993043     0.857930     3.352635
C       -4.574409     0.574061     2.043703
C       -3.047407     1.348447    -1.309947
C       -2.022844     1.914786    -2.074421
C       -2.299545     2.887659    -3.029361
C       -3.614065     3.308521    -3.226015
C       -4.646812     2.746213    -2.466056
C       -4.369429     1.758175    -1.504545
C       -3.269169    -1.747826    -0.428051
C       -4.134407    -1.942087    -1.507509
C       -4.559637    -3.241393    -1.817674
C       -4.146584    -4.328067    -1.035181
C       -3.317877    -4.122421     0.067956
C       -2.899138    -2.831800     0.378755
C        2.679790     0.534979     1.099363
F        1.981975     1.042900     2.144440
C        4.077513     0.543315     1.114899
F        4.745883     1.065030     2.183894
H       -1.218753     0.457418     2.594534
H       -1.963165     0.956008     4.902192
H       -4.368068     1.209887     5.393315
H       -6.046053     0.967178     3.572927
H       -5.304824     0.459295     1.258985
H       -0.996778     1.596160    -1.929292
H       -1.494468     3.310375    -3.609537
H       -3.823050     4.069143    -3.968845
H       -5.661236     3.080517    -2.625877
H       -5.167927     1.331010    -0.923536
H       -4.436446    -1.112135    -2.130425
H       -5.199302    -3.412095    -2.670594
H       -4.462669    -5.329973    -1.283616
H       -2.986510    -4.956702     0.677392
H       -2.235389    -2.679823     1.219414
