35
ex_0001 frame0 SP-4-chelate-1
Pd       0.000000     0.000000     0.000000
C        4.035178    -1.220594    -0.000001
C        4.717741    -0.060179     0.000004
C        4.059225     1.244212     0.000007
C        4.726699     2.440687     0.000013
C        4.024461     3.627499     0.000015
C        2.648518     3.588086     0.000012
C        1.918083     2.415763     0.000006
C        2.683943     1.241619     0.000004
N        2.099899    -0.020644    -0.000000
C        2.539690    -1.162390    -0.000002
Se      -0.025461     2.589875     0.000000
H        4.525191    -2.179758    -0.000005
H        5.805213    -0.077898     0.000011
H        5.809990     2.437110     0.000017
H        4.550300     4.581751     0.000021
H        2.095000     4.513968     0.000013
H        1.924162    -2.019398    -0.000010
Se      -0.188108    -2.583160    -0.000000
C       -2.094244    -2.507598     0.000036
C       -2.895796    -1.395233     0.000037
C       -4.269949    -1.350827     0.000064
C       -4.943360    -2.526037     0.000099
C       -4.229086    -3.703050     0.000100
C       -2.862148    -3.714371     0.000069
C       -4.855517    -0.015409     0.000052
C       -4.155446     1.133390     0.000011
C       -2.644007     1.007375    -0.000014
N       -2.094454    -0.152520    -0.000000
H       -6.020741    -2.491129     0.000124
H       -4.794971    -4.626310     0.000124
H       -2.284487    -4.622970     0.000069
H       -5.939664     0.050305     0.000067
H       -4.607253     2.099818    -0.000009
H       -2.008983     1.854472    -0.000039
35
ex_0001 frame1 SP-4-chelate-1-conf1
Pd       0.000000     0.000000     0.000000
C        4.035178    -1.220594    -0.000001
C        4.717741    -0.060179     0.000004
C        4.059225     1.244212     0.000007
C        4.726699     2.440687     0.000013
C        4.024461     3.627499     0.000015
C        2.648518     3.588086     0.000012
C        1.918083     2.415763     0.000006
C        2.683943     1.241619     0.000004
N        2.099899    -0.020644    -0.000000
C        2.539690    -1.162390    -0.000002
Se      -0.025461     2.589875     0.000000
H        4.525191    -2.179758    -0.000005
H        5.805213    -0.077898     0.000011
H        5.809990     2.437110     0.000017
H        4.550300     4.581751     0.000021
H        2.095000     4.513968     0.000013
H        1.924162    -2.019398    -0.000010
Se       0.016608    -2.589947     0.000000
C       -1.925722    -2.424474    -0.000002
C       -2.681001    -1.246598     0.000001
C       -4.056327    -1.238740     0.000017
C       -4.728754    -2.433346     0.000024
C       -4.038054    -3.625759     0.000023
C       -2.662007    -3.593312     0.000005
C       -4.708134     0.066498     0.000026
C       -4.022255     1.223433     0.000033
C       -2.531748     1.153950     0.000017
N       -2.099957     0.013466    -0.000000
H       -5.813968    -2.422587     0.000039
H       -4.536080    -4.595411     0.000033
H       -2.097452    -4.513483     0.000011
H       -5.810470     0.090827     0.000047
H       -4.511114     2.185296     0.000047
H       -1.910716     2.013191     0.000016
