69
ex_0527 frame0 
C       -1.767417     0.903729    -2.606668
Sb      -0.821745    -0.854708    -2.056174
C       -1.934179    -2.310624    -1.009407
C        0.830374    -1.695421    -3.103685
C        0.841332    -3.067505    -2.528522
C       -0.125167    -3.967406    -2.984778
C       -0.227461    -5.228802    -2.428118
C        0.662254    -5.625852    -1.440525
C        1.661973    -4.764547    -1.001238
C        1.813519    -3.512581    -1.590759
C        3.025250    -2.686610    -1.190690
Sb       3.260857    -0.986099    -0.026498
C        3.616596    -1.034409     2.050513
C        4.181116     0.582585    -1.049921
Pd       0.696536     0.071873     0.076174
Sb      -0.484474    -0.523310     2.518030
C        0.713577    -2.091223     3.153509
C       -2.413400    -0.986115     1.815573
C       -0.359234     1.454034     3.282625
C       -1.631758     2.027781     2.769515
C       -2.813060     1.664783     3.420737
C       -4.037944     2.091470     2.941683
C       -4.098371     2.923327     1.832381
C       -2.932098     3.335277     1.192917
C       -1.690077     2.959441     1.696184
C       -0.454886     3.576679     1.058558
Sb       1.024073     2.815707    -0.188117
C        0.871264     2.878437    -2.292630
C        2.944658     2.948248     0.615862
H       -2.826306     0.652966    -2.543080
H       -1.413089     1.051651    -3.634273
H       -1.563145     1.774664    -1.935941
H       -2.110744    -3.037003    -1.785899
H       -1.329588    -2.784372    -0.193163
H       -2.904155    -1.899075    -0.681085
H        1.780387    -1.149481    -2.964402
H        0.431126    -1.662562    -4.131407
H       -0.825779    -3.667068    -3.756147
H       -0.999347    -5.899327    -2.764468
H        0.572075    -6.607890    -1.016434
H        2.345957    -5.091993    -0.230621
H        3.669307    -3.298879    -0.555860
H        3.556381    -2.449649    -2.116646
H        2.798852    -0.539414     2.631377
H        3.759176    -2.095037     2.308543
H        4.526654    -0.449368     2.189077
H        3.430416     1.216720    -1.584307
H        4.781341     1.129811    -0.303251
H        4.817728     0.088660    -1.779669
H        1.226327    -1.677318     4.031263
H       -0.010570    -2.863324     3.400088
H        1.406588    -2.488204     2.369808
H       -2.698550    -0.330586     0.952223
H       -2.507442    -2.068133     1.617346
H       -3.015025    -0.728716     2.672361
H       -0.390378     1.221120     4.358905
H        0.535021     2.011224     2.951258
H       -2.774944     1.014509     4.288581
H       -4.942148     1.775360     3.433073
H       -5.057828     3.245794     1.472881
H       -2.990806     3.983678     0.329132
H        0.107860     4.057954     1.863632
H       -0.776623     4.342763     0.347351
H        0.712182     1.884425    -2.778497
H        0.019926     3.550034    -2.464491
H        1.826201     3.292427    -2.634505
H        2.904829     3.800009     1.291747
H        3.200981     2.028148     1.197885
H        3.621615     3.146630    -0.232047
69
ex_0527 frame1 
C       -1.767417     0.903729    -2.606668
Sb      -0.821745    -0.854708    -2.056174
C       -1.934179    -2.310624    -1.009407
C        0.830374    -1.695421    -3.103685
C        0.854812    -3.071281    -2.545748
C       -0.120309    -3.970233    -2.990291
C       -0.214340    -5.236437    -2.443008
C        0.653797    -5.620931    -1.430927
C        1.647865    -4.756338    -0.985228
C        1.818197    -3.509956    -1.588637
C        3.025250    -2.686610    -1.190690
Sb       3.260857    -0.986099    -0.026498
C        3.616596    -1.034409     2.050513
C        4.181116     0.582585    -1.049921
Pd       0.696536     0.071873     0.076174
Sb      -0.484474    -0.523310     2.518030
C        0.713577    -2.091223     3.153509
C       -2.413400    -0.986115     1.815573
C       -0.359234     1.454034     3.282625
C       -1.627092     2.043378     2.784036
C       -2.812717     1.670888     3.425296
C       -4.036993     2.108379     2.954311
C       -4.098985     2.912414     1.824231
C       -2.933110     3.317289     1.179483
C       -1.685997     2.961934     1.693273
C       -0.454886     3.576679     1.058558
Sb       1.024073     2.815707    -0.188117
C        0.871264     2.878437    -2.292630
C        2.944658     2.948248     0.615862
H       -2.826306     0.652966    -2.543080
H       -1.413089     1.051651    -3.634273
H       -1.563145     1.774664    -1.935941
H       -2.110744    -3.037003    -1.785899
H       -1.329588    -2.784372    -0.193163
H       -2.904155    -1.899075    -0.681085
H        1.780387    -1.149481    -2.964402
H        0.431126    -1.662562    -4.131407
H       -0.818043    -3.671569    -3.764926
H       -0.970585    -5.916064    -2.797108
H        0.569131    -6.606177    -1.013093
H        2.333474    -5.084729    -0.216454
H        3.669307    -3.298879    -0.555860
H        3.556381    -2.449649    -2.116646
H        2.798852    -0.539414     2.631377
H        3.759176    -2.095037     2.308543
H        4.526654    -0.449368     2.189077
H        3.430416     1.216720    -1.584307
H        4.781341     1.129811    -0.303251
H        4.817728     0.088660    -1.779669
H        1.226327    -1.677318     4.031263
H       -0.010570    -2.863324     3.400088
H        1.406588    -2.488204     2.369808
H       -2.698550    -0.330586     0.952223
H       -2.507442    -2.068133     1.617346
H       -3.015025    -0.728716     2.672361
H       -0.390378     1.221120     4.358905
H        0.535021     2.011224     2.951258
H       -2.774298     1.025989     4.297154
H       -4.940038     1.812856     3.461076
H       -5.058056     3.241737     1.469851
H       -2.991740     3.967077     0.316734
H        0.107860     4.057954     1.863632
H       -0.776623     4.342763     0.347351
H        0.712182     1.884425    -2.778497
H        0.019926     3.550034    -2.464491
H        1.826201     3.292427    -2.634505
H        2.904829     3.800009     1.291747
H        3.200981     2.028148     1.197885
H        3.621615     3.146630    -0.232047
