63
ex_0582 frame0 OC-6-chelate-2
Zn       0.000000     0.000000     0.000000
C       -0.335827     4.679684    -0.361912
C       -1.144011     3.923728    -1.125490
C       -1.045597     2.425331    -1.009644
N       -0.181272     1.913403    -0.175871
C        0.678608     2.741317     0.642211
C        0.634557     4.075626     0.576872
P        1.827600     1.840853     1.769503
C        0.682019     0.685591     2.684229
C        0.642676     0.639657     3.993323
C       -0.296847    -0.306601     4.633550
C       -1.091377    -1.100470     3.904166
C       -1.003037    -1.004515     2.417231
N       -0.179308    -0.175871     1.913588
N        1.913084    -0.181272    -0.179308
C        2.421780    -1.039083    -1.008503
C        3.914844    -1.141858    -1.120033
C        4.667315    -0.337275    -0.351912
C        4.056329     0.631417     0.585793
C        2.732432     0.683133     0.646634
H       -0.393448     5.763255    -0.432862
H       -1.855277     4.341091    -1.813117
H       -1.658744     1.783482    -1.587998
H        1.287992     4.660665     1.194607
H        1.283486     1.280195     4.576471
H       -0.352433    -0.367874     5.727398
H       -1.784962    -1.798783     4.345676
H       -1.617227    -1.617716     1.780777
H        1.779936    -1.665412    -1.605887
H        4.328499    -1.851395    -1.806510
H        5.757514    -0.399781    -0.421372
H        4.637923     1.282135     1.207436
N       -1.915152     0.123511     0.204546
C       -2.418432     0.942443     1.061600
C       -3.908128     1.030204     1.166021
C       -4.659391     0.252992     0.366118
C       -4.035357    -0.675663    -0.602643
C       -2.727058    -0.713961    -0.642767
P       -1.775632    -1.838220    -1.782325
C       -0.634889    -0.653585    -2.647754
C       -0.576687    -0.600727    -3.974336
C        0.341723     0.354576    -4.596087
C        1.120870     1.172619    -3.865644
C        1.014735     1.070473    -2.381903
N        0.204546     0.226300    -1.905741
C       -0.683642    -2.754863    -0.627987
C       -0.633019    -4.096133    -0.575371
C        0.290599    -4.680682     0.407083
C        1.054962    -3.932385     1.223901
C        0.941067    -2.427998     1.106197
N        0.123511    -1.912703     0.226300
H       -1.783595     1.551016     1.687492
H       -4.344799     1.714321     1.879868
H       -5.751571     0.303939     0.428293
H       -4.597831    -1.306523    -1.252345
H       -1.206197    -1.261085    -4.536543
H        0.399413     0.408195    -5.691662
H        1.797784     1.877065    -4.304799
H        1.608476     1.694551    -1.732529
H       -1.249776    -4.676621    -1.233064
H        0.359060    -5.779943     0.476542
H        1.726964    -4.342061     1.939240
H        1.531165    -1.791383     1.737450
63
ex_0582 frame1 OC-6-chelate-2-conf2
Zn       0.000000     0.000000     0.000000
C       -0.335827     4.679684    -0.361912
C       -1.144011     3.923728    -1.125490
C       -1.045597     2.425331    -1.009644
N       -0.181272     1.913403    -0.175871
C        0.678608     2.741317     0.642211
C        0.634557     4.075626     0.576872
P        1.827600     1.840853     1.769503
C        0.682019     0.685591     2.684229
C        0.642676     0.639657     3.993323
C       -0.296847    -0.306601     4.633550
C       -1.091377    -1.100470     3.904166
C       -1.003037    -1.004515     2.417231
N       -0.179308    -0.175871     1.913588
N        1.913084    -0.181272    -0.179308
C        2.421780    -1.039083    -1.008503
C        3.914844    -1.141858    -1.120033
C        4.667315    -0.337275    -0.351912
C        4.056329     0.631417     0.585793
C        2.732432     0.683133     0.646634
H       -0.393448     5.763255    -0.432862
H       -1.855277     4.341091    -1.813117
H       -1.658744     1.783482    -1.587998
H        1.287992     4.660665     1.194607
H        1.283486     1.280195     4.576471
H       -0.352433    -0.367874     5.727398
H       -1.784962    -1.798783     4.345676
H       -1.617227    -1.617716     1.780777
H        1.779936    -1.665412    -1.605887
H        4.328499    -1.851395    -1.806510
H        5.757514    -0.399781    -0.421372
H        4.637923     1.282135     1.207436
N        0.130191     0.200955    -1.915089
C        0.957385     1.060346    -2.428144
C        1.045057     1.163350    -3.924266
C        0.258956     0.359948    -4.666258
C       -0.670182    -0.601813    -4.051097
C       -0.705793    -0.640905    -2.736591
P       -1.828088    -1.776008    -1.784897
C       -0.645585    -2.646797    -0.644548
C       -0.591764    -3.973771    -0.594137
C        0.369880    -4.610201     0.332454
C        1.176818    -3.869967     1.111325
C        1.072425    -2.384323     1.012442
N        0.229507    -1.905740     0.200955
C       -2.751054    -0.618341    -0.686687
C       -4.080608    -0.561204    -0.643140
C       -4.674020     0.419097     0.284050
C       -3.922313     1.225861     1.055410
C       -2.421800     1.104857     0.951230
N       -1.911878     0.229507     0.130191
H        1.568511     1.684375    -1.797415
H        1.725587     1.867911    -4.353098
H        0.312483     0.424026    -5.765208
H       -1.308321    -1.254227    -4.624508
H       -1.235491    -4.552206    -1.215766
H        0.431836    -5.705372     0.391057
H        1.884260    -4.301998     1.792866
H        1.685512    -1.735858     1.604170
H       -4.662649    -1.211875    -1.266121
H       -5.773429     0.493958     0.347863
H       -4.334817     1.940833     1.731399
H       -1.783092     1.730305     1.549223
63
ex_0582 frame2 OC-6-chelate-2-conf3
Zn       0.000000     0.000000     0.000000
C       -0.375371    -0.345760     4.671752
C       -1.161642    -1.127648     3.911915
C       -1.042055    -1.015518     2.417664
N       -0.185105    -0.169376     1.913622
C        0.651804     0.664356     2.742318
C        0.585706     0.603605     4.082416
P        1.793286     1.794196     1.856930
C        0.660253     2.718615     0.699343
C        0.603137     4.016604     0.658229
C       -0.334366     4.639588    -0.302544
C       -1.102513     3.898016    -1.107246
C       -0.991064     2.412514    -1.012515
N       -0.170069     1.915017    -0.169376
N        1.913560    -0.170069    -0.185105
C        2.408575    -0.985288    -1.031065
C        3.895752    -1.092693    -1.129184
C        4.640068    -0.322445    -0.319788
C        4.012327     0.607979     0.643504
C        2.698595     0.659586     0.685092
H       -0.449912    -0.414984     5.770004
H       -1.866695    -1.824156     4.326637
H       -1.652529    -1.622843     1.771885
H        1.223066     1.237326     4.677338
H        1.228010     4.600218     1.312238
H       -0.399056     5.736130    -0.354122
H       -1.793859     4.325174    -1.816368
H       -1.592837     1.772566    -1.643909
H        1.768335    -1.585291    -1.662342
H        4.327455    -1.777462    -1.838608
H        5.735653    -0.387711    -0.377445
H        4.599106     1.234090     1.300836
N       -1.915152     0.123511     0.204546
C       -2.418432     0.942443     1.061600
C       -3.908128     1.030204     1.166021
C       -4.659391     0.252992     0.366118
C       -4.035357    -0.675663    -0.602643
C       -2.727058    -0.713961    -0.642767
P       -1.775632    -1.838220    -1.782325
C       -0.634889    -0.653585    -2.647754
C       -0.576687    -0.600727    -3.974336
C        0.341723     0.354576    -4.596087
C        1.120870     1.172619    -3.865644
C        1.014735     1.070473    -2.381903
N        0.204546     0.226300    -1.905741
C       -0.683642    -2.754863    -0.627987
C       -0.633019    -4.096133    -0.575371
C        0.290599    -4.680682     0.407083
C        1.054962    -3.932385     1.223901
C        0.941067    -2.427998     1.106197
N        0.123511    -1.912703     0.226300
H       -1.783595     1.551016     1.687492
H       -4.344799     1.714321     1.879868
H       -5.751571     0.303939     0.428293
H       -4.597831    -1.306523    -1.252345
H       -1.206197    -1.261085    -4.536543
H        0.399413     0.408195    -5.691662
H        1.797784     1.877065    -4.304799
H        1.608476     1.694551    -1.732529
H       -1.249776    -4.676621    -1.233064
H        0.359060    -5.779943     0.476542
H        1.726964    -4.342061     1.939240
H        1.531165    -1.791383     1.737450
63
ex_0582 frame3 OC-6-chelate-2-conf4
Zn       0.000000     0.000000     0.000000
C       -0.335827     4.679684    -0.361912
C       -1.144011     3.923728    -1.125490
C       -1.045597     2.425331    -1.009644
N       -0.181272     1.913403    -0.175871
C        0.678608     2.741317     0.642211
C        0.634557     4.075626     0.576872
P        1.827600     1.840853     1.769503
C        0.682019     0.685591     2.684229
C        0.642676     0.639657     3.993323
C       -0.296847    -0.306601     4.633550
C       -1.091377    -1.100470     3.904166
C       -1.003037    -1.004515     2.417231
N       -0.179308    -0.175871     1.913588
N        1.913084    -0.181272    -0.179308
C        2.421780    -1.039083    -1.008503
C        3.914844    -1.141858    -1.120033
C        4.667315    -0.337275    -0.351912
C        4.056329     0.631417     0.585793
C        2.732432     0.683133     0.646634
H       -0.393448     5.763255    -0.432862
H       -1.855277     4.341091    -1.813117
H       -1.658744     1.783482    -1.587998
H        1.287992     4.660665     1.194607
H        1.283486     1.280195     4.576471
H       -0.352433    -0.367874     5.727398
H       -1.784962    -1.798783     4.345676
H       -1.617227    -1.617716     1.780777
H        1.779936    -1.665412    -1.605887
H        4.328499    -1.851395    -1.806510
H        5.757514    -0.399781    -0.421372
H        4.637923     1.282135     1.207436
N        0.177434    -1.910566     0.207737
C        0.997339    -2.401116     1.062033
C        1.103503    -3.892457     1.166440
C        0.333433    -4.642827     0.360236
C       -0.598340    -4.024171    -0.608493
C       -0.652325    -2.684271    -0.653327
P       -1.799125    -1.812904    -1.827778
C       -0.668980    -0.642241    -2.730420
C       -0.619821    -0.579304    -4.041356
C        0.317086     0.390878    -4.646870
C        1.092390     1.182206    -3.895066
C        0.995497     1.068536    -2.404471
N        0.165125     0.207737    -1.911669
C       -2.727748    -0.665832    -0.690391
C       -4.034339    -0.611950    -0.653320
C       -4.660377     0.338150     0.291250
C       -3.916616     1.124331     1.089407
C       -2.424181     1.014504     0.998728
N       -1.914720     0.177434     0.165125
H        1.595177    -1.759358     1.688108
H        1.788974    -4.324682     1.879427
H        0.395581    -5.741627     0.420137
H       -1.222530    -4.616934    -1.261919
H       -1.244897    -1.217204    -4.623540
H        0.380613     0.466366    -5.745188
H        1.783037     1.897334    -4.316800
H        1.593415     1.678332    -1.759224
H       -4.610787    -1.248936    -1.299469
H       -5.758806     0.403801     0.342706
H       -4.347374     1.821668     1.783073
H       -1.788659     1.625604     1.620036
63
ex_0582 frame4 OC-6-chelate-2-conf5
Zn       0.000000     0.000000     0.000000
C       -0.375371    -0.345760     4.671752
C       -1.161642    -1.127648     3.911915
C       -1.042055    -1.015518     2.417664
N       -0.185105    -0.169376     1.913622
C        0.651804     0.664356     2.742318
C        0.585706     0.603605     4.082416
P        1.793286     1.794196     1.856930
C        0.660253     2.718615     0.699343
C        0.603137     4.016604     0.658229
C       -0.334366     4.639588    -0.302544
C       -1.102513     3.898016    -1.107246
C       -0.991064     2.412514    -1.012515
N       -0.170069     1.915017    -0.169376
N        1.913560    -0.170069    -0.185105
C        2.408575    -0.985288    -1.031065
C        3.895752    -1.092693    -1.129184
C        4.640068    -0.322445    -0.319788
C        4.012327     0.607979     0.643504
C        2.698595     0.659586     0.685092
H       -0.449912    -0.414984     5.770004
H       -1.866695    -1.824156     4.326637
H       -1.652529    -1.622843     1.771885
H        1.223066     1.237326     4.677338
H        1.228010     4.600218     1.312238
H       -0.399056     5.736130    -0.354122
H       -1.793859     4.325174    -1.816368
H       -1.592837     1.772566    -1.643909
H        1.768335    -1.585291    -1.662342
H        4.327455    -1.777462    -1.838608
H        5.735653    -0.387711    -0.377445
H        4.599106     1.234090     1.300836
N        0.130191     0.200955    -1.915089
C        0.957385     1.060346    -2.428144
C        1.045057     1.163350    -3.924266
C        0.258956     0.359948    -4.666258
C       -0.670182    -0.601813    -4.051097
C       -0.705793    -0.640905    -2.736591
P       -1.828088    -1.776008    -1.784897
C       -0.645585    -2.646797    -0.644548
C       -0.591764    -3.973771    -0.594137
C        0.369880    -4.610201     0.332454
C        1.176818    -3.869967     1.111325
C        1.072425    -2.384323     1.012442
N        0.229507    -1.905740     0.200955
C       -2.751054    -0.618341    -0.686687
C       -4.080608    -0.561204    -0.643140
C       -4.674020     0.419097     0.284050
C       -3.922313     1.225861     1.055410
C       -2.421800     1.104857     0.951230
N       -1.911878     0.229507     0.130191
H        1.568511     1.684375    -1.797415
H        1.725587     1.867911    -4.353098
H        0.312483     0.424026    -5.765208
H       -1.308321    -1.254227    -4.624508
H       -1.235491    -4.552206    -1.215766
H        0.431836    -5.705372     0.391057
H        1.884260    -4.301998     1.792866
H        1.685512    -1.735858     1.604170
H       -4.662649    -1.211875    -1.266121
H       -5.773429     0.493958     0.347863
H       -4.334817     1.940833     1.731399
H       -1.783092     1.730305     1.549223
63
ex_0582 frame5 OC-6-chelate-2-conf6
Zn       0.000000     0.000000     0.000000
C        4.678590    -0.361075    -0.353165
C        3.928763    -1.109638    -1.183888
C        2.427192    -0.982837    -1.078680
N        1.912951    -0.165185    -0.195531
C        2.753891     0.631221     0.675718
C        4.094307     0.557481     0.632914
P        1.850157     1.736312     1.829376
C        0.699753     2.666796     0.680245
C        0.661065     3.963433     0.645393
C       -0.275685     4.619011    -0.291926
C       -1.071839     3.896541    -1.092527
C       -0.984039     2.411996    -1.008752
N       -0.165185     1.913697    -0.188091
N       -0.195531    -0.188091     1.910835
C       -1.056762    -1.001818     2.412732
C       -1.164721    -1.123294     3.904712
C       -0.349632    -0.368414     4.662274
C        0.629035     0.558671     4.052943
C        0.682510     0.626497     2.732987
H        5.777986    -0.440073    -0.414687
H        4.338644    -1.778662    -1.902713
H        1.787366    -1.560199    -1.720605
H        4.682980     1.161917     1.303303
H        1.292125     4.540547     1.279515
H       -0.337765     5.705947    -0.350813
H       -1.759593     4.352302    -1.780998
H       -1.597684     1.780837    -1.626293
H       -1.684316    -1.581985     1.764839
H       -1.884648    -1.804823     4.329269
H       -0.411167    -0.441163     5.760487
H        1.290028     1.171436     4.647023
N       -1.915152     0.123511     0.204546
C       -2.418432     0.942443     1.061600
C       -3.908128     1.030204     1.166021
C       -4.659391     0.252992     0.366118
C       -4.035357    -0.675663    -0.602643
C       -2.727058    -0.713961    -0.642767
P       -1.775632    -1.838220    -1.782325
C       -0.634889    -0.653585    -2.647754
C       -0.576687    -0.600727    -3.974336
C        0.341723     0.354576    -4.596087
C        1.120870     1.172619    -3.865644
C        1.014735     1.070473    -2.381903
N        0.204546     0.226300    -1.905741
C       -0.683642    -2.754863    -0.627987
C       -0.633019    -4.096133    -0.575371
C        0.290599    -4.680682     0.407083
C        1.054962    -3.932385     1.223901
C        0.941067    -2.427998     1.106197
N        0.123511    -1.912703     0.226300
H       -1.783595     1.551016     1.687492
H       -4.344799     1.714321     1.879868
H       -5.751571     0.303939     0.428293
H       -4.597831    -1.306523    -1.252345
H       -1.206197    -1.261085    -4.536543
H        0.399413     0.408195    -5.691662
H        1.797784     1.877065    -4.304799
H        1.608476     1.694551    -1.732529
H       -1.249776    -4.676621    -1.233064
H        0.359060    -5.779943     0.476542
H        1.726964    -4.342061     1.939240
H        1.531165    -1.791383     1.737450
63
ex_0582 frame6 OC-6-chelate-2-conf7
Zn       0.000000     0.000000     0.000000
C       -0.375371    -0.345760     4.671752
C       -1.161642    -1.127648     3.911915
C       -1.042055    -1.015518     2.417664
N       -0.185105    -0.169376     1.913622
C        0.651804     0.664356     2.742318
C        0.585706     0.603605     4.082416
P        1.793286     1.794196     1.856930
C        0.660253     2.718615     0.699343
C        0.603137     4.016604     0.658229
C       -0.334366     4.639588    -0.302544
C       -1.102513     3.898016    -1.107246
C       -0.991064     2.412514    -1.012515
N       -0.170069     1.915017    -0.169376
N        1.913560    -0.170069    -0.185105
C        2.408575    -0.985288    -1.031065
C        3.895752    -1.092693    -1.129184
C        4.640068    -0.322445    -0.319788
C        4.012327     0.607979     0.643504
C        2.698595     0.659586     0.685092
H       -0.449912    -0.414984     5.770004
H       -1.866695    -1.824156     4.326637
H       -1.652529    -1.622843     1.771885
H        1.223066     1.237326     4.677338
H        1.228010     4.600218     1.312238
H       -0.399056     5.736130    -0.354122
H       -1.793859     4.325174    -1.816368
H       -1.592837     1.772566    -1.643909
H        1.768335    -1.585291    -1.662342
H        4.327455    -1.777462    -1.838608
H        5.735653    -0.387711    -0.377445
H        4.599106     1.234090     1.300836
N        0.177434    -1.910566     0.207737
C        0.997339    -2.401116     1.062033
C        1.103503    -3.892457     1.166440
C        0.333433    -4.642827     0.360236
C       -0.598340    -4.024171    -0.608493
C       -0.652325    -2.684271    -0.653327
P       -1.799125    -1.812904    -1.827778
C       -0.668980    -0.642241    -2.730420
C       -0.619821    -0.579304    -4.041356
C        0.317086     0.390878    -4.646870
C        1.092390     1.182206    -3.895066
C        0.995497     1.068536    -2.404471
N        0.165125     0.207737    -1.911669
C       -2.727748    -0.665832    -0.690391
C       -4.034339    -0.611950    -0.653320
C       -4.660377     0.338150     0.291250
C       -3.916616     1.124331     1.089407
C       -2.424181     1.014504     0.998728
N       -1.914720     0.177434     0.165125
H        1.595177    -1.759358     1.688108
H        1.788974    -4.324682     1.879427
H        0.395581    -5.741627     0.420137
H       -1.222530    -4.616934    -1.261919
H       -1.244897    -1.217204    -4.623540
H        0.380613     0.466366    -5.745188
H        1.783037     1.897334    -4.316800
H        1.593415     1.678332    -1.759224
H       -4.610787    -1.248936    -1.299469
H       -5.758806     0.403801     0.342706
H       -4.347374     1.821668     1.783073
H       -1.788659     1.625604     1.620036
63
ex_0582 frame7 OC-6-chelate-2-conf8
Zn       0.000000     0.000000     0.000000
C       -0.280639     4.624267    -0.309046
C       -1.045389     3.893966    -1.131908
C       -0.954770     2.408685    -1.046832
N       -0.156657     1.913512    -0.197058
C        0.676189     2.667110     0.687524
C        0.632302     3.980657     0.660774
P        1.808744     1.747918     1.861899
C        2.735720     0.643470     0.690750
C        4.052696     0.581000     0.659042
C        4.673819    -0.336385    -0.322287
C        3.923373    -1.081448    -1.155346
C        2.425448    -0.962286    -1.067770
N        1.913363    -0.156657    -0.198498
N       -0.198498    -0.197058     1.909625
C       -1.059933    -1.036284     2.403971
C       -1.170226    -1.169705     3.897177
C       -0.369812    -0.410025     4.668502
C        0.598787     0.536997     4.074847
C        0.660361     0.620111     2.742905
H       -0.340581     5.713187    -0.364081
H       -1.719321     4.340160    -1.848443
H       -1.534181     1.769477    -1.670942
H        1.254727     4.558617     1.330387
H        4.630557     1.185718     1.333069
H        5.760354    -0.408853    -0.370014
H        4.343554    -1.752381    -1.874500
H        1.787800    -1.525125    -1.699718
H       -1.677735    -1.621433     1.751222
H       -1.879122    -1.862003     4.297087
H       -0.435777    -0.493500     5.753022
H        1.247679     1.153748     4.675749
N       -1.915152     0.123511     0.204546
C       -2.418432     0.942443     1.061600
C       -3.908128     1.030204     1.166021
C       -4.659391     0.252992     0.366118
C       -4.035357    -0.675663    -0.602643
C       -2.727058    -0.713961    -0.642767
P       -1.775632    -1.838220    -1.782325
C       -0.634889    -0.653585    -2.647754
C       -0.576687    -0.600727    -3.974336
C        0.341723     0.354576    -4.596087
C        1.120870     1.172619    -3.865644
C        1.014735     1.070473    -2.381903
N        0.204546     0.226300    -1.905741
C       -0.683642    -2.754863    -0.627987
C       -0.633019    -4.096133    -0.575371
C        0.290599    -4.680682     0.407083
C        1.054962    -3.932385     1.223901
C        0.941067    -2.427998     1.106197
N        0.123511    -1.912703     0.226300
H       -1.783595     1.551016     1.687492
H       -4.344799     1.714321     1.879868
H       -5.751571     0.303939     0.428293
H       -4.597831    -1.306523    -1.252345
H       -1.206197    -1.261085    -4.536543
H        0.399413     0.408195    -5.691662
H        1.797784     1.877065    -4.304799
H        1.608476     1.694551    -1.732529
H       -1.249776    -4.676621    -1.233064
H        0.359060    -5.779943     0.476542
H        1.726964    -4.342061     1.939240
H        1.531165    -1.791383     1.737450
63
ex_0582 frame8 OC-6-chelate-2_mirror
Zn       0.000000     0.000000     0.000000
C       -0.335827     4.679684     0.361912
C       -1.144011     3.923728     1.125490
C       -1.045597     2.425331     1.009644
N       -0.181272     1.913403     0.175871
C        0.678608     2.741317    -0.642211
C        0.634557     4.075626    -0.576872
P        1.827600     1.840853    -1.769503
C        0.682019     0.685591    -2.684229
C        0.642676     0.639657    -3.993323
C       -0.296847    -0.306601    -4.633550
C       -1.091377    -1.100470    -3.904166
C       -1.003037    -1.004515    -2.417231
N       -0.179308    -0.175871    -1.913588
N        1.913084    -0.181272     0.179308
C        2.421780    -1.039083     1.008503
C        3.914844    -1.141858     1.120033
C        4.667315    -0.337275     0.351912
C        4.056329     0.631417    -0.585793
C        2.732432     0.683133    -0.646634
H       -0.393448     5.763255     0.432862
H       -1.855277     4.341091     1.813117
H       -1.658744     1.783482     1.587998
H        1.287992     4.660665    -1.194607
H        1.283486     1.280195    -4.576471
H       -0.352433    -0.367874    -5.727398
H       -1.784962    -1.798783    -4.345676
H       -1.617227    -1.617716    -1.780777
H        1.779936    -1.665412     1.605887
H        4.328499    -1.851395     1.806510
H        5.757514    -0.399781     0.421372
H        4.637923     1.282135    -1.207436
N       -1.915152     0.123511    -0.204546
C       -2.418432     0.942443    -1.061600
C       -3.908128     1.030204    -1.166021
C       -4.659391     0.252992    -0.366118
C       -4.035357    -0.675663     0.602643
C       -2.727058    -0.713961     0.642767
P       -1.775632    -1.838220     1.782325
C       -0.634889    -0.653585     2.647754
C       -0.576687    -0.600727     3.974336
C        0.341723     0.354576     4.596087
C        1.120870     1.172619     3.865644
C        1.014735     1.070473     2.381903
N        0.204546     0.226300     1.905741
C       -0.683642    -2.754863     0.627987
C       -0.633019    -4.096133     0.575371
C        0.290599    -4.680682    -0.407083
C        1.054962    -3.932385    -1.223901
C        0.941067    -2.427998    -1.106197
N        0.123511    -1.912703    -0.226300
H       -1.783595     1.551016    -1.687492
H       -4.344799     1.714321    -1.879868
H       -5.751571     0.303939    -0.428293
H       -4.597831    -1.306523     1.252345
H       -1.206197    -1.261085     4.536543
H        0.399413     0.408195     5.691662
H        1.797784     1.877065     4.304799
H        1.608476     1.694551     1.732529
H       -1.249776    -4.676621     1.233064
H        0.359060    -5.779943    -0.476542
H        1.726964    -4.342061    -1.939240
H        1.531165    -1.791383    -1.737450
