64
ex_0314 frame0 pucker r0:5+r1:2
C       -3.700207     3.340396    -0.755989
C       -2.272275     2.797474    -0.741223
P       -2.096791     0.930036    -0.967843
C       -3.196951     0.619114    -2.453277
C       -2.610411     1.248852    -3.709786
C       -3.280274     0.276511     0.331750
C       -2.807940     0.629910     1.736218
Pt       0.049309     0.442577    -0.483349
P        1.223948     1.621633     1.040032
C        2.257541     2.963160     0.230275
C        1.367389     3.876987    -0.600392
C        0.618687     2.364953     2.668738
C        1.289179     3.666195     3.103920
C        2.596598     0.474134     1.632571
C        3.604903     1.104300     2.588274
Se       0.043960    -1.809883     0.188608
C        1.712255    -2.134106    -0.755892
C        2.180914    -1.383675    -1.781757
C        3.484913    -1.675188    -2.511226
C        3.842682    -3.132413    -2.924743
C        2.838830    -4.269969    -2.665210
C        2.437983    -4.534273    -1.204574
C        2.479628    -3.325656    -0.286043
Se       1.246096     0.179967    -2.468520
H       -3.666825     4.436858    -0.584480
H       -4.310509     2.897507     0.054432
H       -4.183529     3.175765    -1.738648
H       -1.794615     3.075652     0.221042
H       -1.693438     3.298712    -1.544280
H       -4.225931     0.993423    -2.281535
H       -3.263688    -0.478871    -2.605204
H       -1.581389     0.870542    -3.884800
H       -3.239868     0.984014    -4.585138
H       -2.585373     2.354010    -3.617482
H       -4.310277     0.652073     0.168589
H       -3.310772    -0.829481     0.237497
H       -3.460310     0.130312     2.482708
H       -2.864177     1.724973     1.902389
H       -1.763722     0.285517     1.890594
H        2.988938     2.476670    -0.449266
H        2.831081     3.561206     0.962459
H        0.590773     4.350454     0.035091
H        0.871392     3.294989    -1.405563
H        1.983284     4.674381    -1.066568
H        0.716005     1.606350     3.473200
H       -0.465458     2.570513     2.550317
H        2.380654     3.539995     3.236489
H        1.088664     4.473531     2.371079
H        0.864143     3.983364     4.079339
H        3.138868     0.097545     0.739788
H        2.128653    -0.398702     2.134067
H        4.073543     2.003940     2.143375
H        3.126197     1.355175     3.555720
H        4.411445     0.370197     2.796491
H        4.308303    -1.296298    -1.867663
H        3.529042    -1.045315    -3.425946
H        4.071973    -3.136345    -4.013237
H        4.794020    -3.413778    -2.421717
H        3.242043    -5.210967    -3.099432
H        1.916037    -4.030917    -3.237958
H        1.418753    -4.979849    -1.183040
H        3.130150    -5.296779    -0.785122
H        3.527898    -2.995865    -0.114967
H        2.087989    -3.633760     0.707222
64
ex_0314 frame1 pucker r0:3+r1:1
C       -1.598375     3.675745    -1.149292
C       -2.391972     2.567840    -1.828457
P       -2.096791     0.930036    -0.967843
C       -3.160640    -0.117186    -2.102923
C       -2.365843    -0.568232    -3.320280
C       -3.383178     1.149945     0.378019
C       -3.334153    -0.017020     1.355345
Pt       0.049309     0.442577    -0.483349
P        1.223948     1.621633     1.040032
C        0.662995     2.954771     2.235334
C       -0.465128     2.450604     3.124701
C        2.015308     0.364658     2.207637
C        2.928788     0.937092     3.291145
C        2.780975     2.469580     0.428618
C        2.452816     3.463573    -0.676599
Se       0.043960    -1.809883     0.188608
C        1.758705    -2.114477    -0.694914
C        2.230950    -1.329541    -1.713261
C        3.558788    -1.473496    -2.425457
C        4.633684    -2.442871    -1.936020
C        4.251756    -3.923298    -1.868315
C        2.974985    -4.309408    -1.112678
C        2.494579    -3.285168    -0.086180
Se       1.246096     0.179967    -2.468520
H       -1.750239     4.630448    -1.695107
H       -0.517204     3.428549    -1.159725
H       -1.930906     3.811746    -0.099742
H       -2.053693     2.489127    -2.882388
H       -3.473082     2.822649    -1.824550
H       -4.057821     0.450321    -2.429643
H       -3.499687    -1.019752    -1.553610
H       -1.502978    -1.190279    -3.001952
H       -3.015639    -1.178288    -3.982259
H       -1.997598     0.306745    -3.894630
H       -3.175810     2.085938     0.934842
H       -4.400125     1.228705    -0.061630
H       -4.066211     0.152068     2.172697
H       -2.319720    -0.104403     1.798754
H       -3.590088    -0.966825     0.842168
H        0.284313     3.813121     1.641960
H        1.503430     3.324642     2.856151
H       -1.315959     2.108340     2.502420
H       -0.815053     3.273562     3.782531
H       -0.118518     1.612191     3.762713
H        2.605693    -0.345978     1.591985
H        1.204015    -0.214105     2.696357
H        3.772058     1.504877     2.852963
H        2.363697     1.571641     4.001461
H        3.361606     0.096664     3.873534
H        3.474819     1.699762     0.028995
H        3.286219     3.014205     1.251731
H        1.791133     4.266534    -0.290049
H        3.390443     3.927350    -1.048609
H        1.952327     2.951471    -1.523243
H        4.025512    -0.464124    -2.428068
H        3.353467    -1.722005    -3.489069
H        5.517510    -2.347072    -2.604528
H        4.973559    -2.110334    -0.931688
H        5.106973    -4.460349    -1.401805
H        4.174119    -4.312315    -2.907275
H        2.156156    -4.488234    -1.844605
H        3.150587    -5.279005    -0.596315
H        3.349958    -2.918080     0.518941
H        1.828908    -3.816189     0.627999
64
ex_0314 frame2 pucker r0:1+r1:2
C       -3.843830     2.427684    -2.730956
C       -2.391617     2.242313    -2.292843
P       -2.096791     0.930036    -0.967843
C       -3.101499    -0.509774    -1.633304
C       -2.472501    -1.080042    -2.897542
C       -3.321238     1.505546     0.328237
C       -3.094531     0.747419     1.627923
Pt       0.049309     0.442577    -0.483349
P        1.223948     1.621633     1.040032
C        1.053856     3.493168     1.041363
C       -0.405189     3.919594     1.117281
C        0.946170     1.394646     2.887612
C        1.110463    -0.061196     3.301878
C        3.104487     1.571261     1.122033
C        3.755407     2.128956    -0.139281
Se       0.043960    -1.809883     0.188608
C        1.789879    -2.067106    -0.642542
C        2.263041    -1.289887    -1.667585
C        3.619129    -1.461832    -2.310037
C        4.801630    -1.399001    -1.341184
C        4.960604    -2.584666    -0.374773
C        3.892321    -3.678100    -0.445372
C        2.498746    -3.238288     0.006375
Se       1.246096     0.179967    -2.468520
H       -3.896479     3.273482    -3.448355
H       -4.497561     2.676705    -1.872497
H       -4.221523     1.527970    -3.255443
H       -2.013658     3.211529    -1.907191
H       -1.779908     1.983079    -3.182037
H       -4.151949    -0.216734    -1.829922
H       -3.119369    -1.305650    -0.859634
H       -1.434602    -1.415152    -2.692462
H       -3.063743    -1.953776    -3.243275
H       -2.461550    -0.320861    -3.706205
H       -3.177152     2.590044     0.513413
H       -4.365472     1.340534    -0.008160
H       -3.790918     1.124145     2.406155
H       -2.052617     0.894666     1.979229
H       -3.278761    -0.337234     1.479042
H        1.469479     3.893654     0.094622
H        1.618104     3.935109     1.889848
H       -0.879064     3.566582     2.054769
H       -0.958448     3.516153     0.247779
H       -0.468531     5.027669     1.089622
H       -0.082096     1.713576     3.149550
H        1.653184     2.024010     3.468057
H        0.305238    -0.676482     2.853677
H        2.099233    -0.454960     2.989335
H        1.032441    -0.141558     4.406478
H        3.419020     0.513744     1.243518
H        3.474204     2.146884     1.996580
H        3.330514     1.652960    -1.044056
H        3.622648     3.227376    -0.200924
H        4.846388     1.925311    -0.110736
H        3.774700    -0.660782    -3.064462
H        3.634320    -2.408488    -2.887711
H        5.732000    -1.311446    -1.944763
H        4.729336    -0.462195    -0.752502
H        5.002223    -2.198922     0.667892
H        5.945739    -3.064656    -0.565763
H        3.843408    -4.112564    -1.465418
H        4.214970    -4.508853     0.220216
H        2.571195    -2.988643     1.087644
H        1.839299    -4.130391    -0.062483
64
ex_0314 frame3 pucker r0:2+r1:2
C       -4.578736    -0.498645    -1.455702
C       -3.100578    -0.664250    -1.104427
P       -2.096791     0.930036    -0.967843
C       -3.250954     2.024299     0.027156
C       -3.353629     1.535239     1.464930
C       -2.453035     1.657005    -2.658387
C       -1.617330     2.909078    -2.886611
Pt       0.049309     0.442577    -0.483349
P        1.223948     1.621633     1.040032
C        1.384576     3.491855     1.016838
C        0.021837     4.127544     0.781505
C        0.845563     1.160971     2.833938
C        0.955328     2.291753     3.853664
C        3.038248     1.131856     0.939662
C        3.944812     1.763883     1.992074
Se       0.043960    -1.809883     0.188608
C        1.821153    -2.019329    -0.599596
C        2.295286    -1.241996    -1.627540
C        3.670362    -1.353767    -2.262482
C        4.851576    -1.514447    -1.304719
C        4.996304    -2.891776    -0.644961
C        3.755141    -3.782710    -0.613600
C        2.563691    -3.142898     0.088201
Se       1.246096     0.179967    -2.468520
H       -5.032806    -1.505035    -1.573326
H       -4.711923     0.039355    -2.413869
H       -5.128633     0.015520    -0.642999
H       -2.621820    -1.300756    -1.878240
H       -3.026637    -1.205188    -0.138136
H       -4.257368     2.081000    -0.432966
H       -2.834419     3.052598     0.036285
H       -2.347687     1.515989     1.933092
H       -4.002222     2.224038     2.045773
H       -3.795870     0.518424     1.501279
H       -2.195407     0.903936    -3.432794
H       -3.524514     1.923978    -2.760017
H       -1.774389     3.276484    -3.922460
H       -0.538765     2.687953    -2.747354
H       -1.921985     3.708846    -2.180167
H        2.050042     3.773576     0.173540
H        1.831932     3.894934     1.944180
H       -0.374834     3.812510    -0.205524
H        0.118881     5.233422     0.789054
H       -0.695660     3.825073     1.571838
H        1.500477     0.319034     3.141519
H       -0.195507     0.778483     2.861634
H        1.982710     2.702600     3.895488
H        0.232403     3.099504     3.622698
H        0.708596     1.895608     4.861088
H        3.412999     1.405069    -0.069167
H        3.098446     0.028710     1.040765
H        3.905582     2.869879     1.948707
H        3.679933     1.407152     3.006733
H        4.992978     1.455441     1.794432
H        3.868981    -0.444583    -2.870098
H        3.663914    -2.197184    -2.984590
H        5.790186    -1.289630    -1.857893
H        4.769114    -0.741226    -0.512871
H        5.369745    -2.754859     0.393894
H        5.787633    -3.454509    -1.187430
H        3.467587    -4.091477    -1.641327
H        4.022447    -4.714339    -0.067840
H        2.897652    -2.728191     1.064032
H        1.853269    -3.965346     0.322935
64
ex_0314 frame4 pucker r0:base+r1:2
C       -4.627488    -0.163235    -1.858966
C       -3.148237    -0.481578    -1.646852
P       -2.096791     0.930036    -0.967843
C       -3.180079     1.598819     0.407733
C       -3.224940     0.622735     1.575162
C       -2.460673     2.240018    -2.254358
C       -1.518943     3.422285    -2.073965
Pt       0.049309     0.442577    -0.483349
P        1.223948     1.621633     1.040032
C        2.812717     2.451789     0.488028
C        2.554464     3.457212    -0.627240
C        0.267902     3.075777     1.774827
C        1.037105     3.944054     2.769519
C        1.917658     0.809210     2.582084
C        0.806831     0.263368     3.471041
Se       0.043960    -1.809883     0.188608
C        1.714075    -2.146520    -0.745920
C        2.198740    -1.353584    -1.740272
C        3.551019    -1.605260    -2.376822
C        3.570490    -2.911025    -3.189208
C        3.824540    -4.131386    -2.297493
C        2.623697    -4.452159    -1.403552
C        2.434171    -3.396908    -0.307164
Se       1.246096     0.179967    -2.468520
H       -5.114295    -1.031518    -2.350793
H       -4.763457     0.715399    -2.518890
H       -5.142578    -0.002193    -0.891160
H       -2.708506    -0.795261    -2.617050
H       -3.065340    -1.343229    -0.951967
H       -4.205141     1.820443     0.050277
H       -2.739385     2.553366     0.763146
H       -2.196837     0.418395     1.942557
H       -3.818480     1.062040     2.404117
H       -3.700209    -0.331098     1.265993
H       -2.303677     1.806013    -3.264420
H       -3.508265     2.596297    -2.174425
H       -1.710632     4.175389    -2.866823
H       -0.463068     3.086914    -2.148525
H       -1.683079     3.898753    -1.084998
H        3.493156     1.662538     0.103905
H        3.324869     2.948995     1.336160
H        2.031180     2.969229    -1.474680
H        3.522152     3.859817    -0.993269
H        1.941472     4.304189    -0.257340
H       -0.637926     2.676450     2.276001
H       -0.083255     3.716029     0.939510
H        1.910961     4.427999     2.291915
H        0.367191     4.752636     3.130248
H        1.356248     3.360053     3.654264
H        2.552842     1.511699     3.158205
H        2.562497    -0.035642     2.259857
H        0.199892     1.090705     3.891803
H        0.147608    -0.417714     2.895040
H        1.253552    -0.304773     4.313754
H        4.355097    -1.601270    -1.609565
H        3.788873    -0.770800    -3.070899
H        2.626224    -3.030936    -3.765095
H        4.401021    -2.850119    -3.925909
H        4.743992    -3.989925    -1.687593
H        4.004523    -5.007537    -2.957676
H        1.698352    -4.571701    -2.010258
H        2.820659    -5.430137    -0.912564
H        3.408477    -3.065220     0.113337
H        1.874487    -3.868103     0.529177
64
ex_0314 frame5 pucker r0:5+r1:4
C       -4.002146    -0.376257    -2.723564
C       -2.556872    -0.400257    -2.227498
P       -2.096791     0.930036    -0.967843
C       -3.575051     0.890629     0.186521
C       -3.581500    -0.390150     1.009667
C       -2.581050     2.448717    -1.951511
C       -2.071577     3.704608    -1.260991
Pt       0.049309     0.442577    -0.483349
P        1.223948     1.621633     1.040032
C        2.544453     2.816524     0.445948
C        1.979428     3.771863    -0.594424
C        0.613453     2.535064     2.560917
C       -0.639726     3.332887     2.234443
C        2.349976     0.367286     1.889022
C        3.348005     0.953881     2.888140
Se       0.043960    -1.809883     0.188608
C        1.774898    -2.054545    -0.666888
C        2.249606    -1.294795    -1.682910
C        3.610174    -1.491048    -2.334738
C        4.213475    -2.905082    -2.564839
C        3.328038    -4.153110    -2.402329
C        2.692608    -4.402316    -1.023907
C        2.575477    -3.187716    -0.120491
Se       1.246096     0.179967    -2.468520
H       -4.119019    -1.136930    -3.523903
H       -4.267569     0.607736    -3.156092
H       -4.707068    -0.643347    -1.911460
H       -1.881605    -0.288946    -3.101605
H       -2.353506    -1.394058    -1.777903
H       -4.528938     0.996918    -0.367303
H       -3.499841     1.753512     0.879808
H       -2.640666    -0.472771     1.594165
H       -4.438292    -0.373475     1.715473
H       -3.683409    -1.277185     0.351034
H       -2.126249     2.383270    -2.962549
H       -3.682891     2.520526    -2.058060
H       -2.319911     4.595078    -1.875734
H       -0.970754     3.652028    -1.138191
H       -2.547972     3.816823    -0.264718
H        3.363418     2.232235    -0.025070
H        2.968366     3.402076     1.287401
H        1.219222     4.436428    -0.138023
H        1.522767     3.204078    -1.432039
H        2.797326     4.403941    -0.999635
H        1.390956     3.216873     2.962790
H        0.356669     1.790935     3.344487
H       -0.418050     4.120489     1.487240
H       -1.426347     2.658992     1.837225
H       -1.021475     3.819434     3.156450
H        2.915910    -0.176184     1.104109
H        1.710771    -0.370373     2.417726
H        4.058817     1.641875     2.389064
H        2.830432     1.477113     3.716274
H        3.940073     0.126190     3.332191
H        4.340879    -0.907898    -1.733482
H        3.590664    -0.984530    -3.323997
H        4.653046    -2.934983    -3.586374
H        5.075099    -3.029015    -1.872414
H        3.917977    -5.050276    -2.692185
H        2.507024    -4.066698    -3.147334
H        1.688526    -4.862645    -1.158635
H        3.314519    -5.152378    -0.487741
H        3.579254    -2.782350     0.133638
H        2.124843    -3.517335     0.840390
64
ex_0314 frame6 pucker r0:6+r1:base
C       -3.921617    -0.231248    -2.897065
C       -2.516171    -0.334065    -2.307114
P       -2.096791     0.930036    -0.967843
C       -3.665487     0.934457     0.059960
C       -3.793091    -0.362804     0.846926
C       -2.412491     2.504540    -1.929467
C       -1.837473     3.695003    -1.176395
Pt       0.049309     0.442577    -0.483349
P        1.223948     1.621633     1.040032
C        0.355809     2.858918     2.153454
C       -0.814375     2.190496     2.861409
C        2.484486     0.748179     2.145398
C        2.734671     1.381985     3.512518
C        2.338440     2.783898     0.060457
C        3.284224     3.640653     0.896915
Se       0.043960    -1.809883     0.188608
C        0.855435    -2.534100    -1.424300
C        1.325071    -1.763741    -2.448035
C        1.958492    -2.375048    -3.675457
C        0.998163    -3.198671    -4.545640
C       -0.199021    -3.868309    -3.865427
C        0.108304    -4.702506    -2.618715
C        0.899352    -4.045836    -1.473106
Se       1.246096     0.179967    -2.468520
H       -4.005039    -0.935234    -3.751664
H       -4.127994     0.788054    -3.277649
H       -4.687495    -0.525427    -2.151970
H       -1.779814    -0.217860    -3.129532
H       -2.379873    -1.351304    -1.884264
H       -4.565075     1.094113    -0.567111
H       -3.610475     1.779650     0.777061
H       -3.882794    -1.228804     0.159028
H       -2.904569    -0.503758     1.498443
H       -4.700304    -0.322171     1.485520
H       -1.915591     2.430524    -2.919901
H       -3.499319     2.664579    -2.085316
H       -2.021866     4.625615    -1.753013
H       -0.742861     3.569003    -1.044135
H       -2.318258     3.790808    -0.179996
H       -0.041845     3.679238     1.519661
H        1.034439     3.313288     2.898880
H       -0.463102     1.345593     3.488557
H       -1.539227     1.805652     2.115499
H       -1.329583     2.929229     3.510513
H        3.445096     0.655116     1.596862
H        2.110755    -0.283241     2.315558
H        3.103866     2.421255     3.421349
H        1.813346     1.362409     4.128258
H        3.509475     0.793527     4.047411
H        1.692506     3.452614    -0.545464
H        2.942770     2.173894    -0.643064
H        2.730719     4.241363     1.644822
H        4.048928     3.011144     1.393727
H        3.819441     4.345642     0.226610
H        2.804877    -3.022747    -3.360195
H        2.412247    -1.581634    -4.307811
H        0.593805    -2.531640    -5.338597
H        1.587858    -3.982265    -5.069806
H       -0.710125    -4.517909    -4.609184
H       -0.929311    -3.077535    -3.584346
H       -0.867267    -5.045415    -2.208899
H        0.648468    -5.620980    -2.936932
H        1.962644    -4.360078    -1.550301
H        0.538258    -4.468221    -0.510528
64
ex_0314 frame7 pucker r0:base+r1:3
C       -4.576579    -0.408591    -1.657435
C       -3.102750    -0.628514    -1.318882
P       -2.096791     0.930036    -0.967843
C       -3.242174     1.881540     0.171814
C       -3.339806     1.198725     1.528880
C       -2.444645     1.881466    -2.543465
C       -1.571347     3.126479    -2.611417
Pt       0.049309     0.442577    -0.483349
P        1.223948     1.621633     1.040032
C        1.413831     3.478686     1.234531
C        0.043176     4.140812     1.251682
C        1.031234     0.944555     2.794265
C        1.321709     1.925289     3.927992
C        3.006937     1.142495     0.663119
C        4.031862     1.576973     1.706793
Se       0.043960    -1.809883     0.188608
C        1.588217    -2.263437    -0.895493
C        2.029811    -1.523106    -1.938184
C        3.194251    -1.939612    -2.818410
C        2.894688    -3.252887    -3.565603
C        3.202899    -4.473099    -2.689891
C        2.137870    -4.676862    -1.611416
C        2.211863    -3.583277    -0.541152
Se       1.246096     0.179967    -2.468520
H       -5.034530    -1.386995    -1.913979
H       -4.697437     0.255790    -2.534742
H       -5.130901    -0.004868    -0.787332
H       -2.619210    -1.160215    -2.165434
H       -3.038493    -1.292028    -0.431527
H       -4.250330     2.004003    -0.271434
H       -2.819577     2.896856     0.319924
H       -2.329765     1.097370     1.978641
H       -3.971607     1.809611     2.207234
H       -3.799309     0.193966     1.427498
H       -2.213370     1.230684    -3.413093
H       -3.509171     2.188358    -2.597087
H       -1.727565     3.637250    -3.584730
H       -0.499006     2.853357    -2.520199
H       -1.841778     3.830074    -1.797048
H        1.977261     3.865109     0.359037
H        1.977627     3.758492     2.143628
H       -0.577873     3.738122     2.078423
H       -0.476517     3.957417     0.288628
H        0.159060     5.236201     1.390233
H        1.669780     0.043740     2.908911
H       -0.020305     0.606068     2.900826
H        2.362712     2.299634     3.886488
H        0.612066     2.776428     3.901047
H        1.187720     1.404981     4.899603
H        3.282881     1.586203    -0.316528
H        3.054110     0.038181     0.557660
H        3.999640     2.671424     1.873642
H        3.875618     1.035633     2.660830
H        5.048482     1.320227     1.341676
H        4.139177    -2.025422    -2.239729
H        3.381375    -1.153525    -3.581105
H        1.842785    -3.271275    -3.926987
H        3.553162    -3.301286    -4.460236
H        4.217797    -4.400220    -2.240279
H        3.202478    -5.372717    -3.343056
H        1.120781    -4.736377    -2.059863
H        2.335997    -5.655006    -1.121274
H        3.263866    -3.338114    -0.275750
H        1.734374    -3.974616     0.382778
64
ex_0314 frame8 pucker r0:5+r1:3
C       -4.038747    -0.002427    -2.904218
C       -2.627624    -0.225700    -2.362129
P       -2.096791     0.930036    -0.967843
C       -3.631573     0.964147     0.109470
C       -3.822454    -0.371768     0.815183
C       -2.345640     2.574226    -1.827689
C       -1.674707     3.682554    -1.030150
Pt       0.049309     0.442577    -0.483349
P        1.223948     1.621633     1.040032
C        1.850597     3.388038     0.980550
C        2.614960     3.644978    -0.311643
C        0.636709     1.609004     2.817312
C       -0.820157     2.041730     2.883606
C        2.828885     0.648486     1.240165
C        3.817241     1.209743     2.261283
Se       0.043960    -1.809883     0.188608
C        1.635423    -2.206080    -0.850317
C        2.077664    -1.490882    -1.899273
C        3.263457    -1.866074    -2.779401
C        3.594284    -3.349607    -3.117102
C        2.579987    -4.464566    -2.805428
C        2.168848    -4.663421    -1.336202
C        2.336298    -3.448637    -0.442594
Se       1.246096     0.179967    -2.468520
H       -4.190209    -0.652510    -3.791481
H       -4.188397     1.046853    -3.225287
H       -4.802695    -0.286549    -2.153345
H       -1.905317    -0.105810    -3.196676
H       -2.543652    -1.271659    -1.999793
H       -4.536512     1.221154    -0.476331
H       -3.499437     1.754996     0.877055
H       -2.924870    -0.617340     1.421252
H       -4.702307    -0.312922     1.489640
H       -3.996518    -1.181315     0.076707
H       -1.885505     2.529020    -2.837439
H       -3.424989     2.807241    -1.936401
H       -1.827817     4.655813    -1.541826
H       -0.585010     3.488379    -0.954400
H       -2.108734     3.742636    -0.009825
H        2.487464     3.625020     1.856126
H        0.973287     4.067435     1.014372
H        1.974201     3.416505    -1.189417
H        3.529407     3.018346    -0.355292
H        2.916040     4.712516    -0.358619
H        1.247789     2.291562     3.443354
H        0.724085     0.578048     3.220953
H       -0.938031     3.067342     2.474504
H       -1.450677     1.339171     2.300575
H       -1.163630     2.035911     3.939300
H        3.328732     0.590089     0.250662
H        2.564424    -0.387936     1.537518
H        4.236794     2.176814     1.919946
H        3.347839     1.326020     3.257642
H        4.665074     0.500794     2.367866
H        4.180158    -1.409235    -2.347926
H        3.123904    -1.346171    -3.751962
H        3.842383    -3.413838    -4.199717
H        4.534494    -3.617912    -2.586772
H        2.972928    -5.427329    -3.199801
H        1.661532    -4.239424    -3.390450
H        1.114171    -5.015826    -1.293352
H        2.793784    -5.477704    -0.908332
H        3.409272    -3.172181    -0.341488
H        1.991667    -3.722528     0.577855
64
ex_0314 frame9 pucker r0:6+r1:3
C       -4.731978    -0.222382    -1.319425
C       -3.238322    -0.542574    -1.270170
P       -2.096791     0.930036    -0.967843
C       -2.890840     1.721844     0.535645
C       -2.782744     0.811446     1.752428
C       -2.759055     2.103697    -2.268924
C       -1.818697     3.287853    -2.433681
Pt       0.049309     0.442577    -0.483349
P        1.223948     1.621633     1.040032
C        2.386264     2.887676     0.283341
C        1.601635     3.868983    -0.575154
C        0.619706     2.401166     2.653391
C        1.361286     3.653415     3.116554
C        2.486985     0.377778     1.682261
C        3.519189     0.937445     2.656650
Se       0.043960    -1.809883     0.188608
C        1.576304    -2.251501    -0.912036
C        2.011616    -1.538849    -1.960807
C        3.142556    -1.960354    -2.886716
C        3.077073    -3.381827    -3.516121
C        2.105153    -4.458563    -2.999117
C        2.071990    -4.747083    -1.495006
C        2.227773    -3.547874    -0.579773
Se       1.246096     0.179967    -2.468520
H       -5.291713    -1.157222    -1.532824
H       -4.964866     0.496916    -2.128962
H       -5.092578     0.163796    -0.346158
H       -2.942966    -1.008220    -2.233932
H       -3.060617    -1.294448    -0.473650
H       -3.951782     1.981757     0.348471
H       -2.348730     2.666577     0.750073
H       -1.728040     0.505062     1.914420
H       -3.138322     1.353452     2.653707
H       -3.409411    -0.093846     1.617893
H       -2.830434     1.566370    -3.238280
H       -3.766672     2.476214    -1.990826
H       -2.236958     3.994336    -3.181045
H       -0.829092     2.937138    -2.793749
H       -1.693993     3.822006    -1.468108
H        3.108674     2.352598    -0.368785
H        2.970639     3.439636     1.042320
H        1.125443     3.331742    -1.420463
H        2.288778     4.638066    -0.986095
H        0.814913     4.373264     0.023416
H        0.640269     1.635918     3.457242
H       -0.443514     2.680796     2.503346
H        2.436133     3.453269     3.288230
H        1.242474     4.473321     2.379813
H        0.924062     3.997880     4.077236
H        3.017718    -0.054910     0.807866
H        1.939374    -0.446267     2.185113
H        4.072050     1.789393     2.215028
H        3.038456     1.238507     3.608549
H        4.257400     0.142905     2.894412
H        4.102748    -1.889067    -2.331329
H        3.245522    -1.223655    -3.712700
H        2.862113    -3.257347    -4.600504
H        4.099533    -3.817566    -3.472438
H        2.305488    -5.410160    -3.538560
H        1.081971    -4.142922    -3.300783
H        1.112047    -5.257627    -1.259113
H        2.883941    -5.468338    -1.256258
H        3.305652    -3.290916    -0.477374
H        1.896822    -3.847510     0.438076
64
ex_0314 frame10 pucker r0:base+r1:5
C       -3.989917    -0.127047    -2.890549
C       -2.574168    -0.279437    -2.336390
P       -2.096791     0.930036    -0.967843
C       -3.647333     0.948232     0.087288
C       -3.789698    -0.361387     0.850476
C       -2.384615     2.541182    -1.876429
C       -1.768608     3.693152    -1.096289
Pt       0.049309     0.442577    -0.483349
P        1.223948     1.621633     1.040032
C        0.432661     2.878831     2.187538
C       -0.763380     2.256593     2.894264
C        2.452879     0.664039     2.110981
C        2.748649     1.255285     3.487890
C        2.385895     2.743735     0.068728
C        3.377259     3.541993     0.910257
Se       0.043960    -1.809883     0.188608
C        1.519478    -2.321585    -0.965589
C        2.011153    -1.529261    -1.942217
C        3.234914    -1.909331    -2.737316
C        3.081872    -3.168960    -3.597145
C        3.177860    -4.455447    -2.770703
C        2.033390    -4.598435    -1.758313
C        2.175521    -3.623004    -0.576695
Se       1.246096     0.179967    -2.468520
H       -4.106466    -0.796217    -3.768864
H       -4.184333     0.909689    -3.227778
H       -4.744946    -0.434849    -2.139763
H       -1.852854    -0.151658    -3.170500
H       -2.451389    -1.312158    -1.948245
H       -4.553929     1.140354    -0.520121
H       -3.562267     1.777258     0.819872
H       -2.895555    -0.531330     1.487291
H       -4.687613    -0.316177     1.501797
H       -3.904707    -1.211651     0.146807
H       -1.903450     2.485087    -2.875755
H       -3.468922     2.733716    -2.011490
H       -1.937168     4.645350    -1.641649
H       -0.675879     3.535568    -0.984600
H       -2.232319     3.770747    -0.090298
H        0.071510     3.731390     1.574724
H        1.141232     3.282059     2.934523
H       -0.449720     1.382047     3.500429
H       -1.514070     1.924847     2.148163
H       -1.233724     3.007055     3.563658
H        3.401519     0.536245     1.548691
H        2.032100    -0.351623     2.264330
H        1.833930     1.267803     4.113638
H        3.499120     0.618136     4.001261
H        3.167627     2.276912     3.414053
H        1.768712     3.451138    -0.523097
H        2.956188     2.115851    -0.647366
H        2.858564     4.157044     1.671315
H        4.114718     2.869408     1.391523
H        3.940625     4.230729     0.246153
H        4.070298    -2.017835    -2.011151
H        3.512491    -1.070255    -3.410838
H        2.123962    -3.143102    -4.162939
H        3.904030    -3.183347    -4.345465
H        4.162061    -4.509396    -2.255405
H        3.130418    -5.317155    -3.471437
H        1.047406    -4.471415    -2.257549
H        2.066247    -5.634833    -1.356889
H        3.237870    -3.540276    -0.261397
H        1.636159    -4.059216     0.291405
64
ex_0314 frame11 pucker r0:12+r1:base
C       -2.044501     2.604355    -3.236640
C       -2.681239     2.477013    -1.859244
P       -2.096791     0.930036    -0.967843
C       -3.170478    -0.317073    -1.876621
C       -2.355003    -1.061724    -2.926117
C       -3.227232     1.182782     0.505526
C       -3.027737     0.087528     1.543446
Pt       0.049309     0.442577    -0.483349
P        1.223948     1.621633     1.040032
C        1.550915     3.388840     0.511044
C        0.334819     3.955450    -0.202258
C        0.416335     1.980249     2.697147
C        0.407471     0.744632     3.591526
C        2.965210     1.142051     1.581453
C        3.671966     2.136568     2.502419
Se       0.043960    -1.809883     0.188608
C        1.683317    -2.180991    -0.799118
C        2.216417    -1.336683    -1.722379
C        3.617874    -1.496294    -2.258727
C        4.705797    -1.366585    -1.179078
C        4.553151    -2.189611     0.107993
C        3.848529    -3.533922    -0.036112
C        2.354654    -3.485565    -0.430295
Se       1.246096     0.179967    -2.468520
H       -2.482367     1.861432    -3.933059
H       -0.945900     2.457735    -3.176710
H       -2.246013     3.617285    -3.643992
H       -3.787414     2.482044    -1.959155
H       -2.395239     3.360485    -1.251595
H       -4.038034     0.180131    -2.358515
H       -3.564122    -1.063995    -1.158153
H       -1.545026    -1.643439    -2.439040
H       -3.013242    -1.766862    -3.475790
H       -1.903495    -0.357900    -3.653415
H       -2.983627     2.160499     0.973748
H       -4.289670     1.202962     0.181374
H       -3.639294     0.312033     2.442690
H       -1.962916     0.039809     1.842291
H       -3.338139    -0.899105     1.143695
H        2.414718     3.401411    -0.187533
H        1.788679     4.029500     1.385334
H        0.128090     3.363558    -1.117120
H        0.531342     5.007673    -0.497148
H       -0.551663     3.930332     0.465992
H       -0.632373     2.288644     2.503125
H        0.917761     2.817858     3.222662
H        1.427317     0.532786     3.971862
H       -0.257470     0.921862     4.462525
H        0.040743    -0.142277     3.035376
H        3.578917     1.017338     0.666716
H        2.912536     0.156485     2.087797
H        3.832706     3.108566     1.995014
H        3.113264     2.285857     3.446350
H        4.671190     1.730606     2.766711
H        3.818846    -0.738352    -3.045644
H        3.714503    -2.487376    -2.751884
H        5.670264    -1.650904    -1.653486
H        4.805733    -0.295132    -0.903442
H        3.992699    -1.588607     0.853712
H        5.563160    -2.359455     0.541139
H        4.402845    -4.137883    -0.787857
H        3.944452    -4.076513     0.930325
H        1.773399    -3.976994     0.379318
H        2.206834    -4.126161    -1.327163
64
ex_0314 frame12 pucker r0:4+r1:5
C       -3.486240     2.657087    -2.833051
C       -2.109745     2.276294    -2.289994
P       -2.096791     0.930036    -0.967843
C       -3.250088    -0.351776    -1.705731
C       -2.619768    -1.009022    -2.926790
C       -3.289817     1.688015     0.259512
C       -3.268826     0.899656     1.560821
Pt       0.049309     0.442577    -0.483349
P        1.223948     1.621633     1.040032
C        0.645369     1.901864     2.799185
C        0.555458     0.573225     3.535893
C        3.068586     1.758609     1.351899
C        3.839683     1.789419     0.039174
C        0.816414     3.314859     0.315862
C        1.464936     4.505810     1.019648
Se       0.043960    -1.809883     0.188608
C        0.964643    -2.513366    -1.367537
C        1.536351    -1.736182    -2.282250
C        2.510355    -2.175774    -3.344000
C        2.696172    -3.642970    -3.747463
C        1.424224    -4.474212    -3.842028
C        0.598319    -4.628566    -2.556905
C        1.122292    -3.996781    -1.256076
Se       1.246096     0.179967    -2.468520
H       -3.370366     3.504678    -3.540821
H       -4.164264     2.988491    -2.022726
H       -3.939870     1.817625    -3.396016
H       -1.635730     3.182447    -1.858032
H       -1.472526     1.941944    -3.134980
H       -4.232469     0.088034    -1.969741
H       -3.430224    -1.135022    -0.939903
H       -1.651479    -1.478286    -2.653074
H       -3.297910    -1.797575    -3.315036
H       -2.451499    -0.262158    -3.729610
H       -2.977822     2.733563     0.466540
H       -4.323969     1.693779    -0.141992
H       -3.947831     1.378002     2.297507
H       -2.242243     0.882292     1.980938
H       -3.609552    -0.142448     1.386267
H       -0.359093     2.374723     2.780634
H        1.342082     2.570736     3.345350
H       -0.148896    -0.109040     3.015186
H        0.187110     0.744614     4.569129
H        1.555951     0.094544     3.588806
H        3.388797     0.864117     1.926346
H        3.313409     2.651200     1.961814
H        3.642543     0.863413    -0.540823
H        3.547340     2.671570    -0.566759
H        4.928010     1.850161     0.249844
H       -0.286115     3.441075     0.349689
H        1.118171     3.320008    -0.752472
H        1.224331     4.517444     2.100640
H        2.563130     4.505791     0.871403
H        1.070854     5.443989     0.575491
H        3.473750    -1.806834    -2.928534
H        2.349490    -1.617655    -4.292677
H        3.218669    -3.679981    -4.728954
H        3.381223    -4.130331    -3.020612
H        1.707795    -5.486134    -4.207107
H        0.780221    -4.029782    -4.632746
H       -0.421410    -4.222771    -2.740029
H        0.457341    -5.715494    -2.366049
H        2.138156    -4.393736    -1.050144
H        0.489040    -4.372836    -0.423516
64
ex_0314 frame13 trans-2
C       -0.247699     4.329222    -0.728091
C       -0.846906     3.644494    -1.951769
P       -1.580889     2.025819    -1.774286
C       -3.274490     2.028907    -1.253960
C       -3.632235     3.044411    -0.167960
C       -1.328687     1.007536    -3.210115
C       -2.503121     0.093145    -3.425114
Pt      -0.431302     1.052722    -0.106870
P       -0.545219     0.995022     2.137105
C       -1.608139    -0.345069     2.589386
C       -2.932186    -0.515469     1.803483
C       -1.129942     2.623468     2.591449
C       -2.528113     2.546061     3.096221
C        1.110560     0.606650     2.612698
C        1.246070     1.272482     3.956650
Se       1.785272     1.485471    -0.798206
C        2.484811    -0.247027    -0.463212
C        1.632805    -1.388438    -0.403599
C        2.079964    -2.777661    -0.151940
C        3.528377    -2.992204     0.107936
C        3.878968    -2.203631     1.360311
C        4.458644    -0.854111     1.023845
C        3.968693    -0.276739    -0.278240
Se      -0.241298    -1.250943    -0.649327
H       -0.994746     4.951510    -0.213996
H        0.276530     3.595966    -0.101340
H        0.542274     5.038527    -1.072769
H       -1.660979     4.239319    -2.397574
H       -0.055780     3.574123    -2.674005
H       -3.672153     2.455784    -2.172787
H       -3.751180     1.056915    -1.135946
H       -2.742423     3.426720     0.346014
H       -4.153865     3.937854    -0.579917
H       -4.381400     2.560685     0.485875
H       -1.153119     1.661973    -4.048511
H       -0.422579     0.345456    -3.086796
H       -2.399111    -0.293151    -4.442910
H       -2.515072    -0.762502    -2.713477
H       -3.464510     0.642678    -3.394371
H       -1.098308    -1.306431     2.486582
H       -1.750489    -0.097966     3.609493
H       -3.060873    -1.559734     1.424467
H       -2.997186     0.127965     0.917041
H       -3.745506    -0.391889     2.540189
H       -0.542139     2.872181     3.491847
H       -0.958140     3.484639     1.924316
H       -2.854890     3.592401     3.199556
H       -2.558946     2.089621     4.109819
H       -3.210085     1.946432     2.462707
H        1.275366    -0.474031     2.663155
H        1.887569     1.061028     1.959237
H        1.507807     2.344924     3.775736
H        2.079068     0.821390     4.477910
H        0.293012     1.210246     4.558006
H        1.475460    -3.130040     0.738633
H        1.711577    -3.348123    -1.045367
H        4.097784    -2.690060    -0.784561
H        3.707649    -4.059224     0.244401
H        2.971626    -2.031214     1.994903
H        4.626097    -2.774097     1.929872
H        5.555615    -0.980792     0.928114
H        4.265723    -0.181516     1.872793
H        4.498543    -0.736142    -1.126525
H        4.330532     0.784255    -0.285344
64
ex_0314 frame14 pucker r0:1+r1:4
C       -4.295753    -0.233396    -2.450623
C       -2.866519    -0.473497    -1.966664
P       -2.096791     0.930036    -0.967843
C       -3.507094     1.417133     0.167388
C       -3.723516     0.353009     1.234202
C       -2.268132     2.317286    -2.212654
C       -1.410455     3.500539    -1.789305
Pt       0.049309     0.442577    -0.483349
P        1.223948     1.621633     1.040032
C        2.644937     2.829105     0.813303
C        2.396284     3.708191    -0.404258
C       -0.052994     2.540946     2.086980
C        0.409378     3.853423     2.715718
C        1.974595     0.465766     2.325219
C        2.492483     1.142408     3.590708
Se       0.043960    -1.809883     0.188608
C        1.871861    -1.908784    -0.486533
C        2.352928    -1.086024    -1.472719
C        3.798152    -1.066303    -1.901267
C        4.745992    -0.740844    -0.745471
C        4.967034    -1.879389     0.267371
C        4.159683    -3.162064     0.034142
C        2.644371    -3.009863     0.224024
Se       1.246096     0.179967    -2.468520
H       -4.589084    -1.060558    -3.130729
H       -4.378907     0.714832    -3.016644
H       -5.007566    -0.237431    -1.601002
H       -2.217948    -0.656231    -2.849331
H       -2.849250    -1.394142    -1.346785
H       -4.444544     1.594085    -0.396095
H       -3.238862     2.370479     0.668119
H       -2.788979     0.198734     1.814865
H       -4.525165     0.680698     1.928832
H       -4.028431    -0.607154     0.768809
H       -1.920164     1.959001    -3.204571
H       -3.324480     2.645459    -2.300343
H       -1.745716     3.888329    -0.804447
H       -1.497929     4.312775    -2.541029
H       -0.346340     3.192278    -1.719701
H        3.573737     2.248804     0.638454
H        2.814913     3.462462     1.703413
H        1.461922     4.293081    -0.280362
H        2.313921     3.080750    -1.316888
H        3.243785     4.413573    -0.533701
H       -0.432011     1.861365     2.878781
H       -0.910895     2.772390     1.423879
H        1.270759     3.701511     3.393873
H        0.671192     4.592163     1.931972
H       -0.422256     4.279399     3.315424
H        2.809424    -0.083630     1.845035
H        1.205000    -0.279564     2.615004
H        3.244957     1.920252     3.356121
H        1.655906     1.574351     4.174686
H        2.984682     0.379759     4.230155
H        3.940245    -0.276956    -2.670501
H        4.066349    -2.012102    -2.412356
H        5.731390    -0.460141    -1.178616
H        4.373784     0.160454    -0.213491
H        4.752908    -1.504797     1.291931
H        6.044733    -2.154448     0.258183
H        4.384600    -3.600781    -0.959378
H        4.512475    -3.917902     0.769966
H        2.475829    -2.850146     1.311589
H        2.176602    -3.987253    -0.021794
64
ex_0314 frame15 trans-1
C       -3.913898    -0.323301    -2.347659
C       -2.410068    -0.391416    -2.159264
P       -2.096791     0.930036    -0.967843
C       -2.935513     0.687125     0.544461
C       -2.927182    -0.712496     1.061931
C       -1.960568     2.504012    -1.720257
C       -2.001792     3.667290    -0.781145
Pt       0.049309     0.442577    -0.483349
P        1.223948     1.621633     1.040032
C        1.539876     3.095971     0.070715
C        1.163715     4.317351     0.909081
C       -0.016437     1.723434     2.315540
C        0.627654     2.267865     3.559375
C        2.645318     0.578989     1.211857
C        3.217408     0.733919     2.591764
Se       0.043960    -1.809883     0.188608
C        1.398976    -2.345890    -1.063393
C        1.862742    -1.591160    -2.074676
C        2.926936    -1.981649    -3.065458
C        2.477777    -3.174000    -3.844782
C        2.743050    -4.410265    -2.978761
C        1.584832    -4.550514    -2.013533
C        1.863738    -3.742728    -0.744060
Se       1.246096     0.179967    -2.468520
H       -4.164774    -1.087654    -3.105241
H       -4.106335     0.693022    -2.768915
H       -4.430538    -0.487967    -1.382565
H       -1.908948    -0.205662    -3.120736
H       -2.106547    -1.410581    -1.789546
H       -3.980689     0.904853     0.180941
H       -2.777055     1.400704     1.362089
H       -2.312006    -0.783990     1.988822
H       -3.962384    -1.049533     1.309089
H       -2.571040    -1.369095     0.248174
H       -1.193188     2.570034    -2.514211
H       -2.936922     2.518168    -2.283202
H       -2.850426     4.374560    -1.005645
H       -1.079026     4.260608    -0.951475
H       -2.168942     3.355146     0.256339
H        1.085000     3.217943    -0.936161
H        2.637521     3.205801    -0.095702
H        0.187423     4.222478     1.388772
H        1.174525     5.186239     0.208809
H        1.988512     4.524781     1.630593
H       -0.555413     0.770211     2.497179
H       -0.754256     2.517379     2.007014
H        1.632967     2.679056     3.429099
H        0.042288     3.100874     4.033707
H        0.565331     1.453422     4.336882
H        3.428811     0.887556     0.491834
H        2.482990    -0.512734     1.056725
H        3.723234     1.723681     2.740057
H        2.538293     0.456424     3.403880
H        4.058853     0.004636     2.649645
H        3.802929    -2.301114    -2.434933
H        3.186984    -1.096303    -3.640205
H        1.385547    -3.083767    -3.998421
H        2.973522    -3.275049    -4.823565
H        3.653370    -4.219953    -2.403509
H        2.843330    -5.310621    -3.637858
H        0.667687    -4.173740    -2.535599
H        1.415018    -5.609235    -1.737883
H        2.955490    -3.769723    -0.571385
H        1.244785    -4.165920     0.044393
64
ex_0314 frame16 pucker r0:2+r1:4
C       -4.136562    -0.168513    -2.688276
C       -2.655474    -0.258503    -2.319848
P       -2.096791     0.930036    -0.967843
C       -3.322916     0.448321     0.367439
C       -2.795392     0.850207     1.737401
C       -2.893867     2.506033    -1.599212
C       -2.356615     3.713300    -0.844594
Pt       0.049309     0.442577    -0.483349
P        1.223948     1.621633     1.040032
C        2.563600     2.614136     0.182369
C        1.961622     3.647789    -0.760873
C        0.402090     2.941028     2.114566
C        1.344433     3.797230     2.959417
C        2.334587     0.763417     2.284340
C        1.519772     0.054095     3.358351
Se       0.043960    -1.809883     0.188608
C        1.861528    -1.927467    -0.514704
C        2.343906    -1.118806    -1.512739
C        3.775783    -1.117970    -2.008447
C        4.805352    -1.038222    -0.881324
C        5.080571    -2.368056    -0.166203
C        3.997449    -3.444461    -0.282531
C        2.630146    -3.000876     0.230595
Se       1.246096     0.179967    -2.468520
H       -4.372545    -0.959351    -3.430978
H       -4.371571     0.809215    -3.154846
H       -4.783290    -0.330288    -1.803249
H       -2.048018    -0.061856    -3.228138
H       -2.432366    -1.292968    -1.983795
H       -3.452542    -0.654676     0.355664
H       -4.312005     0.921198     0.197163
H       -2.689575     1.951213     1.806696
H       -3.505106     0.514153     2.522182
H       -1.809000     0.374621     1.923564
H       -2.640953     2.623804    -2.674247
H       -3.998141     2.469041    -1.497740
H       -2.650834     3.666366     0.222977
H       -2.776692     4.642443    -1.283723
H       -1.249677     3.752951    -0.921908
H        3.183191     1.910430    -0.411885
H        3.233593     3.108665     0.913657
H        1.268567     3.159857    -1.477693
H        2.773368     4.143957    -1.333011
H        1.411467     4.423404    -0.189842
H       -0.320868     2.437638     2.788802
H       -0.186975     3.608644     1.452858
H        2.035646     4.384239     2.324202
H        0.739805     4.521071     3.545275
H        1.912832     3.181264     3.682635
H        3.043365     1.474991     2.753006
H        2.935643     0.006379     1.740032
H        2.199257    -0.537068     4.007488
H        0.984358     0.790298     3.991917
H        0.783656    -0.634888     2.895809
H        3.934939    -0.231171    -2.659175
H        3.971889    -1.996068    -2.657878
H        5.764037    -0.657184    -1.297320
H        4.465900    -0.284385    -0.138746
H        5.276027    -2.164008     0.909581
H        6.018434    -2.799474    -0.580000
H        3.910047    -3.812277    -1.326406
H        4.325642    -4.317074     0.323944
H        2.752955    -2.614912     1.265974
H        2.003334    -3.915765     0.307906
64
ex_0314 frame17 cis
C        0.583599     1.927334     2.843103
C        0.670328     0.572109     3.525944
P        1.052739    -0.894472     2.568819
C        0.039452    -2.322316     2.978585
C        0.580316    -3.519726     2.220256
C        2.665584    -1.185802     2.209697
C        3.252595    -1.547035     0.892127
Pt      -0.042677    -0.329278     0.687574
P       -2.277025    -0.101768     0.560391
C       -2.843093    -1.703424     0.050680
C       -2.583232    -1.981074    -1.405405
C       -2.781316     0.341576     2.162090
C       -3.530145    -0.807181     2.832652
C       -2.527797     1.128258    -0.711399
C       -4.027230     1.164069    -0.731556
Se       1.046032     1.593743    -0.134848
C        1.924619     0.825355    -1.659530
C        1.742488    -0.475713    -1.994844
C        2.396892    -1.120590    -3.160320
C        2.041280    -0.480262    -4.468818
C        1.672983     0.976435    -4.333953
C        2.876453     1.700806    -3.813467
C        2.755776     1.853707    -2.320115
Se       0.639094    -1.722765    -1.069857
H        1.552121     2.164613     2.394602
H        0.403967     2.650921     3.672000
H       -0.253910     2.038902     2.157520
H        1.576047     0.680531     4.191385
H       -0.147164     0.390673     4.246043
H        0.362163    -2.422452     4.036572
H       -1.045613    -2.295349     2.890153
H        0.278675    -3.388268     1.157772
H        0.206943    -4.481271     2.571057
H        1.674184    -3.512225     2.243142
H        3.294540    -0.322978     2.575306
H        2.960851    -2.000068     2.931401
H        2.781502    -2.348596     0.333981
H        4.288734    -1.938243     1.117124
H        3.452312    -0.606744     0.345291
H       -3.934773    -1.529031     0.170678
H       -2.469108    -2.572934     0.632791
H       -1.962106    -2.907033    -1.558134
H       -2.027020    -1.175792    -1.915005
H       -3.534057    -2.197640    -1.943916
H       -3.569759     1.136985     2.025704
H       -2.120460     0.749408     2.932607
H       -4.534297    -0.550373     3.165603
H       -3.593069    -1.702159     2.176547
H       -2.982076    -1.167896     3.749654
H       -2.115430     0.874182    -1.702054
H       -2.173800     2.111893    -0.335070
H       -4.494866     0.732190     0.177130
H       -4.362168     0.575197    -1.603875
H       -4.421081     2.209679    -0.790019
H        3.491530    -1.126275    -2.954267
H        2.057351    -2.172224    -3.225855
H        2.942512    -0.531746    -5.113681
H        1.229161    -1.003655    -5.017211
H        1.497165     1.333725    -5.382475
H        0.745906     1.154049    -3.772530
H        3.791212     1.152630    -4.107966
H        2.981636     2.704007    -4.317113
H        3.761054     1.993681    -1.897610
H        2.248175     2.854014    -2.182996
