77
ex_0220 frame0 Isomer 1
F        5.208201     5.333834     5.160666
C        4.521106     4.459939     4.385936
C        4.805809     3.093847     4.449711
C        4.102369     2.190969     3.648064
C        3.106891     2.649400     2.762275
C        2.363071     1.705798     1.885719
N        2.628539     0.433604     2.000509
N        2.071892    -0.621121     1.311029
C        2.403580    -1.969397     1.628456
C        1.815584    -3.007776     0.888136
C        2.114953    -4.344309     1.168364
C        3.004545    -4.659600     2.196164
C        3.595882    -3.637308     2.943896
C        3.303077    -2.295522     2.661795
Fe       0.528720    -0.362162    -0.010199
N        0.838632    -1.085725    -1.900078
C        1.990586    -0.654253    -2.610732
C        2.262659    -1.095091    -3.919136
C        3.411149    -0.650941    -4.586082
C        4.291474     0.234116    -3.956999
C        4.025920     0.676791    -2.660009
C        2.881174     0.235342    -1.991692
N       -0.065755    -1.973702    -2.454181
C       -1.156978    -2.476351    -1.924908
C       -1.970402    -3.408070    -2.755435
C       -3.152508    -3.977896    -2.231249
C       -3.924562    -4.850026    -2.998034
C       -3.533466    -5.170312    -4.297622
F       -4.286410    -6.018207    -5.039617
C       -2.367153    -4.617120    -4.832155
C       -1.587876    -3.741931    -4.069139
N       -1.680733    -2.232258    -0.603784
N       -1.176404    -1.426042     0.379003
C       -1.827424    -1.268056     1.632682
C       -3.019307    -1.952288     1.937217
C       -3.634523    -1.776636     3.182606
C       -3.068193    -0.921194     4.131443
C       -1.886654    -0.237060     3.836114
C       -1.269207    -0.408689     2.592088
N        0.595790     1.681043     0.083515
C       -0.394122     2.405071    -0.637788
C       -1.260208     1.707720    -1.494500
C       -2.242342     2.387875    -2.221771
C       -2.370424     3.772808    -2.098478
C       -1.518180     4.478529    -1.244726
C       -0.530655     3.801618    -0.517424
N        1.413862     2.302764     0.988827
C        2.823952     4.030876     2.718711
C        3.528174     4.926124     3.523732
H        5.575173     2.731818     5.118471
H        4.346473     1.138192     3.716185
H        1.124425    -2.788164     0.090473
H        1.656032    -5.135699     0.588263
H        3.233682    -5.695864     2.412948
H        4.281370    -3.887254     3.743312
H        3.769424    -1.522289     3.256768
H        1.595524    -1.781236    -4.423639
H        3.620530    -0.993326    -5.591051
H        5.179610     0.576274    -4.472848
H        4.707518     1.361139    -2.170455
H        2.696713     0.585840    -0.989116
H       -3.491407    -3.754315    -1.227476
H       -4.827831    -5.275825    -2.579524
H       -2.064837    -4.865635    -5.840398
H       -0.690066    -3.327662    -4.509312
H       -3.475218    -2.618953     1.217753
H       -4.551105    -2.304326     3.413308
H       -3.545072    -0.787981     5.094690
H       -1.449527     0.426340     4.572030
H       -0.356281     0.129650     2.379079
H       -1.179833     0.636044    -1.599408
H       -2.904884     1.840738    -2.880939
H       -3.131335     4.297967    -2.662599
H       -1.624044     5.551428    -1.147410
H        0.115141     4.368160     0.139881
H        2.061635     4.428686     2.060840
H        3.302498     5.983462     3.473114
77
ex_0220 frame1 Isomer 2
F       -0.370009     3.778135    -7.804308
C       -0.267644     3.089180    -6.641942
C        0.797912     3.335937    -5.772143
C        0.909806     2.624729    -4.573961
C       -0.046070     1.650800    -4.233633
C        0.060865     0.876844    -2.967478
N        1.023529     1.157983    -2.134883
N        1.274835     0.621822    -0.882298
C        2.421896     1.041923    -0.150909
C        2.725173     0.429567     1.073134
C        3.854666     0.803783     1.801670
C        4.691963     1.810259     1.321572
C        4.397928     2.442166     0.110533
C        3.268392     2.063699    -0.625201
Fe      -0.035689    -0.658795     0.032116
N       -0.295512    -0.085444     1.982599
C       -1.195998     1.019673     2.130017
C       -1.800647     1.350482     3.363417
C       -2.660523     2.458018     3.458774
C       -2.923377     3.245443     2.334937
C       -2.346391     2.916987     1.107900
C       -1.493583     1.810277     1.005283
N       -0.145868    -0.988959     3.007129
C        0.390966    -2.176386     2.966371
C        0.385647    -2.963474     4.234816
C        0.975447    -4.242866     4.283792
C        1.006050    -4.967347     5.478287
C        0.439084    -4.435533     6.637645
F        0.483369    -5.136357     7.797238
C       -0.173353    -3.181705     6.601763
C       -0.206294    -2.450473     5.410709
N        0.989129    -2.800324     1.812785
N        0.975462    -2.375067     0.503164
C        1.548491    -3.170873    -0.526189
C        1.582524    -2.681677    -1.838643
C        2.155741    -3.433455    -2.865779
C        2.694353    -4.691527    -2.593094
C        2.657301    -5.198598    -1.291508
C        2.085818    -4.445258    -0.259448
N       -1.122133    -0.902389    -1.683706
C       -2.317135    -1.677696    -1.529367
C       -3.162369    -1.978224    -2.615481
C       -4.305001    -2.772308    -2.428746
C       -4.628652    -3.257092    -1.158866
C       -3.816666    -2.942118    -0.068310
C       -2.666438    -2.160051    -0.250986
N       -0.932628    -0.127198    -2.786132
C       -1.120626     1.416482    -5.121987
C       -1.228033     2.132383    -6.314190
H        1.541160     4.079236    -6.025157
H        1.743384     2.835562    -3.917254
H        2.108408    -0.354854     1.461992
H        4.081357     0.307139     2.736739
H        5.568788     2.096933     1.887192
H        5.049189     3.222741    -0.259704
H        3.065370     2.565056    -1.562239
H       -1.621519     0.758163     4.249656
H       -3.122999     2.712493     4.405011
H       -3.577381     4.107415     2.412440
H       -2.558005     3.523836     0.235390
H       -1.064460     1.574428     0.042989
H        1.426396    -4.683681     3.404819
H        1.477104    -5.941308     5.503606
H       -0.618460    -2.771320     7.499416
H       -0.687983    -1.480534     5.418336
H        1.187451    -1.710885    -2.071276
H        2.186377    -3.035603    -3.872101
H        3.142249    -5.270742    -3.389914
H        3.075489    -6.174420    -1.082148
H        2.070851    -4.857312     0.741070
H       -2.933819    -1.617668    -3.607840
H       -4.940170    -3.018654    -3.270329
H       -5.509434    -3.874970    -1.019441
H       -4.078251    -3.310971     0.917393
H       -2.055022    -1.929010     0.611017
H       -1.888379     0.684326    -4.901331
H       -2.058332     1.941316    -6.982859
