38
ex_0091 frame0 TBP-5-chelate-1
Zn       0.000000     0.000000     0.000000
O        1.879406     0.000000     0.047275
C        2.419002    -0.000006     1.470739
C        1.390865    -0.000005     2.470783
C        1.597831    -0.000010     3.830516
C        2.872486    -0.000018     4.353508
Br       3.120741    -0.000023     6.233783
C        3.930858    -0.000021     3.465838
C        3.722296    -0.000013     2.127648
Br       5.312859    -0.000012     1.037884
C        0.391840    -0.000008     4.663270
C       -0.845284    -0.000004     4.189387
C       -1.000011    -0.000001     2.677399
N        0.048533     0.000000     1.929390
H        4.914672    -0.000037     3.888155
H        0.555745    -0.000004     5.715187
H       -1.732987     0.000000     4.798066
H       -1.964780     0.000003     2.226623
O       -0.939703     1.627613    -0.047275
C       -1.209506     2.094913    -1.470739
C       -0.695436     1.204522    -2.470783
C       -0.798924     1.383758    -3.830516
C       -1.436258     2.487637    -4.353508
Br      -1.560390     2.702630    -6.233783
C       -1.965447     3.404212    -3.465838
C       -1.861159     3.223596    -2.127648
Br      -2.656440     4.601065    -1.037884
C       -0.195927     0.339339    -4.663270
C        0.422638    -0.732039    -4.189387
C        0.500005    -0.866035    -2.677399
N       -0.024266     0.042030    -1.929390
H       -2.457368     4.256212    -3.888155
H       -0.277876     0.481288    -5.715187
H        0.866493    -1.500811    -4.798066
H        0.982393    -1.701548    -2.226623
O       -0.940000    -1.628128     0.000000
H       -1.892682    -1.451043     0.000000
H       -0.310299    -2.364632     0.000000
38
ex_0091 frame1 TBP-5-chelate-1-reembed1
Zn       0.000000     0.000000     0.000000
O        1.879406     0.000000     0.047275
C        2.419002    -0.000006     1.470739
C        1.390865    -0.000005     2.470783
C        1.597831    -0.000010     3.830516
C        2.872486    -0.000018     4.353508
Br       3.120741    -0.000023     6.233783
C        3.930858    -0.000021     3.465838
C        3.722296    -0.000013     2.127648
Br       5.312859    -0.000012     1.037884
C        0.391840    -0.000008     4.663270
C       -0.845284    -0.000004     4.189387
C       -1.000011    -0.000001     2.677399
N        0.048533     0.000000     1.929390
H        4.914672    -0.000037     3.888155
H        0.555745    -0.000004     5.715187
H       -1.732987     0.000000     4.798066
H       -1.964780     0.000003     2.226623
O       -0.939703     1.627613    -0.047275
C       -1.209506     2.094913    -1.470739
C       -0.695436     1.204522    -2.470783
C       -0.798924     1.383758    -3.830516
C       -1.436258     2.487637    -4.353508
Br      -1.560390     2.702630    -6.233783
C       -1.965447     3.404212    -3.465838
C       -1.861159     3.223596    -2.127648
Br      -2.656440     4.601065    -1.037884
C       -0.195927     0.339339    -4.663270
C        0.422638    -0.732039    -4.189387
C        0.500005    -0.866035    -2.677399
N       -0.024266     0.042030    -1.929390
H       -2.457368     4.256212    -3.888155
H       -0.277876     0.481288    -5.715187
H        0.866493    -1.500811    -4.798066
H        0.982393    -1.701548    -2.226623
O       -0.940000    -1.628128     0.000000
H       -0.607678    -2.509030    -0.229206
H       -1.869044    -1.780780     0.229206
38
ex_0091 frame2 TBP-5-chelate-2
Zn       0.000000     0.000000     0.000000
O        1.879406     0.000000     0.047275
C        2.419002    -0.000006     1.470739
C        1.390865    -0.000005     2.470783
C        1.597831    -0.000010     3.830516
C        2.872486    -0.000018     4.353508
Br       3.120741    -0.000023     6.233783
C        3.930858    -0.000021     3.465838
C        3.722296    -0.000013     2.127648
Br       5.312859    -0.000012     1.037884
C        0.391840    -0.000008     4.663270
C       -0.845284    -0.000004     4.189387
C       -1.000011    -0.000001     2.677399
N        0.048533     0.000000     1.929390
H        4.914672    -0.000037     3.888155
H        0.555745    -0.000004     5.715187
H       -1.732987     0.000000     4.798066
H       -1.964780     0.000003     2.226623
O       -0.023638     0.040942    -1.879406
C       -0.735365     1.273701    -2.419002
C       -1.235387     2.139763    -1.390865
C       -1.915250     3.317328    -1.597831
C       -2.176738     3.770257    -2.872486
Br      -3.116872     5.398626    -3.120741
C       -1.732900     3.001515    -3.930858
C       -1.063811     1.842603    -3.722296
Br      -0.518931     0.898840    -5.312859
C       -2.331628     4.038515    -0.391840
C       -2.094690     3.628118     0.845284
C       -1.338699     2.318696     1.000011
N       -0.964695     1.670900    -0.048533
H       -1.944045     3.367259    -4.914672
H       -2.857591     4.949499    -0.555745
H       -2.399033     4.155247     1.732987
H       -1.113314     1.928310     1.964780
O       -0.940000    -1.628128     0.000000
H       -1.892682    -1.451043     0.000000
H       -0.310299    -2.364632     0.000000
38
ex_0091 frame3 TBP-5-chelate-2-reembed1
Zn       0.000000     0.000000     0.000000
O        1.879406     0.000000     0.047275
C        2.419002    -0.000006     1.470739
C        1.390865    -0.000005     2.470783
C        1.597831    -0.000010     3.830516
C        2.872486    -0.000018     4.353508
Br       3.120741    -0.000023     6.233783
C        3.930858    -0.000021     3.465838
C        3.722296    -0.000013     2.127648
Br       5.312859    -0.000012     1.037884
C        0.391840    -0.000008     4.663270
C       -0.845284    -0.000004     4.189387
C       -1.000011    -0.000001     2.677399
N        0.048533     0.000000     1.929390
H        4.914672    -0.000037     3.888155
H        0.555745    -0.000004     5.715187
H       -1.732987     0.000000     4.798066
H       -1.964780     0.000003     2.226623
O       -0.023638     0.040942    -1.879406
C       -0.735365     1.273701    -2.419002
C       -1.235387     2.139763    -1.390865
C       -1.915250     3.317328    -1.597831
C       -2.176738     3.770257    -2.872486
Br      -3.116872     5.398626    -3.120741
C       -1.732900     3.001515    -3.930858
C       -1.063811     1.842603    -3.722296
Br      -0.518931     0.898840    -5.312859
C       -2.331628     4.038515    -0.391840
C       -2.094690     3.628118     0.845284
C       -1.338699     2.318696     1.000011
N       -0.964695     1.670900    -0.048533
H       -1.944045     3.367259    -4.914672
H       -2.857591     4.949499    -0.555745
H       -2.399033     4.155247     1.732987
H       -1.113314     1.928310     1.964780
O       -0.940000    -1.628128     0.000000
H       -0.607678    -2.509030    -0.229206
H       -1.869044    -1.780780     0.229206
38
ex_0091 frame4 TBP-5-chelate-3
Zn       0.000000     0.000000     0.000000
O        1.879406     0.000000     0.047275
C        2.419002    -0.000006     1.470739
C        1.390865    -0.000005     2.470783
C        1.597831    -0.000010     3.830516
C        2.872486    -0.000018     4.353508
Br       3.120741    -0.000023     6.233783
C        3.930858    -0.000021     3.465838
C        3.722296    -0.000013     2.127648
Br       5.312859    -0.000012     1.037884
C        0.391840    -0.000008     4.663270
C       -0.845284    -0.000004     4.189387
C       -1.000011    -0.000001     2.677399
N        0.048533     0.000000     1.929390
H        4.914672    -0.000037     3.888155
H        0.555745    -0.000004     5.715187
H       -1.732987     0.000000     4.798066
H       -1.964780     0.000003     2.226623
O       -0.939703    -1.627613    -0.047275
C       -1.209495    -2.094920    -1.470739
C       -0.695429    -1.204527    -2.470783
C       -0.798907    -1.383767    -3.830516
C       -1.436228    -2.487655    -4.353508
Br      -1.560351    -2.702653    -6.233783
C       -1.965410    -3.404233    -3.465838
C       -1.861136    -3.223610    -2.127648
Br      -2.656419    -4.601077    -1.037884
C       -0.195913    -0.339348    -4.663270
C        0.422645     0.732035    -4.189387
C        0.500006     0.866035    -2.677399
N       -0.024266    -0.042030    -1.929390
H       -2.457304    -4.256249    -3.888155
H       -0.277870    -0.481291    -5.715187
H        0.866493     1.500811    -4.798066
H        0.982388     1.701551    -2.226623
O       -0.940000     1.628128     0.000000
H       -0.310299     2.364632     0.000000
H       -1.892682     1.451043     0.000000
38
ex_0091 frame5 TBP-5-chelate-3-reembed1
Zn       0.000000     0.000000     0.000000
O        1.879406     0.000000     0.047275
C        2.419002    -0.000006     1.470739
C        1.390865    -0.000005     2.470783
C        1.597831    -0.000010     3.830516
C        2.872486    -0.000018     4.353508
Br       3.120741    -0.000023     6.233783
C        3.930858    -0.000021     3.465838
C        3.722296    -0.000013     2.127648
Br       5.312859    -0.000012     1.037884
C        0.391840    -0.000008     4.663270
C       -0.845284    -0.000004     4.189387
C       -1.000011    -0.000001     2.677399
N        0.048533     0.000000     1.929390
H        4.914672    -0.000037     3.888155
H        0.555745    -0.000004     5.715187
H       -1.732987     0.000000     4.798066
H       -1.964780     0.000003     2.226623
O       -0.939703    -1.627613    -0.047275
C       -1.209495    -2.094920    -1.470739
C       -0.695429    -1.204527    -2.470783
C       -0.798907    -1.383767    -3.830516
C       -1.436228    -2.487655    -4.353508
Br      -1.560351    -2.702653    -6.233783
C       -1.965410    -3.404233    -3.465838
C       -1.861136    -3.223610    -2.127648
Br      -2.656419    -4.601077    -1.037884
C       -0.195913    -0.339348    -4.663270
C        0.422645     0.732035    -4.189387
C        0.500006     0.866035    -2.677399
N       -0.024266    -0.042030    -1.929390
H       -2.457304    -4.256249    -3.888155
H       -0.277870    -0.481291    -5.715187
H        0.866493     1.500811    -4.798066
H        0.982388     1.701551    -2.226623
O       -0.940000     1.628128     0.000000
H       -1.490020     1.999610    -0.706003
H       -0.986703     2.290200     0.706003
38
ex_0091 frame6 TBP-5-chelate-4
Zn       0.000000     0.000000     0.000000
O        1.879406     0.000000     0.047275
C        2.419002    -0.000006     1.470739
C        1.390865    -0.000005     2.470783
C        1.597831    -0.000010     3.830516
C        2.872486    -0.000018     4.353508
Br       3.120741    -0.000023     6.233783
C        3.930858    -0.000021     3.465838
C        3.722296    -0.000013     2.127648
Br       5.312859    -0.000012     1.037884
C        0.391840    -0.000008     4.663270
C       -0.845284    -0.000004     4.189387
C       -1.000011    -0.000001     2.677399
N        0.048533     0.000000     1.929390
H        4.914672    -0.000037     3.888155
H        0.555745    -0.000004     5.715187
H       -1.732987     0.000000     4.798066
H       -1.964780     0.000003     2.226623
O       -0.023638    -0.040942    -1.879406
C       -0.735375    -1.273694    -2.419002
C       -1.235395    -2.139758    -1.390865
C       -1.915266    -3.317319    -1.597831
C       -2.176769    -3.770240    -2.872486
Br      -3.116911    -5.398603    -3.120741
C       -1.732937    -3.001493    -3.930858
C       -1.063835    -1.842590    -3.722296
Br      -0.518953    -0.898828    -5.312859
C       -2.331642    -4.038506    -0.391840
C       -2.094697    -3.628114     0.845284
C       -1.338700    -2.318695     1.000011
N       -0.964695    -1.670900    -0.048533
H       -1.944109    -3.367222    -4.914672
H       -2.857597    -4.949496    -0.555745
H       -2.399033    -4.155247     1.732987
H       -1.113309    -1.928313     1.964780
O       -0.940000     1.628128     0.000000
H       -0.310299     2.364632     0.000000
H       -1.892682     1.451043     0.000000
38
ex_0091 frame7 TBP-5-chelate-4-reembed1
Zn       0.000000     0.000000     0.000000
O        1.879406     0.000000     0.047275
C        2.419002    -0.000006     1.470739
C        1.390865    -0.000005     2.470783
C        1.597831    -0.000010     3.830516
C        2.872486    -0.000018     4.353508
Br       3.120741    -0.000023     6.233783
C        3.930858    -0.000021     3.465838
C        3.722296    -0.000013     2.127648
Br       5.312859    -0.000012     1.037884
C        0.391840    -0.000008     4.663270
C       -0.845284    -0.000004     4.189387
C       -1.000011    -0.000001     2.677399
N        0.048533     0.000000     1.929390
H        4.914672    -0.000037     3.888155
H        0.555745    -0.000004     5.715187
H       -1.732987     0.000000     4.798066
H       -1.964780     0.000003     2.226623
O       -0.023638    -0.040942    -1.879406
C       -0.735375    -1.273694    -2.419002
C       -1.235395    -2.139758    -1.390865
C       -1.915266    -3.317319    -1.597831
C       -2.176769    -3.770240    -2.872486
Br      -3.116911    -5.398603    -3.120741
C       -1.732937    -3.001493    -3.930858
C       -1.063835    -1.842590    -3.722296
Br      -0.518953    -0.898828    -5.312859
C       -2.331642    -4.038506    -0.391840
C       -2.094697    -3.628114     0.845284
C       -1.338700    -2.318695     1.000011
N       -0.964695    -1.670900    -0.048533
H       -1.944109    -3.367222    -4.914672
H       -2.857597    -4.949496    -0.555745
H       -2.399033    -4.155247     1.732987
H       -1.113309    -1.928313     1.964780
O       -0.940000     1.628128     0.000000
H       -1.490020     1.999610    -0.706003
H       -0.986703     2.290200     0.706003
38
ex_0091 frame8 TBP-5-chelate-5
Zn       0.000000     0.000000     0.000000
O        0.047275     0.000000     1.879406
C        1.470739     0.000006     2.419002
C        2.470783     0.000005     1.390865
C        3.830516     0.000010     1.597831
C        4.353508     0.000018     2.872486
Br       6.233783     0.000023     3.120741
C        3.465838     0.000021     3.930858
C        2.127648     0.000013     3.722296
Br       1.037884     0.000012     5.312859
C        4.663270     0.000008     0.391840
C        4.189387     0.000004    -0.845284
C        2.677399     0.000001    -1.000011
N        1.929390     0.000000     0.048533
H        3.888155     0.000037     4.914672
H        5.715187     0.000004     0.555745
H        4.798066     0.000000    -1.732987
H        2.226623    -0.000003    -1.964780
O       -0.023638     0.040942    -1.879406
C       -0.735365     1.273701    -2.419002
C       -1.235387     2.139763    -1.390865
C       -1.915250     3.317328    -1.597831
C       -2.176738     3.770257    -2.872486
Br      -3.116872     5.398626    -3.120741
C       -1.732900     3.001515    -3.930858
C       -1.063811     1.842603    -3.722296
Br      -0.518931     0.898840    -5.312859
C       -2.331628     4.038515    -0.391840
C       -2.094690     3.628118     0.845284
C       -1.338699     2.318696     1.000011
N       -0.964695     1.670900    -0.048533
H       -1.944045     3.367259    -4.914672
H       -2.857591     4.949499    -0.555745
H       -2.399033     4.155247     1.732987
H       -1.113314     1.928310     1.964780
O       -0.940000    -1.628128     0.000000
H       -1.892682    -1.451043     0.000000
H       -0.310299    -2.364632     0.000000
38
ex_0091 frame9 TBP-5-chelate-5-reembed1
Zn       0.000000     0.000000     0.000000
O        0.047275     0.000000     1.879406
C        1.470739     0.000006     2.419002
C        2.470783     0.000005     1.390865
C        3.830516     0.000010     1.597831
C        4.353508     0.000018     2.872486
Br       6.233783     0.000023     3.120741
C        3.465838     0.000021     3.930858
C        2.127648     0.000013     3.722296
Br       1.037884     0.000012     5.312859
C        4.663270     0.000008     0.391840
C        4.189387     0.000004    -0.845284
C        2.677399     0.000001    -1.000011
N        1.929390     0.000000     0.048533
H        3.888155     0.000037     4.914672
H        5.715187     0.000004     0.555745
H        4.798066     0.000000    -1.732987
H        2.226623    -0.000003    -1.964780
O       -0.023638     0.040942    -1.879406
C       -0.735365     1.273701    -2.419002
C       -1.235387     2.139763    -1.390865
C       -1.915250     3.317328    -1.597831
C       -2.176738     3.770257    -2.872486
Br      -3.116872     5.398626    -3.120741
C       -1.732900     3.001515    -3.930858
C       -1.063811     1.842603    -3.722296
Br      -0.518931     0.898840    -5.312859
C       -2.331628     4.038515    -0.391840
C       -2.094690     3.628118     0.845284
C       -1.338699     2.318696     1.000011
N       -0.964695     1.670900    -0.048533
H       -1.944045     3.367259    -4.914672
H       -2.857591     4.949499    -0.555745
H       -2.399033     4.155247     1.732987
H       -1.113314     1.928310     1.964780
O       -0.940000    -1.628128     0.000000
H       -0.607678    -2.509030    -0.229206
H       -1.869044    -1.780780     0.229206
38
ex_0091 frame10 TBP-5-chelate-6
Zn       0.000000     0.000000     0.000000
O        0.047275     0.000000     1.879406
C        1.470739     0.000006     2.419002
C        2.470783     0.000005     1.390865
C        3.830516     0.000010     1.597831
C        4.353508     0.000018     2.872486
Br       6.233783     0.000023     3.120741
C        3.465838     0.000021     3.930858
C        2.127648     0.000013     3.722296
Br       1.037884     0.000012     5.312859
C        4.663270     0.000008     0.391840
C        4.189387     0.000004    -0.845284
C        2.677399     0.000001    -1.000011
N        1.929390     0.000000     0.048533
H        3.888155     0.000037     4.914672
H        5.715187     0.000004     0.555745
H        4.798066     0.000000    -1.732987
H        2.226623    -0.000003    -1.964780
O       -0.023638    -0.040942    -1.879406
C       -0.735375    -1.273694    -2.419002
C       -1.235395    -2.139758    -1.390865
C       -1.915266    -3.317319    -1.597831
C       -2.176769    -3.770240    -2.872486
Br      -3.116911    -5.398603    -3.120741
C       -1.732937    -3.001493    -3.930858
C       -1.063835    -1.842590    -3.722296
Br      -0.518953    -0.898828    -5.312859
C       -2.331642    -4.038506    -0.391840
C       -2.094697    -3.628114     0.845284
C       -1.338700    -2.318695     1.000011
N       -0.964695    -1.670900    -0.048533
H       -1.944109    -3.367222    -4.914672
H       -2.857597    -4.949496    -0.555745
H       -2.399033    -4.155247     1.732987
H       -1.113309    -1.928313     1.964780
O       -0.940000     1.628128     0.000000
H       -0.310299     2.364632     0.000000
H       -1.892682     1.451043     0.000000
38
ex_0091 frame11 TBP-5-chelate-6-reembed1
Zn       0.000000     0.000000     0.000000
O        0.047275     0.000000     1.879406
C        1.470739     0.000006     2.419002
C        2.470783     0.000005     1.390865
C        3.830516     0.000010     1.597831
C        4.353508     0.000018     2.872486
Br       6.233783     0.000023     3.120741
C        3.465838     0.000021     3.930858
C        2.127648     0.000013     3.722296
Br       1.037884     0.000012     5.312859
C        4.663270     0.000008     0.391840
C        4.189387     0.000004    -0.845284
C        2.677399     0.000001    -1.000011
N        1.929390     0.000000     0.048533
H        3.888155     0.000037     4.914672
H        5.715187     0.000004     0.555745
H        4.798066     0.000000    -1.732987
H        2.226623    -0.000003    -1.964780
O       -0.023638    -0.040942    -1.879406
C       -0.735375    -1.273694    -2.419002
C       -1.235395    -2.139758    -1.390865
C       -1.915266    -3.317319    -1.597831
C       -2.176769    -3.770240    -2.872486
Br      -3.116911    -5.398603    -3.120741
C       -1.732937    -3.001493    -3.930858
C       -1.063835    -1.842590    -3.722296
Br      -0.518953    -0.898828    -5.312859
C       -2.331642    -4.038506    -0.391840
C       -2.094697    -3.628114     0.845284
C       -1.338700    -2.318695     1.000011
N       -0.964695    -1.670900    -0.048533
H       -1.944109    -3.367222    -4.914672
H       -2.857597    -4.949496    -0.555745
H       -2.399033    -4.155247     1.732987
H       -1.113309    -1.928313     1.964780
O       -0.940000     1.628128     0.000000
H       -1.490020     1.999610    -0.706003
H       -0.986703     2.290200     0.706003
