48
ex_0340 frame0 OC-6-chelate-2
Fe       0.000000     0.000000     0.000000
N       -1.859372    -1.027489     0.154602
C       -2.084591    -1.137495     1.394715
C       -1.218799    -0.630804     2.486676
N        0.000137     0.069093     2.128879
C       -0.000931     1.482183     2.429914
C       -0.009957     2.446766     1.297162
N       -0.015336     2.128824     0.069093
C       -0.023335     2.979535    -0.911205
C       -0.025812     4.253765    -0.512008
S       -0.015655     4.246630     1.319659
C        1.214955    -0.631496     2.481550
C        2.074188    -1.145847     1.395679
N        1.850803    -1.042826     0.154739
C        2.615888    -1.500021    -0.784775
C        3.712040    -2.118382    -0.332186
S        3.643836    -2.043442     1.497040
S       -3.658898    -2.028865     1.504342
C       -3.729086    -2.093120    -0.323292
C       -2.629824    -1.477507    -0.786150
H       -0.881397    -1.459840     3.147023
H       -1.816749     0.109162     3.090624
H       -0.957523     1.635158     2.982981
H        0.798638     1.682916     3.154680
H       -0.028315     2.764231    -2.000137
H       -0.032472     5.131697    -1.134251
H        1.829963     0.040919     3.112557
H        0.896980    -1.501677     3.088278
H        2.463785    -1.434983    -1.882878
H        4.487577    -2.573186    -0.893135
H       -4.509741    -2.542637    -0.911799
H       -2.479925    -1.408178    -1.883563
O       -1.317060    -4.125950    -0.302712
S        0.000000    -3.549295     0.000000
O        1.081899    -4.125938    -0.809811
O        0.000000    -2.080000     0.000000
C        0.372577    -4.049942     1.762589
F        1.584349    -3.584913     2.206890
F       -0.555837    -3.585040     2.659226
F        0.409479    -5.410219     1.936747
O        0.000000     0.000000    -2.080000
S       -0.000000     0.000000    -3.549294
O       -1.053988     0.845823    -4.125927
O        0.035231    -1.350939    -4.125933
C        1.614035     0.800276    -4.049929
F        2.713800     0.124910    -3.584715
F        1.773673     0.879103    -5.410202
F        1.742019     2.084676    -3.585187
48
ex_0340 frame1 OC-6-chelate-2-beta
Fe       0.000000     0.000000     0.000000
N        1.859754     0.166126    -1.024997
C        2.088334     1.407658    -1.134038
C        1.221569     2.496517    -0.624728
N        0.007731     2.128769     0.071987
C        0.002292     2.434575     1.487389
C        0.011663     1.299018     2.451021
N        0.017705     0.071987     2.128710
C        0.026056    -0.911295     2.979243
C        0.028222    -0.516171     4.253266
S        0.016945     1.317411     4.249543
C       -1.214561     2.480495    -0.625372
C       -2.081834     1.398360    -1.146666
N       -1.850563     0.158395    -1.042702
C       -2.611969    -0.781474    -1.499923
C       -3.711635    -0.334579    -2.118519
S       -3.646617     1.495411    -2.040221
S        3.660514     1.513102    -2.023455
C        3.728878    -0.317139    -2.090667
C        2.631892    -0.773442    -1.477763
H        0.917548     3.207513    -1.444645
H        1.809918     3.114931     0.111530
H       -0.818139     3.137464     1.658424
H        0.989748     2.952537     1.646305
H        0.031634    -1.999048     2.759446
H        0.035230    -1.144354     5.131023
H       -1.814885     3.027672     0.158341
H       -0.973124     3.245706    -1.372160
H       -2.457667    -1.880465    -1.436779
H       -4.485387    -0.895577    -2.573449
H        4.508840    -0.875799    -2.540252
H        2.482108    -1.870483    -1.411005
O        0.109485    -4.125927    -1.346966
S        0.000000    -3.549283     0.000000
O       -1.098915    -4.125944     0.786551
O        0.000000    -2.080000     0.000000
C        1.567573    -4.049918     0.887843
F        2.702845    -3.585158     0.273693
F        1.624945    -3.584710     2.177158
F        1.722379    -5.410191     0.975819
O        0.000000     0.000000    -2.080000
S        0.000000     0.000000    -3.549294
O        0.845823     1.053988    -4.125927
O       -1.350939    -0.035231    -4.125933
C        0.800276    -1.614035    -4.049929
F        0.124910    -2.713800    -3.584715
F        0.879103    -1.773673    -5.410202
F        2.084676    -1.742019    -3.585187
48
ex_0340 frame2 OC-6-chelate-2-conf1
Fe       0.000000     0.000000     0.000000
N       -1.859372    -1.027489     0.154602
C       -2.084591    -1.137495     1.394715
C       -1.218799    -0.630804     2.486676
N        0.000137     0.069093     2.128879
C       -0.000931     1.482183     2.429914
C       -0.009957     2.446766     1.297162
N       -0.015336     2.128824     0.069093
C       -0.023335     2.979535    -0.911205
C       -0.025812     4.253765    -0.512008
S       -0.015655     4.246630     1.319659
C        1.214955    -0.631496     2.481550
C        2.074188    -1.145847     1.395679
N        1.850803    -1.042826     0.154739
C        2.615888    -1.500021    -0.784775
C        3.712040    -2.118382    -0.332186
S        3.643836    -2.043442     1.497040
S       -3.658898    -2.028865     1.504342
C       -3.729086    -2.093120    -0.323292
C       -2.629824    -1.477507    -0.786150
H       -0.881397    -1.459840     3.147023
H       -1.816749     0.109162     3.090624
H       -0.957523     1.635158     2.982981
H        0.798638     1.682916     3.154680
H       -0.028315     2.764231    -2.000137
H       -0.032472     5.131697    -1.134251
H        1.829963     0.040919     3.112557
H        0.896980    -1.501677     3.088278
H        2.463785    -1.434983    -1.882878
H        4.487577    -2.573186    -0.893135
H       -4.509741    -2.542637    -0.911799
H       -2.479925    -1.408178    -1.883563
O       -1.317060    -4.125950    -0.302712
S        0.000000    -3.549295     0.000000
O        1.081899    -4.125938    -0.809811
O        0.000000    -2.080000     0.000000
C        0.372577    -4.049942     1.762589
F        1.584349    -3.584913     2.206890
F       -0.555837    -3.585040     2.659226
F        0.409479    -5.410219     1.936747
O        0.000000     0.000000    -2.080000
S        0.000000     0.000000    -3.549290
O       -1.131907    -0.738298    -4.125938
O        0.167641     1.340966    -4.125947
C        1.527697    -0.954828    -4.049915
F        1.678741    -1.049137    -5.410185
F        2.688475    -0.390572    -3.584883
F        1.529064    -2.245527    -3.585004
48
ex_0340 frame3 OC-6-chelate-2-conf2
Fe       0.000000     0.000000     0.000000
N       -1.859372    -1.027489     0.154602
C       -2.084591    -1.137495     1.394715
C       -1.218799    -0.630804     2.486676
N        0.000137     0.069093     2.128879
C       -0.000931     1.482183     2.429914
C       -0.009957     2.446766     1.297162
N       -0.015336     2.128824     0.069093
C       -0.023335     2.979535    -0.911205
C       -0.025812     4.253765    -0.512008
S       -0.015655     4.246630     1.319659
C        1.214955    -0.631496     2.481550
C        2.074188    -1.145847     1.395679
N        1.850803    -1.042826     0.154739
C        2.615888    -1.500021    -0.784775
C        3.712040    -2.118382    -0.332186
S        3.643836    -2.043442     1.497040
S       -3.658898    -2.028865     1.504342
C       -3.729086    -2.093120    -0.323292
C       -2.629824    -1.477507    -0.786150
H       -0.881397    -1.459840     3.147023
H       -1.816749     0.109162     3.090624
H       -0.957523     1.635158     2.982981
H        0.798638     1.682916     3.154680
H       -0.028315     2.764231    -2.000137
H       -0.032472     5.131697    -1.134251
H        1.829963     0.040919     3.112557
H        0.896980    -1.501677     3.088278
H        2.463785    -1.434983    -1.882878
H        4.487577    -2.573186    -0.893135
H       -4.509741    -2.542637    -0.911799
H       -2.479925    -1.408178    -1.883563
O       -1.317060    -4.125950    -0.302712
S        0.000000    -3.549295     0.000000
O        1.081899    -4.125938    -0.809811
O        0.000000    -2.080000     0.000000
C        0.372577    -4.049942     1.762589
F        1.584349    -3.584913     2.206890
F       -0.555837    -3.585040     2.659226
F        0.409479    -5.410219     1.936747
O        0.000000     0.000000    -2.080000
S        0.000000     0.000000    -3.549292
O       -0.103657     1.347420    -4.125944
O        1.095495    -0.791317    -4.125941
C       -1.571409    -0.881059    -4.049928
F       -1.634115    -2.170293    -3.585187
F       -1.726836    -0.967892    -5.410202
F       -2.704016    -0.262319    -3.584734
48
ex_0340 frame4 OC-6-chelate-2-conf3
Fe       0.000000     0.000000     0.000000
N       -1.859372    -1.027489     0.154602
C       -2.084591    -1.137495     1.394715
C       -1.218799    -0.630804     2.486676
N        0.000137     0.069093     2.128879
C       -0.000931     1.482183     2.429914
C       -0.009957     2.446766     1.297162
N       -0.015336     2.128824     0.069093
C       -0.023335     2.979535    -0.911205
C       -0.025812     4.253765    -0.512008
S       -0.015655     4.246630     1.319659
C        1.214955    -0.631496     2.481550
C        2.074188    -1.145847     1.395679
N        1.850803    -1.042826     0.154739
C        2.615888    -1.500021    -0.784775
C        3.712040    -2.118382    -0.332186
S        3.643836    -2.043442     1.497040
S       -3.658898    -2.028865     1.504342
C       -3.729086    -2.093120    -0.323292
C       -2.629824    -1.477507    -0.786150
H       -0.881397    -1.459840     3.147023
H       -1.816749     0.109162     3.090624
H       -0.957523     1.635158     2.982981
H        0.798638     1.682916     3.154680
H       -0.028315     2.764231    -2.000137
H       -0.032472     5.131697    -1.134251
H        1.829963     0.040919     3.112557
H        0.896980    -1.501677     3.088278
H        2.463785    -1.434983    -1.882878
H        4.487577    -2.573186    -0.893135
H       -4.509741    -2.542637    -0.911799
H       -2.479925    -1.408178    -1.883563
O        1.322038    -4.125941     0.280197
S        0.000000    -3.549292     0.000000
O       -1.067927    -4.125942     0.828142
O        0.000000    -2.080000     0.000000
C       -0.402597    -4.049929    -1.755991
F        0.510192    -3.584734    -2.668378
F       -1.621931    -3.585186    -2.179408
F       -0.442122    -5.410203    -1.929588
O        0.000000     0.000000    -2.080000
S        0.000000     0.000000    -3.549290
O        0.902252     1.006100    -4.125938
O        0.185139    -1.338662    -4.125947
C       -1.722770     0.526896    -4.049915
F       -1.893076     0.578899    -5.410185
F       -2.697955    -0.318565    -3.584883
F       -2.058148     1.773261    -3.585004
48
ex_0340 frame5 OC-6-chelate-2-conf4
Fe       0.000000     0.000000     0.000000
N        1.859754     0.166126    -1.024997
C        2.088334     1.407658    -1.134038
C        1.221569     2.496517    -0.624728
N        0.007731     2.128769     0.071987
C        0.002292     2.434575     1.487389
C        0.011663     1.299018     2.451021
N        0.017705     0.071987     2.128710
C        0.026056    -0.911295     2.979243
C        0.028222    -0.516171     4.253266
S        0.016945     1.317411     4.249543
C       -1.214561     2.480495    -0.625372
C       -2.081834     1.398360    -1.146666
N       -1.850563     0.158395    -1.042702
C       -2.611969    -0.781474    -1.499923
C       -3.711635    -0.334579    -2.118519
S       -3.646617     1.495411    -2.040221
S        3.660514     1.513102    -2.023455
C        3.728878    -0.317139    -2.090667
C        2.631892    -0.773442    -1.477763
H        0.917548     3.207513    -1.444645
H        1.809918     3.114931     0.111530
H       -0.818139     3.137464     1.658424
H        0.989748     2.952537     1.646305
H        0.031634    -1.999048     2.759446
H        0.035230    -1.144354     5.131023
H       -1.814885     3.027672     0.158341
H       -0.973124     3.245706    -1.372160
H       -2.457667    -1.880465    -1.436779
H       -4.485387    -0.895577    -2.573449
H        4.508840    -0.875799    -2.540252
H        2.482108    -1.870483    -1.411005
O       -0.920687    -4.125950     0.989252
S        0.000000    -3.549295     0.000000
O       -0.160367    -4.125938    -1.341858
O        0.000000    -2.080000     0.000000
C        1.712735    -4.049942     0.558633
F        2.703397    -3.584913    -0.268641
F        2.025039    -3.585040     1.810982
F        1.882012    -5.410219     0.613755
O        0.000000     0.000000    -2.080000
S        0.000000     0.000000    -3.549290
O       -1.322434     0.278323    -4.125938
O        1.066746     0.829666    -4.125947
C        0.405080    -1.755411    -4.049915
F        0.445197    -1.928901    -5.410185
F        1.624863    -2.177215    -3.584883
F       -0.506615    -2.669039    -3.585004
48
ex_0340 frame6 OC-6-chelate-2-conf5
Fe       0.000000     0.000000     0.000000
N       -1.859372    -1.027489     0.154602
C       -2.084591    -1.137495     1.394715
C       -1.218799    -0.630804     2.486676
N        0.000137     0.069093     2.128879
C       -0.000931     1.482183     2.429914
C       -0.009957     2.446766     1.297162
N       -0.015336     2.128824     0.069093
C       -0.023335     2.979535    -0.911205
C       -0.025812     4.253765    -0.512008
S       -0.015655     4.246630     1.319659
C        1.214955    -0.631496     2.481550
C        2.074188    -1.145847     1.395679
N        1.850803    -1.042826     0.154739
C        2.615888    -1.500021    -0.784775
C        3.712040    -2.118382    -0.332186
S        3.643836    -2.043442     1.497040
S       -3.658898    -2.028865     1.504342
C       -3.729086    -2.093120    -0.323292
C       -2.629824    -1.477507    -0.786150
H       -0.881397    -1.459840     3.147023
H       -1.816749     0.109162     3.090624
H       -0.957523     1.635158     2.982981
H        0.798638     1.682916     3.154680
H       -0.028315     2.764231    -2.000137
H       -0.032472     5.131697    -1.134251
H        1.829963     0.040919     3.112557
H        0.896980    -1.501677     3.088278
H        2.463785    -1.434983    -1.882878
H        4.487577    -2.573186    -0.893135
H       -4.509741    -2.542637    -0.911799
H       -2.479925    -1.408178    -1.883563
O       -1.317060    -4.125950    -0.302712
S        0.000000    -3.549295     0.000000
O        1.081899    -4.125938    -0.809811
O        0.000000    -2.080000     0.000000
C        0.372577    -4.049942     1.762589
F        1.584349    -3.584913     2.206890
F       -0.555837    -3.585040     2.659226
F        0.409479    -5.410219     1.936747
O        0.000000     0.000000    -2.080000
S        0.000000     0.000000    -3.549292
O       -1.295936     0.383243    -4.125933
O        1.129722     0.741653    -4.125925
C        0.263335    -1.782206    -4.049917
F        1.445888    -2.299988    -3.585654
F       -0.718058    -2.620110    -3.584255
F        0.288511    -1.958454    -5.410190
48
ex_0340 frame7 OC-6-chelate-2-conf6
Fe       0.000000     0.000000     0.000000
N       -1.859372    -1.027489     0.154602
C       -2.084591    -1.137495     1.394715
C       -1.218799    -0.630804     2.486676
N        0.000137     0.069093     2.128879
C       -0.000931     1.482183     2.429914
C       -0.009957     2.446766     1.297162
N       -0.015336     2.128824     0.069093
C       -0.023335     2.979535    -0.911205
C       -0.025812     4.253765    -0.512008
S       -0.015655     4.246630     1.319659
C        1.214955    -0.631496     2.481550
C        2.074188    -1.145847     1.395679
N        1.850803    -1.042826     0.154739
C        2.615888    -1.500021    -0.784775
C        3.712040    -2.118382    -0.332186
S        3.643836    -2.043442     1.497040
S       -3.658898    -2.028865     1.504342
C       -3.729086    -2.093120    -0.323292
C       -2.629824    -1.477507    -0.786150
H       -0.881397    -1.459840     3.147023
H       -1.816749     0.109162     3.090624
H       -0.957523     1.635158     2.982981
H        0.798638     1.682916     3.154680
H       -0.028315     2.764231    -2.000137
H       -0.032472     5.131697    -1.134251
H        1.829963     0.040919     3.112557
H        0.896980    -1.501677     3.088278
H        2.463785    -1.434983    -1.882878
H        4.487577    -2.573186    -0.893135
H       -4.509741    -2.542637    -0.911799
H       -2.479925    -1.408178    -1.883563
O       -1.322038    -4.125941    -0.280197
S        0.000000    -3.549292     0.000000
O        1.067927    -4.125942    -0.828142
O        0.000000    -2.080000     0.000000
C        0.402597    -4.049929     1.755991
F       -0.510192    -3.584734     2.668378
F        1.621931    -3.585186     2.179408
F        0.442122    -5.410203     1.929588
O        0.000000     0.000000    -2.080000
S        0.000000     0.000000    -3.549292
O       -0.103657     1.347420    -4.125944
O        1.095495    -0.791317    -4.125941
C       -1.571409    -0.881059    -4.049928
F       -1.634115    -2.170293    -3.585187
F       -1.726836    -0.967892    -5.410202
F       -2.704016    -0.262319    -3.584734
48
ex_0340 frame8 OC-6-chelate-2-conf7
Fe       0.000000     0.000000     0.000000
N       -1.859372    -1.027489     0.154602
C       -2.084591    -1.137495     1.394715
C       -1.218799    -0.630804     2.486676
N        0.000137     0.069093     2.128879
C       -0.000931     1.482183     2.429914
C       -0.009957     2.446766     1.297162
N       -0.015336     2.128824     0.069093
C       -0.023335     2.979535    -0.911205
C       -0.025812     4.253765    -0.512008
S       -0.015655     4.246630     1.319659
C        1.214955    -0.631496     2.481550
C        2.074188    -1.145847     1.395679
N        1.850803    -1.042826     0.154739
C        2.615888    -1.500021    -0.784775
C        3.712040    -2.118382    -0.332186
S        3.643836    -2.043442     1.497040
S       -3.658898    -2.028865     1.504342
C       -3.729086    -2.093120    -0.323292
C       -2.629824    -1.477507    -0.786150
H       -0.881397    -1.459840     3.147023
H       -1.816749     0.109162     3.090624
H       -0.957523     1.635158     2.982981
H        0.798638     1.682916     3.154680
H       -0.028315     2.764231    -2.000137
H       -0.032472     5.131697    -1.134251
H        1.829963     0.040919     3.112557
H        0.896980    -1.501677     3.088278
H        2.463785    -1.434983    -1.882878
H        4.487577    -2.573186    -0.893135
H       -4.509741    -2.542637    -0.911799
H       -2.479925    -1.408178    -1.883563
O       -1.340457    -4.125927    -0.171722
S        0.000000    -3.549295     0.000000
O        0.997006    -4.125968    -0.912288
O        0.000000    -2.080000     0.000000
C        0.544097    -4.049948     1.717421
F       -0.291130    -3.584261     2.701089
F        0.597065    -5.410227     1.887393
F        1.794077    -3.585707     2.040021
O        0.000000     0.000000    -2.080000
S        0.000000     0.000000    -3.549290
O       -1.131907    -0.738298    -4.125938
O        0.167641     1.340966    -4.125947
C        1.527697    -0.954828    -4.049915
F        1.678741    -1.049137    -5.410185
F        2.688475    -0.390572    -3.584883
F        1.529064    -2.245527    -3.585004
48
ex_0340 frame9 OC-6-chelate-2-conf8
Fe       0.000000     0.000000     0.000000
N        1.859754     0.166126    -1.024997
C        2.088334     1.407658    -1.134038
C        1.221569     2.496517    -0.624728
N        0.007731     2.128769     0.071987
C        0.002292     2.434575     1.487389
C        0.011663     1.299018     2.451021
N        0.017705     0.071987     2.128710
C        0.026056    -0.911295     2.979243
C        0.028222    -0.516171     4.253266
S        0.016945     1.317411     4.249543
C       -1.214561     2.480495    -0.625372
C       -2.081834     1.398360    -1.146666
N       -1.850563     0.158395    -1.042702
C       -2.611969    -0.781474    -1.499923
C       -3.711635    -0.334579    -2.118519
S       -3.646617     1.495411    -2.040221
S        3.660514     1.513102    -2.023455
C        3.728878    -0.317139    -2.090667
C        2.631892    -0.773442    -1.477763
H        0.917548     3.207513    -1.444645
H        1.809918     3.114931     0.111530
H       -0.818139     3.137464     1.658424
H        0.989748     2.952537     1.646305
H        0.031634    -1.999048     2.759446
H        0.035230    -1.144354     5.131023
H       -1.814885     3.027672     0.158341
H       -0.973124     3.245706    -1.372160
H       -2.457667    -1.880465    -1.436779
H       -4.485387    -0.895577    -2.573449
H        4.508840    -0.875799    -2.540252
H        2.482108    -1.870483    -1.411005
O       -0.920687    -4.125950     0.989252
S        0.000000    -3.549295     0.000000
O       -0.160367    -4.125938    -1.341858
O        0.000000    -2.080000     0.000000
C        1.712735    -4.049942     0.558633
F        2.703397    -3.584913    -0.268641
F        2.025039    -3.585040     1.810982
F        1.882012    -5.410219     0.613755
O        0.000000     0.000000    -2.080000
S        0.000000     0.000000    -3.549292
O        1.328336    -0.248613    -4.125944
O       -1.047889    -0.853359    -4.125941
C       -0.444327     1.745900    -4.049928
F       -1.673402     2.140147    -3.585187
F       -0.487974     1.918505    -5.410202
F        0.446470     2.679773    -3.584734
48
ex_0340 frame10 OC-6-chelate-2_mirror
Fe       0.000000     0.000000     0.000000
N       -1.859372    -1.027489    -0.154602
C       -2.084591    -1.137495    -1.394715
C       -1.218799    -0.630804    -2.486676
N        0.000137     0.069093    -2.128879
C       -0.000931     1.482183    -2.429914
C       -0.009957     2.446766    -1.297162
N       -0.015336     2.128824    -0.069093
C       -0.023335     2.979535     0.911205
C       -0.025812     4.253765     0.512008
S       -0.015655     4.246630    -1.319659
C        1.214955    -0.631496    -2.481550
C        2.074188    -1.145847    -1.395679
N        1.850803    -1.042826    -0.154739
C        2.615888    -1.500021     0.784775
C        3.712040    -2.118382     0.332186
S        3.643836    -2.043442    -1.497040
S       -3.658898    -2.028865    -1.504342
C       -3.729086    -2.093120     0.323292
C       -2.629824    -1.477507     0.786150
H       -0.881397    -1.459840    -3.147023
H       -1.816749     0.109162    -3.090624
H       -0.957523     1.635158    -2.982981
H        0.798638     1.682916    -3.154680
H       -0.028315     2.764231     2.000137
H       -0.032472     5.131697     1.134251
H        1.829963     0.040919    -3.112557
H        0.896980    -1.501677    -3.088278
H        2.463785    -1.434983     1.882878
H        4.487577    -2.573186     0.893135
H       -4.509741    -2.542637     0.911799
H       -2.479925    -1.408178     1.883563
O       -1.317060    -4.125950     0.302712
S        0.000000    -3.549295     0.000000
O        1.081899    -4.125938     0.809811
O        0.000000    -2.080000     0.000000
C        0.372577    -4.049942    -1.762589
F        1.584349    -3.584913    -2.206890
F       -0.555837    -3.585040    -2.659226
F        0.409479    -5.410219    -1.936747
O        0.000000     0.000000     2.080000
S        0.000000     0.000000     3.549294
O       -1.053988     0.845823     4.125927
O        0.035231    -1.350939     4.125933
C        1.614035     0.800276     4.049929
F        2.713800     0.124910     3.584715
F        1.773673     0.879103     5.410202
F        1.742019     2.084676     3.585187
