50
ex_0429 frame0 N-trans-conf7
S        2.598470     2.581043     1.935260
As       2.107153     2.094485     0.212923
S        3.240964     3.219478    -1.325797
S        2.442171    -0.092171    -0.000000
Mn       0.000000     0.000000     0.000000
S       -0.092171     2.442171    -0.000000
N       -2.020761     0.000000     0.029239
C       -2.900685     0.015926    -0.913381
C       -4.261640    -0.409294    -0.598700
C       -4.630432    -0.809589     0.609872
C       -3.619927    -0.820737     1.664261
C       -3.918247    -1.224880     2.958501
C       -2.967101    -1.239145     3.965869
C       -1.695550    -0.831453     3.630876
C       -0.646008    -0.822434     4.644947
C        0.565565    -0.424284     4.287609
C        0.899515     0.004083     2.933492
N       -0.029239     0.000000     2.020761
C       -1.357132    -0.421740     2.354762
C       -2.326291    -0.414559     1.357314
N       -0.000000    -2.020761    -0.029239
C        0.021309    -2.902326     0.911740
C       -0.547776    -4.219451     0.640889
C       -1.083497    -4.546982    -0.526423
C       -1.098413    -3.535329    -1.579664
C       -1.639287    -3.791992    -2.832245
C       -1.658379    -2.839374    -3.838143
C       -1.112754    -1.609847    -3.545173
C       -1.100690    -0.561234    -4.560173
C       -0.567840     0.609299    -4.243875
C        0.005459     0.899094    -2.933913
N        0.000000    -0.029239    -2.020761
C       -0.564424    -1.313661    -2.311292
C       -0.554815    -2.283560    -1.314583
H       -2.626745     0.339363    -1.913956
H       -4.979013    -0.384892    -1.412144
H       -5.638800    -1.120683     0.827426
H       -4.942782    -1.530854     3.139682
H       -3.205822    -1.551842     4.959379
H       -0.850352    -1.134526     5.670483
H        1.343272    -0.417832     5.039969
H        1.893747     0.327610     2.652862
H        0.454170    -2.661725     1.878976
H       -0.515125    -4.939339     1.451818
H       -1.499844    -5.523284    -0.711910
H       -2.048779    -4.784987    -2.981888
H       -2.076870    -3.045864    -4.799421
H       -1.518375    -0.733409    -5.553540
H       -0.559212     1.386342    -4.996900
H        0.438441     1.859978    -2.686630
50
ex_0429 frame1 N-trans
S        3.070100     3.077725    -1.012803
As       2.102300     2.084083     0.243221
S        2.670289     2.807346     2.255974
S        2.439779    -0.089779    -0.000000
Mn       0.000000     0.000000     0.000000
S       -0.089779     2.439779     0.000000
N       -2.036645     0.000000     0.013355
C       -2.942406    -0.004351    -0.905594
C       -4.282345     0.519008    -0.658450
C       -4.570715     1.010411     0.543348
C       -3.535454     1.008920     1.574086
C       -3.806129     1.516057     2.841298
C       -2.855201     1.531113     3.837873
C       -1.614516     1.025450     3.545136
C       -0.546382     1.004903     4.550956
C        0.662411     0.514024     4.271168
C        0.918943    -0.014396     2.925287
N       -0.013355    -0.000000     2.036645
C       -1.318721     0.516757     2.298335
C       -2.288522     0.513397     1.318347
N       -0.000000    -2.036645    -0.013355
C       -0.006849    -2.943570     0.904431
C        0.817190    -4.143526     0.797269
C        1.590912    -4.300462    -0.273095
C        1.588564    -3.265599    -1.304232
C        2.387061    -3.400632    -2.435801
C        2.410765    -2.445677    -3.428349
C        1.614588    -1.340241    -3.270861
C        1.582236    -0.277603    -4.282176
C        0.809338     0.799896    -4.133683
C       -0.022667     0.915093    -2.929137
N        0.000000    -0.013355    -2.036645
C        0.813644    -1.180505    -2.160119
C        0.808353    -2.151204    -1.181029
H       -2.740986    -0.400959    -1.906882
H       -5.012370     0.502280    -1.439201
H       -5.566347     1.396308     0.717946
H       -4.816675     1.909604     3.024147
H       -3.073616     1.929966     4.828967
H       -0.730242     1.397398     5.557344
H        1.434589     0.510474     5.032575
H        1.901874    -0.411003     2.705519
H       -0.631316    -2.848230     1.799638
H        0.790852    -4.878026     1.573546
H        2.198515    -5.192879    -0.344477
H        3.006702    -4.305917    -2.513389
H        3.038765    -2.557412    -4.312763
H        2.200229    -0.356482    -5.183584
H        0.803747     1.571124    -4.896040
H       -0.647131     1.791944    -2.815449
50
ex_0429 frame2 N-trans-conf4
S        2.518088     2.416340     2.154088
As       2.069515     2.065175     0.372029
S        3.319481     3.362803    -0.916335
S        2.440713    -0.090713     0.000000
Mn       0.000000     0.000000     0.000000
S       -0.090713     2.440713    -0.000000
N       -2.030397    -0.000000     0.019603
C       -2.928525    -0.017520    -0.901345
C       -4.085805     0.885844    -0.882176
C       -4.153426     1.723064     0.140517
C       -3.155155     1.772499     1.203169
C       -3.229842     2.647842     2.268436
C       -2.260099     2.674496     3.272885
C       -1.197492     1.788754     3.181991
C       -0.131390     1.733479     4.176102
C        0.873889     0.879028     4.068633
C        0.914533    -0.032593     2.922082
N       -0.019603     0.000000     2.030397
C       -1.114064     0.909773     2.120732
C       -2.074630     0.886631     1.130028
N       -0.000000    -2.030397    -0.019603
C       -0.016748    -2.927959     0.901911
C        0.846828    -4.114397     0.853584
C        1.647172    -4.209039    -0.196130
C        1.694430    -3.212364    -1.260378
C        2.531219    -3.315304    -2.353898
C        2.556699    -2.346421    -3.359207
C        1.709969    -1.255226    -3.239725
C        1.657129    -0.187340    -4.232052
C        0.840312     0.845518    -4.097005
C       -0.031157     0.915585    -2.921030
N       -0.000000    -0.019603    -2.030397
C        0.869703    -1.143427    -2.150095
C        0.847579    -2.103246    -1.158645
H       -2.836708    -0.723041    -1.728334
H       -4.843408     0.887552    -1.637555
H       -4.984866     2.433449     0.234220
H       -4.075239     3.343320     2.328768
H       -2.312409     3.355095     4.106910
H       -0.186696     2.416097     5.009758
H        1.655374     0.830468     4.786869
H        1.723036    -0.741411     2.807496
H       -0.691195    -2.813371     1.751671
H        0.848460    -4.872054     1.608909
H        2.326269    -5.063408    -0.312762
H        3.196065    -4.183148    -2.436677
H        3.207322    -2.420698    -4.215199
H        2.309682    -0.264678    -5.087740
H        0.793891     1.628570    -4.813673
H       -0.708756     1.746966    -2.783567
