54
ex_0410 frame0 trans
C       -1.694137     0.631703    -3.297829
N       -2.032188     0.847796    -1.911328
C       -3.186392     0.385921    -1.253730
C       -4.238207    -0.352938    -1.796676
C       -5.293800    -0.690226    -0.921674
C       -5.277233    -0.263470     0.431804
C       -4.204355     0.504359     0.931571
C       -3.178332     0.805173     0.037713
N       -2.032882     1.595390     0.260668
C       -1.672470     2.272042     1.488178
C       -2.428114     3.613193     1.469031
O       -3.817279     3.438088     1.428065
C       -1.411589     1.682894    -0.985375
Se       0.105251     2.826764    -1.326948
Cu       1.856471     1.633499    -2.453602
Cl       2.428593     2.232833    -4.545200
Se       3.328468     0.195678    -1.218330
C        2.551477    -0.015354     0.547887
N        2.025970    -1.224086     1.073238
C        1.891480    -2.490105     0.389700
C        0.638616    -2.679794    -0.456223
O        0.567721    -1.724450    -1.472635
C        1.666737    -0.937790     2.404081
C        1.147858    -1.812657     3.357086
C        0.914618    -1.283164     4.642875
C        1.189498     0.079942     4.927610
C        1.706569     0.935755     3.931278
C        1.932273     0.371871     2.679482
N        2.477425     0.993569     1.541041
C        2.874923     2.375772     1.423317
H       -0.682539     1.018918    -3.531342
H       -1.748716    -0.438498    -3.582384
H       -2.437679     1.203648    -3.895575
H       -4.233324    -0.691665    -2.824216
H       -6.116745    -1.295203    -1.280886
H       -6.087113    -0.545373     1.092817
H       -4.175115     0.810661     1.968211
H       -0.601732     2.532891     1.501430
H       -1.892383     1.690953     2.407883
H       -2.142242     4.222667     2.358416
H       -2.122852     4.203689     0.578324
H       -4.114487     3.294215     2.363526
H        1.891810    -3.291851     1.156472
H        2.821130    -2.620547    -0.205696
H        0.611075    -3.703742    -0.889337
H       -0.252999    -2.573557     0.200150
H        1.223973    -1.991822    -2.165025
H        0.917536    -2.845471     3.136118
H        0.506732    -1.921435     5.416077
H        0.987391     0.469452     5.916703
H        1.903219     1.979954     4.133849
H        2.099417     3.102096     1.740137
H        3.754527     2.471097     2.095101
H        3.195557     2.619641     0.390838
54
ex_0410 frame1 cis-2
C        2.803422     0.653511    -0.603285
N        2.776008     0.934601     0.803971
C        3.545666     0.291723     1.793740
C        4.476759    -0.730262     1.626408
C        5.116206    -1.202900     2.792198
C        4.809767    -0.649067     4.062325
C        3.859555     0.385684     4.187174
C        3.251760     0.822912     3.011964
N        2.277260     1.833918     2.859567
C        1.701888     2.635095     3.910731
C        0.451639     2.232394     4.492175
O       -0.538303     2.170004     3.501138
C        2.085823     1.953859     1.473832
Se       1.015684     3.336766     0.605978
Cu      -0.978870     2.252135    -0.172051
Cl      -2.838342     3.480018     0.143094
Se      -1.184118    -0.127467     0.063248
C       -1.909562    -0.926664    -1.549153
N       -1.253857    -1.913806    -2.302651
C        0.080117    -2.427951    -2.111065
C       -0.089766    -3.669702    -1.217108
O       -0.867318    -4.652993    -1.838697
C       -2.179777    -2.300685    -3.285865
C       -2.036091    -3.300838    -4.247563
C       -3.141833    -3.536687    -5.090860
C       -4.330770    -2.775720    -4.954459
C       -4.432704    -1.766403    -3.973294
C       -3.318016    -1.568739    -3.156709
N       -3.180511    -0.667123    -2.083876
C       -4.139472     0.308670    -1.635826
H        3.861500     1.161668    -0.920703
H        2.898399    -0.342111    -0.882547
H        2.074521     1.251780    -1.166692
H        4.704239    -1.146568     0.654622
H        5.848148    -1.996075     2.717746
H        5.309946    -1.023859     4.945771
H        3.626446     0.807240     5.154783
H        2.511644     2.737272     4.725979
H        1.708235     3.730932     3.488303
H        0.163419     2.919256     5.322095
H        0.589090     1.220307     4.931127
H       -1.216912     2.858565     3.720526
H        0.688294    -1.724849    -1.531416
H        0.623591    -2.667581    -3.049042
H        0.920742    -4.084721    -0.999865
H       -0.568158    -3.362722    -0.259059
H       -0.952395    -5.390411    -1.177501
H       -1.118196    -3.860688    -4.366350
H       -3.075575    -4.292272    -5.863622
H       -5.161590    -2.957542    -5.624610
H       -5.331368    -1.172058    -3.892984
H       -4.180001     0.171699    -0.533920
H       -3.917704     1.363611    -1.880705
H       -5.142545     0.052693    -2.032014
54
ex_0410 frame2 cis-1
C        0.274351    -2.019364     4.526695
N       -0.602531    -2.604032     3.553606
C       -1.897561    -3.080735     3.769550
C       -2.608957    -3.062495     4.950143
C       -3.898859    -3.613318     4.914920
C       -4.428542    -4.142576     3.705544
C       -3.668711    -4.137350     2.515324
C       -2.404220    -3.579886     2.598206
N       -1.447347    -3.429615     1.571106
C       -1.577610    -3.814591     0.185434
C       -1.099961    -5.232588    -0.106452
O       -1.292245    -5.482759    -1.474189
C       -0.307125    -2.820324     2.183009
Se       1.319542    -2.364930     1.364625
Cu       1.657686    -0.344026     0.114982
Cl       1.064348     1.131475     1.711761
Se       0.930635     1.094298    -1.663394
C        1.189350     2.933628    -1.516175
N        0.282962     3.919554    -1.994497
C       -0.969287     3.658949    -2.660200
C       -0.761010     3.533570    -4.165741
O        0.146525     2.513562    -4.497127
C        0.852859     5.170124    -1.687763
C        0.342467     6.426586    -1.954968
C        1.129030     7.511659    -1.528943
C        2.368354     7.305414    -0.865757
C        2.844703     6.008163    -0.619414
C        2.048949     4.971106    -1.049416
N        2.295168     3.595193    -0.923683
C        3.436381     2.973732    -0.317525
H        0.256638    -2.654094     5.430578
H       -0.053431    -0.989935     4.765435
H        1.314099    -1.999366     4.136633
H       -2.185916    -2.658141     5.856913
H       -4.480058    -3.625289     5.824798
H       -5.423597    -4.558344     3.700769
H       -4.052410    -4.538783     1.590671
H       -2.644742    -3.757912    -0.089355
H       -1.023033    -3.086939    -0.444323
H       -0.028526    -5.386247     0.191623
H       -1.728688    -5.944690     0.470167
H       -0.401026    -5.611727    -1.889908
H       -1.664137     4.493267    -2.473285
H       -1.424778     2.723568    -2.260509
H       -0.430339     4.507647    -4.586567
H       -1.745119     3.283551    -4.608388
H        1.054346     2.846108    -4.269230
H       -0.600704     6.583351    -2.457703
H        0.782563     8.514058    -1.709881
H        2.958820     8.147829    -0.545770
H        3.781573     5.832570    -0.116096
H        3.227941     2.837368     0.762065
H        4.322322     3.614192    -0.470892
H        3.641156     1.997038    -0.805803
54
ex_0410 frame3 trans-conf6
C        4.658756     0.054987     2.533744
N        5.090104     0.026993     1.152739
C        6.425669     0.020756     0.665257
C        7.612819     0.031903     1.399603
C        8.803678     0.007934     0.653276
C        8.778275    -0.012657    -0.768133
C        7.566596    -0.015205    -1.474826
C        6.406746    -0.012933    -0.710162
N        5.064071    -0.048717    -1.167714
C        4.613948    -0.117113    -2.547048
C        4.400739    -1.582830    -2.931829
O        3.417528    -2.182870    -2.132409
C        4.223339    -0.007224     0.000231
Se       2.400000     0.000000     0.000000
Cu       0.000000     0.000000     0.000000
Cl      -1.125417     1.948412     0.011249
Se      -1.200026    -2.078446     0.000000
C       -2.250917    -3.653242    -0.058407
N       -3.148700    -4.027537     0.945217
C       -3.578620    -3.267681     2.099591
C       -2.666648    -3.739899     3.243187
O       -2.940757    -3.023065     4.415274
C       -3.539942    -5.331756     0.581400
C       -4.343244    -6.209821     1.303143
C       -4.540369    -7.490024     0.743416
C       -3.949366    -7.839006    -0.499477
C       -3.154439    -6.913272    -1.205258
C       -2.968583    -5.672149    -0.606817
N       -2.168615    -4.619988    -1.062339
C       -1.433376    -4.565498    -2.293432
H        5.510794     0.070738     3.225783
H        4.044233    -0.846216     2.750577
H        4.041754     0.961860     2.711609
H        7.617928     0.038134     2.473350
H        9.745960     0.011434     1.174297
H        9.714416    -0.025791    -1.309701
H        7.546802    -0.029882    -2.552022
H        5.368737     0.322918    -3.231397
H        3.676328     0.466607    -2.689318
H        4.069512    -1.635855    -3.988974
H        5.360852    -2.145683    -2.863504
H        3.878261    -2.532949    -1.325219
H       -3.400500    -2.180477     1.963916
H       -4.646684    -3.412269     2.358002
H       -2.757315    -4.829232     3.435871
H       -1.606881    -3.547895     2.971169
H       -3.822102    -3.340296     4.741593
H       -4.793554    -5.935087     2.246977
H       -5.160216    -8.211120     1.259604
H       -4.126122    -8.820413    -0.919623
H       -2.711227    -7.163448    -2.158506
H       -0.596114    -5.250555    -2.077031
H       -1.010778    -3.568686    -2.485085
H       -1.958533    -4.915227    -3.198048
54
ex_0410 frame4 trans-conf3
C        4.255013    -2.816293    -0.119690
N        4.874220    -1.529590    -0.283163
C        6.257588    -1.253885    -0.327509
C        7.325443    -2.148220    -0.225047
C        8.622083    -1.601458    -0.302212
C        8.810937    -0.205905    -0.475918
C        7.700364     0.668035    -0.575543
C        6.439886     0.086337    -0.494334
N        5.180013     0.728662    -0.564251
C        4.923967     2.145820    -0.737310
C        5.070550     2.811529     0.713088
O        4.144469     2.249918     1.608023
C        4.268776    -0.282695    -0.301619
Se       2.400000     0.000000     0.000000
Cu       0.000000     0.000000     0.000000
Cl      -1.123805     1.949442     0.001100
Se      -1.200026    -2.078446     0.000000
C       -2.205010    -3.679487    -0.379301
N       -3.134507    -4.274372     0.503316
C       -3.593035    -3.774817     1.784029
C       -2.653941    -4.392190     2.846899
O       -3.054362    -4.061564     4.155479
C       -3.524372    -5.473895    -0.128115
C       -4.375273    -6.465712     0.365736
C       -4.583462    -7.593469    -0.460570
C       -3.935681    -7.701525    -1.719188
C       -3.077762    -6.678776    -2.177434
C       -2.904696    -5.583022    -1.336007
N       -2.074807    -4.467931    -1.540039
C       -1.264807    -4.199883    -2.700282
H        5.007330    -3.584203     0.234815
H        3.579904    -3.154129    -0.784074
H        3.667381    -2.640375     0.947993
H        7.186503    -3.212098    -0.092663
H        9.481715    -2.255399    -0.227879
H        9.816435     0.190514    -0.532352
H        7.844137     1.731310    -0.707889
H        5.599838     2.634972    -1.409645
H        3.879298     2.333424    -0.998873
H        6.110614     2.696642     1.092974
H        4.850932     3.899783     0.620523
H        4.543328     2.295237     2.516078
H       -4.647565    -4.046660     1.993423
H       -3.495764    -2.672965     1.855559
H       -1.608365    -4.043152     2.685612
H       -2.660665    -5.498966     2.766552
H       -3.393952    -3.128782     4.159106
H       -4.883066    -6.371789     1.315796
H       -5.257089    -8.378432    -0.139159
H       -4.117591    -8.567886    -2.343522
H       -2.593990    -6.745133    -3.143632
H       -0.556966    -5.059662    -2.739002
H       -1.814828    -4.142356    -3.659181
H       -0.667164    -3.277210    -2.559266
54
ex_0410 frame5 trans-conf5
C        4.278624    -0.460622     2.721769
N        4.915917    -0.094520     1.483428
C        6.285494     0.078808     1.252458
C        7.314245    -0.060957     2.165431
C        8.614223     0.172878     1.687251
C        8.838416     0.516783     0.326869
C        7.761224     0.637904    -0.583904
C        6.496830     0.420866    -0.060900
N        5.244570     0.463529    -0.734095
C        4.996944     0.756709    -2.130881
C        5.036471    -0.536642    -2.949039
O        6.303129    -1.131765    -2.890393
C        4.259470     0.130918     0.247611
Se       2.400000     0.000000     0.000000
Cu       0.000000     0.000000     0.000000
Cl      -1.125617     1.948564    -0.003001
Se      -1.200026    -2.078446     0.000000
C       -1.972169    -3.789606     0.265459
N       -2.372869    -4.659419    -0.773325
C       -2.260181    -4.383484    -2.176193
C       -3.557632    -3.694810    -2.580620
O       -3.757900    -2.515669    -1.841786
C       -2.893439    -5.811012    -0.170434
C       -3.399457    -6.934184    -0.797823
C       -3.885272    -7.954843     0.034445
C       -3.840541    -7.822283     1.449577
C       -3.311952    -6.657335     2.057183
C       -2.847203    -5.677045     1.192201
N       -2.284371    -4.417177     1.514424
C       -2.065335    -3.867465     2.829929
H        4.152839     0.443858     3.345182
H        3.274059    -0.890241     2.514866
H        4.871715    -1.239337     3.240013
H        7.123544    -0.318692     3.198765
H        9.446500     0.090877     2.370875
H        9.850098     0.692958    -0.007321
H        7.924451     0.906405    -1.618541
H        5.725208     1.498536    -2.515360
H        3.980939     1.193115    -2.244675
H        4.249742    -1.250189    -2.606414
H        4.807993    -0.296643    -4.009859
H        6.335142    -1.646162    -2.041924
H       -2.099089    -5.312062    -2.755535
H       -1.408985    -3.700737    -2.378464
H       -3.510676    -3.478103    -3.670882
H       -4.412303    -4.374979    -2.390933
H       -3.423294    -1.757631    -2.389282
H       -3.420987    -7.023110    -1.874852
H       -4.287507    -8.847826    -0.421933
H       -4.214930    -8.627390     2.064634
H       -3.273400    -6.545542     3.132243
H       -2.983028    -4.009484     3.437452
H       -1.873108    -2.774929     2.755007
H       -1.200042    -4.358112     3.317477
54
ex_0410 frame6 trans-conf2
C        4.316379     2.303898    -1.682593
N        4.911728     1.391273    -0.746650
C        6.295403     1.204284    -0.545222
C        7.353105     1.844878    -1.190883
C        8.657396     1.472100    -0.800456
C        8.859041     0.489827     0.203553
C        7.759218    -0.135059     0.832862
C        6.486798     0.262468     0.417420
N        5.232075    -0.202558     0.882397
C        5.006813    -1.205621     1.904353
C        5.100425    -2.628249     1.186219
O        6.354069    -2.836446     0.597122
C        4.300831     0.421371     0.049712
Se       2.400000     0.000000     0.000000
Cu       0.000000     0.000000     0.000000
Cl      -1.122331     1.945758    -0.001414
Se      -1.200026    -2.078446     0.000000
C       -1.800020    -3.887167    -0.101969
N       -2.576596    -4.515269     0.881060
C       -2.951536    -4.053434     2.206219
C       -4.346167    -3.404060     2.112869
O       -4.307328    -2.275568     1.275753
C       -2.934325    -5.747308     0.284369
C       -3.827332    -6.704682     0.770765
C       -4.016254    -7.860157    -0.021858
C       -3.344482    -8.006671    -1.262641
C       -2.470234    -7.004044    -1.730117
C       -2.316380    -5.878446    -0.920093
N       -1.586364    -4.716913    -1.191992
C       -0.782160    -4.425230    -2.344914
H        3.213028     2.127154    -1.757979
H        4.683716     1.815688    -2.742497
H        4.604647     3.282357    -1.690416
H        7.191834     2.592936    -1.955553
H        9.513318     1.939941    -1.271359
H        9.867940     0.217937     0.488758
H        7.912073    -0.883730     1.598093
H        3.981384    -1.170322     2.279104
H        5.723558    -1.164626     2.709275
H        4.302198    -2.700293     0.411775
H        4.924755    -3.416300     1.953290
H        6.252007    -3.628779     0.004160
H       -2.254650    -3.270292     2.567480
H       -2.961792    -4.877442     2.949171
H       -4.650641    -3.058459     3.125742
H       -5.121859    -4.132756     1.781449
H       -4.865767    -2.469865     0.479051
H       -4.321046    -6.602632     1.727401
H       -4.663984    -8.654991     0.327509
H       -3.485613    -8.907922    -1.847633
H       -1.940044    -7.133536    -2.663261
H        0.308975    -4.301833    -2.212154
H       -1.222766    -3.462705    -2.688474
H       -0.973313    -5.170065    -3.143252
54
ex_0410 frame7 trans-conf4
C        4.309297    -1.671281    -2.320557
N        4.883813    -0.727908    -1.396634
C        6.261842    -0.549059    -1.153646
C        7.332099    -1.227452    -1.738772
C        8.628356    -0.856530    -1.318293
C        8.809122     0.160209    -0.345950
C        7.697053     0.820264     0.219579
C        6.434663     0.422966    -0.224064
N        5.169795     0.915440     0.174626
C        4.922060     1.953351     1.144116
C        5.001691     1.084970     2.582731
O        6.263554     0.510567     2.790185
C        4.293531     0.060467    -0.447587
Se       2.400000     0.000000     0.000000
Cu       0.000000     0.000000     0.000000
Cl      -1.125064     1.949590     0.004733
Se      -1.200026    -2.078446     0.000000
C       -2.040154    -3.766168     0.379007
N       -1.960377    -4.877799    -0.463178
C       -1.161667    -5.048128    -1.656563
C       -2.117255    -4.667776    -2.806397
O       -2.528133    -3.330513    -2.694190
C       -2.850642    -5.807628     0.107560
C       -3.223929    -7.054837    -0.398272
C       -4.193680    -7.775038     0.336435
C       -4.739734    -7.241784     1.532826
C       -4.321665    -5.982847     2.014969
C       -3.380214    -5.297656     1.248041
N       -2.877814    -4.010887     1.464413
C       -3.173663    -3.146598     2.571114
H        3.206169    -1.600853    -2.339313
H        4.736585    -1.688576    -3.302895
H        4.538101    -2.693724    -1.815605
H        7.188384    -2.002250    -2.480058
H        9.494441    -1.351614    -1.740768
H        9.810603     0.432034    -0.035053
H        7.833168     1.595268     0.960653
H        3.884585     2.256558     1.178272
H        5.617550     2.716636     1.240147
H        4.747507     1.763944     3.430540
H        4.243734     0.272798     2.602421
H        6.835773     1.210343     3.199813
H       -0.780857    -6.080345    -1.801959
H       -0.299072    -4.353153    -1.698605
H       -1.609893    -4.816617    -3.788200
H       -3.019245    -5.314625    -2.818277
H       -1.776705    -2.771485    -3.029081
H       -2.793009    -7.467456    -1.300367
H       -4.514076    -8.751943    -0.005645
H       -5.471685    -7.814507     2.090356
H       -4.720679    -5.577983     2.935950
H       -4.241184    -2.901619     2.363996
H       -3.099818    -3.583676     3.586112
H       -2.591976    -2.205200     2.527957
54
ex_0410 frame8 T-shaped Cl-Se-ax/Se-eq-conf6
C        4.652606     0.056851     2.533336
N        5.082090     0.027531     1.153418
C        6.411990     0.022237     0.666579
C        7.600236     0.037352     1.399451
C        8.802726     0.016633     0.659584
C        8.785739    -0.008746    -0.759707
C        7.560158    -0.022130    -1.471264
C        6.395763    -0.015185    -0.708598
N        5.062355    -0.049052    -1.168253
C        4.619717    -0.116081    -2.547256
C        4.405823    -1.581179    -2.934541
O        3.417876    -2.180229    -2.140241
C        4.223340    -0.007167     0.000233
Se       2.400000     0.000000     0.000000
Cu       0.000000     0.000000     0.000000
Cl      -1.662847    -1.515893     0.002156
Se       0.000000     2.400000     0.000000
C       -0.003317     4.189407    -0.010307
N       -1.101965     5.037173     0.371085
C       -2.394699     4.603961     0.857822
C       -3.411498     4.490047    -0.275287
O       -4.641678     4.034534     0.215754
C       -0.667842     6.371482     0.187783
C       -1.385617     7.542449     0.409014
C       -0.698373     8.755512     0.188305
C        0.646563     8.758947    -0.269782
C        1.331157     7.549252    -0.514649
C        0.632374     6.374899    -0.255588
N        1.095140     5.045832    -0.381808
C        2.415773     4.631248    -0.802564
H        5.513913     0.074632     3.231169
H        4.043545    -0.845200     2.749445
H        4.037607     0.962908     2.713043
H        7.621571     0.046820     2.478420
H        9.751021     0.015030     1.178788
H        9.719160    -0.025090    -1.308380
H        7.551936    -0.035261    -2.551303
H        5.375442     0.324586    -3.228925
H        3.683929     0.468262    -2.688464
H        4.079429    -1.633651    -3.994239
H        5.364848    -2.144007    -2.861727
H        3.875430    -2.539124    -1.335131
H       -2.287546     3.607154     1.336390
H       -2.740847     5.308782     1.643769
H       -3.539920     5.462341    -0.800628
H       -3.038868     3.753647    -1.020612
H       -5.036445     4.787620     0.727658
H       -2.406225     7.533523     0.766940
H       -1.200703     9.695195     0.377399
H        1.155677     9.701191    -0.425139
H        2.359439     7.541881    -0.851403
H        2.578141     4.877330    -1.872822
H        2.550295     3.538576    -0.660311
H        3.173134     5.157227    -0.183412
54
ex_0410 frame9 T-shaped Cl-Se-ax/Se-eq-conf4
C        4.313234    -1.678860    -2.314193
N        4.887536    -0.734018    -1.391532
C        6.265316    -0.550902    -1.151506
C        7.336556    -1.226070    -1.739218
C        8.632503    -0.851168    -1.321498
C        8.812207     0.166034    -0.349371
C        7.699262     0.822752     0.218850
C        6.437419     0.421654    -0.222033
N        5.171808     0.910498     0.179809
C        4.921779     1.947687     1.150098
C        4.998945     1.084615     2.589259
O        6.258749     0.506338     2.798616
C        4.292484     0.056437    -0.443091
Se       2.400000     0.000000     0.000000
Cu       0.000000     0.000000     0.000000
Cl      -2.068604    -0.884798     0.003261
Se       0.000000     2.400000     0.000000
C        0.392357     4.281578     0.020458
N       -0.281612     5.207643     0.822549
C       -1.264398     4.957151     1.854267
C       -2.621589     5.096223     1.133810
O       -2.749296     4.137457     0.116811
C        0.205068     6.458214     0.393989
C       -0.213413     7.725433     0.805629
C        0.396016     8.833365     0.173151
C        1.387284     8.643420    -0.824551
C        1.787957     7.343564    -1.201679
C        1.148951     6.280027    -0.565367
N        1.308536     4.913638    -0.818960
C        2.223497     4.311236    -1.746978
H        3.210479    -1.609273    -2.333646
H        4.742324    -1.698679    -3.294557
H        4.541055    -2.702516    -1.806996
H        7.193754    -2.001252    -2.480333
H        9.499190    -1.343529    -1.745951
H        9.813522     0.440792    -0.040741
H        7.834626     1.598024     0.959691
H        3.885391     2.253905     1.179411
H        5.619050     2.711571     1.242993
H        4.746890     1.766796     3.435199
H        4.238069     0.275148     2.611497
H        6.835428     1.207639     3.199173
H       -1.210465     5.664881     2.707364
H       -1.208181     3.926301     2.257707
H       -3.454721     4.971165     1.864634
H       -2.745387     6.104674     0.686758
H       -2.981168     3.278257     0.561161
H       -0.955309     7.868181     1.579566
H        0.117983     9.839892     0.462391
H        1.853660     9.504978    -1.288040
H        2.556387     7.191545    -1.948470
H        1.786623     4.638217    -2.719119
H        3.278260     4.645538    -1.700569
H        2.182287     3.205069    -1.708212
54
ex_0410 frame10 trans-2
C        4.261635    -0.887708    -2.731675
N        4.892166    -0.352473    -1.537893
C        6.297348    -0.138026    -1.318046
C        7.315043    -0.388605    -2.189107
C        8.607292    -0.078480    -1.717611
C        8.810160     0.458910    -0.398492
C        7.737254     0.691621     0.455929
C        6.511100     0.395283    -0.034370
N        5.251532     0.540387     0.622502
C        5.035337     1.046954     1.949612
C        5.159112    -0.097621     2.957398
O        4.124803    -1.066724     2.764641
C        4.228857     0.066367    -0.308103
Se       2.400000     0.000000     0.000000
Cu       0.000000     0.000000     0.000000
Cl      -1.366769     1.787482     0.003485
Se      -1.200026    -2.078446     0.000000
C       -2.355544    -3.561292    -0.174798
N       -1.953438    -4.946357    -0.269188
C       -0.614258    -5.451932    -0.245326
C       -0.208914    -5.740160     1.168759
O       -1.084834    -6.673221     1.756024
C       -3.154108    -5.722260    -0.393936
C       -3.256870    -7.059336    -0.511204
C       -4.556506    -7.573691    -0.619322
C       -5.695827    -6.701465    -0.605693
C       -5.547756    -5.316461    -0.484799
C       -4.266728    -4.869894    -0.378940
N       -3.814495    -3.515841    -0.238530
C       -4.648505    -2.342766    -0.173801
H        4.001244    -0.030533    -3.344516
H        4.977509    -1.553407    -3.182198
H        3.350161    -1.430540    -2.405096
H        7.158388    -0.783269    -3.159380
H        9.483385    -0.238396    -2.337572
H        9.807646     0.690895    -0.052449
H        7.852838     1.081030     1.425763
H        5.849279     1.726399     2.137822
H        4.084540     1.604397     1.973279
H        5.083365     0.380684     3.960122
H        6.131678    -0.574935     2.849577
H        3.538452    -1.007556     3.574960
H        0.054754    -4.662017    -0.664179
H       -0.606806    -6.339471    -0.874477
H        0.807786    -6.155649     1.111576
H       -0.218298    -4.786099     1.759280
H       -0.760059    -6.794237     2.690953
H       -2.398578    -7.680295    -0.517690
H       -4.698724    -8.630155    -0.712874
H       -6.679253    -7.119838    -0.688819
H       -6.382066    -4.657440    -0.473332
H       -4.115881    -1.587223     0.447255
H       -4.799057    -2.020393    -1.226190
H       -5.551031    -2.630339     0.310719
54
ex_0410 frame11 T-shaped Cl-Se-ax/Se-eq-conf3
C        4.265007    -2.851714    -0.071401
N        4.909868    -1.579175    -0.242007
C        6.305637    -1.330480    -0.304633
C        7.360430    -2.236897    -0.218033
C        8.666452    -1.700974    -0.313741
C        8.871923    -0.308237    -0.488923
C        7.777911     0.569293    -0.571084
C        6.509333     0.002177    -0.472422
N        5.278648     0.668346    -0.525564
C        5.102588     2.079352    -0.694183
C        5.286639     2.719187     0.757540
O        4.242231     2.306078     1.604837
C        4.307823    -0.316423    -0.272367
Se       2.400000     0.000000     0.000000
Cu       0.000000     0.000000     0.000000
Cl      -2.102268    -0.801817     0.000354
Se       0.000000     2.400000     0.000000
C        0.251426     4.334326     0.115716
N       -0.724209     5.326238     0.413736
C       -2.106083     5.096336     0.746637
C       -2.860274     5.116068    -0.596841
O       -4.252138     5.006350    -0.419491
C       -0.057178     6.574431     0.315671
C       -0.565469     7.853721     0.527636
C        0.339749     8.930883     0.351203
C        1.689994     8.697235    -0.023697
C        2.152817     7.389894    -0.243447
C        1.242155     6.360190    -0.024205
N        1.479952     4.987636    -0.114547
C        2.728215     4.389851    -0.387032
H        5.006324    -3.640032     0.241911
H        3.573349    -3.153602    -0.745855
H        3.693221    -2.680449     0.995449
H        7.208964    -3.296553    -0.084859
H        9.522321    -2.357370    -0.253150
H        9.875957     0.089221    -0.560721
H        7.924428     1.633903    -0.704750
H        5.827274     2.518947    -1.357390
H        4.124499     2.277889    -1.057103
H        6.276561     2.449426     1.184659
H        5.283271     3.825536     0.676968
H        4.601517     2.263289     2.528910
H       -2.509479     5.873000     1.428867
H       -2.262033     4.105912     1.221710
H       -2.504007     4.285345    -1.246488
H       -2.662298     6.075463    -1.119109
H       -4.430900     4.423270     0.363856
H       -1.584377     8.027325     0.840241
H        0.011849     9.946316     0.523406
H        2.378827     9.526279    -0.130928
H        3.183682     7.195626    -0.517131
H        3.251925     4.878428    -1.237240
H        3.290762     4.466388     0.550325
H        2.508541     3.354680    -0.671538
54
ex_0410 frame12 T-shaped Cl-Se-ax/Se-eq
C        4.274979    -0.694618    -2.760073
N        4.899505    -0.197151    -1.557676
C        6.284579    -0.077723    -1.311828
C        7.342434    -0.408592    -2.162621
C        8.646169    -0.189182    -1.667942
C        8.846956     0.342105    -0.367640
C        7.749467     0.662576     0.458940
C        6.480593     0.430956    -0.066989
N        5.232649     0.664718     0.551456
C        5.007536     1.201168     1.879225
C        5.172543    -0.026462     2.905503
O        4.181392    -1.001636     2.693233
C        4.286780     0.165432    -0.356092
Se       2.400000     0.000000     0.000000
Cu       0.000000     0.000000     0.000000
Cl      -2.070528    -0.878031     0.004374
Se       0.000000     2.400000     0.000000
C        0.067560     4.296939     0.357438
N        0.689302     5.242893    -0.475066
C        1.458295     4.999075    -1.680511
C        0.462574     5.085380    -2.858058
O       -0.147130     6.343834    -2.934415
C        0.412733     6.494621     0.112553
C        0.768668     7.761716    -0.357755
C        0.359989     8.868613     0.421499
C       -0.402234     8.679136     1.602540
C       -0.769524     7.384539     2.024475
C       -0.317091     6.319589     1.246184
N       -0.547239     4.946508     1.447471
C       -1.261756     4.329938     2.538849
H        3.820250    -0.006562    -3.383685
H        5.008439    -1.369373    -3.309882
H        3.493125    -1.480330    -2.379076
H        7.191821    -0.812941    -3.152324
H        9.498151    -0.428785    -2.287033
H        9.853836     0.502567    -0.007718
H        7.899695     1.067504     1.450082
H        5.727252     1.947376     2.150297
H        3.981601     1.535942     2.024147
H        5.096881     0.383083     3.942273
H        6.170472    -0.507143     2.827972
H        3.579712    -0.998624     3.486161
H        1.873814     3.971503    -1.697990
H        2.297281     5.710493    -1.816601
H        1.021746     4.893379    -3.802505
H       -0.317444     4.299408    -2.737214
H       -0.786175     6.290790    -3.695348
H        1.380931     7.900935    -1.237024
H        0.657824     9.867364     0.131087
H       -0.679904     9.538405     2.202495
H       -1.317323     7.242848     2.946472
H       -1.865932     3.512749     2.095583
H       -0.632142     3.934529     3.360023
H       -1.982759     5.068786     2.952671
54
ex_0410 frame13 T-shaped Cl-Se-ax/Se-eq-conf2
C        4.334725     2.077074    -1.861874
N        4.935156     1.222730    -0.902896
C        6.306541     1.129033    -0.621106
C        7.356340     1.841641    -1.200097
C        8.645728     1.551755    -0.745718
C        8.829646     0.585181     0.266137
C        7.729982    -0.100220     0.822769
C        6.492872     0.211062     0.343184
N        5.260009    -0.331529     0.735787
C        5.045091    -1.324804     1.728112
C        5.096036    -2.732921     1.166666
O        6.325988    -3.001296     0.551805
C        4.269807     0.303899    -0.052824
Se       2.400000     0.000000     0.000000
Cu       0.000000     0.000000     0.000000
Cl      -2.247870    -0.038501    -0.000219
Se       0.000000     2.400000     0.000000
C       -0.273248     4.235799    -0.093770
N        0.233446     5.235562     0.777836
C        1.065455     5.028604     1.926272
C        2.574259     5.051715     1.718712
O        3.041077     4.062301     0.837046
C       -0.245433     6.459614     0.290594
C       -0.008930     7.716359     0.788397
C       -0.619788     8.775999     0.119077
C       -1.428933     8.550748    -1.015748
C       -1.641756     7.256301    -1.499066
C       -1.017804     6.239306    -0.807498
N       -1.054229     4.872282    -1.079082
C       -1.738006     4.211264    -2.138562
H        3.293893     1.771384    -2.071524
H        4.912234     2.020505    -2.797882
H        4.383428     3.098458    -1.457686
H        7.191895     2.548683    -1.968247
H        9.489657     2.067070    -1.168091
H        9.817945     0.364288     0.625764
H        7.890220    -0.826334     1.587606
H        4.046754    -1.171771     2.172374
H        5.828610    -1.211728     2.488861
H        4.243914    -2.920142     0.473317
H        4.987964    -3.392329     2.037595
H        6.142375    -3.690638    -0.138428
H        0.815741     4.064919     2.376583
H        0.826118     5.819586     2.634329
H        2.962227     4.775753     2.707074
H        2.991128     6.061205     1.537606
H        3.158321     4.452852    -0.064109
H        0.602551     7.898570     1.644204
H       -0.467803     9.773229     0.474889
H       -1.890309     9.379384    -1.517743
H       -2.258411     7.086350    -2.362561
H       -2.443497     3.452373    -1.733068
H       -0.975557     3.690978    -2.735468
H       -2.259903     4.944157    -2.764416
54
ex_0410 frame14 T-shaped Cl-Se-ax/Se-eq-conf5
C        4.269105    -0.464939     2.677300
N        4.910208    -0.107731     1.447499
C        6.271765     0.072203     1.228576
C        7.291927    -0.052319     2.148408
C        8.588677     0.175509     1.692544
C        8.812351     0.516066     0.346364
C        7.747622     0.636288    -0.574062
C        6.481283     0.402915    -0.075400
N        5.235466     0.445410    -0.748968
C        4.978713     0.744438    -2.123611
C        5.014637    -0.530861    -2.943373
O        6.282635    -1.118776    -2.869798
C        4.253456     0.121250     0.224667
Se       2.400000     0.000000     0.000000
Cu       0.000000     0.000000     0.000000
Cl      -2.249481    -0.044351    -0.000083
Se       0.000000     2.400000     0.000000
C       -0.044951     4.261303     0.325413
N       -0.549738     5.212688    -0.567915
C       -1.091010     4.926445    -1.843103
C        0.051458     4.970783    -2.827288
O        1.053889     4.047958    -2.487128
C       -0.414120     6.461798     0.030033
C       -0.789885     7.681534    -0.496852
C       -0.554938     8.814388     0.273522
C        0.044297     8.679677     1.541278
C        0.413039     7.410088     2.048526
C        0.156170     6.323788     1.237767
N        0.416190     4.950784     1.473558
C        1.014891     4.355415     2.615969
H        4.119056     0.442097     3.290981
H        3.271885    -0.896305     2.452565
H        4.883808    -1.201951     3.227029
H        7.119050    -0.312830     3.171044
H        9.427390     0.093336     2.364964
H        9.822862     0.682805     0.040480
H        7.923061     0.894812    -1.595524
H        5.713811     1.469957    -2.497458
H        3.963131     1.182498    -2.218305
H        4.241218    -1.251898    -2.615968
H        4.802693    -0.287156    -4.007577
H        6.353203    -1.644990    -2.026701
H       -1.848713     5.686942    -2.106620
H       -1.499941     3.892550    -1.867091
H       -0.354345     4.745178    -3.829460
H        0.519229     5.980186    -2.794422
H        0.959415     3.214458    -3.022857
H       -1.243245     7.774103    -1.452473
H       -0.843551     9.776634    -0.126205
H        0.221140     9.558719     2.125731
H        0.866215     7.310115     3.003597
H        1.867328     4.974977     2.891418
H        1.393850     3.335498     2.366181
H        0.297334     4.344535     3.455374
54
ex_0410 frame15 T-shaped Se-Se-ax/Cl-eq-conf6
C        4.652817     0.054996     2.535904
N        5.082845     0.027399     1.154810
C        6.415396     0.023008     0.668293
C        7.600680     0.037111     1.402097
C        8.803394     0.017823     0.663535
C        8.787953    -0.008196    -0.755661
C        7.569606    -0.014578    -1.465814
C        6.402532    -0.012119    -0.706644
N        5.066023    -0.048864    -1.168107
C        4.624817    -0.118030    -2.548132
C        4.413615    -1.583316    -2.937486
O        3.417243    -2.180517    -2.152492
C        4.223340    -0.007160     0.000230
Se       2.400000     0.000000     0.000000
Cu       0.000000     0.000000     0.000000
Cl      -0.003631     1.998047    -1.023575
Se      -2.400000     0.000000     0.000000
C       -4.189417     0.012744     0.003278
N       -5.035346     0.276849    -1.131192
C       -4.599071     0.553032    -2.484220
C       -4.513872     2.053118    -2.754128
O       -4.048877     2.288667    -4.054384
C       -6.370800     0.205147    -0.667794
C       -7.541062     0.407827    -1.392751
C       -8.754928     0.235597    -0.691484
C       -8.759923    -0.097392     0.690324
C       -7.550990    -0.267189     1.397351
C       -6.376555    -0.114143     0.668845
N       -5.048450    -0.254249     1.130365
C       -4.638919    -0.598820     2.474061
H        5.513179     0.074164     3.232481
H        4.046573    -0.849613     2.749619
H        4.034422     0.958494     2.715844
H        7.620032     0.051615     2.482140
H        9.750970     0.019444     1.185965
H        9.722568    -0.025646    -1.300880
H        7.557464    -0.038156    -2.546560
H        5.385844     0.319351    -3.226727
H        3.692295     0.467978    -2.694493
H        4.097200    -1.635444    -4.000321
H        5.371544    -2.147537    -2.856618
H        3.868325    -2.551633    -1.349376
H       -3.589952     0.115971    -2.637412
H       -5.286997     0.047324    -3.195648
H       -5.496732     2.549866    -2.596727
H       -3.792329     2.506136    -2.039421
H       -4.802851     2.080833    -4.665255
H       -7.530771     0.654633    -2.444737
H       -9.694907     0.353195    -1.214791
H       -9.702332    -0.229670     1.205553
H       -7.543709    -0.530602     2.447366
H       -4.964266     0.187039     3.186791
H       -3.536612    -0.705242     2.538987
H       -5.101917    -1.567087     2.757932
54
ex_0410 frame16 T-shaped Se-Se-ax/Cl-eq-conf2
C        4.250424     2.404425    -1.574069
N        4.836953     1.474181    -0.650811
C        6.218592     1.237635    -0.496641
C        7.276529     1.835835    -1.184199
C        8.580337     1.418676    -0.838235
C        8.781617     0.436268     0.164141
C        7.682256    -0.142256     0.834068
C        6.409867     0.299305     0.460825
N        5.154395    -0.113257     0.969402
C        4.935962    -1.100209     2.003922
C        5.063525    -2.515319     1.218997
O        6.344273    -2.702241     0.684377
C        4.292576     0.498161     0.114213
Se       2.400000     0.000000     0.000000
Cu       0.000000     0.000000     0.000000
Cl       0.014072     2.251657    -0.154283
Se      -2.400000     0.000000     0.000000
C       -4.243447    -0.475342    -0.044954
N       -5.133429    -0.089823     0.940488
C       -4.915845     0.477948     2.251945
C       -5.137583     1.989070     2.047651
O       -4.186762     2.502402     1.149066
C       -6.369157    -0.380366     0.335486
C       -7.638102    -0.026726     0.801671
C       -8.734843    -0.354738    -0.024225
C       -8.537005    -1.041817    -1.248043
C       -7.239958    -1.409284    -1.665061
C       -6.180316    -1.013905    -0.845465
N       -4.813180    -1.132489    -1.103544
C       -4.173965    -1.783335    -2.206880
H        3.142317     2.350335    -1.548786
H        4.518352     1.880934    -2.608744
H        4.628667     3.383813    -1.612379
H        7.117169     2.584789    -1.947988
H        9.436478     1.851581    -1.341726
H        9.789073     0.127832     0.417096
H        7.837468    -0.891387     1.598312
H        3.895638    -1.110048     2.338798
H        5.628380    -1.099686     2.810538
H        4.308720    -2.558310     0.401333
H        4.856612    -3.331083     1.946764
H        6.297855    -3.524314     0.127625
H       -3.873566     0.336105     2.604505
H       -5.603969     0.095319     3.034660
H       -5.011981     2.514994     3.018139
H       -6.175656     2.201684     1.702831
H       -4.676264     2.910531     0.388113
H       -7.790695     0.483492     1.742586
H       -9.739400    -0.090753     0.283570
H       -9.391673    -1.297627    -1.862734
H       -7.100263    -1.947365    -2.591533
H       -3.579078    -2.701764    -2.046879
H       -3.509635    -0.966777    -2.565198
H       -4.917096    -1.961420    -3.009225
54
ex_0410 frame17 T-shaped Se-Se-ax/Cl-eq-conf4
C        4.269600    -1.603290    -2.378473
N        4.841312    -0.666369    -1.446095
C        6.217582    -0.515602    -1.178215
C        7.283437    -1.218600    -1.740639
C        8.579607    -0.874162    -1.298222
C        8.764648     0.142010    -0.326895
C        7.656242     0.827304     0.214998
C        6.392773     0.454793    -0.250784
N        5.131086     0.973112     0.120228
C        4.894895     2.018972     1.080783
C        4.983707     1.123270     2.515746
O        6.255814     0.569108     2.718203
C        4.294236     0.104689    -0.493292
Se       2.400000     0.000000     0.000000
Cu       0.000000     0.000000     0.000000
Cl      -0.044641     2.216945     0.380704
Se      -2.400000     0.000000     0.000000
C       -4.264195     0.091674     0.431356
N       -5.157670    -0.906764     0.088623
C       -4.908093    -2.226224    -0.436566
C       -5.121522    -2.023228    -1.951043
O       -4.220459    -1.076597    -2.461224
C       -6.403528    -0.319427     0.361953
C       -7.672859    -0.841552     0.074774
C       -8.773747    -0.007063     0.344431
C       -8.589720     1.273096     0.927644
C       -7.295233     1.739788     1.241156
C       -6.227882     0.905539     0.906608
N       -4.866535     1.191129     1.006372
C       -4.269643     2.359743     1.577132
H        3.167597    -1.508036    -2.419259
H        4.701393    -1.594843    -3.378892
H        4.492931    -2.610534    -1.898844
H        7.136373    -1.992982    -2.481401
H        9.441970    -1.389144    -1.702740
H        9.765440     0.394363     0.001936
H        7.797224     1.601866     0.955371
H        3.849728     2.310136     1.132576
H        5.580344     2.780061     1.193756
H        4.715210     1.782755     3.373442
H        4.243699     0.295236     2.518855
H        6.801961     1.254230     3.184850
H       -5.586296    -3.020582    -0.060316
H       -3.862402    -2.560959    -0.283799
H       -4.994159    -2.989904    -2.490286
H       -6.152249    -1.677353    -2.172884
H       -3.355548    -1.547930    -2.594137
H       -7.805127    -1.820523    -0.360484
H       -9.776734    -0.354410     0.127001
H       -9.453326     1.892811     1.144348
H       -7.148073     2.710542     1.695918
H       -4.539534     3.101084     0.790235
H       -4.660846     2.716597     2.551102
H       -3.166126     2.290292     1.621060
54
ex_0410 frame18 T-shaped Se-Se-ax/Cl-eq-conf3
C        4.181792    -2.846169    -0.376852
N        4.776481    -1.541439    -0.496869
C        6.157694    -1.244154    -0.431393
C        7.229433    -2.121935    -0.240978
C        8.521074    -1.554996    -0.216140
C        8.701434    -0.158808    -0.378550
C        7.592800     0.690208    -0.568091
C        6.332389     0.089933    -0.586404
N        5.073832     0.708067    -0.758037
C        4.845536     2.121049    -0.953012
C        5.120648     2.722329     0.520187
O        4.292480     2.116699     1.475521
C        4.274131    -0.314061    -0.465294
Se       2.400000     0.000000     0.000000
Cu       0.000000     0.000000     0.000000
Cl       0.000891     2.250464    -0.002291
Se      -2.400000     0.000000     0.000000
C       -4.244521    -0.365895    -0.343003
N       -5.151736     0.641589    -0.583730
C       -4.956248     2.035757    -0.882474
C       -5.186641     2.672674     0.503808
O       -5.093866     4.068924     0.430605
C       -6.369979    -0.035574    -0.445165
C       -7.647656     0.529147    -0.428610
C       -8.722178    -0.340823    -0.146626
C       -8.495221    -1.727119     0.047657
C       -7.190083    -2.260851    -0.037813
C       -6.153253    -1.353995    -0.257520
N       -4.783065    -1.625906    -0.259320
C       -4.158759    -2.912143    -0.189582
H        4.929173    -3.589338     0.002172
H        3.602327    -3.225133    -1.167614
H        3.494616    -2.694523     0.561053
H        7.103206    -3.187215    -0.116213
H        9.384688    -2.191657    -0.071602
H        9.700033     0.258999    -0.356763
H        7.730164     1.755682    -0.692051
H        5.476959     2.629109    -1.636714
H        3.777878     2.334819    -1.126363
H        6.183866     2.568508     0.802911
H        4.914734     3.814547     0.497582
H        4.591200     2.452014     2.361291
H       -5.657932     2.467946    -1.626355
H       -3.918217     2.267581    -1.198250
H       -4.455024     2.279176     1.246691
H       -6.193589     2.424465     0.896636
H       -4.145795     4.283163     0.233779
H       -7.820468     1.585066    -0.588506
H       -9.730298     0.051684    -0.085823
H       -9.333439    -2.381362     0.254465
H       -7.011604    -3.318796     0.099299
H       -4.360179    -3.155796     0.878506
H       -4.577388    -3.717031    -0.825533
H       -3.061471    -2.855464    -0.331567
54
ex_0410 frame19 T-shaped Se-Se-ax/Cl-eq
C        4.164854    -0.398657    -2.862464
N        4.774283     0.045684    -1.633939
C        6.157891     0.035756    -1.335589
C        7.217730    -0.394571    -2.140615
C        8.515314    -0.295037    -1.594686
C        8.712943     0.219980    -0.289382
C        7.616207     0.642670     0.488368
C        6.349155     0.527549    -0.088552
N        5.100568     0.876954     0.474606
C        4.894547     1.435852     1.793080
C        5.182563     0.216539     2.778813
O        4.343599    -0.875872     2.504590
C        4.282614     0.340756    -0.434360
Se       2.400000     0.000000     0.000000
Cu       0.000000     0.000000     0.000000
Cl      -0.010323     2.225256     0.427577
Se      -2.400000     0.000000     0.000000
C       -4.245590     0.438112    -0.235581
N       -5.128972    -0.423570    -0.842639
C       -4.873789    -1.625324    -1.595067
C       -5.011177    -2.709881    -0.501222
O       -6.310685    -2.770100     0.016178
C       -6.364376     0.150296    -0.528218
C       -7.630805    -0.379991    -0.785010
C       -8.731009     0.307972    -0.233469
C       -8.540234     1.516475     0.480179
C       -7.246727     2.056753     0.648959
C       -6.179076     1.309270     0.143250
N       -4.810039     1.574487     0.287157
C       -4.191088     2.743836     0.842577
H        3.619214     0.334351    -3.431840
H        4.901691    -0.934265    -3.503051
H        3.448655    -1.216279    -2.510683
H        7.078430    -0.788472    -3.136189
H        9.370314    -0.614823    -2.177201
H        9.715807     0.289244     0.113814
H        7.768257     1.035364     1.483965
H        5.541369     2.248879     2.062693
H        3.833092     1.691740     1.957567
H        5.051602     0.562786     3.830408
H        6.232312    -0.130454     2.704419
H        3.656171    -0.910294     3.220469
H       -3.830634    -1.683568    -1.968745
H       -5.554101    -1.830024    -2.448139
H       -4.759286    -3.696342    -0.949350
H       -4.295007    -2.489867     0.322133
H       -6.297302    -3.458190     0.732530
H       -7.779224    -1.294533    -1.342806
H       -9.731083    -0.087308    -0.362449
H       -9.398112     2.034443     0.890925
H       -7.114919     2.986280     1.182437
H       -3.486788     2.296292     1.576417
H       -3.640786     3.433180     0.174854
H       -4.939213     3.318410     1.423633
54
ex_0410 frame20 T-shaped Se-Se-ax/Cl-eq-conf5
C        4.250669     0.072932     2.820451
N        4.820041     0.300332     1.559113
C        6.197299     0.272698     1.293332
C        7.270463     0.025025     2.176539
C        8.561549     0.061039     1.628851
C        8.716917     0.336642     0.255055
C        7.659216     0.577424    -0.599412
C        6.377595     0.533426    -0.015971
N        5.135393     0.737843    -0.641653
C        4.911812     1.041427    -2.040565
C        5.055367    -0.353349    -2.788368
O        6.353382    -0.878168    -2.713826
C        4.296885     0.383615     0.327735
Se       2.400000     0.000000     0.000000
Cu       0.000000     0.000000     0.000000
Cl      -0.028807     2.242352    -0.168606
Se      -2.400000     0.000000     0.000000
C       -4.261886    -0.323071     0.302324
N       -5.143311    -0.623859    -0.707384
C       -4.842522    -0.916126    -2.085833
C       -5.104985     0.467022    -2.720241
O       -4.273419     1.446995    -2.154098
C       -6.381635    -0.545446    -0.089595
C       -7.622763    -0.658333    -0.699990
C       -8.761246    -0.408513     0.108045
C       -8.592281    -0.094302     1.482301
C       -7.318996    -0.061448     2.074577
C       -6.236275    -0.264599     1.210784
N       -4.880956    -0.143087     1.523145
C       -4.304486     0.107891     2.809948
H        4.148951     0.450447     3.643179
H        3.229643    -0.608124     2.510482
H        4.860851    -1.090486     3.033337
H        7.103920    -0.182414     3.224930
H        9.405489    -0.121916     2.266439
H        9.758816     0.357887    -0.149234
H        7.793414     0.786258    -1.645152
H        5.598598     1.761243    -2.474611
H        3.872618     1.336649    -2.218859
H        4.309588    -1.084916    -2.396809
H        4.813476    -0.206751    -3.862313
H        6.340551    -1.609358    -2.040935
H       -5.480651    -1.680279    -2.576980
H       -3.783132    -1.182512    -2.267452
H       -4.941180     0.420903    -3.820973
H       -6.158100     0.785102    -2.578307
H       -3.416778     1.425040    -2.657035
H       -7.754607    -0.917453    -1.751142
H       -9.756266    -0.445545    -0.320339
H       -9.478425     0.094602     2.092968
H       -7.184242     0.172208     3.117602
H       -4.617016     1.173707     2.927423
H       -3.201071     0.073578     2.788625
H       -4.685373    -0.469737     3.673362
54
ex_0410 frame21 trans
C        2.643174    -1.773433     0.438518
N        1.228321    -2.052323     0.516455
C        0.472489    -2.247517     1.686198
C        0.923780    -2.237242     3.002447
C       -0.045687    -2.462546     4.003967
C       -1.406119    -2.688241     3.660199
C       -1.820769    -2.696746     2.310506
C       -0.835797    -2.471907     1.357459
N       -0.978020    -2.435730    -0.047026
C       -2.194087    -2.608478    -0.814130
C       -2.372831    -4.119853    -1.008159
O       -1.316349    -4.652319    -1.763864
C        0.319983    -2.211549    -0.558618
Se       0.773314    -2.136000    -2.416103
Cu      -0.466501    -0.318969    -3.375924
Cl      -0.309085     0.058658    -5.589355
Se      -1.341113     1.405762    -1.954531
C       -0.057725     1.937302    -0.669729
N       -0.271243     1.958910     0.736437
C       -1.486868     1.567405     1.432424
C       -2.423058     2.773094     1.520956
O       -1.861384     3.805131     2.281708
C        0.908184     2.434433     1.298038
C        1.185155     2.651655     2.646408
C        2.492626     3.165308     2.943872
C        3.435354     3.433507     1.912140
C        3.108335     3.183674     0.555892
C        1.831804     2.692745     0.305080
N        1.263570     2.389015    -0.939901
C        1.889431     2.508854    -2.238278
H        3.132122    -2.723158     0.744902
H        2.978933    -0.954942     1.105079
H        2.954477    -1.539928    -0.601327
H        1.957820    -2.041009     3.254351
H        0.247980    -2.443862     5.045254
H       -2.137061    -2.833205     4.445615
H       -2.857871    -2.846092     2.042916
H       -3.079954    -2.154138    -0.320733
H       -2.109904    -2.158328    -1.825685
H       -3.310651    -4.296956    -1.576211
H       -2.469888    -4.656974    -0.039264
H       -0.546106    -4.766773    -1.149032
H       -2.027405     0.788075     0.863189
H       -1.272235     1.143927     2.442422
H       -2.704092     3.131040     0.501746
H       -3.374653     2.458725     2.007193
H       -1.397610     4.407638     1.644122
H        0.492571     2.448201     3.429277
H        2.770775     3.355450     3.973798
H        4.416997     3.813094     2.158533
H        3.819869     3.372630    -0.238488
H        2.167913     3.577302    -2.374400
H        2.794455     1.871723    -2.336709
H        1.177404     2.235404    -3.045578
54
ex_0410 frame22 cis-1
C       -0.646508    -0.553227     3.994043
N       -1.027374    -1.351940     2.855204
C       -2.292036    -1.928798     2.599143
C       -3.435804    -1.891506     3.397395
C       -4.572665    -2.575100     2.910991
C       -4.538688    -3.244838     1.661454
C       -3.370605    -3.238047     0.875170
C       -2.259640    -2.583188     1.406236
N       -0.979452    -2.487029     0.854399
C       -0.526019    -3.040159    -0.391436
C       -0.598905    -2.178981    -1.639791
O       -0.147813    -2.893484    -2.756433
C       -0.216570    -1.765200     1.783385
Se       1.677210    -1.400666     1.599636
Cu       2.176141     0.567765     2.878834
Cl       4.094722     0.469478     4.050462
Se       1.694298     2.709392     1.908649
C        0.968164     2.417838     0.164365
N        1.715688     2.031613    -0.955210
C        3.122435     1.711548    -0.993855
C        3.781242     3.064645    -1.316719
O        5.172438     2.937951    -1.471316
C        0.806324     2.041443    -2.024275
C        1.070294     1.786956    -3.365301
C       -0.015301     1.910884    -4.257323
C       -1.309862     2.249251    -3.783277
C       -1.542250     2.468158    -2.408860
C       -0.436706     2.368141    -1.565879
N       -0.382719     2.586592    -0.177279
C       -1.471072     2.912879     0.709529
H        0.288863    -1.022344     4.367900
H       -0.464646     0.518079     3.782373
H       -1.405527    -0.641027     4.796451
H       -3.475831    -1.366554     4.340217
H       -5.487928    -2.574659     3.488524
H       -5.424497    -3.749440     1.296141
H       -3.352460    -3.726033    -0.090211
H       -1.139322    -3.951181    -0.561135
H        0.508534    -3.393415    -0.188919
H       -1.648133    -1.836803    -1.799212
H        0.034482    -1.283148    -1.501561
H       -0.873970    -3.528324    -2.995671
H        3.392023     0.941010    -1.745017
H        3.512653     1.377854    -0.008935
H        3.368659     3.466324    -2.264710
H        3.562191     3.800519    -0.509153
H        5.513883     2.357323    -0.741935
H        2.054888     1.508360    -3.715676
H        0.137497     1.730334    -5.313252
H       -2.132343     2.325398    -4.482615
H       -2.533142     2.706582    -2.049818
H       -1.107419     3.820905     1.238168
H       -2.368646     3.204233     0.129595
H       -1.753805     2.145586     1.456922
54
ex_0410 frame23 cis-2
C       -1.212094    -4.571741     0.992069
N        0.022224    -3.890432     0.683188
C        1.102237    -3.637641     1.551822
C        1.238317    -4.010744     2.887916
C        2.448209    -3.661078     3.522190
C        3.459160    -2.954339     2.819514
C        3.278315    -2.585328     1.468145
C        2.069985    -2.947341     0.877850
N        1.642849    -2.692354    -0.443306
C        2.335672    -1.922894    -1.458394
C        3.345770    -2.866570    -2.125242
O        3.987979    -2.220487    -3.192250
C        0.415467    -3.364192    -0.553183
Se      -0.579154    -3.536647    -2.163164
Cu      -2.550451    -2.169029    -2.103097
Cl      -4.350442    -3.366013    -2.727995
Se      -3.243630    -0.098065    -1.107802
C       -2.095680     1.292828    -1.751107
N       -0.943106     1.748159    -1.096674
C       -0.359462     1.229169     0.117722
C       -0.927979     2.132654     1.214070
O       -0.487179     1.695143     2.471908
C       -0.491219     2.829508    -1.869086
C        0.593233     3.663859    -1.616223
C        0.799347     4.724357    -2.525402
C       -0.048911     4.890351    -3.652338
C       -1.113236     3.995217    -3.891267
C       -1.301822     2.986724    -2.950776
N       -2.311523     2.015780    -2.930490
C       -3.340916     1.816650    -3.915736
H       -1.297007    -5.345705     0.198228
H       -1.132495    -5.101254     1.961788
H       -2.125793    -3.945721     0.989499
H        0.460143    -4.525280     3.433745
H        2.597432    -3.917981     4.563392
H        4.370753    -2.678876     3.333836
H        4.034650    -2.025441     0.935170
H        2.846335    -1.028238    -1.048918
H        1.632383    -1.590015    -2.250391
H        4.099194    -3.253661    -1.405930
H        2.798743    -3.741178    -2.541258
H        4.500073    -1.463342    -2.805461
H       -0.723416     0.218712     0.353318
H        0.747693     1.233571     0.142310
H       -2.037759     2.062957     1.198309
H       -0.658227     3.199542     1.062403
H        0.459933     1.980568     2.556690
H        1.245859     3.519254    -0.765746
H        1.621933     5.410451    -2.370428
H        0.132198     5.702395    -4.344827
H       -1.754525     4.101798    -4.756344
H       -3.013833     1.802447    -4.973997
H       -3.945518     0.910608    -3.709251
H       -3.985279     2.708447    -3.746211
54
ex_0410 frame24 trans-conf3
C        4.281905    -2.706910     0.810670
N        4.904236    -1.424617     0.562992
C        6.284509    -1.151385     0.556935
C        7.329975    -2.051501     0.753711
C        8.638188    -1.521675     0.710783
C        8.853347    -0.141346     0.453686
C        7.764510     0.730522     0.219382
C        6.484255     0.175765     0.309608
N        5.234807     0.831696     0.172765
C        5.028106     2.258839    -0.024941
C        5.121579     2.597658    -1.533675
O        6.363276     2.250275    -2.080892
C        4.283121    -0.206561     0.259019
Se       2.400000     0.000000     0.000000
Cu       0.000000     0.000000     0.000000
Cl      -1.123086     1.949128     0.002741
Se      -1.200026    -2.078446     0.000000
C       -2.393531    -3.570780     0.241258
N       -1.987102    -4.909912     0.236809
C       -0.637698    -5.445752     0.152940
C       -0.332675    -5.677757    -1.347183
O        0.989465    -6.138972    -1.477484
C       -3.194594    -5.642422     0.318396
C       -3.356749    -7.031439     0.275372
C       -4.672486    -7.522740     0.447219
C       -5.767065    -6.630225     0.577247
C       -5.563406    -5.231706     0.541938
C       -4.239533    -4.786844     0.437198
N       -3.771668    -3.457157     0.428276
C       -4.569096    -2.264697     0.581426
H        4.560176    -3.316100    -0.082405
H        4.628495    -3.231107     1.724275
H        3.177728    -2.628912     0.830831
H        7.155585    -3.093830     0.977765
H        9.484062    -2.167035     0.911470
H        9.863437     0.252525     0.467792
H        7.926948     1.784455     0.053334
H        4.006639     2.555284     0.284808
H        5.756493     2.859514     0.558779
H        4.971911     3.694628    -1.679186
H        4.297614     2.109965    -2.108399
H        6.279048     1.302703    -2.373563
H       -0.502994    -6.378307     0.740874
H        0.110868    -4.703639     0.491501
H       -0.431528    -4.702608    -1.881198
H       -1.022171    -6.416186    -1.811978
H        1.246160    -6.035104    -2.432714
H       -2.518950    -7.714301     0.235184
H       -4.832715    -8.590763     0.454586
H       -6.773250    -7.008069     0.683194
H       -6.390653    -4.551808     0.701640
H       -5.387185    -2.343187     1.328631
H       -5.029765    -2.144089    -0.434625
H       -3.957326    -1.357339     0.787988
54
ex_0410 frame25 trans-conf6
C        4.589115    -0.358458    -2.510033
N        5.062564    -0.163400    -1.154634
C        6.394158    -0.099051    -0.705627
C        7.548321    -0.203196    -1.459709
C        8.763775    -0.104161    -0.748397
C        8.773814     0.088899     0.665661
C        7.571737     0.199422     1.394235
C        6.405298     0.091656     0.660914
N        5.079659     0.150036     1.134233
C        4.622891     0.324690     2.492189
C        4.427737    -1.060435     3.096806
O        5.647049    -1.746604     3.160678
C        4.244081    -0.003626     0.000166
Se       2.400000     0.000000     0.000000
Cu       0.000000     0.000000     0.000000
Cl      -1.126004     1.948104     0.000954
Se      -1.200026    -2.078446     0.000000
C       -2.119637    -3.664605    -0.008610
N       -1.589095    -4.922116    -0.403233
C       -0.249705    -5.179496    -0.887803
C       -0.230178    -5.036793    -2.404999
O       -1.163670    -5.909719    -2.986210
C       -2.622414    -5.855694    -0.229468
C       -2.575135    -7.214178    -0.469404
C       -3.767734    -7.920967    -0.238297
C       -4.936411    -7.257956     0.241880
C       -4.935379    -5.870163     0.492915
C       -3.749827    -5.212085     0.231742
N       -3.478705    -3.839549     0.373441
C       -4.386279    -2.803696     0.816355
H        3.478746    -0.308075    -2.544205
H        4.888636    -1.360490    -2.878235
H        4.971036     0.444718    -3.171584
H        7.506955    -0.351917    -2.533839
H        9.697161    -0.176930    -1.288668
H        9.711388     0.157670     1.196348
H        7.551728     0.347038     2.468642
H        3.631149     0.829163     2.492322
H        5.303724     0.969358     3.083333
H        3.677197    -1.644528     2.511355
H        4.022468    -0.952341     4.121430
H        5.828829    -2.085579     2.245069
H        0.087479    -6.188754    -0.578217
H        0.472774    -4.461628    -0.437979
H        0.782019    -5.286065    -2.786309
H       -0.444277    -3.975274    -2.677145
H       -1.868565    -5.349468    -3.406033
H       -1.675119    -7.691907    -0.845331
H       -3.783082    -8.979399    -0.437087
H       -5.841914    -7.817679     0.409004
H       -5.809766    -5.332162     0.844914
H       -5.281062    -2.776866     0.163765
H       -4.676173    -2.994710     1.868966
H       -3.902582    -1.802215     0.773206
54
ex_0410 frame26 trans-2
C        4.324699     1.440314    -2.407050
N        4.891285     0.915165    -1.194327
C        6.256820     0.812951    -0.892648
C        7.339835     1.131564    -1.711542
C        8.626778     0.862015    -1.196965
C        8.787386     0.353209     0.117844
C        7.663123     0.103456     0.935916
C        6.410826     0.318552     0.359318
N        5.156740     0.065536     0.927746
C        4.867282    -0.417749     2.252602
C        5.086743    -1.935307     2.075842
O        4.167646    -2.475606     1.162495
C        4.275579     0.349307    -0.092463
Se       2.400000     0.000000     0.000000
Cu       0.000000     0.000000     0.000000
Cl      -1.124808     1.948439    -0.011325
Se      -1.200026    -2.078446     0.000000
C       -1.848000    -3.868186    -0.185890
N       -3.102899    -4.186000    -0.687709
C       -4.090532    -3.303184    -1.262614
C       -4.939771    -2.899736    -0.038343
O       -5.592421    -4.000609     0.536490
C       -3.198352    -5.570950    -0.484461
C       -4.297610    -6.395285    -0.726778
C       -4.165923    -7.753483    -0.361025
C       -2.946003    -8.244867     0.171364
C       -1.839894    -7.385575     0.345215
C       -2.036378    -6.041885     0.029360
N       -1.133180    -4.990414     0.199316
C        0.219646    -5.080037     0.667396
H        4.590798     0.622732    -3.115946
H        4.736851     2.393656    -2.792644
H        3.220288     1.506634    -2.354874
H        7.211029     1.532851    -2.708166
H        9.501491     1.058201    -1.805577
H        9.783786     0.167481     0.500494
H        7.782098    -0.270062     1.944050
H        5.522979    -0.032254     3.060515
H        3.812636    -0.263144     2.559259
H        4.922146    -2.440058     3.051434
H        6.129341    -2.180519     1.770876
H        4.557557    -2.369408     0.256305
H       -3.652332    -2.364796    -1.659324
H       -4.724522    -3.746374    -2.058379
H       -4.305818    -2.371273     0.713725
H       -5.714077    -2.167062    -0.354458
H       -5.134312    -4.199299     1.395335
H       -5.220756    -6.022753    -1.149302
H       -4.998484    -8.432106    -0.501529
H       -2.858664    -9.292794     0.432275
H       -0.901231    -7.756384     0.735760
H        0.024652    -5.332774     1.735311
H        0.872893    -5.860224     0.230414
H        0.738581    -4.101790     0.638012
54
ex_0410 frame27 trans-conf2
C        4.251482    -2.594252     1.261333
N        4.893074    -1.392050     0.791226
C        6.275923    -1.130662     0.763800
C        7.299378    -1.972287     1.171143
C        8.606662    -1.463339     1.065440
C        8.839560    -0.165805     0.535679
C        7.771068     0.648572     0.101246
C        6.499802     0.120530     0.254479
N        5.263321     0.724287    -0.059439
C        5.050706     2.054062    -0.598641
C        5.107893     2.029970    -2.135858
O        4.981492     3.333266    -2.634104
C        4.263370    -0.235084     0.255733
Se       2.400000     0.000000     0.000000
Cu       0.000000     0.000000     0.000000
Cl      -1.149646     1.934214     0.017810
Se      -1.200026    -2.078446     0.000000
C       -2.304916    -3.565664     0.264880
N       -1.977278    -4.876973    -0.093788
C       -0.741983    -5.295968    -0.707407
C       -0.963168    -5.159412    -2.223210
O        0.156091    -5.581761    -2.967121
C       -3.078506    -5.670977     0.250590
C       -3.223748    -7.037409     0.068242
C       -4.432489    -7.600605     0.516229
C       -5.443177    -6.786882     1.100099
C       -5.263563    -5.394790     1.240689
C       -4.045309    -4.884801     0.806327
N       -3.595247    -3.548199     0.842611
C       -4.283301    -2.382614     1.355459
H        3.280673    -2.356540     1.731927
H        4.112630    -3.274143     0.392204
H        4.880193    -3.100035     2.018693
H        7.116658    -2.950159     1.590225
H        9.436887    -2.071860     1.397373
H        9.857302     0.207407     0.479522
H        7.931045     1.645747    -0.287681
H        5.793445     2.748355    -0.175920
H        4.036273     2.415320    -0.323930
H        6.046119     1.571261    -2.519746
H        4.261885     1.421818    -2.532344
H        5.823102     3.803367    -2.391137
H       -0.455054    -6.326956    -0.414414
H        0.093429    -4.622070    -0.430155
H       -1.834740    -5.772387    -2.530308
H       -1.177079    -4.092943    -2.468150
H        0.962667    -5.573861    -2.385777
H       -2.432399    -7.648868    -0.348170
H       -4.576096    -8.669905     0.429330
H       -6.349500    -7.248859     1.461179
H       -6.015776    -4.774542     1.709959
H       -4.233703    -1.588542     0.572077
H       -5.349040    -2.599597     1.558372
H       -3.795196    -1.999442     2.269831
54
ex_0410 frame28 trans-conf5
C        4.306639     1.011157     2.624107
N        4.911294     0.430143     1.478251
C        6.271455     0.212106     1.275181
C        7.312174     0.523466     2.133586
C        8.600571     0.189378     1.698013
C        8.794991    -0.422560     0.441421
C        7.705381    -0.711892    -0.398687
C        6.463211    -0.373331     0.071556
N        5.230477    -0.557991    -0.561868
C        4.998660    -1.151187    -1.846227
C        5.084057    -0.167253    -2.997587
O        6.311889     0.494579    -2.988811
C        4.247492    -0.044985     0.315297
Se       2.400000     0.000000     0.000000
Cu       0.000000     0.000000     0.000000
Cl      -1.147057     1.935396     0.020719
Se      -1.200026    -2.078446     0.000000
C       -1.878840    -3.834713     0.143349
N       -2.858454    -4.431002    -0.677690
C       -3.506299    -3.787990    -1.776193
C       -4.752302    -3.047401    -1.335469
O       -5.324536    -2.416537    -2.446784
C       -3.042254    -5.744136    -0.189014
C       -3.893631    -6.724487    -0.650227
C       -3.867940    -7.959960     0.031816
C       -3.003418    -8.153842     1.130579
C       -2.161557    -7.126997     1.560167
C       -2.219895    -5.941172     0.865851
N       -1.482685    -4.777125     1.101736
C       -0.509342    -4.549044     2.107368
H        4.716594     0.459119     3.476147
H        4.536524     2.096468     2.721633
H        3.218435     0.819888     2.624835
H        7.168385     0.989879     3.093563
H        9.445329     0.404166     2.329378
H        9.794272    -0.668499     0.129067
H        7.854107    -1.178195    -1.356521
H        4.004947    -1.609594    -1.845265
H        5.726041    -1.961103    -2.031216
H        4.215399     0.530949    -3.041986
H        5.044012    -0.767931    -3.913948
H        6.146959     1.380763    -3.396563
H       -3.764285    -4.513050    -2.553343
H       -2.782354    -3.059356    -2.200288
H       -5.478584    -3.756797    -0.878414
H       -4.462181    -2.243150    -0.619984
H       -5.888383    -3.065634    -2.947990
H       -4.539936    -6.564537    -1.479439
H       -4.504786    -8.773635    -0.272473
H       -2.977873    -9.093143     1.655910
H       -1.501104    -7.269273     2.393776
H       -0.501258    -5.396395     2.807332
H        0.490643    -4.423308     1.647658
H       -0.768834    -3.582875     2.585248
54
ex_0410 frame29 trans-conf4
C        4.184619    -0.971675    -2.624463
N        4.846494    -0.622679    -1.418000
C        6.226219    -0.638156    -1.197464
C        7.204010    -0.986885    -2.101787
C        8.524515    -0.931337    -1.650316
C        8.804365    -0.521801    -0.317446
C        7.770969    -0.168270     0.574113
C        6.488350    -0.247626     0.079084
N        5.264465     0.034465     0.734859
C        5.090548     0.464982     2.084053
C        5.048349     1.982331     2.230538
O        4.868111     2.302116     3.589734
C        4.231927    -0.198779    -0.222727
Se       2.400000     0.000000     0.000000
Cu       0.000000     0.000000     0.000000
Cl      -1.159436     1.928768     0.008250
Se      -1.200026    -2.078446     0.000000
C       -2.331367    -3.552917    -0.123218
N       -1.980365    -4.912515    -0.391769
C       -0.650912    -5.406861    -0.623970
C        0.017982    -5.802943     0.675345
O        0.073439    -4.731160     1.591725
C       -3.198198    -5.645288    -0.378937
C       -3.401827    -6.993123    -0.579941
C       -4.738595    -7.448079    -0.512154
C       -5.802593    -6.549758    -0.248686
C       -5.539292    -5.198192    -0.052751
C       -4.228007    -4.792574    -0.124350
N       -3.735965    -3.493086     0.043195
C       -4.507410    -2.324844     0.328782
H        3.098352    -1.111147    -2.430703
H        4.598589    -1.922226    -2.963073
H        4.382427    -0.196743    -3.387217
H        6.957845    -1.293088    -3.100195
H        9.330977    -1.198896    -2.318650
H        9.818022    -0.480725     0.017234
H        7.985041     0.139667     1.573062
H        5.943452     0.114871     2.661291
H        4.159990     0.028754     2.520484
H        6.021215     2.404447     1.877355
H        4.240256     2.473219     1.643748
H        4.690732     1.471607     4.121614
H       -0.078567    -4.601271    -1.121674
H       -0.679087    -6.276457    -1.287559
H        1.036784    -6.139333     0.423769
H       -0.544621    -6.669821     1.113879
H        0.967251    -4.296932     1.501392
H       -2.594100    -7.655648    -0.776561
H       -4.967721    -8.481484    -0.659296
H       -6.830606    -6.890202    -0.194812
H       -6.335982    -4.525483     0.143548
H       -3.924235    -1.607924     0.949091
H       -4.876607    -1.864488    -0.610275
H       -5.364291    -2.639774     0.919075
54
ex_0410 frame30 T-shaped Cl-Se-ax/Se-eq
C        4.340103     1.394712    -2.427393
N        4.905403     0.889620    -1.205509
C        6.270579     0.803440    -0.899627
C        7.352880     1.132496    -1.714500
C        8.640240     0.882312    -1.192562
C        8.800774     0.376073     0.123447
C        7.675793     0.109417     0.935766
C        6.423692     0.312910     0.355221
N        5.167749     0.052319     0.919094
C        4.876437    -0.436511     2.242816
C        5.084046    -1.956126     2.070438
O        4.157207    -2.492814     1.162939
C        4.278884     0.334627    -0.099641
Se       2.400000     0.000000     0.000000
Cu       0.000000     0.000000     0.000000
Cl      -1.977772    -1.072208     0.005765
Se       0.000000     2.400000     0.000000
C        0.367833     4.276458     0.004904
N       -0.233540     5.187021     0.869819
C       -1.137184     4.915004     1.965206
C       -2.531729     4.975290     1.307187
O       -2.818065     6.250084     0.796954
C        0.224215     6.436667     0.418702
C       -0.140078     7.699372     0.884861
C        0.420266     8.809643     0.213809
C        1.340927     8.624857    -0.850384
C        1.717310     7.327630    -1.257689
C        1.100044     6.263692    -0.602880
N        1.240698     4.902171    -0.876220
C        2.101135     4.303563    -1.853973
H        4.627299     0.583240    -3.133558
H        4.730802     2.358465    -2.810854
H        3.236849     1.423383    -2.386368
H        7.223024     1.532416    -2.711691
H        9.514902     1.092856    -1.796326
H        9.797721     0.206827     0.511832
H        7.794271    -0.261155     1.944942
H        5.535334    -0.053187     3.049075
H        3.823387    -0.275091     2.551167
H        4.916806    -2.455171     3.048889
H        6.123541    -2.211643     1.763637
H        4.538340    -2.380677     0.253911
H       -1.028624     3.885682     2.363432
H       -1.068007     5.619580     2.819508
H       -2.621240     4.195278     0.512980
H       -3.305443     4.725473     2.066131
H       -2.735045     6.195432    -0.191340
H       -0.827538     7.837244     1.708010
H        0.158467     9.813798     0.523492
H        1.771823     9.487827    -1.343524
H        2.431583     7.177373    -2.057006
H        1.604847     4.649827    -2.789569
H        3.164570     4.612157    -1.875157
H        2.029831     3.203270    -1.826327
54
ex_0410 frame31 T-shaped Cl-Se-ax/Se-eq-conf6
C        4.661426    -0.361703    -2.530600
N        5.085928    -0.161494    -1.149971
C        6.420666    -0.094733    -0.689316
C        7.583708    -0.211935    -1.448149
C        8.805137    -0.103599    -0.737401
C        8.808143     0.103224     0.668778
C        7.603318     0.237528     1.390522
C        6.440155     0.107947     0.662208
N        5.098074     0.152726     1.142297
C        4.661866     0.317023     2.516313
C        4.445351    -1.069565     3.123571
O        5.652724    -1.779011     3.190436
C        4.244009    -0.002653    -0.000078
Se       2.400000     0.000000     0.000000
Cu       0.000000     0.000000     0.000000
Cl      -1.892898    -1.216504     0.008889
Se       0.000000     2.400000     0.000000
C        0.005290     4.175851     0.004639
N        0.753379     5.026509    -0.889197
C        1.655023     4.599120    -1.939356
C        3.060870     4.451760    -1.359362
O        3.513726     5.679767    -0.850526
C        0.435541     6.360868    -0.536044
C        0.898906     7.533763    -1.125938
C        0.449553     8.745026    -0.559652
C       -0.447388     8.746963     0.541696
C       -0.910045     7.536008     1.100855
C       -0.433541     6.362757     0.525754
N       -0.730116     5.032785     0.902766
C       -1.601641     4.619576     1.979764
H        3.541667    -0.363622    -2.586976
H        5.030049    -1.332368    -2.891248
H        5.039327     0.456973    -3.159481
H        7.563052    -0.368656    -2.514476
H        9.734353    -0.195961    -1.273653
H        9.758488     0.171585     1.188553
H        7.612502     0.386781     2.463354
H        3.714452     0.889786     2.555000
H        5.408800     0.885704     3.116922
H        3.684239    -1.640551     2.544149
H        4.051708    -0.955231     4.154567
H        5.814276    -2.157280     2.286459
H        1.660636     5.325996    -2.778943
H        1.329461     3.624944    -2.364074
H        3.758857     4.125197    -2.158819
H        3.063368     3.658698    -0.575174
H        3.534414     5.597300     0.141902
H        1.582794     7.528556    -1.962945
H        0.794573     9.685004    -0.970642
H       -0.777958     9.688639     0.959477
H       -1.589669     7.526919     1.942258
H       -1.221239     5.033807     2.936688
H       -2.631209     4.993682     1.800385
H       -1.636181     3.514126     2.063342
54
ex_0410 frame32 T-shaped Cl-Se-ax/Se-eq-conf3
C        4.263762    -2.679331     0.916194
N        4.875318    -1.405649     0.638336
C        6.251706    -1.135033     0.602887
C        7.302006    -2.035936     0.770336
C        8.608931    -1.520922     0.637608
C        8.819388    -0.142860     0.374629
C        7.725650     0.739931     0.235205
C        6.448505     0.185920     0.355046
N        5.205191     0.846907     0.241401
C        4.987229     2.270582     0.066277
C        5.109943     2.553623    -1.448289
O        6.376038     2.227036    -1.954648
C        4.277081    -0.194264     0.311863
Se       2.400000     0.000000     0.000000
Cu       0.000000     0.000000     0.000000
Cl      -2.085624    -0.846788    -0.003749
Se       0.000000     2.400000     0.000000
C        0.117470     4.268857    -0.388832
N        0.661589     5.202634     0.487258
C        1.353894     4.982215     1.737548
C        0.242316     5.108216     2.796693
O        0.787716     4.861911     4.066265
C        0.362427     6.433529    -0.123769
C        0.589553     7.713819     0.384371
C        0.164793     8.799605    -0.414990
C       -0.444127     8.575960    -1.677125
C       -0.636811     7.263084    -2.158897
C       -0.225605     6.222094    -1.327262
N       -0.353968     4.845546    -1.559050
C       -0.861201     4.217302    -2.747409
H        4.517377    -3.252744    -0.005048
H        4.647614    -3.229148     1.797437
H        3.160577    -2.602146     0.980080
H        7.134106    -3.080743     0.996185
H        9.460277    -2.179496     0.759895
H        9.830812     0.237555     0.299515
H        7.887991     1.794265     0.059270
H        3.956894     2.563836     0.354021
H        5.699589     2.897571     0.641414
H        4.938621     3.637291    -1.630087
H        4.311106     2.019516    -2.015366
H        6.305214     1.317123    -2.347356
H        2.175772     5.698747     1.943712
H        1.758265     3.952791     1.816111
H       -0.546419     4.349950     2.576034
H       -0.216487     6.120439     2.785814
H        0.027452     4.659180     4.672998
H        1.076336     7.882070     1.335279
H        0.324237     9.815660    -0.073902
H       -0.743304     9.421158    -2.286055
H       -1.079058     7.086937    -3.131061
H       -0.524791     4.643902    -3.712813
H       -1.952886     4.409896    -2.632393
H       -0.701168     3.121191    -2.749993
54
ex_0410 frame33 T-shaped Cl-Se-ax/Se-eq-conf5
C        4.276387     0.815034     2.727192
N        4.883981     0.293101     1.529858
C        6.260464     0.151659     1.289822
C        7.315283     0.530547     2.119981
C        8.620528     0.321289     1.625171
C        8.824698    -0.275549     0.354383
C        7.727379    -0.665636    -0.443901
C        6.453418    -0.417820     0.072044
N        5.210466    -0.686320    -0.536650
C        4.982021    -1.350115    -1.804139
C        5.098029    -0.243537    -2.876563
O        6.356155     0.372230    -2.861275
C        4.280680    -0.140422     0.351147
Se       2.400000     0.000000     0.000000
Cu       0.000000     0.000000     0.000000
Cl      -2.030135    -0.970328     0.003649
Se       0.000000     2.400000     0.000000
C        0.358663     4.269675    -0.168105
N        0.003960     5.218411     0.786574
C       -0.563858     5.010571     2.100955
C       -2.081700     5.110825     1.851577
O       -2.786523     4.831955     3.032865
C        0.309572     6.442587     0.164541
C        0.054650     7.727151     0.644817
C        0.424385     8.803573    -0.192500
C        1.050023     8.567883    -1.443799
C        1.319623     7.253436    -1.876794
C        0.897756     6.216756    -1.038871
N        0.973305     4.837815    -1.271258
C        1.555470     4.161812    -2.397239
H        4.657962     0.409713     3.684741
H        4.539874     1.895783     2.664046
H        3.172255     0.727331     2.701247
H        7.151717     0.963885     3.097604
H        9.474991     0.597305     2.230738
H        9.834663    -0.449989     0.002561
H        7.883447    -1.141849    -1.402030
H        3.951374    -1.751557    -1.881908
H        5.691092    -2.179044    -2.008464
H        4.303471     0.516381    -2.693876
H        4.931811    -0.697929    -3.879408
H        6.261234     1.213772    -3.382979
H       -0.239640     5.742262     2.869936
H       -0.369461     3.989732     2.486665
H       -2.385637     6.102624     1.447678
H       -2.383937     4.352930     1.095744
H       -2.792376     5.666595     3.569636
H       -0.402570     7.905975     1.608343
H        0.247708     9.823533     0.128314
H        1.343383     9.406157    -2.064380
H        1.814702     7.080559    -2.821650
H        1.718817     4.883556    -3.222330
H        2.469625     3.556116    -2.252608
H        0.718097     3.499782    -2.710945
54
ex_0410 frame34 T-shaped Cl-Se-ax/Se-eq-conf2
C        4.210630    -2.501595     1.433067
N        4.848232    -1.328012     0.899291
C        6.231136    -1.101556     0.802678
C        7.269168    -1.966258     1.149343
C        8.583897    -1.513790     0.900028
C        8.814298    -0.221792     0.360519
C        7.733699     0.635870     0.060637
C        6.451624     0.130534     0.281645
N        5.227885     0.758001     0.012710
C        5.019698     2.085077    -0.505054
C        5.247522     1.877249    -2.017334
O        5.085200     3.082569    -2.713849
C        4.279229    -0.201170     0.324003
Se       2.400000     0.000000     0.000000
Cu       0.000000     0.000000     0.000000
Cl      -2.029450    -0.971043     0.006465
Se       0.000000     2.400000     0.000000
C       -0.382932     4.267957    -0.098418
N        0.488409     5.199538    -0.612000
C        1.757675     4.959059    -1.228759
C        2.639877     5.121137     0.038298
O        4.019693     5.023561    -0.224630
C       -0.124818     6.420732    -0.372601
C        0.371386     7.692292    -0.650554
C       -0.385212     8.783925    -0.176240
C       -1.632524     8.573705     0.463997
C       -2.139096     7.268064     0.644735
C       -1.318755     6.215552     0.230117
N       -1.547120     4.840757     0.380876
C       -2.715281     4.190581     0.908541
H        3.122470    -2.363206     1.587153
H        4.358564    -3.210575     0.586522
H        4.660548    -2.938699     2.346500
H        7.088899    -2.941940     1.580414
H        9.426905    -2.150149     1.140954
H        9.830451     0.115831     0.195312
H        7.905436     1.629529    -0.331401
H        5.712812     2.857536    -0.111919
H        3.977307     2.433986    -0.368647
H        6.250786     1.453090    -2.243168
H        4.499217     1.153417    -2.407565
H        5.898493     3.624457    -2.534535
H        2.075728     5.686130    -2.004990
H        1.905130     3.936597    -1.634527
H        2.463044     6.111429     0.504276
H        2.369222     4.332752     0.773920
H        4.164006     4.849140    -1.188190
H        1.317329     7.848526    -1.151538
H       -0.016941     9.793139    -0.314501
H       -2.206150     9.425753     0.807915
H       -3.095086     7.118226     1.125213
H       -2.262710     3.513824     1.666047
H       -3.329521     4.928335     1.462781
H       -3.369033     3.605902     0.234451
54
ex_0410 frame35 T-shaped Cl-Se-ax/Se-eq-conf4
C        4.194890    -1.129575    -2.649935
N        4.858302    -0.725262    -1.430244
C        6.242600    -0.674557    -1.215810
C        7.259910    -0.970155    -2.120505
C        8.586937    -0.824682    -1.656198
C        8.845431    -0.386159    -0.330437
C        7.780980    -0.079686     0.550562
C        6.486521    -0.261941     0.060451
N        5.258740    -0.064915     0.739548
C        5.092541     0.298589     2.141068
C        5.110735     1.850140     2.225372
O        4.983818     2.328823     3.547407
C        4.278408    -0.277963    -0.240334
Se       2.400000     0.000000     0.000000
Cu       0.000000     0.000000     0.000000
Cl      -1.083550    -1.973078     0.043236
Se       0.000000     2.400000     0.000000
C       -0.035056     4.283459     0.352133
N        0.786810     5.222399    -0.285386
C        1.856646     4.978380    -1.237437
C        1.203174     5.097463    -2.636069
O        0.183704     4.142950    -2.794530
C        0.325450     6.468783     0.195580
C        0.752130     7.740505    -0.180968
C        0.132030     8.835497     0.463662
C       -0.888381     8.627655     1.426974
C       -1.298269     7.320656     1.768681
C       -0.657232     6.270751     1.113971
N       -0.892649     4.888155     1.250805
C       -1.829893     4.250001     2.140789
H        3.094831    -1.160588    -2.528292
H        4.542613    -2.079557    -3.101243
H        4.439767    -0.289932    -3.342587
H        7.057570    -1.335308    -3.118384
H        9.414553    -1.077621    -2.309296
H        9.870511    -0.313988     0.013207
H        7.977999     0.228984     1.568232
H        5.882292    -0.143062     2.783812
H        4.104573    -0.029740     2.522273
H        6.061094     2.251548     1.815702
H        4.269492     2.261952     1.623606
H        4.613513     1.613056     4.131284
H        2.259451     3.949572    -1.167300
H        2.704252     5.691763    -1.147210
H        1.984801     4.943539    -3.421125
H        0.777786     6.105418    -2.825460
H        0.595580     3.334069    -3.202711
H        1.552470     7.900448    -0.889940
H        0.459698     9.848337     0.253130
H       -1.328962     9.477790     1.937100
H       -2.049171     7.168643     2.528594
H       -2.321166     3.494562     1.478909
H       -1.457316     3.759327     3.064326
H       -2.615704     4.992616     2.405420
54
ex_0410 frame36 T-shaped Se-Se-ax/Cl-eq-conf6
C        4.671574    -0.371706    -2.521314
N        5.093933    -0.159986    -1.154699
C        6.426536    -0.079218    -0.693799
C        7.593385    -0.183388    -1.442943
C        8.810641    -0.077228    -0.737802
C        8.822348     0.143401     0.665075
C        7.617416     0.264272     1.389403
C        6.436321     0.125808     0.664722
N        5.105045     0.162465     1.147150
C        4.687586     0.324028     2.526011
C        4.403734    -1.058607     3.116745
O        5.577290    -1.827322     3.159878
C        4.244038     0.001130    -0.000556
Se       2.400000     0.000000     0.000000
Cu       0.000000     0.000000     0.000000
Cl      -0.000378     2.235162     0.230068
Se      -2.400000     0.000000     0.000000
C       -4.175849    -0.005307     0.000101
N       -5.029756     0.068829     1.162404
C       -4.604675     0.135576     2.547558
C       -4.416163    -1.285706     3.078838
O       -5.633516    -1.984518     3.060905
C       -6.364469     0.060387     0.687779
C       -7.538864     0.137455     1.429954
C       -8.749752     0.072988     0.707635
C       -8.748428    -0.042569    -0.708130
C       -7.536718    -0.098802    -1.427199
C       -6.361597    -0.045288    -0.684756
N       -5.034208    -0.090013    -1.156148
C       -4.622125    -0.200180    -2.540540
H        3.565774    -0.403492    -2.596574
H        5.080334    -1.336064    -2.888584
H        5.047576     0.453280    -3.161793
H        7.574029    -0.360536    -2.510097
H        9.746949    -0.170996    -1.272116
H        9.767828     0.215213     1.186540
H        7.627356     0.423827     2.458535
H        3.786576     0.970676     2.588021
H        5.478604     0.809880     3.133494
H        3.606555    -1.587673     2.548245
H        4.037560    -0.936459     4.157661
H        5.703954    -2.214786     2.255163
H       -5.351472     0.669285     3.172040
H       -3.651938     0.699683     2.636399
H       -4.058790    -1.239685     4.129158
H       -3.633699    -1.820122     2.491751
H       -5.627064    -2.565113     2.255928
H       -7.538024     0.223172     2.507726
H       -9.691008     0.110819     1.239983
H       -9.688969    -0.091221    -1.241316
H       -7.524828    -0.191901    -2.505631
H       -5.027911    -1.139603    -2.970609
H       -5.010487     0.664510    -3.117595
H       -3.517383    -0.217967    -2.627950
54
ex_0410 frame37 T-shaped Se-Se-ax/Cl-eq-conf3
C        4.228602    -2.659450     1.032399
N        4.822253    -1.382726     0.752126
C        6.204178    -1.125421     0.650174
C        7.259931    -2.028299     0.795228
C        8.565097    -1.515344     0.644201
C        8.774272    -0.143278     0.358444
C        7.678279     0.735984     0.219628
C        6.405427     0.184371     0.377330
N        5.164958     0.857063     0.285605
C        4.943499     2.250665     0.010992
C        5.081283     2.522679    -1.362735
O        6.363183     2.223244    -1.847872
C        4.319643    -0.193986     0.383907
Se       2.400000     0.000000     0.000000
Cu       0.000000     0.000000     0.000000
Cl       0.002739     2.229801    -0.336782
Se      -2.400000     0.000000     0.000000
C       -4.256499     0.447587     0.018736
N       -5.155945    -0.176157     0.849644
C       -4.939531    -1.076148     1.954809
C       -5.121546    -2.439300     1.263687
O       -4.876153    -3.465441     2.187300
C       -6.382882     0.268788     0.336180
C       -7.658666    -0.147851     0.709607
C       -8.741529     0.382957    -0.026303
C       -8.519282     1.344122    -1.046749
C       -7.213039     1.785283    -1.344407
C       -6.170003     1.183806    -0.638274
N       -4.800396     1.390474    -0.822330
C       -4.179547     2.355023    -1.682486
H        4.455602    -3.223461     0.114435
H        4.638945    -3.211045     1.912384
H        3.127649    -2.576595     1.142585
H        7.093256    -3.074333     1.013343
H        9.416130    -2.174482     0.747205
H        9.783019     0.233829     0.245641
H        7.844882     1.779919     0.001941
H        3.912987     2.574691     0.431321
H        5.650284     2.930365     0.724690
H        4.880284     3.593301    -1.582123
H        4.305655     1.941512    -1.914921
H        6.309250     1.341147    -2.302224
H       -5.634916    -0.975510     2.813155
H       -3.898805    -1.035465     2.338512
H       -4.393735    -2.509904     0.421371
H       -6.150407    -2.551738     0.859187
H       -4.723236    -4.292714     1.658758
H       -7.826465    -0.869277     1.498286
H       -9.752816     0.065549     0.196631
H       -9.363000     1.750674    -1.592019
H       -7.037269     2.528439    -2.112417
H       -4.601823     3.378984    -1.692227
H       -4.380102     1.874188    -2.667356
H       -3.081505     2.406035    -1.540252
54
ex_0410 frame38 T-shaped Se-Se-ax/Cl-eq-conf5
C        4.226743     0.682052     2.779972
N        4.818539     0.168266     1.574660
C        6.200223     0.094571     1.305176
C        7.256851     0.491967     2.124642
C        8.561610     0.310530     1.617378
C        8.765726    -0.251392     0.332148
C        7.668456    -0.639498    -0.463293
C        6.394508    -0.442452     0.076956
N        5.160324    -0.746927    -0.519268
C        4.925374    -1.328044    -1.815176
C        5.056331    -0.309237    -2.799369
O        6.333272     0.265750    -2.794693
C        4.315112    -0.214294     0.389514
Se       2.400000     0.000000     0.000000
Cu       0.000000     0.000000     0.000000
Cl      -0.005095     2.248223     0.093820
Se      -2.400000     0.000000     0.000000
C       -4.274422     0.379748     0.228770
N       -5.161967    -0.591655     0.578819
C       -4.952796    -1.939186     1.039457
C       -5.133159    -2.687615    -0.294693
O       -4.866624    -4.054120    -0.128350
C       -6.376981     0.065622     0.368139
C       -7.658279    -0.479014     0.460846
C       -8.737805     0.385701     0.191207
C       -8.509717     1.742287    -0.151163
C       -7.199243     2.254312    -0.229001
C       -6.159468     1.361147     0.044717
N       -4.784805     1.620371     0.007436
C       -4.122485     2.873727    -0.209039
H        4.640294     0.269856     3.739861
H        4.458345     1.748574     2.717136
H        3.126404     0.539250     2.782689
H        7.094562     0.920148     3.104481
H        9.414633     0.602243     2.213151
H        9.773525    -0.383513    -0.041534
H        7.829133    -1.067204    -1.441940
H        3.894363    -1.838296    -1.847616
H        5.630201    -2.278137    -1.992164
H        4.295116     0.470556    -2.569486
H        4.855665    -0.724384    -3.811700
H        6.275166     1.085760    -3.353085
H       -5.655066    -2.328507     1.806185
H       -3.916007    -2.124190     1.388133
H       -6.149394    -2.544367    -0.726739
H       -4.415905    -2.288825    -1.044692
H       -5.702528    -4.470244     0.207875
H       -7.831956    -1.504040     0.762183
H       -9.743310    -0.004029     0.250117
H       -9.338226     2.403645    -0.357511
H       -7.038438     3.301491    -0.445225
H       -4.844993     3.595215    -0.639208
H       -3.551312     3.364988     0.600668
H       -3.430899     2.586595    -1.031016
54
ex_0410 frame39 T-shaped Se-Se-ax/Cl-eq-conf4
C        4.129084    -1.361287    -2.577580
N        4.764304    -0.913851    -1.365895
C        6.154939    -0.750670    -1.174231
C        7.176470    -0.981662    -2.091143
C        8.491733    -0.739851    -1.646166
C        8.738152    -0.284402    -0.326377
C        7.666403    -0.064158     0.568976
C        6.382924    -0.316279     0.086056
N        5.167681    -0.172330     0.782392
C        4.996209     0.264857     2.137358
C        5.186015     1.626503     2.220713
O        5.149722     2.127482     3.532211
C        4.311921    -0.404994    -0.218278
Se       2.400000     0.000000     0.000000
Cu       0.000000     0.000000     0.000000
Cl      -0.004965     2.236531     0.282907
Se      -2.400000     0.000000     0.000000
C       -4.253678     0.427420     0.027815
N       -5.141028    -0.058129    -0.905199
C       -4.906382    -0.772473    -2.133455
C       -5.151753    -2.229363    -1.688085
O       -4.277730    -2.590626    -0.650935
C       -6.373778     0.300481    -0.345740
C       -7.642764    -0.054144    -0.804714
C       -8.739648     0.343643    -0.010441
C       -8.541591     1.132076     1.150439
C       -7.244428     1.534552     1.535435
C       -6.184855     1.047767     0.764252
N       -4.814432     1.213533     1.004728
C       -4.179280     2.005823     2.017116
H        3.036704    -1.477644    -2.443641
H        4.543256    -2.288977    -3.039907
H        4.319909    -0.508039    -3.251773
H        6.982481    -1.329652    -3.098305
H        9.325424    -0.902660    -2.316975
H        9.754479    -0.103435    -0.000276
H        7.854551     0.282475     1.573310
H        5.745199    -0.393257     2.868917
H        3.986411    -0.138114     2.563563
H        6.165663     1.911854     1.785932
H        4.398846     2.121260     1.607592
H        4.354423     1.741347     3.982549
H       -3.856192    -0.697703    -2.483933
H       -5.575274    -0.518691    -2.981977
H       -5.023214    -2.919937    -2.553487
H       -6.191185    -2.376930    -1.330965
H       -3.446765    -2.929758    -1.077251
H       -7.793133    -0.643271    -1.698571
H       -9.743841     0.054074    -0.295918
H       -9.396804     1.438068     1.741128
H       -7.105095     2.147124     2.413869
H       -3.477153     1.262106     2.452762
H       -3.625859     2.924284     1.746755
H       -4.920101     2.242339     2.807111
54
ex_0410 frame40 T-shaped Se-Se-ax/Cl-eq
C        4.297080     1.516315    -2.373983
N        4.852070     0.988564    -1.159508
C        6.224761     0.836321    -0.881510
C        7.309488     1.154533    -1.698472
C        8.596340     0.901377    -1.176799
C        8.755738     0.348894     0.119745
C        7.630364     0.042014     0.912344
C        6.379520     0.309049     0.355712
N        5.130895     0.091941     0.943446
C        4.844250    -0.449797     2.241202
C        5.090504    -1.882555     2.100537
O        4.197038    -2.433576     1.168627
C        4.306770     0.396531    -0.077321
Se       2.400000     0.000000     0.000000
Cu       0.000000     0.000000     0.000000
Cl      -0.010760     2.236889     0.225047
Se      -2.400000     0.000000     0.000000
C       -4.266566    -0.014528     0.409701
N       -5.152673    -0.921269    -0.136038
C       -4.882617    -2.077262    -0.951721
C       -4.977645    -1.475607    -2.370857
O       -6.265328    -0.996842    -2.657321
C       -6.395110    -0.428941     0.277796
C       -7.658968    -0.902658    -0.076521
C       -8.767439    -0.160582     0.386425
C       -8.582707     0.960307     1.235722
C       -7.286819     1.354699     1.633254
C       -6.221357     0.640032     1.086872
N       -4.860361     0.905617     1.246557
C       -4.264249     1.901857     2.086432
H        4.547839     0.700052    -3.091003
H        4.721230     2.466230    -2.753304
H        3.193762     1.597007    -2.315411
H        7.179938     1.575699    -2.686368
H        9.469445     1.130185    -1.769787
H        9.750373     0.161303     0.503860
H        7.750498    -0.378856     1.900100
H        5.493613     0.027014     3.085669
H        3.787922    -0.226516     2.576479
H        4.921122    -2.393683     3.071430
H        6.141185    -2.110617     1.810984
H        4.609113    -2.331191     0.271412
H       -3.847367    -2.459934    -0.840835
H       -5.577517    -2.935153    -0.836444
H       -4.214219    -0.670847    -2.495294
H       -4.729223    -2.258044    -3.119764
H       -6.211698    -0.005542    -2.699771
H       -7.799192    -1.766904    -0.711409
H       -9.769891    -0.455823     0.100944
H       -9.445591     1.510258     1.591520
H       -7.139090     2.200561     2.291525
H       -4.545732     2.806929     1.500452
H       -4.646322     2.012697     3.120080
H       -3.158644     1.834419     2.103098
54
ex_0410 frame41 T-shaped Se-Se-ax/Cl-eq-conf2
C        4.145462    -2.423078     1.603647
N        4.755380    -1.243248     1.052692
C        6.137793    -1.048634     0.859871
C        7.177721    -1.929921     1.152477
C        8.486977    -1.490209     0.861095
C        8.711234    -0.208610     0.297472
C        7.629755     0.650118     0.017778
C        6.353213     0.173496     0.322276
N        5.140352     0.842226     0.133945
C        4.926650     2.152287    -0.406969
C        5.175099     2.047765    -1.791261
O        4.946655     3.261131    -2.454179
C        4.315124    -0.152425     0.446787
Se       2.400000     0.000000     0.000000
Cu       0.000000     0.000000     0.000000
Cl       0.008706     2.241066     0.237333
Se      -2.400000     0.000000     0.000000
C       -4.268510    -0.253471     0.387821
N       -5.129030    -0.665084    -0.567321
C       -4.898362    -1.173348    -1.884250
C       -5.077422     0.158131    -2.643231
O       -4.951610    -0.035511    -4.025396
C       -6.339615    -0.428728     0.058690
C       -7.612324    -0.561036    -0.496992
C       -8.702339    -0.193366     0.314590
C       -8.493603     0.245683     1.645678
C       -7.191635     0.323061     2.183459
C       -6.138945    -0.021720     1.330939
N       -4.767591     0.018144     1.618509
C       -4.131989     0.278147     2.879000
H        3.054286    -2.277526     1.758055
H        4.326186    -3.160442     0.838655
H        4.583748    -2.782113     2.587384
H        6.998892    -2.905915     1.582341
H        9.326763    -2.134795     1.068815
H        9.721182     0.113308     0.080058
H        7.801508     1.626583    -0.411724
H        5.621463     2.973370     0.144684
H        3.891578     2.550085    -0.131031
H        6.198431     1.676602    -2.023636
H        4.474167     1.289395    -2.202159
H        5.788284     3.783832    -2.387942
H       -5.609946    -1.933307    -2.269696
H       -3.865928    -1.538651    -2.062955
H       -6.082191     0.589008    -2.453882
H       -4.337887     0.915981    -2.296219
H       -4.009113    -0.294122    -4.194286
H       -7.770737    -0.933957    -1.501075
H       -9.700284    -0.254610    -0.093766
H       -9.330497     0.527508     2.267436
H       -7.046238     0.641042     3.205325
H       -3.416979     1.075517     2.581762
H       -4.864383     0.743757     3.567241
H       -3.590092    -0.525254     3.412657
