107
ex_0460 frame0 
C       -5.954308     3.666891    -0.876296
Si      -5.471760     2.138633     0.100584
C       -4.720101     2.764105     1.696619
C       -6.916227     1.041106     0.453736
Si      -3.873870     1.029195    -1.053808
Te      -1.778519     2.099549    -0.500459
Cd       0.537913     0.904321    -1.182918
Te       1.475947    -0.991849     0.494960
Si       2.915958    -0.331514     2.328986
Si       5.065948    -0.747040     1.854540
C        5.586340    -0.050988     0.231275
C        6.205249    -0.161716     3.197002
C        5.241181    -2.620807     1.735427
Si       2.447441    -1.724681     4.049099
C        2.530261    -3.510529     3.472151
C        0.713391    -1.401730     4.608492
C        3.701684    -1.540291     5.403161
Si       2.588867     1.713157     3.096165
C        2.205995     1.785569     4.905235
C        1.180952     2.589494     2.197904
C        4.143848     2.735774     2.806777
P        0.702157     0.075634    -3.492442
C       -0.663211     0.626354    -4.605489
C        0.962941    -1.743923    -3.548459
C        2.308089     0.862637    -4.084073
C        2.403824     2.377950    -3.778809
P        2.153673     2.587393    -1.944851
C        1.463132     4.295666    -1.700125
C        3.766870     2.527453    -1.032425
Si      -4.038702    -1.097858    -0.495782
C       -5.399418    -1.858742    -1.560255
C       -4.609244    -1.285252     1.291179
C       -2.497534    -2.077106    -0.799748
Si      -4.479551     1.249476    -3.213514
C       -3.839497     2.853838    -3.896967
C       -6.361865     1.320227    -3.309715
C       -3.947205    -0.222150    -4.208413
H       -6.168686     4.518298    -0.191072
H       -5.099516     3.994918    -1.507149
H       -6.881948     3.504328    -1.449823
H       -5.561287     2.976122     2.400792
H       -4.116751     3.677012     1.507692
H       -4.016422     2.018655     2.097609
H       -6.892111     0.086638    -0.071893
H       -7.831445     1.604876     0.145161
H       -7.002374     0.903723     1.542923
H        4.770419    -0.162955    -0.503148
H        6.422048    -0.684987    -0.159696
H        5.981481     0.968878     0.338342
H        7.020183     0.502715     2.807489
H        5.700918     0.403261     4.003726
H        6.739609    -1.006429     3.713763
H        5.977751    -2.898176     0.936141
H        5.647184    -3.043911     2.675774
H        4.297651    -3.115316     1.484034
H        1.863172    -4.081456     4.169702
H        2.110335    -3.628280     2.457058
H        3.535165    -3.933454     3.609196
H        0.638673    -1.219160     5.715522
H        0.024390    -2.237164     4.385589
H        0.288673    -0.505873     4.087719
H        4.584344    -2.214819     5.242942
H        3.227734    -1.886467     6.350153
H        4.032636    -0.513815     5.574926
H        1.973445     0.758430     5.291885
H        1.295828     2.380029     5.149168
H        3.023613     2.254008     5.502985
H        1.349283     2.426623     1.135110
H        1.255532     3.679552     2.369752
H        0.208511     2.182419     2.553699
H        4.810071     2.213080     2.072487
H        3.900956     3.721116     2.346101
H        4.659169     2.951270     3.748357
H       -0.254766     1.192170    -5.469561
H       -1.168243    -0.259750    -5.027097
H       -1.283622     1.308544    -4.028837
H        1.602174    -1.962364    -4.444769
H        1.615623    -1.998610    -2.665279
H        0.024735    -2.327106    -3.533458
H        2.370216     0.695996    -5.162631
H        3.151773     0.374857    -3.586085
H        1.616695     2.895110    -4.341999
H        3.371691     2.763347    -4.040956
H        2.290759     5.028166    -1.747599
H        0.963398     4.390986    -0.700972
H        0.731984     4.540839    -2.510541
H        4.526933     1.999030    -1.644996
H        3.586039     2.101614    -0.043110
H        4.172512     3.550254    -0.890749
H       -6.047602    -1.068200    -1.997545
H       -4.964134    -2.453589    -2.385124
H       -6.072063    -2.506216    -0.957275
H       -4.137657    -2.153076     1.778593
H       -5.703268    -1.463209     1.344811
H       -4.392567    -0.376658     1.858113
H       -2.358681    -2.229525    -1.882208
H       -2.668219    -3.085580    -0.356767
H       -1.666124    -1.592642    -0.292766
H       -4.617932     3.641855    -3.925968
H       -3.036429     3.222498    -3.205028
H       -3.344434     2.728180    -4.886399
H       -6.790263     0.469791    -3.857095
H       -6.721529     2.239687    -3.794904
H       -6.782009     1.256398    -2.282383
H       -4.801712    -0.924035    -4.412189
H       -3.621730     0.130890    -5.227644
H       -3.134009    -0.790602    -3.745759
