46
ex_0090 frame0 TBP-5-chelate-1
Cu       0.000000     0.000000     0.000000
N        0.106323     0.000000     2.027214
C       -0.903162     0.000013     2.752999
C       -0.649969    -0.000002     4.277694
C        0.640501    -0.000037     4.685685
C        1.792640    -0.000048     3.819423
C        3.116411    -0.000072     4.121646
C        4.122125    -0.000074     3.121576
C        3.826537    -0.000049     1.797645
C        4.692680    -0.000042     0.646063
C        4.291900    -0.000017    -0.647034
C        2.763167     0.000014    -0.902008
N        2.027214     0.000000     0.106323
C        2.445796    -0.000027     1.484550
C        1.483274    -0.000025     2.440996
H       -1.865327     0.000037     2.340460
H       -1.479947     0.000014     4.932496
H        0.869253    -0.000048     5.768547
H        3.380787    -0.000096     5.170845
H        5.170730    -0.000089     3.391147
H        5.776086    -0.000062     0.877864
H        4.945146     0.000005    -1.474818
H        2.353509     0.000045    -1.866099
N       -1.013607     1.755619    -0.106323
C       -1.376511     2.384161     0.903162
C       -2.138845     3.704593     0.649969
C       -2.342811     4.057940    -0.640501
C       -1.909671     3.307741    -1.792640
C       -2.060761     3.569486    -3.116411
C       -1.560724     2.703401    -4.122125
C       -0.898779     1.556831    -3.826537
C       -0.322995     0.559528    -4.692680
C        0.323532    -0.560340    -4.291900
C        0.450992    -0.781169    -2.763167
N       -0.053161     0.092078    -2.027214
C       -0.742252     1.285672    -2.445796
C       -1.220476     2.113977    -1.483274
H       -1.170262     2.026879     1.865327
H       -2.466260     4.271660     1.479947
H       -2.884232     4.995732    -0.869253
H       -2.585340     4.478131    -3.380787
H       -1.695497     2.936864    -5.170730
H       -0.438879     0.760284    -5.776086
H        0.737405    -1.277233    -4.945146
H        0.933010    -1.616112    -2.353509
Cl      -1.170000    -2.026499     0.000000
46
ex_0090 frame1 TBP-5-chelate-1-conf2
Cu       0.000000     0.000000     0.000000
N        0.106323     0.000000     2.027214
C       -0.903162     0.000013     2.752999
C       -0.649969    -0.000002     4.277694
C        0.640501    -0.000037     4.685685
C        1.792640    -0.000048     3.819423
C        3.116411    -0.000072     4.121646
C        4.122125    -0.000074     3.121576
C        3.826537    -0.000049     1.797645
C        4.692680    -0.000042     0.646063
C        4.291900    -0.000017    -0.647034
C        2.763167     0.000014    -0.902008
N        2.027214     0.000000     0.106323
C        2.445796    -0.000027     1.484550
C        1.483274    -0.000025     2.440996
H       -1.865327     0.000037     2.340460
H       -1.479947     0.000014     4.932496
H        0.869253    -0.000048     5.768547
H        3.380787    -0.000096     5.170845
H        5.170730    -0.000089     3.391147
H        5.776086    -0.000062     0.877864
H        4.945146     0.000005    -1.474818
H        2.353509     0.000045    -1.866099
N       -0.038770     0.067151    -2.028519
C        0.462456    -0.800977    -2.737174
C        0.335077    -0.580355    -4.254528
C       -0.310889     0.538462    -4.669024
C       -0.883921     1.530969    -3.792382
C       -1.546671     2.678867    -4.094162
C       -2.049677     3.550099    -3.094185
C       -1.900781     3.292220    -1.768144
C       -2.336640     4.047155    -0.619893
C       -2.132921     3.694316     0.671241
C       -1.371327     2.375216     0.929991
N       -1.014259     1.756749    -0.077539
C       -1.214249     2.103124    -1.458630
C       -0.729954     1.264303    -2.420860
H        0.946536    -1.639431    -2.321837
H        0.748823    -1.296943    -4.915076
H       -0.424812     0.735761    -5.742663
H       -1.678800     2.907677    -5.142722
H       -2.573196     4.456909    -3.361327
H       -2.877037     4.983116    -0.851319
H       -2.461731     4.263814     1.499471
H       -1.166247     2.020040     1.889521
Cl      -1.170000    -2.026499     0.000000
46
ex_0090 frame2 TBP-5-chelate-1-conf3
Cu       0.000000     0.000000     0.000000
N        2.028519    -0.000000     0.077539
C        2.737174    -0.000010    -0.924894
C        4.254528    -0.000008    -0.670141
C        4.669024     0.000007     0.621766
C        3.792382     0.000014     1.767819
C        4.094162     0.000022     3.093302
C        3.094185     0.000023     4.099314
C        1.768144     0.000015     3.801536
C        0.619893     0.000012     4.673259
C       -0.671241     0.000006     4.265832
C       -0.929991    -0.000004     2.742661
N        0.077539     0.000000     2.028519
C        1.458630     0.000009     2.428483
C        2.420860     0.000008     1.459895
H        2.321837    -0.000008    -1.893057
H        4.915076    -0.000028    -1.497597
H        5.742663     0.000017     0.849594
H        5.142722     0.000045     3.357522
H        3.361327    -0.000001     5.146394
H        0.851319     0.000029     5.754023
H       -1.499471     0.000015     4.923436
H       -1.889521    -0.000020     2.332529
N       -1.013607     1.755619    -0.106323
C       -1.376511     2.384161     0.903162
C       -2.138845     3.704593     0.649969
C       -2.342811     4.057940    -0.640501
C       -1.909671     3.307741    -1.792640
C       -2.060761     3.569486    -3.116411
C       -1.560724     2.703401    -4.122125
C       -0.898779     1.556831    -3.826537
C       -0.322995     0.559528    -4.692680
C        0.323532    -0.560340    -4.291900
C        0.450992    -0.781169    -2.763167
N       -0.053161     0.092078    -2.027214
C       -0.742252     1.285672    -2.445796
C       -1.220476     2.113977    -1.483274
H       -1.170262     2.026879     1.865327
H       -2.466260     4.271660     1.479947
H       -2.884232     4.995732    -0.869253
H       -2.585340     4.478131    -3.380787
H       -1.695497     2.936864    -5.170730
H       -0.438879     0.760284    -5.776086
H        0.737405    -1.277233    -4.945146
H        0.933010    -1.616112    -2.353509
Cl      -1.170000    -2.026499     0.000000
46
ex_0090 frame3 TBP-5-chelate-1-conf4
Cu       0.000000     0.000000     0.000000
N        2.028519    -0.000000     0.077539
C        2.737174    -0.000010    -0.924894
C        4.254528    -0.000008    -0.670141
C        4.669024     0.000007     0.621766
C        3.792382     0.000014     1.767819
C        4.094162     0.000022     3.093302
C        3.094185     0.000023     4.099314
C        1.768144     0.000015     3.801536
C        0.619893     0.000012     4.673259
C       -0.671241     0.000006     4.265832
C       -0.929991    -0.000004     2.742661
N        0.077539     0.000000     2.028519
C        1.458630     0.000009     2.428483
C        2.420860     0.000008     1.459895
H        2.321837    -0.000008    -1.893057
H        4.915076    -0.000028    -1.497597
H        5.742663     0.000017     0.849594
H        5.142722     0.000045     3.357522
H        3.361327    -0.000001     5.146394
H        0.851319     0.000029     5.754023
H       -1.499471     0.000015     4.923436
H       -1.889521    -0.000020     2.332529
N       -0.038770     0.067151    -2.028519
C        0.462456    -0.800977    -2.737174
C        0.335077    -0.580355    -4.254528
C       -0.310889     0.538462    -4.669024
C       -0.883921     1.530969    -3.792382
C       -1.546671     2.678867    -4.094162
C       -2.049677     3.550099    -3.094185
C       -1.900781     3.292220    -1.768144
C       -2.336640     4.047155    -0.619893
C       -2.132921     3.694316     0.671241
C       -1.371327     2.375216     0.929991
N       -1.014259     1.756749    -0.077539
C       -1.214249     2.103124    -1.458630
C       -0.729954     1.264303    -2.420860
H        0.946536    -1.639431    -2.321837
H        0.748823    -1.296943    -4.915076
H       -0.424812     0.735761    -5.742663
H       -1.678800     2.907677    -5.142722
H       -2.573196     4.456909    -3.361327
H       -2.877037     4.983116    -0.851319
H       -2.461731     4.263814     1.499471
H       -1.166247     2.020040     1.889521
Cl      -1.170000    -2.026499     0.000000
46
ex_0090 frame4 TBP-5-chelate-2
Cu       0.000000     0.000000     0.000000
N        0.106323     0.000000     2.027214
C       -0.903162     0.000013     2.752999
C       -0.649969    -0.000002     4.277694
C        0.640501    -0.000037     4.685685
C        1.792640    -0.000048     3.819423
C        3.116411    -0.000072     4.121646
C        4.122125    -0.000074     3.121576
C        3.826537    -0.000049     1.797645
C        4.692680    -0.000042     0.646063
C        4.291900    -0.000017    -0.647034
C        2.763167     0.000014    -0.902008
N        2.027214     0.000000     0.106323
C        2.445796    -0.000027     1.484550
C        1.483274    -0.000025     2.440996
H       -1.865327     0.000037     2.340460
H       -1.479947     0.000014     4.932496
H        0.869253    -0.000048     5.768547
H        3.380787    -0.000096     5.170845
H        5.170730    -0.000089     3.391147
H        5.776086    -0.000062     0.877864
H        4.945146     0.000005    -1.474818
H        2.353509     0.000045    -1.866099
N       -1.013607    -1.755619    -0.106323
C       -1.376488    -2.384174     0.903162
C       -2.138849    -3.704591     0.649969
C       -2.342874    -4.057904    -0.640501
C       -1.909753    -3.307694    -1.792640
C       -2.060886    -3.569414    -3.116411
C       -1.560852    -2.703327    -4.122125
C       -0.898865    -1.556781    -3.826537
C       -0.323068    -0.559486    -4.692680
C        0.323502     0.560357    -4.291900
C        0.451016     0.781155    -2.763167
N       -0.053161    -0.092078    -2.027214
C       -0.742298    -1.285644    -2.445796
C       -1.220519    -2.113951    -1.483274
H       -1.170198    -2.026916     1.865327
H       -2.466236    -4.271673     1.479947
H       -2.884314    -4.995684    -0.869253
H       -2.585505    -4.478035    -3.380787
H       -1.695651    -2.936775    -5.170730
H       -0.438986    -0.760222    -5.776086
H        0.737414     1.277228    -4.945146
H        0.933089     1.616066    -2.353509
Cl      -1.170000     2.026499     0.000000
46
ex_0090 frame5 TBP-5-chelate-2-conf2
Cu       0.000000     0.000000     0.000000
N        0.106323     0.000000     2.027214
C       -0.903162     0.000013     2.752999
C       -0.649969    -0.000002     4.277694
C        0.640501    -0.000037     4.685685
C        1.792640    -0.000048     3.819423
C        3.116411    -0.000072     4.121646
C        4.122125    -0.000074     3.121576
C        3.826537    -0.000049     1.797645
C        4.692680    -0.000042     0.646063
C        4.291900    -0.000017    -0.647034
C        2.763167     0.000014    -0.902008
N        2.027214     0.000000     0.106323
C        2.445796    -0.000027     1.484550
C        1.483274    -0.000025     2.440996
H       -1.865327     0.000037     2.340460
H       -1.479947     0.000014     4.932496
H        0.869253    -0.000048     5.768547
H        3.380787    -0.000096     5.170845
H        5.170730    -0.000089     3.391147
H        5.776086    -0.000062     0.877864
H        4.945146     0.000005    -1.474818
H        2.353509     0.000045    -1.866099
N       -0.038770    -0.067151    -2.028519
C        0.462438     0.800987    -2.737174
C        0.335064     0.580363    -4.254528
C       -0.310877    -0.538468    -4.669024
C       -0.883898    -1.530983    -3.792382
C       -1.546632    -2.678890    -4.094162
C       -2.049637    -3.550122    -3.094185
C       -1.900755    -3.292235    -1.768144
C       -2.336619    -4.047167    -0.619893
C       -2.132911    -3.694322     0.671241
C       -1.371334    -2.375212     0.929991
N       -1.014259    -1.756749    -0.077539
C       -1.214234    -2.103132    -1.458630
C       -0.729941    -1.264311    -2.420860
H        0.946521     1.639439    -2.321837
H        0.748774     1.296971    -4.915076
H       -0.424782    -0.735778    -5.742663
H       -1.678722    -2.907722    -5.142722
H       -2.573198    -4.456908    -3.361327
H       -2.876987    -4.983145    -0.851319
H       -2.461705    -4.263828     1.499471
H       -1.166282    -2.020019     1.889521
Cl      -1.170000     2.026499     0.000000
46
ex_0090 frame6 TBP-5-chelate-2-conf3
Cu       0.000000     0.000000     0.000000
N        2.028519    -0.000000     0.077539
C        2.737174    -0.000010    -0.924894
C        4.254528    -0.000008    -0.670141
C        4.669024     0.000007     0.621766
C        3.792382     0.000014     1.767819
C        4.094162     0.000022     3.093302
C        3.094185     0.000023     4.099314
C        1.768144     0.000015     3.801536
C        0.619893     0.000012     4.673259
C       -0.671241     0.000006     4.265832
C       -0.929991    -0.000004     2.742661
N        0.077539     0.000000     2.028519
C        1.458630     0.000009     2.428483
C        2.420860     0.000008     1.459895
H        2.321837    -0.000008    -1.893057
H        4.915076    -0.000028    -1.497597
H        5.742663     0.000017     0.849594
H        5.142722     0.000045     3.357522
H        3.361327    -0.000001     5.146394
H        0.851319     0.000029     5.754023
H       -1.499471     0.000015     4.923436
H       -1.889521    -0.000020     2.332529
N       -1.013607    -1.755619    -0.106323
C       -1.376488    -2.384174     0.903162
C       -2.138849    -3.704591     0.649969
C       -2.342874    -4.057904    -0.640501
C       -1.909753    -3.307694    -1.792640
C       -2.060886    -3.569414    -3.116411
C       -1.560852    -2.703327    -4.122125
C       -0.898865    -1.556781    -3.826537
C       -0.323068    -0.559486    -4.692680
C        0.323502     0.560357    -4.291900
C        0.451016     0.781155    -2.763167
N       -0.053161    -0.092078    -2.027214
C       -0.742298    -1.285644    -2.445796
C       -1.220519    -2.113951    -1.483274
H       -1.170198    -2.026916     1.865327
H       -2.466236    -4.271673     1.479947
H       -2.884314    -4.995684    -0.869253
H       -2.585505    -4.478035    -3.380787
H       -1.695651    -2.936775    -5.170730
H       -0.438986    -0.760222    -5.776086
H        0.737414     1.277228    -4.945146
H        0.933089     1.616066    -2.353509
Cl      -1.170000     2.026499     0.000000
46
ex_0090 frame7 TBP-5-chelate-2-conf4
Cu       0.000000     0.000000     0.000000
N        2.028519    -0.000000     0.077539
C        2.737174    -0.000010    -0.924894
C        4.254528    -0.000008    -0.670141
C        4.669024     0.000007     0.621766
C        3.792382     0.000014     1.767819
C        4.094162     0.000022     3.093302
C        3.094185     0.000023     4.099314
C        1.768144     0.000015     3.801536
C        0.619893     0.000012     4.673259
C       -0.671241     0.000006     4.265832
C       -0.929991    -0.000004     2.742661
N        0.077539     0.000000     2.028519
C        1.458630     0.000009     2.428483
C        2.420860     0.000008     1.459895
H        2.321837    -0.000008    -1.893057
H        4.915076    -0.000028    -1.497597
H        5.742663     0.000017     0.849594
H        5.142722     0.000045     3.357522
H        3.361327    -0.000001     5.146394
H        0.851319     0.000029     5.754023
H       -1.499471     0.000015     4.923436
H       -1.889521    -0.000020     2.332529
N       -0.038770    -0.067151    -2.028519
C        0.462438     0.800987    -2.737174
C        0.335064     0.580363    -4.254528
C       -0.310877    -0.538468    -4.669024
C       -0.883898    -1.530983    -3.792382
C       -1.546632    -2.678890    -4.094162
C       -2.049637    -3.550122    -3.094185
C       -1.900755    -3.292235    -1.768144
C       -2.336619    -4.047167    -0.619893
C       -2.132911    -3.694322     0.671241
C       -1.371334    -2.375212     0.929991
N       -1.014259    -1.756749    -0.077539
C       -1.214234    -2.103132    -1.458630
C       -0.729941    -1.264311    -2.420860
H        0.946521     1.639439    -2.321837
H        0.748774     1.296971    -4.915076
H       -0.424782    -0.735778    -5.742663
H       -1.678722    -2.907722    -5.142722
H       -2.573198    -4.456908    -3.361327
H       -2.876987    -4.983145    -0.851319
H       -2.461705    -4.263828     1.499471
H       -1.166282    -2.020019     1.889521
Cl      -1.170000     2.026499     0.000000
