125
ex_0455 frame0 Isomer 1
C       -0.102878     2.090971     5.681440
O       -0.592239     1.323394     4.635914
C        0.065575     0.433500     3.838344
C        1.445076     0.163345     3.937616
C        2.037448    -0.801604     3.115792
C        1.269880    -1.544950     2.199923
C        1.938910    -2.664308     1.418468
C        1.875181    -2.753436    -0.098973
C        1.514940    -3.833212    -0.838893
C        1.091991    -5.203313    -0.338351
C       -0.353127    -5.544420    -0.583009
C       -0.708438    -6.398316    -1.632561
C       -2.046660    -6.696857    -1.880507
C       -3.066793    -6.155131    -1.070422
O       -4.379260    -6.434408    -1.288691
C       -4.861646    -7.267883    -2.279540
C       -2.709592    -5.304819    -0.004227
O       -3.637627    -4.751623     0.809615
C       -4.422843    -3.685122     0.434243
C       -1.357578    -5.010669     0.241848
O       -1.013908    -4.211726     1.274417
N        1.587020    -3.502253    -2.227855
C        1.359619    -4.382259    -3.353004
C        2.120245    -2.203452    -2.287745
N        2.470789    -1.608448    -3.406108
C        3.041538    -0.272769    -3.656144
N        3.298142     0.690057    -2.642553
C        3.803416     1.778200    -3.251048
O        4.117965     2.792583    -2.648037
N        3.923630     1.625854    -4.593999
C        4.434036     2.638368    -5.495989
C        3.469577     0.386090    -4.916101
O        3.431548    -0.077119    -6.045154
Zn       2.838618     0.232747    -0.702660
N        2.200238    -1.691581    -0.975146
N        1.524751     1.555189     0.140315
C        1.950616     2.332678     1.236890
N        3.104482     2.276648     1.858096
C        4.299807     1.455516     1.607275
N        4.415266     0.478520     0.577524
C        5.657678    -0.031598     0.665352
O        6.083776    -0.883806    -0.098573
N        6.378210     0.500149     1.686588
C        7.746819     0.149064     2.006522
C        5.604498     1.429035     2.305647
O        5.946416     2.106002     3.262466
N        0.916860     3.217768     1.587555
C        0.947204     4.185912     2.659429
C       -0.145346     2.979700     0.662913
C       -1.435009     3.774652     0.653475
C       -2.341462     3.477342     1.818579
C       -2.398525     4.356732     2.905972
C       -3.231525     4.091425     3.991472
C       -4.052982     2.945701     3.999836
O       -4.911528     2.673736     5.018747
C       -5.041841     3.385228     6.195709
C       -3.989872     2.054191     2.912576
O       -4.743676     0.931365     2.888988
C       -6.080318     0.943295     2.552330
C       -3.141524     2.320132     1.824816
O       -3.090746     1.465775     0.780743
C        0.197648     1.960439    -0.160608
C       -0.669267     1.329585    -1.239810
C       -0.313548     1.541499    -2.687140
C       -0.215502     2.837384    -3.214197
C        0.049786     3.029611    -4.575302
C        0.246280     1.922740    -5.426185
O        0.491516     2.051889    -6.756483
C        0.531800     3.239368    -7.457533
C        0.187912     0.633715    -4.886042
C       -0.075684     0.442131    -3.526439
C       -0.086404    -1.220419     2.045794
C       -0.679838    -0.248591     2.865415
H       -0.577206     1.759932     6.629141
H       -0.378275     3.151961     5.518843
H        0.992611     2.039410     5.807300
H        2.078580     0.651111     4.660960
H        3.089868    -1.016613     3.253346
H        1.532831    -3.587000     1.866724
H        3.025488    -2.662094     1.648095
H        1.763169    -5.908542    -0.871259
H        1.299719    -5.367970     0.735874
H        0.054075    -6.831475    -2.267458
H       -2.272979    -7.358667    -2.705051
H       -4.446217    -8.291885    -2.156491
H       -5.966110    -7.325574    -2.206224
H       -4.591942    -6.870372    -3.281857
H       -4.938488    -3.287090     1.332947
H       -5.176023    -3.993243    -0.318188
H       -3.782397    -2.873345     0.022895
H       -1.657746    -3.855091     1.903129
H        0.286909    -4.649190    -3.408244
H        1.636278    -3.885448    -4.306151
H        1.977985    -5.297540    -3.245029
H        5.485140     2.879944    -5.225915
H        4.405210     2.291163    -6.548698
H        3.822765     3.562146    -5.405082
H        7.800816    -0.926378     2.280162
H        8.394002     0.325714     1.120523
H        8.129358     0.754668     2.853712
H        1.922562     4.162825     3.187424
H        0.161971     3.942343     3.395437
H        0.782766     5.204544     2.252976
H       -2.026831     3.646014    -0.274991
H       -1.134998     4.843812     0.647130
H       -1.801846     5.260417     2.909922
H       -3.243131     4.805050     4.802155
H       -5.995384     3.096243     6.681911
H       -4.201871     3.151267     6.883934
H       -5.094484     4.476929     6.001839
H       -6.672887     0.479600     3.365894
H       -6.217365     0.347802     1.624541
H       -6.450294     1.975617     2.364981
H       -3.663942     0.690716     0.698432
H       -0.731575     0.244604    -1.003926
H       -1.698251     1.717172    -1.176356
H       -0.394115     3.697427    -2.581520
H        0.080402     4.040108    -4.959134
H       -0.449655     3.756651    -7.392038
H        1.336644     3.893254    -7.060673
H        0.744114     3.023580    -8.525037
H        0.332621    -0.227171    -5.527814
H       -0.144313    -0.568084    -3.143753
H       -0.701693    -1.747437     1.333971
H       -1.739259    -0.051034     2.770549
125
ex_0455 frame1 Isomer 2
C        3.988698     4.191522     6.107774
O        3.591877     2.894348     5.856923
C        2.928317     2.473740     4.749137
C        2.599816     1.116106     4.645317
C        1.914908     0.633894     3.526791
C        1.555580     1.507010     2.488720
C        0.822316     1.000340     1.284413
C        1.599013     0.701397     0.010473
C        2.918179     0.679684    -0.328878
C        4.099916     1.000889     0.568827
C        4.973489     2.078235    -0.044103
C        4.360553     3.226576    -0.582073
C        5.116700     4.206730    -1.224684
C        6.511433     4.072210    -1.326299
O        7.292685     4.979392    -1.967740
C        6.857932     6.116950    -2.609836
C        7.138167     2.965087    -0.748174
O        8.484528     2.867718    -0.828964
C        9.123253     1.969500    -1.656656
C        6.389387     1.971308    -0.094746
O        7.066467     0.941589     0.464883
N        3.038407     0.293753    -1.714242
C        4.240823     0.124153    -2.499086
C        1.720419     0.133977    -2.190676
N        1.382723    -0.174230    -3.424406
C        0.034883    -0.351738    -4.023103
N       -1.198514    -0.228735    -3.308225
C       -2.191716    -0.460849    -4.181590
O       -3.372181    -0.424673    -3.867767
N       -1.744272    -0.735811    -5.432305
C       -2.583868    -1.029140    -6.577537
C       -0.383482    -0.679038    -5.413172
O        0.337316    -0.867545    -6.379505
Zn      -1.179595     0.286593    -1.328903
N        0.853633     0.361260    -1.121615
N       -2.224777    -0.902480    -0.033768
C       -3.208196    -0.328615     0.795701
N       -3.600057     0.926435     0.824095
C       -3.153281     2.096743     0.041441
N       -2.130275     2.056790    -0.947152
C       -2.015850     3.298018    -1.450356
O       -1.222291     3.587833    -2.333443
N       -2.867800     4.182884    -0.877084
C       -2.958466     5.584993    -1.230894
C       -3.598478     3.514851     0.057383
O       -4.457246     4.014764     0.766007
N       -3.730698    -1.339360     1.623675
C       -4.739127    -1.168098     2.645605
C       -2.970681    -2.518775     1.333578
C       -3.149659    -3.843395     2.050308
C       -4.562899    -4.362679     2.172701
C       -5.151280    -4.316545     3.443537
C       -6.441563    -4.775830     3.650564
C       -7.190165    -5.298918     2.585733
O       -8.449097    -5.776675     2.759457
C       -9.134696    -5.790943     3.954998
C       -6.629740    -5.341566     1.302684
O       -7.386953    -5.829277     0.291168
C       -7.885333    -5.063150    -0.742718
C       -5.309472    -4.889805     1.086965
O       -4.789048    -4.971657    -0.153595
C       -2.085957    -2.252431     0.342229
C       -1.088931    -3.203714    -0.296995
C       -1.089668    -3.399225    -1.799686
C       -2.270508    -3.630678    -2.520661
C       -2.225711    -3.884298    -3.895293
C       -1.008004    -3.896387    -4.586034
O       -1.040374    -4.184855    -5.916291
C       -0.009418    -4.159298    -6.838569
C        0.175551    -3.611911    -3.874061
C        0.128064    -3.348406    -2.500742
C        1.888125     2.866653     2.583596
C        2.561275     3.350190     3.707367
H        3.103334     4.861245     6.151148
H        4.510337     4.229642     7.085597
H        4.689538     4.537096     5.317860
H        2.875455     0.430342     5.436819
H        1.669669    -0.419567     3.468157
H        0.018152     1.735467     1.060476
H        0.292130     0.059443     1.549445
H        4.645513     0.055499     0.723288
H        3.795151     1.341999     1.561820
H        3.284006     3.345429    -0.543848
H        4.604008     5.053923    -1.659742
H        6.401867     6.814304    -1.877319
H        7.729454     6.612403    -3.084931
H        6.126670     5.855495    -3.404432
H        9.809921     2.532574    -2.322547
H        9.713621     1.254224    -1.049549
H        8.400951     1.409058    -2.291537
H        6.683289     0.271983     1.043695
H        4.264290     0.885209    -3.307069
H        4.252044    -0.890212    -2.947327
H        5.148789     0.229866    -1.877589
H       -2.346971    -2.036472    -6.974228
H       -2.426305    -0.267591    -7.367828
H       -3.660413    -1.018714    -6.294638
H       -1.969637     6.071471    -1.084531
H       -3.712909     6.110112    -0.611195
H       -3.242996     5.679937    -2.301605
H       -5.073566    -0.111086     2.697197
H       -4.321558    -1.452742     3.633260
H       -5.622630    -1.794089     2.408794
H       -2.750574    -3.616213     3.061347
H       -2.518164    -4.662344     1.664136
H       -4.602447    -3.927941     4.292067
H       -6.841553    -4.726170     4.652382
H       -9.317989    -4.750201     4.297575
H       -8.554621    -6.348311     4.721985
H      -10.106496    -6.302346     3.810377
H       -7.509250    -5.443161    -1.713695
H       -8.993865    -5.142105    -0.734533
H       -7.614996    -3.989919    -0.630593
H       -3.859117    -4.790947    -0.328699
H       -1.203627    -4.220070     0.111035
H       -0.086183    -2.854278     0.031610
H       -3.226210    -3.645148    -2.027498
H       -3.146438    -4.091853    -4.426482
H       -0.314069    -3.529867    -7.699610
H        0.934910    -3.745605    -6.443579
H        0.175596    -5.189767    -7.206540
H        1.144897    -3.610124    -4.346418
H        1.057716    -3.164362    -1.976367
H        1.609336     3.553990     1.794224
H        2.789925     4.405923     3.755852
125
ex_0455 frame2 Isomer 3
C       -5.631949     0.936511    -0.863598
O       -4.719755     1.709609    -1.556018
C       -3.390866     1.445766    -1.618341
C       -2.563610     2.245833    -2.425856
C       -1.189878     1.980592    -2.518900
C       -0.639777     0.919714    -1.788164
C        0.914085     0.572797    -1.869259
C        0.948347    -0.901204    -2.137579
C        0.755132    -1.558633    -3.276673
C        0.446063    -0.895850    -4.591861
C       -0.612553    -1.552629    -5.421901
C       -0.215176    -2.169149    -6.612375
C       -1.140080    -2.792996    -7.429457
C       -2.502766    -2.814198    -7.082813
O       -3.423659    -3.412942    -7.883401
C       -3.132789    -4.026802    -9.088069
C       -2.915182    -2.198408    -5.881340
O       -4.217845    -2.205646    -5.516829
C       -5.131079    -1.286737    -5.991023
C       -1.968109    -1.565754    -5.047392
O       -2.348280    -0.973068    -3.894403
N        0.889639    -2.962060    -3.033986
C        0.757576    -4.031609    -3.995943
C        1.170349    -3.058649    -1.690040
N        1.384293    -4.261874    -0.999757
C        1.551784    -4.537047     0.285665
N        1.925530    -3.569583     1.229733
C        2.264810    -4.242656     2.340018
O        2.797205    -3.715651     3.305457
N        1.952934    -5.556623     2.267703
C        2.245826    -6.529137     3.301898
C        1.452093    -5.792989     1.024254
O        1.012659    -6.861855     0.635974
Zn       2.128180    -1.606209     0.695440
N        1.211498    -1.814445    -1.120957
N        2.035855    -0.238082     2.214614
C        3.234961     0.264076     2.761282
N        4.579608     0.030476     2.286365
C        4.968000    -0.715198     1.288937
N        4.144830    -1.424344     0.400701
C        4.953936    -2.056589    -0.468764
O        4.542213    -2.777572    -1.364365
N        6.263876    -1.806914    -0.242512
C        7.357998    -2.337123    -1.031398
C        6.337552    -0.998378     0.846570
O        7.374405    -0.593331     1.348496
N        2.933630     1.061056     3.884535
C        3.885660     1.661624     4.794202
C        1.533590     0.905209     4.107233
C        0.805557     1.461290     5.320923
C       -0.565588     2.121458     5.238425
C       -1.674634     1.352212     5.635119
C       -2.957176     1.888440     5.658903
C       -3.173016     3.223254     5.288849
O       -4.402999     3.802140     5.353945
C       -5.571548     3.190072     5.763374
C       -2.086239     3.998051     4.849717
O       -2.311767     5.281209     4.484359
C       -2.651660     5.690908     3.216639
C       -0.781739     3.453251     4.798730
O        0.225189     4.220531     4.330620
C        1.009289     0.205757     3.078355
C       -0.430177    -0.109556     2.801176
C       -1.045134     1.113921     2.131478
C       -0.238742     1.999946     1.379556
C       -0.777864     3.104924     0.744247
C       -2.150709     3.369464     0.827742
O       -2.711183     4.432980     0.193332
C       -2.011678     5.384364    -0.527510
C       -2.963576     2.511527     1.586993
C       -2.416161     1.394371     2.240284
C       -1.467819     0.142033    -0.965680
C       -2.821762     0.387612    -0.891581
H       -5.645168    -0.094327    -1.282308
H       -6.641793     1.377050    -0.961736
H       -5.366183     0.895192     0.215727
H       -2.985208     3.070643    -2.985116
H       -0.561481     2.599257    -3.148756
H        1.233772     0.742757    -0.836496
H        1.408606     1.169354    -2.567648
H        0.209399     0.182577    -4.474723
H        1.418874    -0.939502    -5.129246
H        0.824878    -2.169011    -6.915069
H       -0.774156    -3.252952    -8.336105
H       -2.436357    -4.879073    -8.927023
H       -4.064790    -4.410116    -9.546376
H       -2.669526    -3.295802    -9.787213
H       -4.671647    -0.587464    -6.724632
H       -5.976068    -1.818201    -6.473794
H       -5.521705    -0.694307    -5.136623
H       -3.269399    -0.937186    -3.599752
H        1.102724    -4.997699    -3.557127
H       -0.274779    -4.112084    -4.295730
H        1.414497    -3.830704    -4.899638
H        1.908349    -7.543697     3.010903
H        1.746462    -6.232201     4.248540
H        3.344621    -6.558481     3.480630
H        7.322006    -3.447929    -1.022102
H        8.338948    -2.004815    -0.635642
H        7.260097    -1.989996    -2.083474
H        4.918469     1.579264     4.397009
H        3.845808     1.140462     5.775542
H        3.641893     2.733849     4.939181
H        1.461374     2.128239     5.918640
H        0.691335     0.556580     5.952944
H       -1.542983     0.335263     5.982924
H       -3.765366     1.265724     6.017476
H       -6.370743     3.955160     5.846488
H       -5.883005     2.424001     5.022462
H       -5.440995     2.725354     6.764629
H       -2.871884     6.778160     3.231947
H       -1.803171     5.511910     2.528327
H       -3.560118     5.155100     2.864909
H        1.138829     3.913604     4.265820
H       -0.990638    -0.500249     3.674921
H       -0.454515    -0.901467     2.022797
H        0.821326     1.842022     1.253167
H       -0.109972     3.734370     0.172425
H       -1.436997     4.908142    -1.351536
H       -1.313789     5.933725     0.141063
H       -2.722616     6.108273    -0.971652
H       -4.025869     2.704097     1.659298
H       -3.065021     0.737742     2.805424
H       -1.063996    -0.678241    -0.386748
H       -3.409534    -0.256809    -0.254735
125
ex_0455 frame3 Isomer 1
C       -0.102878     2.090971     5.681440
O       -0.592239     1.323394     4.635914
C        0.065575     0.433500     3.838344
C        1.445076     0.163345     3.937616
C        2.037448    -0.801604     3.115792
C        1.269880    -1.544950     2.199923
C        1.938910    -2.664308     1.418468
C        1.877529    -2.754191    -0.099023
C        1.515751    -3.833470    -0.838913
C        1.091991    -5.203313    -0.338351
C       -0.353050    -5.545150    -0.582442
C       -0.708438    -6.398316    -1.632561
C       -2.046660    -6.696857    -1.880507
C       -3.066702    -6.156228    -1.069576
O       -4.379260    -6.434408    -1.288691
C       -4.861646    -7.267883    -2.279540
C       -2.709508    -5.305885    -0.003405
O       -3.637627    -4.751623     0.809615
C       -4.422843    -3.685122     0.434243
C       -1.357529    -5.011269     0.242296
O       -1.013908    -4.211726     1.274417
N        1.587020    -3.502253    -2.227855
C        1.359619    -4.382259    -3.353004
C        2.120245    -2.203452    -2.287745
N        2.470789    -1.608448    -3.406108
C        3.041294    -0.272671    -3.656176
N        3.298142     0.690057    -2.642553
C        3.803416     1.778200    -3.251048
O        4.117965     2.792583    -2.648037
N        3.923630     1.625854    -4.593999
C        4.434036     2.638368    -5.495989
C        3.469507     0.386118    -4.916110
O        3.431548    -0.077119    -6.045154
Zn       2.838618     0.232747    -0.702660
N        2.200238    -1.691581    -0.975146
N        1.524751     1.555189     0.140315
C        1.950616     2.332678     1.236890
N        3.104482     2.276648     1.858096
C        4.299954     1.455811     1.607012
N        4.415266     0.478520     0.577524
C        5.657678    -0.031598     0.665352
O        6.083776    -0.883806    -0.098573
N        6.378210     0.500149     1.686588
C        7.746819     0.149064     2.006522
C        5.604540     1.429120     2.305572
O        5.946416     2.106002     3.262466
N        0.916860     3.217768     1.587555
C        0.947204     4.185912     2.659429
C       -0.145665     2.979190     0.663411
C       -1.435009     3.774652     0.653475
C       -2.342784     3.478249     1.817779
C       -2.398525     4.356732     2.905972
C       -3.231525     4.091425     3.991472
C       -4.054879     2.947058     3.998607
O       -4.911528     2.673736     5.018747
C       -5.041841     3.385228     6.195709
C       -3.991785     2.055494     2.911396
O       -4.743676     0.931365     2.888988
C       -6.080318     0.943295     2.552330
C       -3.142587     2.320863     1.824164
O       -3.090746     1.465775     0.780743
C        0.197555     1.960265    -0.160432
C       -0.669267     1.329585    -1.239810
C       -0.313548     1.541499    -2.687140
C       -0.215502     2.837384    -3.214197
C        0.049786     3.029611    -4.575302
C        0.246280     1.922740    -5.426185
O        0.491516     2.051889    -6.756483
C        0.531800     3.239368    -7.457533
C        0.187912     0.633715    -4.886042
C       -0.075684     0.442131    -3.526439
C       -0.086404    -1.220419     2.045794
C       -0.679838    -0.248591     2.865415
H       -0.577206     1.759932     6.629141
H       -0.378275     3.151961     5.518843
H        0.992611     2.039410     5.807300
H        2.078580     0.651111     4.660960
H        3.089868    -1.016613     3.253346
H        1.532831    -3.587000     1.866724
H        3.025488    -2.662094     1.648095
H        1.763169    -5.908542    -0.871259
H        1.299719    -5.367970     0.735874
H        0.054075    -6.831475    -2.267458
H       -2.272979    -7.358667    -2.705051
H       -4.446217    -8.291885    -2.156491
H       -5.966110    -7.325574    -2.206224
H       -4.591942    -6.870372    -3.281857
H       -4.938488    -3.287090     1.332947
H       -5.176023    -3.993243    -0.318188
H       -3.782397    -2.873345     0.022895
H       -1.657746    -3.855091     1.903129
H        0.286909    -4.649190    -3.408244
H        1.636278    -3.885448    -4.306151
H        1.977985    -5.297540    -3.245029
H        5.485140     2.879944    -5.225915
H        4.405210     2.291163    -6.548698
H        3.822765     3.562146    -5.405082
H        7.800816    -0.926378     2.280162
H        8.394002     0.325714     1.120523
H        8.129358     0.754668     2.853712
H        1.922562     4.162825     3.187424
H        0.161971     3.942343     3.395437
H        0.782766     5.204544     2.252976
H       -2.026831     3.646014    -0.274991
H       -1.134998     4.843812     0.647130
H       -1.801846     5.260417     2.909922
H       -3.243131     4.805050     4.802155
H       -5.995384     3.096243     6.681911
H       -4.201871     3.151267     6.883934
H       -5.094484     4.476929     6.001839
H       -6.672887     0.479600     3.365894
H       -6.217365     0.347802     1.624541
H       -6.450294     1.975617     2.364981
H       -3.663942     0.690716     0.698432
H       -0.731575     0.244604    -1.003926
H       -1.698251     1.717172    -1.176356
H       -0.394115     3.697427    -2.581520
H        0.080402     4.040108    -4.959134
H       -0.449655     3.756651    -7.392038
H        1.336644     3.893254    -7.060673
H        0.744114     3.023580    -8.525037
H        0.332621    -0.227171    -5.527814
H       -0.144313    -0.568084    -3.143753
H       -0.701693    -1.747437     1.333971
H       -1.739259    -0.051034     2.770549
125
ex_0455 frame4 Isomer 2
C        3.988698     4.191522     6.107774
O        3.591877     2.894348     5.856923
C        2.928317     2.473740     4.749137
C        2.599816     1.116106     4.645317
C        1.914908     0.633894     3.526791
C        1.555580     1.507010     2.488720
C        0.822316     1.000340     1.284413
C        1.599009     0.701470     0.010454
C        2.918178     0.679709    -0.328885
C        4.099916     1.000889     0.568827
C        4.973505     2.078342    -0.043892
C        4.360553     3.226576    -0.582073
C        5.116700     4.206730    -1.224684
C        6.511467     4.072364    -1.326040
O        7.292685     4.979392    -1.967740
C        6.857932     6.116950    -2.609836
C        7.138196     2.965252    -0.747889
O        8.484528     2.867718    -0.828964
C        9.123253     1.969500    -1.656656
C        6.389400     1.971403    -0.094587
O        7.066467     0.941589     0.464883
N        3.038407     0.293753    -1.714242
C        4.240823     0.124153    -2.499086
C        1.720419     0.133977    -2.190676
N        1.382723    -0.174230    -3.424406
C        0.034883    -0.351734    -4.023104
N       -1.198514    -0.228735    -3.308225
C       -2.191716    -0.460849    -4.181590
O       -3.372181    -0.424673    -3.867767
N       -1.744272    -0.735811    -5.432305
C       -2.583868    -1.029140    -6.577537
C       -0.383482    -0.679037    -5.413172
O        0.337316    -0.867545    -6.379505
Zn      -1.179595     0.286593    -1.328903
N        0.853633     0.361260    -1.121615
N       -2.224777    -0.902480    -0.033768
C       -3.208196    -0.328615     0.795701
N       -3.600057     0.926435     0.824095
C       -3.153350     2.096722     0.041370
N       -2.130275     2.056790    -0.947152
C       -2.015850     3.298018    -1.450356
O       -1.222291     3.587833    -2.333443
N       -2.867800     4.182884    -0.877084
C       -2.958466     5.584993    -1.230894
C       -3.598498     3.514845     0.057363
O       -4.457246     4.014764     0.766007
N       -3.730698    -1.339360     1.623675
C       -4.739127    -1.168098     2.645605
C       -2.969158    -2.518163     1.335097
C       -3.149659    -3.843395     2.050308
C       -4.562287    -4.364258     2.173044
C       -5.151280    -4.316545     3.443537
C       -6.441563    -4.775830     3.650564
C       -7.189226    -5.301231     2.586215
O       -8.449097    -5.776675     2.759457
C       -9.134696    -5.790943     3.954998
C       -6.628881    -5.343848     1.303135
O       -7.386953    -5.829277     0.291168
C       -7.885333    -5.063150    -0.742718
C       -5.308995    -4.891062     1.087247
O       -4.789048    -4.971657    -0.153595
C       -2.085433    -2.252232     0.342749
C       -1.088931    -3.203714    -0.296995
C       -1.089668    -3.399225    -1.799686
C       -2.270508    -3.630678    -2.520661
C       -2.225711    -3.884298    -3.895293
C       -1.008004    -3.896387    -4.586034
O       -1.040374    -4.184855    -5.916291
C       -0.009418    -4.159298    -6.838569
C        0.175551    -3.611911    -3.874061
C        0.128064    -3.348406    -2.500742
C        1.888125     2.866653     2.583596
C        2.561275     3.350190     3.707367
H        3.103334     4.861245     6.151148
H        4.510337     4.229642     7.085597
H        4.689538     4.537096     5.317860
H        2.875455     0.430342     5.436819
H        1.669669    -0.419567     3.468157
H        0.018152     1.735467     1.060476
H        0.292130     0.059443     1.549445
H        4.645513     0.055499     0.723288
H        3.795151     1.341999     1.561820
H        3.284006     3.345429    -0.543848
H        4.604008     5.053923    -1.659742
H        6.401867     6.814304    -1.877319
H        7.729454     6.612403    -3.084931
H        6.126670     5.855495    -3.404432
H        9.809921     2.532574    -2.322547
H        9.713621     1.254224    -1.049549
H        8.400951     1.409058    -2.291537
H        6.683289     0.271983     1.043695
H        4.264290     0.885209    -3.307069
H        4.252044    -0.890212    -2.947327
H        5.148789     0.229866    -1.877589
H       -2.346971    -2.036472    -6.974228
H       -2.426305    -0.267591    -7.367828
H       -3.660413    -1.018714    -6.294638
H       -1.969637     6.071471    -1.084531
H       -3.712909     6.110112    -0.611195
H       -3.242996     5.679937    -2.301605
H       -5.073566    -0.111086     2.697197
H       -4.321558    -1.452742     3.633260
H       -5.622630    -1.794089     2.408794
H       -2.750574    -3.616213     3.061347
H       -2.518164    -4.662344     1.664136
H       -4.602447    -3.927941     4.292067
H       -6.841553    -4.726170     4.652382
H       -9.317989    -4.750201     4.297575
H       -8.554621    -6.348311     4.721985
H      -10.106496    -6.302346     3.810377
H       -7.509250    -5.443161    -1.713695
H       -8.993865    -5.142105    -0.734533
H       -7.614996    -3.989919    -0.630593
H       -3.859117    -4.790947    -0.328699
H       -1.203627    -4.220070     0.111035
H       -0.086183    -2.854278     0.031610
H       -3.226210    -3.645148    -2.027498
H       -3.146438    -4.091853    -4.426482
H       -0.314069    -3.529867    -7.699610
H        0.934910    -3.745605    -6.443579
H        0.175596    -5.189767    -7.206540
H        1.144897    -3.610124    -4.346418
H        1.057716    -3.164362    -1.976367
H        1.609336     3.553990     1.794224
H        2.789925     4.405923     3.755852
125
ex_0455 frame5 Isomer 3
C       -5.631949     0.936511    -0.863598
O       -4.719755     1.709609    -1.556018
C       -3.390866     1.445766    -1.618341
C       -2.563610     2.245833    -2.425856
C       -1.189878     1.980592    -2.518900
C       -0.639721     0.919909    -1.787923
C        0.933309     0.573117    -1.872638
C        0.958850    -0.900011    -2.139413
C        0.766211    -1.557751    -3.278819
C        0.467263    -0.894702    -4.596109
C       -0.612639    -1.552120    -5.422193
C       -0.215176    -2.169149    -6.612375
C       -1.140080    -2.792996    -7.429457
C       -2.502879    -2.813489    -7.083215
O       -3.423659    -3.412942    -7.883401
C       -3.132789    -4.026802    -9.088069
C       -2.915300    -2.197696    -5.881746
O       -4.217845    -2.205646    -5.516829
C       -5.131079    -1.286737    -5.991023
C       -1.968176    -1.565353    -5.047619
O       -2.348280    -0.973068    -3.894403
N        0.890282    -2.961643    -3.034365
C        0.755331    -4.031476    -3.995660
C        1.164681    -3.059580    -1.688495
N        1.367895    -4.264843    -0.995107
C        1.546575    -4.535438     0.283545
N        1.925530    -3.569583     1.229733
C        2.264810    -4.242656     2.340018
O        2.797205    -3.715651     3.305457
N        1.952934    -5.556623     2.267703
C        2.245826    -6.529137     3.301898
C        1.450902    -5.792394     1.024464
O        1.012659    -6.861855     0.635974
Zn       2.128180    -1.606209     0.695440
N        1.211498    -1.814445    -1.120957
N        2.035855    -0.238082     2.214614
C        3.234961     0.264076     2.761282
N        4.579608     0.030476     2.286365
C        4.967990    -0.714948     1.288746
N        4.144830    -1.424344     0.400701
C        4.953936    -2.056589    -0.468764
O        4.542213    -2.777572    -1.364365
N        6.263876    -1.806914    -0.242512
C        7.357998    -2.337123    -1.031398
C        6.337550    -0.998304     0.846515
O        7.374405    -0.593331     1.348496
N        2.933630     1.061056     3.884535
C        3.885660     1.661624     4.794202
C        1.533369     0.906303     4.106600
C        0.805557     1.461290     5.320923
C       -0.565250     2.122525     5.241467
C       -1.674634     1.352212     5.635119
C       -2.957176     1.888440     5.658903
C       -3.172127     3.224664     5.293482
O       -4.402999     3.802140     5.353945
C       -5.571548     3.190072     5.763374
C       -2.085460     3.999462     4.854130
O       -2.311767     5.281209     4.484359
C       -2.651660     5.690908     3.216639
C       -0.781280     3.454116     4.801121
O        0.225189     4.220531     4.330620
C        1.009252     0.206133     3.078118
C       -0.430177    -0.109556     2.801176
C       -1.045134     1.113921     2.131478
C       -0.238742     1.999946     1.379556
C       -0.777864     3.104924     0.744247
C       -2.150709     3.369464     0.827742
O       -2.711183     4.432980     0.193332
C       -2.011678     5.384364    -0.527510
C       -2.963576     2.511527     1.586993
C       -2.416161     1.394371     2.240284
C       -1.467819     0.142033    -0.965680
C       -2.821762     0.387612    -0.891581
H       -5.645168    -0.094327    -1.282308
H       -6.641793     1.377050    -0.961736
H       -5.366183     0.895192     0.215727
H       -2.985208     3.070643    -2.985116
H       -0.561481     2.599257    -3.148756
H        1.233772     0.742757    -0.836496
H        1.408606     1.169354    -2.567648
H        0.209399     0.182577    -4.474723
H        1.418874    -0.939502    -5.129246
H        0.824878    -2.169011    -6.915069
H       -0.774156    -3.252952    -8.336105
H       -2.436357    -4.879073    -8.927023
H       -4.064790    -4.410116    -9.546376
H       -2.669526    -3.295802    -9.787213
H       -4.671647    -0.587464    -6.724632
H       -5.976068    -1.818201    -6.473794
H       -5.521705    -0.694307    -5.136623
H       -3.269399    -0.937186    -3.599752
H        1.102724    -4.997699    -3.557127
H       -0.274779    -4.112084    -4.295730
H        1.414497    -3.830704    -4.899638
H        1.908349    -7.543697     3.010903
H        1.746462    -6.232201     4.248540
H        3.344621    -6.558481     3.480630
H        7.322006    -3.447929    -1.022102
H        8.338948    -2.004815    -0.635642
H        7.260097    -1.989996    -2.083474
H        4.918469     1.579264     4.397009
H        3.845808     1.140462     5.775542
H        3.641893     2.733849     4.939181
H        1.461374     2.128239     5.918640
H        0.691335     0.556580     5.952944
H       -1.542983     0.335263     5.982924
H       -3.765366     1.265724     6.017476
H       -6.370743     3.955160     5.846488
H       -5.883005     2.424001     5.022462
H       -5.440995     2.725354     6.764629
H       -2.871884     6.778160     3.231947
H       -1.803171     5.511910     2.528327
H       -3.560118     5.155100     2.864909
H        1.138829     3.913604     4.265820
H       -0.990638    -0.500249     3.674921
H       -0.454515    -0.901467     2.022797
H        0.821326     1.842022     1.253167
H       -0.109972     3.734370     0.172425
H       -1.436997     4.908142    -1.351536
H       -1.313789     5.933725     0.141063
H       -2.722616     6.108273    -0.971652
H       -4.025869     2.704097     1.659298
H       -3.065021     0.737742     2.805424
H       -1.063996    -0.678241    -0.386748
H       -3.409534    -0.256809    -0.254735
