86
ex_0331 frame0 axial-1
C        2.168559    -2.805660    -0.906079
N        1.984167    -1.401868    -1.283049
C        3.266146    -0.708668    -1.363304
Ta       0.484284    -0.453066    -0.157761
N       -0.307234    -1.857486     1.190938
C        0.302904    -2.354991     2.418373
C        1.815512    -2.188938     2.420080
C       -0.097439    -3.845335     2.472434
C       -0.284082    -1.639990     3.652045
N        1.166047     1.169287     0.992873
C        0.340342     1.808559     1.983096
C       -0.970101     1.358811     2.214810
C       -1.780124     1.968739     3.184554
C       -1.290646     3.036757     3.938713
C        0.002576     3.505040     3.717026
C        0.812051     2.900958     2.751091
C        2.427989     1.694616     0.660586
C        3.470289     1.573383     1.583894
C        4.732491     2.068448     1.282029
C        4.964583     2.676276     0.047099
C        3.931823     2.790004    -0.892162
C        2.638241     2.339305    -0.583335
C        1.517773     2.557834    -1.587851
P        0.346150     1.199590    -2.027937
C       -1.417740     1.702553    -1.947209
C       -1.807507     2.565514    -0.896741
C       -3.110467     3.066584    -0.812525
C       -4.067628     2.671785    -1.742256
C       -3.719236     1.776301    -2.757777
C       -2.403884     1.286034    -2.860389
C        0.610941     0.520373    -3.676019
C        0.353036    -1.011372    -3.723797
C        0.808423    -1.647946    -4.896940
C        0.703031    -3.031365    -5.077615
C        0.112633    -3.826300    -4.106017
C       -0.386310    -3.242935    -2.955219
C       -0.285097    -1.853573    -2.730444
N       -0.842882    -1.389013    -1.496600
C       -2.272566    -1.642191    -1.271979
C       -3.092484    -2.044015    -2.369266
C       -4.447428    -2.338700    -2.222696
C       -5.047934    -2.251830    -0.976291
C       -4.296308    -1.839555     0.120450
C       -2.933953    -1.519070    -0.020234
H        2.392238    -3.403055    -1.812562
H        3.037388    -2.939813    -0.229808
H        1.241377    -3.205701    -0.451576
H        3.674823    -0.525452    -0.349821
H        3.995644    -1.316762    -1.942043
H        3.146499     0.222836    -1.935094
H        2.090329    -1.132138     2.225887
H        2.227408    -2.490147     3.406233
H        2.273506    -2.855409     1.689573
H        0.549235    -4.434014     3.150910
H       -1.159052    -3.960912     2.790989
H       -0.033950    -4.294723     1.454221
H        0.066429    -2.134965     4.585327
H       -1.396193    -1.683550     3.644755
H        0.027945    -0.579728     3.696196
H       -1.371239     0.545055     1.640874
H       -2.789594     1.615701     3.354451
H       -1.912858     3.507241     4.690840
H        0.381361     4.339588     4.294393
H        1.802554     3.305649     2.611044
H        3.288707     1.102525     2.542987
H        5.525653     1.984264     2.012408
H        5.944308     3.075120    -0.173856
H        4.126434     3.296235    -1.828613
H        1.815998     3.112590    -2.502462
H        0.899533     3.279970    -1.022088
H       -1.095415     2.917380    -0.166861
H       -3.374495     3.774083    -0.032903
H       -5.075656     3.067982    -1.678065
H       -4.471766     1.477798    -3.475623
H       -2.163868     0.614153    -3.668600
H        1.704408     0.604419    -3.831205
H        0.108238     1.110250    -4.470253
H        1.288191    -1.068653    -5.673251
H        1.091451    -3.494580    -5.973635
H        0.040415    -4.899476    -4.237913
H       -0.840632    -3.882678    -2.204090
H       -2.698338    -2.132013    -3.370392
H       -5.029957    -2.642274    -3.084228
H       -6.097954    -2.496859    -0.865316
H       -4.777577    -1.771333     1.088666
H       -2.456420    -1.204058     0.877174
86
ex_0331 frame1 axial-2
C        0.936460     0.491112     2.766868
N        0.300602    -0.626207     2.066146
C        0.962970    -1.889855     2.344964
Ta      -0.002554    -0.150555     0.041738
N       -0.798743    -1.692798    -1.143583
C       -1.612694    -2.847863    -0.781102
C       -2.651951    -3.007182    -1.909597
C       -0.713639    -4.093911    -0.784794
C       -2.337517    -2.686571     0.553457
N        1.873910    -0.618768    -0.781166
C        2.174480    -1.911437    -1.297682
C        1.993866    -2.146840    -2.666413
C        2.313317    -3.389966    -3.219310
C        2.794942    -4.416944    -2.403994
C        2.958292    -4.200617    -1.035235
C        2.645351    -2.956980    -0.481873
C        2.961849     0.249231    -0.530857
C        3.993757    -0.081107     0.367101
C        5.050715     0.804249     0.575055
C        5.088410     2.017509    -0.114265
C        4.060834     2.352860    -1.006765
C        2.985642     1.468456    -1.214442
C        1.847939     1.790794    -2.155937
P        0.299435     1.997302    -1.202545
C        0.307452     3.362753    -0.019377
C       -0.640666     4.394239    -0.052508
C       -0.524255     5.479636     0.826758
C        0.511037     5.520142     1.765989
C        1.424861     4.469667     1.838422
C        1.306371     3.383844     0.969164
C       -0.890572     2.307148    -2.533089
C       -2.281945     1.742804    -2.191490
C       -3.266805     1.850271    -3.200046
C       -4.574270     1.380626    -3.010494
C       -4.943634     0.801208    -1.807091
C       -4.009786     0.679554    -0.797242
C       -2.675598     1.122355    -0.957594
N       -1.821186     0.899478     0.166629
C       -2.373170     1.264571     1.452965
C       -2.992608     2.525178     1.603770
C       -3.522656     2.930202     2.832244
C       -3.450582     2.084411     3.937248
C       -2.860746     0.827673     3.808982
C       -2.326467     0.420292     2.579868
H        0.358440     1.417770     2.581598
H        0.936183     0.310538     3.863589
H        1.978331     0.637520     2.413926
H        2.064219    -1.781381     2.333252
H        0.658287    -2.228373     3.359564
H        0.633904    -2.649814     1.622688
H       -2.143621    -3.104511    -2.896243
H       -3.310557    -2.113005    -1.963349
H       -3.285674    -3.906542    -1.757699
H        0.059102    -4.035460     0.001329
H       -1.309832    -5.016673    -0.624701
H       -0.195293    -4.186663    -1.765499
H       -1.621088    -2.571359     1.382707
H       -3.017797    -1.812601     0.526768
H       -2.948387    -3.595007     0.754343
H        1.632729    -1.356342    -3.309597
H        2.193297    -3.553952    -4.281365
H        3.045811    -5.378056    -2.832338
H        3.334947    -4.993973    -0.401745
H        2.797963    -2.827339     0.571481
H        3.991582    -1.010575     0.913118
H        5.842434     0.545332     1.268498
H        5.916920     2.695604     0.045351
H        4.108980     3.295645    -1.534227
H        1.751418     0.983218    -2.909165
H        2.047114     2.743017    -2.690742
H       -1.427824     4.401379    -0.791091
H       -1.223614     6.302290     0.766599
H        0.613911     6.369567     2.429599
H        2.238325     4.504801     2.553652
H        2.047453     2.601527     1.026644
H       -0.889864     3.369262    -2.848114
H       -0.570180     1.687861    -3.397897
H       -3.022170     2.299454    -4.151574
H       -5.311361     1.465560    -3.796993
H       -5.952412     0.435678    -1.648500
H       -4.327761     0.208480     0.127870
H       -3.060954     3.202761     0.764425
H       -3.990369     3.901875     2.926450
H       -3.863624     2.397374     4.888426
H       -2.826074     0.162990     4.663553
H       -1.931914    -0.571955     2.526729
86
ex_0331 frame2 axial-3
C       -1.990651    -0.151128     2.718782
N       -1.962742    -1.091418     1.601595
C       -3.296102    -1.106360     0.964834
Ta      -0.523830    -0.544849     0.170992
N       -1.102879    -2.443011    -0.521358
C       -0.877403    -3.770018     0.082621
C       -1.521392    -4.769922    -0.897902
C        0.613415    -4.097193     0.214733
C       -1.573133    -3.941322     1.442517
N       -1.131801     1.424817    -0.245091
C       -0.550940     2.564403     0.406177
C       -0.663117     3.837900    -0.198340
C       -0.143283     4.974003     0.414646
C        0.497828     4.863556     1.645966
C        0.634089     3.609537     2.252477
C        0.127512     2.458825     1.627351
C       -2.396103     1.576807    -0.912798
C       -3.333080     2.458713    -0.315612
C       -4.597985     2.645475    -0.844508
C       -4.962416     1.973661    -2.000615
C       -4.056625     1.112259    -2.635733
C       -2.752956     0.893662    -2.130456
C       -1.845684    -0.061862    -2.945926
P       -0.145221    -0.138342    -2.266576
C        0.554105     1.475917    -2.641906
C        1.632915     1.937804    -1.882849
C        2.247912     3.149026    -2.205354
C        1.769071     3.917052    -3.270409
C        0.666831     3.481159    -4.005295
C        0.042150     2.280308    -3.677360
C        0.810522    -1.637922    -2.584761
C        2.169052    -1.698282    -1.875522
C        3.247926    -2.052191    -2.721624
C        4.539527    -2.231730    -2.236479
C        4.808367    -2.038739    -0.897295
C        3.796010    -1.643825    -0.041028
C        2.455734    -1.442254    -0.477110
N        1.499767    -0.998635     0.520053
C        1.910880    -0.598491     1.832560
C        1.355391    -1.225035     2.957071
C        1.752718    -0.859163     4.247984
C        2.700971     0.149334     4.429345
C        3.253411     0.793142     3.319478
C        2.868678     0.418631     2.026064
H       -1.025852    -0.163028     3.248938
H       -2.202188     0.877833     2.359308
H       -2.779207    -0.451484     3.444002
H       -3.709480    -0.086264     0.829519
H       -4.003518    -1.699466     1.582032
H       -3.265531    -1.571069    -0.038826
H       -1.048307    -4.696075    -1.901585
H       -1.427676    -5.816487    -0.539219
H       -2.603924    -4.539418    -1.023424
H        1.100033    -3.426045     0.942124
H        1.126921    -4.023980    -0.764732
H        0.744573    -5.136743     0.584691
H       -2.662846    -3.749058     1.356498
H       -1.133684    -3.284258     2.212440
H       -1.449984    -4.983602     1.807085
H       -1.160436     3.950932    -1.153986
H       -0.248171     5.939076    -0.065954
H        0.885859     5.752277     2.126992
H        1.125602     3.535004     3.213289
H        0.226021     1.507193     2.119419
H       -3.100951     2.975683     0.609686
H       -5.297841     3.305780    -0.342352
H       -5.956784     2.124208    -2.401330
H       -4.383644     0.611048    -3.535510
H       -2.310512    -1.064625    -2.832969
H       -1.845714     0.163632    -4.027410
H        2.027065     1.339289    -1.073462
H        3.106982     3.481903    -1.640770
H        2.258062     4.843310    -3.536126
H        0.304044     4.061584    -4.844047
H       -0.782073     1.970595    -4.296348
H        0.940454    -1.696118    -3.686061
H        0.254008    -2.548454    -2.346065
H        3.088193    -2.250601    -3.772764
H        5.335101    -2.544654    -2.899152
H        5.807883    -2.198366    -0.510348
H        4.087829    -1.528836     0.992113
H        0.624672    -2.007938     2.838392
H        1.325625    -1.358767     5.108807
H        3.005176     0.432816     5.429574
H        3.980715     1.582012     3.463107
H        3.301050     0.931724     1.177311
86
ex_0331 frame3 square-pyramidal ap-N1/N0-P,N2-N2-Λ-conf2
C        0.430854     1.314715     2.802270
N        0.352973     0.045463     2.073854
C       -0.149497    -0.988252     3.006074
Ta       0.000000     0.000000     0.000000
N        2.063531     0.227659    -0.318356
C        3.402071     0.061641     0.388873
C        4.146447    -1.169073    -0.190758
C        4.266364     1.278311    -0.010323
C        3.470148     0.025302     1.956538
N       -0.409203     2.032033    -0.360350
C        0.454765     2.873412    -1.085161
C        0.077683     3.203356    -2.381584
C        0.834819     4.106939    -3.119688
C        1.997384     4.656406    -2.570489
C        2.407406     4.288558    -1.284944
C        1.650382     3.373352    -0.551196
C       -1.209354     2.733920     0.622934
C       -0.690152     3.750646     1.486483
C       -1.484405     4.340527     2.474683
C       -2.820897     3.983064     2.595951
C       -3.369249     3.036010     1.724066
C       -2.567430     2.406648     0.740180
C       -3.131116     1.379044    -0.202743
P       -2.477061    -0.285493     0.185802
C       -3.143001    -0.892763     1.780422
C       -3.786714    -2.130210     1.900631
C       -4.321595    -2.537625     3.134888
C       -4.193725    -1.730463     4.269542
C       -3.538838    -0.507797     4.173648
C       -3.012695    -0.098528     2.944130
C       -3.136443    -1.209974    -1.222592
C       -2.216874    -2.352184    -1.724385
C       -2.765755    -3.130441    -2.764377
C       -2.096792    -4.240502    -3.298545
C       -0.844781    -4.602153    -2.830632
C       -0.248737    -3.842199    -1.851688
C       -0.897392    -2.725882    -1.277951
N       -0.122391    -2.081727    -0.281185
C        0.196535    -2.973795     0.833090
C       -0.734928    -3.967410     1.247223
C       -0.497753    -4.773110     2.369566
C        0.694328    -4.654357     3.078858
C        1.652354    -3.733348     2.658706
C        1.398445    -2.911581     1.542167
H       -0.570874     1.747049     2.927242
H        0.763967     1.149317     3.855959
H        1.156641     2.001097     2.347445
H        0.715748    -1.452241     3.519525
H       -0.722972    -0.578363     3.862423
H       -0.820526    -1.717129     2.551724
H        4.173905    -1.106171    -1.296572
H        3.716466    -2.148742     0.057182
H        5.196211    -1.207746     0.181144
H        3.904339     2.205463     0.467579
H        5.323856     1.161450     0.323129
H        4.265055     1.411038    -1.111079
H        3.075490     0.939652     2.428617
H        3.034290    -0.845056     2.467264
H        4.544508    -0.007113     2.272258
H       -0.843833     2.802418    -2.785884
H        0.501980     4.392855    -4.106319
H        2.570974     5.375005    -3.136777
H        3.296821     4.726427    -0.849668
H        1.953982     3.120152     0.452444
H        0.333591     4.072653     1.474830
H       -1.056747     5.070641     3.156850
H       -3.428964     4.447525     3.365907
H       -4.417285     2.790332     1.830018
H       -2.890637     1.698468    -1.236844
H       -4.235999     1.333786    -0.097060
H       -3.911079    -2.763889     1.038458
H       -4.845839    -3.478841     3.213474
H       -4.609359    -2.044724     5.220422
H       -3.444411     0.126776     5.050411
H       -2.531620     0.857980     2.917371
H       -4.170139    -1.536133    -1.001468
H       -3.169177    -0.511214    -2.085399
H       -3.747635    -2.897244    -3.145971
H       -2.555296    -4.836988    -4.071452
H       -0.323810    -5.469422    -3.219562
H        0.737749    -4.141700    -1.501361
H       -1.687817    -4.070777     0.750832
H       -1.250460    -5.477220     2.702324
H        0.867871    -5.267050     3.958097
H        2.574102    -3.634982     3.222246
H        2.098281    -2.191863     1.259495
86
ex_0331 frame4 equatorial
C       -0.915361    -0.147069     3.501539
N       -0.098326    -0.945219     2.596908
C       -0.321029    -2.385374     2.661231
Ta       0.151790    -0.141495     0.671476
N        1.537657    -0.501196    -0.866496
C        2.847088    -1.175972    -0.744504
C        2.841613    -2.384598     0.208340
C        3.924113    -0.173976    -0.302961
C        3.210411    -1.676267    -2.169540
N       -1.155636    -1.324587    -0.476441
C       -0.767655    -2.128247    -1.586772
C       -1.220434    -1.804519    -2.871674
C       -0.896317    -2.622868    -3.959722
C       -0.083322    -3.745674    -3.775804
C        0.392940    -4.057926    -2.500946
C        0.061386    -3.240434    -1.416791
C       -2.379872    -1.748747     0.145987
C       -2.700422    -3.134927     0.193398
C       -3.849281    -3.599690     0.826135
C       -4.734954    -2.700817     1.396320
C       -4.468089    -1.336905     1.337064
C       -3.297579    -0.840003     0.725001
C       -3.158193     0.653482     0.761641
P       -1.690002     1.424538     0.033049
C       -1.819028     1.771268    -1.726848
C       -0.589279     1.769965    -2.414107
C       -0.530033     1.964271    -3.787861
C       -1.703471     2.198451    -4.497066
C       -2.933934     2.233764    -3.823599
C       -2.997232     2.030491    -2.431985
C       -1.131558     3.023760     0.663066
C        0.194355     3.515180     0.193660
C        0.271209     4.729334    -0.510217
C        1.511874     5.245942    -0.886685
C        2.676076     4.530383    -0.613044
C        2.598680     3.295005     0.028461
C        1.361677     2.784589     0.453128
N        1.332453     1.537256     1.135911
C        1.927026     1.545984     2.445271
C        2.421681     0.362091     3.011982
C        2.991522     0.344269     4.286232
C        3.067927     1.518650     5.030785
C        2.585188     2.712666     4.493002
C        2.035261     2.734899     3.204558
H       -0.758829     0.928144     3.283448
H       -1.988696    -0.398930     3.399697
H       -0.589269    -0.336867     4.547174
H        0.135801    -2.870814     1.779795
H       -1.401495    -2.629477     2.704278
H        0.180235    -2.786541     3.568705
H        2.370719    -3.268106    -0.232517
H        2.369532    -2.165015     1.172758
H        3.885273    -2.718072     0.396951
H        3.950475     0.690260    -1.001987
H        4.928195    -0.652772    -0.321260
H        3.741622     0.206778     0.713172
H        3.883418    -2.560325    -2.151315
H        3.693011    -0.885264    -2.783171
H        2.292119    -1.974921    -2.721460
H       -1.873319    -0.954445    -3.017014
H       -1.289408    -2.396650    -4.941701
H        0.157453    -4.386003    -4.614666
H        0.996933    -4.943873    -2.348585
H        0.361636    -3.519996    -0.425088
H       -2.044606    -3.889301    -0.207849
H       -4.045926    -4.663589     0.881701
H       -5.628544    -3.061215     1.889602
H       -5.178714    -0.656750     1.791025
H       -3.114399     0.903720     1.840088
H       -4.054910     1.158283     0.345159
H        0.335995     1.569413    -1.891707
H        0.427025     1.921185    -4.296589
H       -1.653476     2.342895    -5.568643
H       -3.837454     2.407870    -4.389215
H       -3.951758     2.041105    -1.928495
H       -1.932245     3.764521     0.450585
H       -1.048562     2.939917     1.767599
H       -0.617979     5.320888    -0.689988
H        1.572849     6.214671    -1.364650
H        3.641091     4.940199    -0.880644
H        3.511830     2.762488     0.259442
H        2.375811    -0.553308     2.470251
H        3.368677    -0.584478     4.696367
H        3.497684     1.500794     6.024350
H        2.632478     3.621245     5.078783
H        1.655015     3.673709     2.825914
86
ex_0331 frame5 N1-P-ax-Δ
C        0.974592    -0.216580     3.066616
N        0.036868     0.348075     2.072798
C       -1.290069     0.462245     2.664877
Ta       0.000000     0.000000     0.000000
N       -0.612847     1.845614    -0.797823
C       -1.503609     2.923913    -0.251059
C       -0.808109     3.691429     0.892545
C       -1.695242     3.931812    -1.402305
C       -2.969822     2.512850     0.114120
N        2.091926    -0.050029    -0.220212
C        2.926905     0.958127     0.372422
C        3.131779     2.178052    -0.290243
C        3.949133     3.171597     0.269513
C        4.544482     2.973318     1.516760
C        4.349352     1.772078     2.190176
C        3.563639     0.771054     1.618554
C        2.740540    -1.142988    -0.900011
C        3.548617    -2.018658    -0.152328
C        4.178417    -3.105226    -0.749002
C        4.020074    -3.344877    -2.109908
C        3.230516    -2.496650    -2.887193
C        2.599943    -1.378620    -2.317919
C        1.797067    -0.471340    -3.237753
P        0.190043    -0.230611    -2.484077
C       -0.332778     1.235053    -3.442276
C        0.410095     2.430343    -3.480788
C       -0.025786     3.513914    -4.255383
C       -1.216686     3.426140    -4.979061
C       -1.969836     2.253097    -4.935387
C       -1.530287     1.166758    -4.173991
C       -0.606963    -1.827092    -2.904922
C       -1.991887    -1.933852    -2.320034
C       -3.166524    -2.004154    -3.092812
C       -4.414439    -2.132701    -2.460602
C       -4.495665    -2.167735    -1.064832
C       -3.334674    -2.070409    -0.301956
C       -2.090189    -1.965987    -0.935894
N       -0.902293    -1.890569    -0.186308
C       -0.500006    -3.046846     0.557316
C       -1.250364    -4.249166     0.559513
C       -0.859126    -5.329615     1.354464
C        0.281185    -5.230720     2.152333
C        1.050668    -4.067000     2.117157
C        0.659154    -3.001692     1.303410
H        1.535168     0.620319     3.533200
H        1.690111    -0.933785     2.700659
H        0.451280    -0.745576     3.897086
H       -1.239264     0.757941     3.737388
H       -1.780888     1.293644     2.213730
H       -1.866605    -0.476363     2.541058
H        0.185474     4.056689     0.552420
H       -1.408824     4.583830     1.184749
H       -0.649586     3.085168     1.797679
H       -0.720248     4.322181    -1.751978
H       -2.215186     3.438969    -2.253148
H       -2.317468     4.802661    -1.096147
H       -3.158954     1.848889     0.954557
H       -3.486380     2.045964    -0.746664
H       -3.545083     3.432702     0.385477
H        2.690855     2.349478    -1.254090
H        4.124222     4.097128    -0.262410
H        5.166990     3.741459     1.958318
H        4.814044     1.607495     3.155307
H        3.485134    -0.137594     2.172615
H        3.687175    -1.879962     0.906709
H        4.791408    -3.764594    -0.147813
H        4.520797    -4.188058    -2.565675
H        3.143153    -2.693243    -3.947720
H        2.344164     0.492157    -3.198242
H        1.732912    -0.791457    -4.298970
H        1.329167     2.529305    -2.934574
H        0.557028     4.425418    -4.290409
H       -1.556822     4.265471    -5.572463
H       -2.894533     2.182750    -5.494095
H       -2.129898     0.272098    -4.163943
H       -0.006064    -2.676448    -2.519951
H       -0.641987    -1.906243    -4.013257
H       -3.120974    -1.996202    -4.173728
H       -5.319554    -2.217959    -3.047630
H       -5.453204    -2.280733    -0.571672
H       -3.391016    -2.111664     0.779468
H       -2.143433    -4.366434    -0.036943
H       -1.447997    -6.237799     1.357812
H        0.574566    -6.058952     2.783108
H        1.947655    -3.988311     2.716620
H        1.242894    -2.129191     1.222022
86
ex_0331 frame6 N1-P-ax-Λ-conf4
C        0.104483     1.183624     2.887279
N        0.418339     0.028323     2.058625
C        0.483035    -1.260349     2.746849
Ta       0.000000     0.000000     0.000000
N        1.843643     0.608632    -0.806185
C        3.214313     0.279181    -0.264581
C        4.048190    -0.492545    -1.315754
C        3.955140     1.605113    -0.028322
C        3.264538    -0.550473     1.033873
N       -1.141286     1.757358    -0.183670
C       -2.466581     1.876047     0.338862
C       -2.725462     2.333596     1.644743
C       -4.035493     2.406626     2.128222
C       -5.104206     2.034959     1.312613
C       -4.863519     1.606940     0.007114
C       -3.553969     1.526028    -0.472345
C       -0.592116     2.886096    -0.875520
C       -0.379757     4.047093    -0.109545
C        0.203201     5.180545    -0.660014
C        0.593218     5.181847    -1.993154
C        0.382619     4.053917    -2.792951
C       -0.254988     2.901321    -2.284254
C       -0.534555     1.758224    -3.284475
P       -0.236360     0.174956    -2.483956
C        1.016943    -0.749002    -3.434766
C        1.772339    -1.741799    -2.803281
C        2.670996    -2.534817    -3.530396
C        2.868325    -2.300703    -4.888957
C        2.151211    -1.289025    -5.525213
C        1.254871    -0.496058    -4.798956
C       -1.711100    -0.844095    -2.860744
C       -1.284160    -2.256739    -2.537808
C       -1.115628    -3.244547    -3.527843
C       -0.652222    -4.522183    -3.178187
C       -0.362649    -4.825038    -1.845374
C       -0.557298    -3.860077    -0.859061
C       -1.051959    -2.589365    -1.206384
N       -1.325580    -1.619302    -0.215497
C       -2.341656    -1.971442     0.750715
C       -3.130638    -3.147939     0.593796
C       -4.061903    -3.532520     1.555487
C       -4.250135    -2.750563     2.688954
C       -3.523389    -1.568784     2.843085
C       -2.591203    -1.177935     1.872024
H        0.216868     2.108787     2.290588
H       -0.901806     1.075970     3.335901
H        0.821031     1.240763     3.732950
H       -0.459376    -1.487739     3.278708
H        1.294504    -1.232150     3.505626
H        0.708440    -2.063439     2.016836
H        5.125100    -0.537001    -1.038670
H        3.976815    -0.017505    -2.317727
H        3.759767    -1.555971    -1.354616
H        3.946350     2.219622    -0.953792
H        3.483230     2.177775     0.794535
H        5.020668     1.422944     0.247627
H        2.763118    -1.532377     0.909778
H        2.859171     0.003409     1.897136
H        4.329687    -0.769813     1.294459
H       -1.939056     2.658938     2.294407
H       -4.221808     2.757913     3.135158
H       -6.118064     2.094761     1.686031
H       -5.691360     1.340892    -0.636677
H       -3.392346     1.216514    -1.487431
H       -0.651635     4.071987     0.936846
H        0.357783     6.058570    -0.043727
H        1.046230     6.071496    -2.411640
H        0.672111     4.110453    -3.833768
H        0.025265     1.896534    -4.227742
H       -1.615716     1.825871    -3.504164
H        1.603096    -1.968444    -1.759152
H        3.204423    -3.340914    -3.041422
H        3.554670    -2.920086    -5.453275
H        2.271649    -1.134768    -6.589761
H        0.682815     0.230709    -5.348883
H       -2.617967    -0.557751    -2.308829
H       -1.914223    -0.765485    -3.949376
H       -1.315658    -3.023334    -4.567152
H       -0.508250    -5.278141    -3.939058
H        0.000413    -5.808905    -1.572818
H       -0.352349    -4.103833     0.177267
H       -3.029418    -3.802052    -0.260171
H       -4.628320    -4.446572     1.421005
H       -4.962813    -3.060768     3.441906
H       -3.675783    -0.959625     3.723162
H       -2.048141    -0.273527     2.014959
86
ex_0331 frame7 N0-P-ax-Λ-conf2
C        2.870313     1.129658     0.157641
N        2.102431    -0.114065     0.023805
C        2.814633    -1.187379     0.726901
Ta       0.000000     0.000000     0.000000
N       -0.687809    -0.481934     1.925768
C       -0.190970    -0.235792     3.320664
C       -1.335713    -0.721509     4.230165
C        1.070568    -1.038486     3.682660
C        0.064061     1.238021     3.683761
N       -0.861301     1.891716    -0.327447
C       -0.496196     2.854804     0.658076
C        0.785137     3.376305     0.588085
C        1.280499     4.242601     1.550393
C        0.455366     4.656800     2.590438
C       -0.872653     4.212294     2.643147
C       -1.354433     3.297791     1.683016
C       -1.230708     2.539942    -1.568417
C       -2.331507     3.428253    -1.473127
C       -2.783451     4.163184    -2.557885
C       -2.161107     4.028389    -3.787595
C       -1.096769     3.139907    -3.943973
C       -0.601581     2.376213    -2.865305
C        0.561454     1.445521    -3.185854
P        0.178242    -0.150888    -2.487128
C       -1.156687    -0.681507    -3.630173
C       -0.943116    -1.869367    -4.355887
C       -1.872990    -2.326347    -5.291211
C       -3.043745    -1.608348    -5.517973
C       -3.295141    -0.444799    -4.788823
C       -2.372087     0.009025    -3.833038
C        1.702270    -1.203930    -2.533950
C        1.673353    -2.443424    -1.608216
C        2.759750    -3.343215    -1.636813
C        2.826253    -4.437207    -0.752038
C        1.785475    -4.700225     0.132180
C        0.673323    -3.887702     0.120566
C        0.624412    -2.750329    -0.712068
N       -0.516949    -1.949400    -0.598622
C       -1.777325    -2.675639    -0.576497
C       -1.918438    -3.741731    -1.508979
C       -3.026920    -4.577021    -1.524517
C       -4.057867    -4.363730    -0.623080
C       -3.986405    -3.287750     0.273528
C       -2.866556    -2.416918     0.284126
H        2.598421     1.657402     1.095575
H        3.965988     0.937495     0.239982
H        2.809962     1.724186    -0.769564
H        3.603095    -1.557141     0.032846
H        3.389207    -0.828112     1.602398
H        2.153808    -1.992298     1.051089
H       -1.547814    -1.795026     4.040868
H       -2.262324    -0.147332     4.002710
H       -1.106942    -0.587787     5.310079
H        1.954446    -0.634346     3.170778
H        1.284203    -0.940949     4.775363
H        0.943613    -2.116613     3.461426
H        0.877599     1.687021     3.080086
H       -0.872513     1.809308     3.609951
H        0.365779     1.326043     4.756274
H        1.394866     3.097629    -0.236039
H        2.304739     4.583899     1.478400
H        0.847465     5.329287     3.341407
H       -1.512424     4.556718     3.444685
H       -2.373237     2.938579     1.756491
H       -2.848620     3.567954    -0.531477
H       -3.616089     4.846963    -2.436098
H       -2.507080     4.618380    -4.625194
H       -0.636711     3.068710    -4.919195
H        1.434786     1.830183    -2.623539
H        0.822314     1.393117    -4.261786
H       -0.043800    -2.449471    -4.220951
H       -1.675948    -3.233830    -5.848299
H       -3.754019    -1.956726    -6.258072
H       -4.207054     0.109834    -4.973153
H       -2.616348     0.909466    -3.301396
H        1.889750    -1.487022    -3.588413
H        2.575569    -0.600941    -2.232904
H        3.597461    -3.152862    -2.288056
H        3.697559    -5.073023    -0.726965
H        1.836360    -5.515997     0.844639
H       -0.121621    -4.079714     0.838896
H       -1.127357    -3.960537    -2.215052
H       -3.067095    -5.403964    -2.226292
H       -4.904820    -5.042515    -0.623643
H       -4.801629    -3.155430     0.973480
H       -2.836620    -1.625115     1.014946
86
ex_0331 frame8 N1-P-ax-Λ-conf2
C       -0.027965     0.794435     2.901348
N       -0.481807    -0.290606     2.024958
C        0.002220    -1.550785     2.581655
Ta       0.000000     0.000000     0.000000
N        2.072390    -0.334672    -0.120818
C        3.506505     0.057477     0.162897
C        4.467466    -0.696729    -0.806091
C        3.828099     1.543023    -0.047857
C        3.919510    -0.373192     1.574924
N       -0.818814     1.901807    -0.376211
C       -0.406463     2.859649     0.596933
C        0.950810     3.073429     0.718605
C        1.474430     3.951915     1.668830
C        0.609917     4.650599     2.509725
C       -0.772150     4.474930     2.385986
C       -1.288756     3.588427     1.427652
C       -1.216807     2.518722    -1.631683
C       -2.302717     3.428417    -1.565404
C       -2.752908     4.134954    -2.668467
C       -2.143336     3.955917    -3.896443
C       -1.098928     3.041676    -4.032028
C       -0.617222     2.297441    -2.930951
C        0.504350     1.318033    -3.220118
P        0.028667    -0.249446    -2.488314
C       -1.245706    -0.750736    -3.686742
C       -1.021060    -1.919488    -4.437810
C       -1.940965    -2.348938    -5.392044
C       -3.104173    -1.617072    -5.616995
C       -3.354599    -0.462560    -4.871975
C       -2.439104    -0.034820    -3.901629
C        1.563446    -1.273786    -2.596980
C        1.636092    -2.491904    -1.640753
C        2.746183    -3.359837    -1.699384
C        2.873177    -4.451512    -0.819869
C        1.865575    -4.745719     0.088891
C        0.744582    -3.947088     0.129570
C        0.643156    -2.800179    -0.687722
N       -0.488654    -1.981921    -0.509248
C       -1.758470    -2.682977    -0.509680
C       -1.904886    -3.754243    -1.435558
C       -3.041184    -4.549625    -1.476494
C       -4.085851    -4.295484    -0.601134
C       -3.998579    -3.219391     0.294669
C       -2.850934    -2.388911     0.328635
H       -0.680225     1.659147     2.787791
H       -0.161191     0.535566     3.975831
H        1.037084     1.043223     2.714760
H        1.104836    -1.540752     2.721387
H       -0.490828    -1.725797     3.565451
H       -0.314394    -2.379943     1.955572
H        4.345410    -0.417924    -1.870679
H        4.388885    -1.787741    -0.682206
H        5.531089    -0.452524    -0.595048
H        3.440792     2.150511     0.781219
H        4.927137     1.718398    -0.008178
H        3.480531     1.888028    -1.047287
H        3.340747     0.168485     2.345020
H        3.772177    -1.467951     1.698535
H        5.003420    -0.160352     1.735202
H        1.562562     2.527729     0.042051
H        2.544443     4.087650     1.757020
H        1.012434     5.323945     3.255546
H       -1.439916     5.013135     3.045352
H       -2.356822     3.444198     1.392350
H       -2.827794     3.613163    -0.647807
H       -3.576926     4.831386    -2.559443
H       -2.489893     4.526333    -4.747688
H       -0.652444     2.928012    -5.009901
H        1.396622     1.679902    -2.664837
H        0.764065     1.230814    -4.295286
H       -0.135111    -2.516702    -4.296033
H       -1.744643    -3.250209    -5.958704
H       -3.811499    -1.949590    -6.365203
H       -4.260879     0.101561    -5.048573
H       -2.675806     0.854291    -3.343633
H        1.717450    -1.582824    -3.647127
H        2.389985    -0.601372    -2.409359
H        3.547228    -3.163740    -2.394296
H        3.754408    -5.075234    -0.833432
H        1.946022    -5.580755     0.776489
H       -0.026819    -4.192696     0.852279
H       -1.108209    -3.998639    -2.127488
H       -3.094512    -5.374409    -2.180017
H       -4.957275    -4.941125    -0.622466
H       -4.824648    -3.051678     0.972844
H       -2.804021    -1.588458     1.050880
86
ex_0331 frame9 N1-P-ax-Λ-conf3
C       -0.593113    -0.697330     3.011541
N        0.367919    -0.133052     2.066054
C        1.073710     0.998628     2.669489
Ta       0.000000     0.000000     0.000000
N        1.877295    -0.525241    -0.782201
C        3.272850    -0.223076    -0.289543
C        3.716884     1.253294    -0.476254
C        3.556787    -0.607225     1.180037
C        4.193275    -1.101007    -1.163143
N       -1.213124     1.713877    -0.132431
C       -1.729397     2.210228     1.086615
C       -3.003763     1.794101     1.479330
C       -3.553641     2.249976     2.676780
C       -2.824238     3.118415     3.493697
C       -1.550514     3.543265     3.102640
C       -1.004200     3.094803     1.895726
C       -1.450733     2.540908    -1.290961
C       -1.337487     3.951423    -1.202426
C       -1.586385     4.770659    -2.304602
C       -1.964369     4.208919    -3.518109
C       -2.072290     2.826438    -3.635609
C       -1.799295     1.990229    -2.535725
C       -1.883417     0.526471    -2.704904
P       -0.179526    -0.059123    -2.492895
C        0.933433     0.928444    -3.503467
C        1.156866     0.608010    -4.850353
C        1.917912     1.453264    -5.656747
C        2.514261     2.589606    -5.110558
C        2.347795     2.880269    -3.753998
C        1.586353     2.030778    -2.942873
C       -0.236612    -1.742222    -3.108116
C       -1.559648    -2.232019    -2.610679
C       -2.411240    -2.768697    -3.596728
C       -3.698394    -3.177418    -3.289088
C       -4.153617    -3.094640    -1.985227
C       -3.314333    -2.628548    -0.977941
C       -1.991735    -2.184445    -1.234671
N       -1.202173    -1.726146    -0.092321
C       -1.108322    -2.772348     0.875602
C       -0.042557    -3.684777     0.819030
C        0.041319    -4.730338     1.748521
C       -0.910447    -4.845676     2.766561
C       -1.966747    -3.937312     2.839796
C       -2.071592    -2.911901     1.898006
H       -1.630217    -0.470967     2.704830
H       -0.334941    -1.760435     3.161164
H       -0.465415    -0.308237     4.046965
H        0.403521     1.637387     3.268471
H        1.586407     1.599926     1.897921
H        1.793604     0.605277     3.421618
H        3.705480     1.558784    -1.538280
H        3.093316     1.957124     0.111391
H        4.773342     1.389975    -0.138798
H        4.657580    -0.590515     1.369371
H        3.222912     0.157948     1.878767
H        3.176673    -1.606628     1.456789
H        4.275686    -0.684798    -2.190163
H        3.770033    -2.124604    -1.242956
H        5.224531    -1.187175    -0.753996
H       -3.568079     1.120292     0.845935
H       -4.542931     1.925987     2.969231
H       -3.247469     3.463142     4.426903
H       -0.984257     4.214037     3.735512
H       -0.015444     3.425019     1.599682
H       -1.050488     4.439129    -0.285484
H       -1.490983     5.845432    -2.214032
H       -2.170641     4.844529    -4.369669
H       -2.365435     2.407531    -4.590385
H       -2.612621     0.103612    -1.989093
H       -2.208258     0.280581    -3.738150
H        0.669288    -0.227167    -5.322303
H        2.018587     1.238350    -6.712616
H        3.084158     3.254876    -5.745296
H        2.786912     3.777694    -3.338348
H        1.425048     2.294871    -1.905339
H       -0.173798    -1.814634    -4.206230
H        0.621067    -2.303533    -2.672555
H       -2.096391    -2.824851    -4.631908
H       -4.350164    -3.540655    -4.071906
H       -5.168083    -3.387730    -1.750202
H       -3.741876    -2.574183     0.005725
H        0.693199    -3.614873     0.027666
H        0.842860    -5.454437     1.680964
H       -0.836194    -5.643051     3.494837
H       -2.705246    -4.022699     3.626677
H       -2.897877    -2.218427     1.976673
86
ex_0331 frame10 square-pyramidal ap-N2/N0-P,N1-N2-Λ-conf4
C        2.851739     0.949722    -0.566189
N        2.062546    -0.261043    -0.314225
C        2.814572    -1.249996     0.463957
Ta       0.000000     0.000000     0.000000
N        0.204844    -2.049139    -0.428471
C        0.054983    -3.488936     0.077772
C       -1.135042    -4.136163    -0.640179
C        1.325324    -4.282666    -0.316589
C       -0.077009    -3.811657     1.602362
N        0.385715     0.175284     2.061835
C       -0.470899    -0.194615     3.163523
C       -0.409850    -1.464908     3.741158
C       -1.187618    -1.826488     4.839758
C       -2.091446    -0.918124     5.375235
C       -2.193024     0.356806     4.817874
C       -1.407402     0.708693     3.706212
C        1.584043     0.743345     2.584641
C        2.394334    -0.054035     3.431565
C        3.570720     0.429509     3.985176
C        3.955945     1.737048     3.741524
C        3.172394     2.550282     2.922499
C        2.002292     2.059920     2.298164
C        1.316252     3.028163     1.371358
P       -0.111214     2.471668     0.355745
C        0.057250     3.585082    -1.030395
C       -0.065433     2.950461    -2.250806
C        0.029324     3.662540    -3.436656
C        0.275784     5.031531    -3.389167
C        0.414005     5.683712    -2.152962
C        0.290363     4.967725    -0.948582
C       -1.859493     2.859559     0.715111
C       -2.651969     2.570801    -0.495408
C       -3.329698     3.586454    -1.180405
C       -4.060521     3.279142    -2.326963
C       -4.093107     1.964506    -2.802553
C       -3.397394     0.955602    -2.126624
C       -2.716215     1.256119    -0.937679
N       -2.084809     0.239014    -0.168135
C       -3.077950    -0.547236     0.535058
C       -4.464219    -0.198841     0.551018
C       -5.408774    -0.995463     1.202046
C       -5.004923    -2.155926     1.852983
C       -3.651469    -2.497382     1.870676
C       -2.710198    -1.676371     1.223164
H        2.233771     1.736815    -1.027566
H        3.315669     1.317097     0.365562
H        3.697518     0.721809    -1.242539
H        3.454949    -0.773796     1.225235
H        3.498746    -1.801631    -0.219950
H        2.143200    -1.935224     0.996849
H       -1.206775    -5.220726    -0.380987
H       -1.008203    -4.056853    -1.736695
H       -2.094978    -3.672443    -0.353506
H        1.567103    -4.177890    -1.386832
H        2.212642    -3.982509     0.280835
H        1.193051    -5.369705    -0.086578
H       -0.961368    -3.473180     2.157070
H        0.864915    -3.600362     2.141371
H       -0.193526    -4.911966     1.739016
H        0.318632    -2.148190     3.416665
H       -1.062246    -2.803429     5.290654
H       -2.679758    -1.192113     6.242672
H       -2.861480     1.079092     5.269047
H       -1.464721     1.719366     3.355847
H        2.149485    -1.078377     3.646159
H        4.181603    -0.218372     4.602360
H        4.871079     2.114999     4.177741
H        3.505444     3.564963     2.742915
H        2.100937     3.348590     0.663063
H        0.999156     3.938635     1.929727
H       -0.253311     1.879928    -2.306859
H       -0.086187     3.142486    -4.380398
H        0.361606     5.581250    -4.314753
H        0.617379     6.742165    -2.128691
H        0.398097     5.467982     0.000888
H       -2.270997     2.264359     1.543088
H       -1.938933     3.930071     0.994148
H       -3.317304     4.603379    -0.806514
H       -4.610460     4.058714    -2.836008
H       -4.677124     1.724643    -3.679892
H       -3.461291    -0.067963    -2.472804
H       -4.843546     0.688250     0.065340
H       -6.455098    -0.712404     1.193138
H       -5.740527    -2.781868     2.344678
H       -3.342313    -3.399497     2.381235
H       -1.681843    -1.881489     1.207080
86
ex_0331 frame11 N0-P-ax-Δ
C       -2.270396     1.724370     0.398062
N       -1.174887     1.645734    -0.573381
C       -0.402619     2.891053    -0.552363
Ta       0.000000     0.000000     0.000000
N        0.400137     0.437098     2.015755
C        0.045782     0.126089     3.440778
C        0.472105    -1.276370     3.909384
C        0.848787     1.132933     4.292994
C       -1.443885     0.313036     3.771862
N        2.077764    -0.017264    -0.328170
C        2.893698     0.933366     0.356473
C        3.361471     2.059668    -0.334014
C        4.153556     3.013578     0.314651
C        4.488203     2.849385     1.660830
C        4.036530     1.727127     2.357332
C        3.243353     0.771955     1.709529
C        2.729567    -1.129011    -0.953831
C        3.532383    -1.978435    -0.169454
C        4.170499    -3.077872    -0.733770
C        4.020467    -3.349915    -2.091668
C        3.226712    -2.525202    -2.895237
C        2.589089    -1.397823    -2.355172
C        1.771023    -0.498201    -3.269623
P        0.169501    -0.230334    -2.485450
C       -0.340995     1.231739    -3.441007
C        0.431719     2.405681    -3.524217
C        0.000252     3.481199    -4.314873
C       -1.213650     3.407416    -5.002993
C       -1.997017     2.258121    -4.906759
C       -1.566178     1.182014    -4.127213
C       -0.618888    -1.834210    -2.876735
C       -1.987933    -1.953299    -2.265166
C       -3.170107    -2.024111    -3.025983
C       -4.409064    -2.163392    -2.382906
C       -4.474282    -2.212076    -0.986787
C       -3.304258    -2.118842    -0.232597
C       -2.065105    -1.996349    -0.876601
N       -0.863239    -1.913326    -0.138956
C       -0.429987    -3.050045     0.605856
C       -1.140507    -4.275297     0.554183
C       -0.750474    -5.358850     1.337784
C        0.357790    -5.246212     2.173798
C        1.093374    -4.058585     2.197657
C        0.707122    -2.972232     1.401566
H       -1.859510     1.874100     1.416554
H       -2.848970     0.779000     0.399457
H       -2.951585     2.570543     0.165803
H       -0.624407     3.542043     0.322617
H        0.676217     2.662334    -0.565352
H       -0.675255     3.483306    -1.448203
H        1.539718    -1.478229     3.679524
H        0.364510    -1.370848     5.014703
H       -0.197193    -2.048341     3.494433
H        1.938258     1.003538     4.134291
H        0.583550     2.175322     4.016704
H        0.662211     0.999502     5.381100
H       -2.073643    -0.410888     3.216628
H       -1.779031     1.348558     3.575809
H       -1.604558     0.130567     4.862704
H        3.109380     2.197749    -1.375348
H        4.507764     3.881016    -0.226433
H        5.100113     3.588804     2.162696
H        4.301404     1.598947     3.399959
H        2.909643    -0.091701     2.264800
H        3.665243    -1.797728     0.888328
H        4.785666    -3.718031    -0.112994
H        4.531883    -4.198908    -2.524056
H        3.146136    -2.742839    -3.951164
H        2.329997     0.458778    -3.241633
H        1.697220    -0.825393    -4.326696
H        1.377565     2.488490    -3.011948
H        0.608568     4.372391    -4.400454
H       -1.546227     4.236747    -5.615314
H       -2.936157     2.195861    -5.442860
H       -2.185967     0.301310    -4.081725
H       -0.003450    -2.676494    -2.499740
H       -0.672640    -1.917829    -3.984141
H       -3.136022    -2.004778    -4.107805
H       -5.319443    -2.245076    -2.963247
H       -5.427981    -2.330705    -0.487864
H       -3.352374    -2.166924     0.848216
H       -2.011946    -4.403999    -0.073244
H       -1.319459    -6.279675     1.303382
H        0.645109    -6.080058     2.799553
H        1.951775    -3.971249     2.848696
H        1.266837    -2.052951     1.438146
86
ex_0331 frame12 N2-N2-ax-conf2
C        2.736643     1.096321     0.341251
N        2.076575    -0.030622    -0.322602
C        2.796967    -1.288965    -0.220615
Ta       0.000000     0.000000     0.000000
N       -0.793404     1.791628    -0.760193
C       -1.646667     2.926229    -0.307263
C       -1.601185     3.939422    -1.466117
C       -3.108908     2.496487    -0.096208
C       -1.130192     3.690450     0.927910
N       -0.115260    -0.112581     2.097209
C       -0.557570     0.929850     2.942342
C       -1.929651     1.116749     3.183000
C       -2.361110     2.131197     4.041662
C       -1.427461     2.971950     4.653843
C       -0.061128     2.797911     4.408517
C        0.373976     1.785761     3.546991
C        0.114602    -1.351547     2.733999
C        1.205679    -1.491763     3.605986
C        1.446554    -2.705559     4.244911
C        0.600173    -3.790457     4.018433
C       -0.491673    -3.664234     3.149367
C       -0.752320    -2.442257     2.493989
C       -1.943286    -2.313758     1.552077
P       -1.395844    -2.066913    -0.169519
C       -0.399431    -3.418811    -0.853068
C       -0.704700    -4.048581    -2.068128
C        0.060057    -5.139802    -2.505918
C        1.151210    -5.586572    -1.754383
C        1.485110    -4.941054    -0.566191
C        0.728007    -3.852464    -0.130979
C       -2.909363    -1.897672    -1.099531
C       -2.725931    -0.906378    -2.263332
C       -3.908391    -0.662138    -2.994343
C       -3.940033     0.210803    -4.082600
C       -2.787409     0.859351    -4.491746
C       -1.598825     0.642344    -3.814183
C       -1.520222    -0.212008    -2.686462
N       -0.209614    -0.292974    -2.073126
C        0.884914    -0.493009    -2.995006
C        0.781260    -1.534122    -3.940841
C        1.811377    -1.801782    -4.842325
C        2.974219    -1.035406    -4.819302
C        3.093221     0.017450    -3.910472
C        2.056383     0.292609    -3.007363
H        1.971305     1.815810     0.698440
H        3.362667     0.772713     1.199482
H        3.384650     1.623718    -0.392274
H        3.794386    -1.169123    -0.699331
H        2.926012    -1.596123     0.837513
H        2.271936    -2.047179    -0.814774
H       -1.957990     3.473219    -2.407881
H       -0.552489     4.278427    -1.627333
H       -2.221643     4.838945    -1.257141
H       -3.212771     1.815031     0.768700
H       -3.746536     3.391709     0.098640
H       -3.503917     1.994843    -1.004205
H       -1.195813     3.101025     1.829778
H       -0.087455     4.045290     0.801313
H       -1.772314     4.584168     1.119968
H       -2.666995     0.480239     2.725215
H       -3.418647     2.264218     4.229913
H       -1.763095     3.756431     5.318568
H        0.660977     3.445441     4.887152
H        1.433067     1.654270     3.368070
H        1.869468    -0.658142     3.793372
H        2.289178    -2.801443     4.919125
H        0.790733    -4.729111     4.523308
H       -1.136690    -4.519975     2.999234
H       -2.598473    -1.493669     1.881881
H       -2.543960    -3.248297     1.569659
H       -1.556631    -3.740671    -2.654235
H       -0.201738    -5.652115    -3.421324
H        1.732639    -6.438220    -2.084936
H        2.322463    -5.290581     0.027019
H        1.004758    -3.389360     0.802910
H       -3.329487    -2.883270    -1.382155
H       -3.635269    -1.387792    -0.430558
H       -4.831939    -1.147152    -2.708220
H       -4.865961     0.388485    -4.612731
H       -2.811078     1.542512    -5.333082
H       -0.723679     1.187251    -4.153471
H       -0.109286    -2.144535    -3.979011
H        1.704923    -2.607740    -5.556921
H        3.774538    -1.249103    -5.516705
H        3.989681     0.624986    -3.912401
H        2.169522     1.142610    -2.355739
86
ex_0331 frame13 N0-N2-ax-Λ-conf3
C        2.827589     0.796772    -0.852892
N        2.047000    -0.345674    -0.337357
C        2.694052    -0.877771     0.871899
Ta       0.000000     0.000000     0.000000
N       -0.110153    -0.232153     2.086544
C        0.067658    -0.082284     3.564184
C       -1.188156     0.481681     4.324876
C        0.275912    -1.505836     4.106930
C        1.278710     0.805358     3.900295
N       -0.085125    -0.251158    -2.089590
C        0.412152     0.703350    -3.046815
C       -0.392905     1.786106    -3.434486
C        0.031885     2.663281    -4.446740
C        1.289254     2.507572    -5.037953
C        2.122366     1.474072    -4.622667
C        1.698409     0.596141    -3.623681
C       -0.599812    -1.467897    -2.786449
C        0.158676    -2.045063    -3.852626
C       -0.255245    -3.173087    -4.561416
C       -1.458312    -3.782388    -4.272166
C       -2.243043    -3.285667    -3.254628
C       -1.840289    -2.172493    -2.497166
C       -2.784943    -1.817298    -1.418405
P       -1.745632    -1.788599     0.018146
C       -0.994956    -3.418436     0.031065
C       -1.704578    -4.443379     0.667878
C       -1.201791    -5.742775     0.687298
C        0.020712    -6.024877     0.074679
C        0.744493    -5.001820    -0.548898
C        0.246444    -3.693280    -0.559862
C       -2.815259    -1.054365     1.213436
C       -3.490037     0.141386     0.630818
C       -4.893328     0.075211     0.760214
C       -5.710136     1.070625     0.274772
C       -5.148925     2.172185    -0.345559
C       -3.760659     2.282295    -0.482190
C       -2.868519     1.285799    -0.012075
N       -1.434336     1.522636    -0.226811
C       -1.080032     2.773657     0.377544
C       -0.979179     2.817809     1.764088
C       -0.686800     3.990540     2.456424
C       -0.466289     5.163228     1.742519
C       -0.540898     5.146097     0.342416
C       -0.830602     3.949562    -0.346230
H        3.451739     0.440232    -1.693397
H        2.171639     1.637901    -1.146234
H        3.600340     1.188342    -0.155943
H        3.516994    -1.562678     0.589767
H        1.973013    -1.436985     1.490806
H        3.140810    -0.077411     1.502299
H       -1.280964     1.584594     4.295740
H       -2.150731     0.059109     3.986565
H       -1.129515     0.264032     5.411632
H        0.425699    -1.484914     5.210284
H       -0.625519    -2.127662     3.904611
H        1.157480    -1.990576     3.647482
H        0.992825     1.877940     3.947582
H        2.059478     0.722923     3.134927
H        1.716679     0.534230     4.885267
H       -1.386456     1.899887    -3.023528
H       -0.620400     3.452511    -4.794728
H        1.612405     3.172788    -5.830262
H        3.090474     1.335135    -5.093365
H        2.359054    -0.216835    -3.369676
H        1.108001    -1.681755    -4.167601
H        0.367890    -3.580360    -5.347065
H       -1.785156    -4.650364    -4.828537
H       -3.180214    -3.788704    -3.046177
H       -3.162610    -0.800908    -1.655256
H       -3.653074    -2.495298    -1.291102
H       -2.660499    -4.237453     1.134234
H       -1.766650    -6.528961     1.171114
H        0.403306    -7.036568     0.082589
H        1.688330    -5.225995    -1.027650
H        0.814159    -2.915800    -1.049884
H       -3.538735    -1.848043     1.501251
H       -2.288894    -0.855526     2.131852
H       -5.377563    -0.769547     1.243266
H       -6.783065     0.974209     0.384896
H       -5.800542     2.944218    -0.726877
H       -3.379472     3.159568    -0.981412
H       -1.194037     1.927811     2.282430
H       -0.649858     3.990618     3.541277
H       -0.253150     6.081272     2.277977
H       -0.385838     6.067141    -0.201194
H       -0.906324     3.957151    -1.422615
86
ex_0331 frame14 N0-P-ax-Λ-conf4
C        2.657686     1.300517    -0.364911
N        2.040471    -0.013735    -0.505782
C        2.730764    -1.015319     0.311173
Ta       0.000000     0.000000     0.000000
N       -0.063625     0.655770     1.997289
C        0.215470     0.156824     3.377576
C        1.663778     0.458580     3.785749
C       -0.698354     0.986660     4.311699
C       -0.062756    -1.338996     3.647383
N       -1.221742     1.655198    -0.438615
C       -2.494735     1.806258     0.189729
C       -2.627780     2.173286     1.542779
C       -3.893284     2.284675     2.127829
C       -5.038081     2.039621     1.367979
C       -4.917924     1.696553     0.019954
C       -3.653895     1.581869    -0.564718
C       -0.620631     2.814966    -1.021052
C       -0.431366     3.952695    -0.211668
C        0.189529     5.091416    -0.710913
C        0.635705     5.117239    -2.028630
C        0.450053     4.005895    -2.861403
C       -0.211730     2.852207    -2.393268
C       -0.468896     1.689749    -3.356108
P       -0.049724     0.144282    -2.498296
C        1.178414    -0.778075    -3.476866
C        1.960358    -1.772557    -2.870046
C        2.850052    -2.545508    -3.615104
C        3.006207    -2.306231    -4.978079
C        2.260059    -1.302417    -5.595141
C        1.373611    -0.522650    -4.846544
C       -1.572580    -0.813326    -2.848901
C       -1.205290    -2.236062    -2.521909
C       -1.045878    -3.215153    -3.521134
C       -0.624565    -4.507631    -3.180118
C       -0.364815    -4.832392    -1.846819
C       -0.556723    -3.876283    -0.851497
C       -1.020837    -2.592083    -1.188809
N       -1.310158    -1.635529    -0.187243
C       -2.368954    -1.992451     0.740607
C       -3.121474    -3.195260     0.582604
C       -4.095684    -3.577538     1.504550
C       -4.365179    -2.772523     2.603565
C       -3.679871    -1.570037     2.758226
C       -2.704511    -1.185298     1.827259
H        2.107914     2.033382    -0.981821
H        2.653629     1.631522     0.694574
H        3.703890     1.255737    -0.740876
H        2.939390    -0.641786     1.321475
H        3.695694    -1.291956    -0.163423
H        2.101259    -1.925907     0.403709
H        1.801884     0.270269     4.875452
H        1.918462     1.519961     3.586353
H        2.373415    -0.202941     3.272902
H       -0.499639     2.074220     4.184772
H       -1.770174     0.810466     4.076033
H       -0.546020     0.734264     5.382899
H        0.522840    -1.998232     2.979179
H       -1.124841    -1.604235     3.605693
H        0.211663    -1.578531     4.701711
H       -1.765630     2.381964     2.150348
H       -3.985985     2.561368     3.170666
H       -6.017584     2.124425     1.820391
H       -5.804270     1.518568    -0.574111
H       -3.580062     1.323137    -1.609621
H       -0.746135     3.960163     0.821975
H        0.328619     5.953340    -0.067873
H        1.116152     6.010744    -2.406185
H        0.785942     4.070062    -3.886955
H        0.014215     1.844043    -4.335646
H       -1.566563     1.713210    -3.505393
H        1.812635    -2.035753    -1.843355
H        3.396878    -3.348389    -3.137553
H        3.681966    -2.917856    -5.560380
H        2.350531    -1.142055    -6.661156
H        0.784533     0.201576    -5.380540
H       -2.461852    -0.464531    -2.292905
H       -1.782922    -0.735711    -3.937023
H       -1.220662    -2.975405    -4.561391
H       -0.488249    -5.256854    -3.948645
H       -0.031152    -5.827543    -1.580367
H       -0.381771    -4.139028     0.185362
H       -2.971908    -3.869859    -0.245488
H       -4.634541    -4.507100     1.366104
H       -5.108710    -3.078592     3.328118
H       -3.892674    -0.939265     3.610980
H       -2.201767    -0.271049     1.988161
86
ex_0331 frame15 square-pyramidal ap-N0/N1-P,N2-N2-Δ-conf2
C       -0.121883     3.036753    -0.954693
N       -0.196163     2.086954     0.171896
C        0.468590     2.714984     1.329609
Ta       0.000000     0.000000     0.000000
N        0.108821    -0.008043     2.098361
C        0.086614     0.072717     3.627031
C       -1.245881    -0.374198     4.223123
C        1.149576    -0.866481     4.231765
C        0.317684     1.489581     4.213083
N        2.063460     0.012882    -0.413018
C        2.897827     0.681508     0.571818
C        3.207539     0.061859     1.806144
C        3.993802     0.692429     2.780705
C        4.492850     1.962837     2.552332
C        4.223774     2.597075     1.337791
C        3.434664     1.964987     0.351281
C        2.777408    -1.100161    -0.959122
C        3.755253    -0.793701    -1.916335
C        4.525001    -1.790480    -2.509474
C        4.318154    -3.123717    -2.175159
C        3.345029    -3.463203    -1.243678
C        2.577673    -2.471163    -0.607922
C        1.595208    -2.956316     0.406142
P       -0.112737    -2.496323     0.110022
C       -0.757834    -3.447999    -1.218672
C       -1.901064    -4.247083    -1.122435
C       -2.404918    -4.838291    -2.278851
C       -1.727705    -4.693456    -3.495621
C       -0.544514    -3.958344    -3.558522
C       -0.047877    -3.363128    -2.414522
C       -1.160996    -2.889338     1.557285
C       -2.349527    -2.021932     1.814948
C       -3.147782    -2.379872     2.932361
C       -4.202111    -1.573495     3.354095
C       -4.518957    -0.430759     2.635368
C       -3.804448    -0.114567     1.479297
C       -2.708634    -0.900456     1.032044
N       -2.034207    -0.505879    -0.188103
C       -2.995419    -0.174571    -1.184914
C       -4.062599    -1.070540    -1.444244
C       -5.088580    -0.713622    -2.315325
C       -5.032265     0.512974    -2.976501
C       -3.943303     1.364539    -2.772470
C       -2.918576     0.991937    -1.905121
H       -0.489142     2.680463    -1.917407
H       -0.719542     3.939489    -0.660462
H        0.915902     3.373297    -1.140663
H        1.109800     3.587597     1.066645
H       -0.295964     3.099555     2.026672
H        1.177255     2.042857     1.808266
H       -1.330930    -1.458124     4.132147
H       -2.088209     0.196760     3.788733
H       -1.274968    -0.219393     5.327067
H        2.158986    -0.477909     4.109550
H        1.021226    -0.958121     5.331252
H        1.089880    -1.884495     3.796891
H        1.300329     1.917779     3.941388
H       -0.512588     2.173873     3.950083
H        0.320075     1.449236     5.329586
H        2.846997    -0.909171     2.041056
H        4.214581     0.199697     3.723775
H        5.091229     2.444924     3.319302
H        4.631770     3.583652     1.170568
H        3.243798     2.478927    -0.575760
H        3.940767     0.240628    -2.176812
H        5.290438    -1.524965    -3.223897
H        4.922904    -3.898619    -2.624905
H        3.227259    -4.508105    -0.979052
H        1.874931    -2.555469     1.387397
H        1.629306    -4.058771     0.548841
H       -2.479397    -4.326348    -0.214528
H       -3.337604    -5.380162    -2.234719
H       -2.128342    -5.129471    -4.395313
H       -0.021056    -3.814204    -4.492582
H        0.835597    -2.746797    -2.497733
H       -1.376445    -3.976546     1.604144
H       -0.524421    -2.717656     2.445577
H       -2.894348    -3.242217     3.541316
H       -4.750526    -1.816960     4.257770
H       -5.317208     0.215957     2.977723
H       -4.082600     0.783890     0.945437
H       -4.142213    -2.009727    -0.904466
H       -5.936095    -1.374097    -2.449847
H       -5.839435     0.812147    -3.628207
H       -3.904982     2.330496    -3.253264
H       -2.146815     1.654592    -1.689214
86
ex_0331 frame16 N1-N2-ax-Λ-conf5
C       -1.168803     0.322231     2.866391
N       -0.152330    -0.362622     2.065502
C        1.122874    -0.333511     2.743726
Ta       0.000000     0.000000     0.000000
N        1.935386    -0.698087    -0.428369
C        3.348784    -0.193306    -0.239464
C        3.835011     0.034130     1.218315
C        4.225137    -1.327932    -0.796078
C        3.669773     1.094573    -1.025334
N       -0.105647    -0.181545    -2.093727
C       -0.678090     0.719479    -3.053175
C       -1.750488     0.264239    -3.850563
C       -2.338877     1.083184    -4.809510
C       -1.869753     2.380884    -4.991564
C       -0.804386     2.851502    -4.216554
C       -0.222285     2.031594    -3.236208
C        0.416397    -1.344288    -2.746240
C        1.436300    -1.084902    -3.687751
C        2.050418    -2.102138    -4.395408
C        1.661076    -3.414976    -4.182682
C        0.644281    -3.713241    -3.267510
C       -0.011230    -2.707604    -2.517547
C       -1.107901    -3.216734    -1.545626
P       -1.489002    -1.990211    -0.270377
C       -1.315885    -2.910053     1.296949
C       -0.254908    -3.801058     1.560520
C       -0.209194    -4.506139     2.772728
C       -1.189182    -4.299061     3.746692
C       -2.223858    -3.395397     3.508680
C       -2.293072    -2.716762     2.288963
C       -2.970293    -0.999750    -0.745542
C       -3.384852     0.157535     0.180639
C       -4.593291     0.032626     0.909394
C       -5.053293     1.053069     1.752368
C       -4.326313     2.223973     1.895657
C       -3.141492     2.382381     1.199999
C       -2.627567     1.358008     0.360163
N       -1.366737     1.574489    -0.272891
C       -0.916076     2.913832    -0.526997
C       -1.820890     3.882898    -1.019078
C       -1.408229     5.191652    -1.263422
C       -0.085178     5.558299    -1.024412
C        0.826647     4.610898    -0.544617
C        0.414487     3.290936    -0.297130
H       -1.236517    -0.175459     3.861235
H       -2.164866     0.165577     2.451478
H       -0.927161     1.394522     3.014816
H        1.753227    -1.095781     2.271508
H        1.532176     0.695265     2.720277
H        1.025935    -0.642359     3.807424
H        3.771005    -0.875886     1.845830
H        4.924469     0.276175     1.226034
H        3.358028     0.911399     1.689516
H        3.978569    -1.514240    -1.861681
H        4.023056    -2.263658    -0.227239
H        5.311735    -1.104559    -0.715048
H        3.143615     1.972703    -0.608665
H        4.762531     1.322123    -0.935851
H        3.444157     0.988648    -2.102703
H       -2.113370    -0.751132    -3.752886
H       -3.149520     0.700971    -5.418157
H       -2.319439     3.009408    -5.749375
H       -0.422637     3.848653    -4.388568
H        0.626697     2.396035    -2.682881
H        1.761716    -0.065594    -3.870871
H        2.831699    -1.864269    -5.108607
H        2.151104    -4.205034    -4.735938
H        0.373435    -4.751931    -3.137801
H       -2.001898    -3.646731    -2.038402
H       -0.617648    -4.057137    -1.024049
H        0.523071    -3.983191     0.833739
H        0.586055    -5.216541     2.960383
H       -1.148434    -4.837913     4.685819
H       -2.978077    -3.224851     4.267080
H       -3.109427    -2.029378     2.126430
H       -3.798161    -1.737719    -0.797380
H       -2.862433    -0.571850    -1.739443
H       -5.195887    -0.860441     0.828496
H       -5.977127     0.940284     2.304095
H       -4.668492     3.013418     2.556235
H       -2.592892     3.299886     1.376498
H       -2.851706     3.619242    -1.219926
H       -2.118169     5.919289    -1.637724
H        0.229346     6.577482    -1.212360
H        1.851577     4.905932    -0.362338
H        1.119999     2.570015     0.082820
86
ex_0331 frame17 square-pyramidal ap-N0/N1-P,N2-N2-Δ-conf3
C       -0.013989     2.910452    -1.151354
N       -0.126947     2.097884     0.069074
C       -0.018349     2.814667     1.324225
Ta       0.000000     0.000000     0.000000
N        0.289924    -0.558776     2.005516
C        0.024498    -0.180143     3.416823
C       -1.391630     0.393008     3.713257
C        0.103232    -1.498388     4.219997
C        1.165746     0.721028     3.942546
N        1.950107     0.096479    -0.782814
C        2.605648     1.342651    -0.506984
C        2.786523     2.260850    -1.547146
C        3.309352     3.533011    -1.293519
C        3.721869     3.878418    -0.005946
C        3.630996     2.942192     1.028606
C        3.075423     1.673010     0.784241
C        2.762428    -1.086501    -1.071966
C        4.178366    -0.998407    -0.928203
C        5.020156    -2.074373    -1.204532
C        4.496061    -3.271034    -1.663039
C        3.125670    -3.412899    -1.817116
C        2.238695    -2.367332    -1.499073
C        0.774958    -2.707998    -1.643516
P        0.117420    -2.496882     0.007650
C        1.033733    -3.893162     0.702330
C        0.689279    -5.224965     0.420768
C        1.439163    -6.273451     0.966094
C        2.533802    -5.999818     1.791612
C        2.874855    -4.677042     2.082730
C        2.122111    -3.627571     1.548620
C       -1.671662    -2.780912    -0.259477
C       -2.311696    -2.086273    -1.433869
C       -2.735282    -2.858558    -2.526529
C       -3.338314    -2.253965    -3.629821
C       -3.532169    -0.872258    -3.652930
C       -3.130215    -0.096050    -2.568856
C       -2.499233    -0.696122    -1.475481
N       -2.057101     0.112064    -0.422053
C       -3.016859     0.862658     0.360352
C       -3.909589     0.209535     1.238372
C       -4.837806     0.945135     2.002607
C       -4.889670     2.337400     1.904404
C       -4.024600     2.994043     1.039240
C       -3.105724     2.262804     0.284834
H        0.212552     2.271852    -2.022276
H       -0.927353     3.469470    -1.398207
H        0.723253     3.724264    -1.000990
H        0.997779     3.216163     1.479992
H       -0.244431     2.126113     2.105824
H       -0.759058     3.638522     1.373367
H       -1.646876     1.383375     3.314838
H       -2.176426    -0.312194     3.375580
H       -1.508037     0.507232     4.816813
H        0.005143    -1.316282     5.313631
H       -0.704789    -2.196620     3.908884
H        1.073609    -2.010778     4.043364
H        0.960420     1.052604     4.982090
H        1.351266     1.618214     3.334789
H        2.126278     0.159758     3.945435
H        2.441627     2.015311    -2.541543
H        3.363570     4.259558    -2.093512
H        4.107098     4.873117     0.186982
H        3.965186     3.216536     2.022866
H        2.987748     0.972261     1.603449
H        4.662674    -0.099536    -0.573211
H        6.089762    -1.977810    -1.064454
H        5.151812    -4.101690    -1.888235
H        2.748824    -4.369324    -2.157136
H        0.293303    -1.985092    -2.334832
H        0.582281    -3.737009    -2.009446
H       -0.148085    -5.457569    -0.220959
H        1.175390    -7.299368     0.744690
H        3.118438    -6.812051     2.204619
H        3.725002    -4.464641     2.718740
H        2.402434    -2.606587     1.776585
H       -1.786873    -3.874027    -0.390771
H       -2.224550    -2.532519     0.673474
H       -2.604490    -3.933342    -2.521079
H       -3.655127    -2.859835    -4.466069
H       -3.989733    -0.400860    -4.510885
H       -3.271838     0.978008    -2.591277
H       -3.893716    -0.865529     1.337380
H       -5.522674     0.442016     2.672898
H       -5.603764     2.910422     2.485811
H       -4.067878     4.073476     0.942041
H       -2.505786     2.810896    -0.378014
86
ex_0331 frame18 square-pyramidal ap-N2/N0-P,N1-N2-Λ-conf3
C        2.794995    -0.007362    -1.252933
N        2.063200    -0.415458    -0.044883
C        3.016335    -0.494515     1.089469
Ta       0.000000     0.000000     0.000000
N        0.126323    -2.037272    -0.506811
C       -0.062403    -3.411956     0.125675
C       -1.004599    -4.222672    -0.778835
C        1.316093    -4.120711     0.132979
C       -0.698220    -3.578577     1.537795
N        0.334141     0.041571     2.080741
C        0.203699    -1.067850     3.008784
C       -0.959721    -1.159543     3.806442
C       -1.104239    -2.181613     4.761953
C       -0.102501    -3.137456     4.935315
C        1.047150    -3.076863     4.161317
C        1.181720    -2.091849     3.178327
C        0.763104     1.169545     2.929373
C        1.794298     0.998504     3.915447
C        2.260327     2.045448     4.708810
C        1.711053     3.307537     4.579480
C        0.688297     3.515009     3.660976
C        0.215265     2.456436     2.847210
C       -0.866457     2.712367     1.902669
P       -0.214388     2.479591     0.196030
C        1.281401     3.473102     0.128294
C        1.281234     4.805407    -0.295861
C        2.459758     5.554768    -0.244160
C        3.656541     4.958918     0.165141
C        3.664661     3.622043     0.555684
C        2.481838     2.891626     0.512865
C       -1.508910     3.212083    -0.782042
C       -2.711707     2.746684    -0.047179
C       -3.635409     3.743121     0.312948
C       -4.739490     3.442572     1.091390
C       -4.976833     2.131837     1.473045
C       -4.118355     1.110952     1.059681
C       -2.946500     1.371411     0.294060
N       -2.090391     0.237084    -0.077216
C       -2.899781    -0.774592    -0.654901
C       -3.198558    -0.693676    -2.019882
C       -4.077049    -1.608302    -2.602272
C       -4.622666    -2.639066    -1.833384
C       -4.287648    -2.754958    -0.481258
C       -3.401631    -1.841830     0.102139
H        2.622693    -0.738876    -2.059035
H        2.545030     1.030389    -1.543921
H        3.906092    -0.017956    -1.092240
H        3.528805    -1.476336     1.087664
H        2.594849    -0.306387     2.034069
H        3.814140     0.278250     1.074351
H       -2.058739    -3.988540    -0.550458
H       -0.825994    -4.015838    -1.845674
H       -0.898163    -5.314003    -0.574824
H        1.260860    -5.127137     0.613144
H        1.699141    -4.259769    -0.896641
H        2.060848    -3.531949     0.708536
H       -1.386165    -4.452182     1.609710
H       -1.332998    -2.753920     1.862842
H        0.008461    -4.023389     2.251868
H       -1.736872    -0.411663     3.722814
H       -1.988583    -2.231482     5.382620
H       -0.208547    -3.927617     5.668468
H        1.830043    -3.816028     4.289738
H        2.090754    -2.169178     2.637139
H        2.267351     0.047442     4.100117
H        3.050194     1.871009     5.430825
H        2.068137     4.118074     5.204630
H        0.249605     4.504067     3.607062
H       -1.699898     2.051621     2.209317
H       -1.215441     3.762340     2.017599
H        0.370691     5.308750    -0.566512
H        2.437020     6.603086    -0.502245
H        4.567749     5.537590     0.209224
H        4.574270     3.155946     0.914661
H        2.469236     1.899679     0.872370
H       -1.474280     4.310054    -0.836092
H       -1.422021     2.785000    -1.805214
H       -3.455786     4.780290     0.057429
H       -5.396672     4.237877     1.417298
H       -5.825610     1.908238     2.106445
H       -4.347621     0.119897     1.416412
H       -2.811536     0.128606    -2.608860
H       -4.352105    -1.500908    -3.642997
H       -5.317410    -3.336594    -2.281501
H       -4.723742    -3.543287     0.118499
H       -3.186290    -1.915519     1.156683
86
ex_0331 frame19 N0-P-ax-Λ-conf3
C        2.812598     0.218934    -1.032687
N        1.942534    -0.734502    -0.330860
C        2.585672    -1.065689     0.937735
Ta       0.000000     0.000000     0.000000
N       -0.353249    -0.401344     2.033123
C        0.071196    -0.105549     3.428191
C       -1.175291     0.349786     4.213504
C        0.505917    -1.423290     4.106886
C        1.172857     0.960075     3.569653
N       -1.063151     1.809991    -0.154205
C       -1.646440     2.323265     1.040097
C       -2.965803     1.969147     1.372122
C       -3.579655     2.510484     2.507297
C       -2.873396     3.395268     3.328608
C       -1.547572     3.727412     3.021775
C       -0.928146     3.176469     1.892125
C       -1.377742     2.605808    -1.311235
C       -1.358031     4.019625    -1.220936
C       -1.661459     4.821338    -2.321116
C       -1.994786     4.237151    -3.536550
C       -2.021999     2.851330    -3.650014
C       -1.709281     2.036286    -2.543864
C       -1.735333     0.575906    -2.699878
P       -0.020512     0.006742    -2.500956
C        0.985372     0.996639    -3.646087
C        1.276072     0.617857    -4.970601
C        2.017327     1.467056    -5.797697
C        2.504619     2.679811    -5.307307
C        2.243943     3.052420    -3.989682
C        1.497581     2.213262    -3.164361
C       -0.254315    -1.618522    -3.253323
C       -1.548207    -2.177677    -2.696643
C       -2.463289    -2.668128    -3.655710
C       -3.704277    -3.170945    -3.288408
C       -4.062345    -3.216265    -1.953776
C       -3.175969    -2.772696    -0.979661
C       -1.896706    -2.240026    -1.298199
N       -1.060983    -1.808692    -0.185300
C       -1.007119    -2.797580     0.848111
C       -0.061522    -3.827813     0.761401
C       -0.021678    -4.833873     1.732463
C       -0.916916    -4.807890     2.808906
C       -1.848063    -3.774985     2.914903
C       -1.882925    -2.760352     1.951998
H        2.721651     0.072188    -2.116338
H        2.587509     1.257086    -0.711919
H        3.891921     0.015000    -0.855803
H        3.460442    -1.723309     0.759030
H        1.879607    -1.601173     1.580789
H        2.991111    -0.161091     1.428162
H       -1.481508     1.343717     3.892062
H       -2.036202    -0.329850     4.027873
H       -0.992729     0.405157     5.308144
H        0.753951    -1.249052     5.177030
H       -0.330060    -2.144601     4.116924
H        1.378224    -1.900595     3.635112
H        0.767142     1.987298     3.556672
H        1.911546     0.903636     2.774787
H        1.702991     0.843216     4.542095
H       -3.528318     1.301898     0.729192
H       -4.603210     2.250232     2.746305
H       -3.348586     3.813995     4.206190
H       -0.999434     4.405509     3.660913
H        0.091831     3.444437     1.651520
H       -1.106179     4.520964    -0.300689
H       -1.639369     5.899007    -2.226681
H       -2.235088     4.857043    -4.390021
H       -2.291127     2.413936    -4.604318
H       -2.453292     0.136981    -1.979114
H       -2.071059     0.323824    -3.730419
H        0.910620    -0.292075    -5.407696
H        2.205883     1.186967    -6.825552
H        3.075200     3.335359    -5.950878
H        2.610309     3.996176    -3.607522
H        1.290088     2.532268    -2.151886
H       -0.311632    -1.589564    -4.352047
H        0.612010    -2.248093    -2.957421
H       -2.226991    -2.643706    -4.711780
H       -4.395092    -3.518886    -4.045190
H       -5.036566    -3.593226    -1.667814
H       -3.527905    -2.821746     0.037196
H        0.617609    -3.868405    -0.080319
H        0.693515    -5.641051     1.644453
H       -0.884615    -5.590463     3.555212
H       -2.541150    -3.757537     3.746444
H       -2.617229    -1.969280     2.043590
86
ex_0331 frame20 axial-1
C        2.168559    -2.805660    -0.906079
N        1.984167    -1.401868    -1.283049
C        3.266146    -0.708668    -1.363304
Ta       0.484284    -0.453066    -0.157761
N       -0.307234    -1.857486     1.190938
C        0.302904    -2.354991     2.418373
C        1.815512    -2.188938     2.420080
C       -0.097439    -3.845335     2.472434
C       -0.284082    -1.639990     3.652045
N        1.166047     1.169287     0.992873
C        0.340342     1.808559     1.983096
C       -0.970101     1.358811     2.214810
C       -1.780124     1.968739     3.184554
C       -1.290646     3.036757     3.938713
C        0.002576     3.505040     3.717026
C        0.812051     2.900958     2.751091
C        2.427511     1.696237     0.661343
C        3.470289     1.573383     1.583894
C        4.732491     2.068448     1.282029
C        4.964583     2.676276     0.047099
C        3.931823     2.790004    -0.892162
C        2.638110     2.339866    -0.583067
C        1.517773     2.557834    -1.587851
P        0.346150     1.199590    -2.027937
C       -1.417740     1.702553    -1.947209
C       -1.807507     2.565514    -0.896741
C       -3.110467     3.066584    -0.812525
C       -4.067628     2.671785    -1.742256
C       -3.719236     1.776301    -2.757777
C       -2.403884     1.286034    -2.860389
C        0.610941     0.520373    -3.676019
C        0.353328    -1.011426    -3.723655
C        0.808423    -1.647946    -4.896940
C        0.703031    -3.031365    -5.077615
C        0.112633    -3.826300    -4.106017
C       -0.386310    -3.242935    -2.955219
C       -0.284997    -1.853589    -2.730393
N       -0.842882    -1.389013    -1.496600
C       -2.272566    -1.642191    -1.271979
C       -3.092484    -2.044015    -2.369266
C       -4.447428    -2.338700    -2.222696
C       -5.047934    -2.251830    -0.976291
C       -4.296308    -1.839555     0.120450
C       -2.933953    -1.519070    -0.020234
H        2.392238    -3.403055    -1.812562
H        3.037388    -2.939813    -0.229808
H        1.241377    -3.205701    -0.451576
H        3.674823    -0.525452    -0.349821
H        3.995644    -1.316762    -1.942043
H        3.146499     0.222836    -1.935094
H        2.090329    -1.132138     2.225887
H        2.227408    -2.490147     3.406233
H        2.273506    -2.855409     1.689573
H        0.549235    -4.434014     3.150910
H       -1.159052    -3.960912     2.790989
H       -0.033950    -4.294723     1.454221
H        0.066429    -2.134965     4.585327
H       -1.396193    -1.683550     3.644755
H        0.027945    -0.579728     3.696196
H       -1.371239     0.545055     1.640874
H       -2.789594     1.615701     3.354451
H       -1.912858     3.507241     4.690840
H        0.381361     4.339588     4.294393
H        1.802554     3.305649     2.611044
H        3.288707     1.102525     2.542987
H        5.525653     1.984264     2.012408
H        5.944308     3.075120    -0.173856
H        4.126434     3.296235    -1.828613
H        1.815998     3.112590    -2.502462
H        0.899533     3.279970    -1.022088
H       -1.095415     2.917380    -0.166861
H       -3.374495     3.774083    -0.032903
H       -5.075656     3.067982    -1.678065
H       -4.471766     1.477798    -3.475623
H       -2.163868     0.614153    -3.668600
H        1.704408     0.604419    -3.831205
H        0.108238     1.110250    -4.470253
H        1.288191    -1.068653    -5.673251
H        1.091451    -3.494580    -5.973635
H        0.040415    -4.899476    -4.237913
H       -0.840632    -3.882678    -2.204090
H       -2.698338    -2.132013    -3.370392
H       -5.029957    -2.642274    -3.084228
H       -6.097954    -2.496859    -0.865316
H       -4.777577    -1.771333     1.088666
H       -2.456420    -1.204058     0.877174
86
ex_0331 frame21 axial-2
C        0.936460     0.491112     2.766868
N        0.300602    -0.626207     2.066146
C        0.962970    -1.889855     2.344964
Ta      -0.002554    -0.150555     0.041738
N       -0.798743    -1.692798    -1.143583
C       -1.612694    -2.847863    -0.781102
C       -2.651951    -3.007182    -1.909597
C       -0.713639    -4.093911    -0.784794
C       -2.337517    -2.686571     0.553457
N        1.873910    -0.618768    -0.781166
C        2.174480    -1.911437    -1.297682
C        1.993866    -2.146840    -2.666413
C        2.313317    -3.389966    -3.219310
C        2.794942    -4.416944    -2.403994
C        2.958292    -4.200617    -1.035235
C        2.645351    -2.956980    -0.481873
C        2.962078     0.249040    -0.531191
C        3.993757    -0.081107     0.367101
C        5.050715     0.804249     0.575055
C        5.088410     2.017509    -0.114265
C        4.060834     2.352860    -1.006765
C        2.985717     1.468391    -1.214555
C        1.847939     1.790794    -2.155937
P        0.299435     1.997302    -1.202545
C        0.307452     3.362753    -0.019377
C       -0.640666     4.394239    -0.052508
C       -0.524255     5.479636     0.826758
C        0.511037     5.520142     1.765989
C        1.424861     4.469667     1.838422
C        1.306371     3.383844     0.969164
C       -0.890572     2.307148    -2.533089
C       -2.281970     1.742886    -2.191457
C       -3.266805     1.850271    -3.200046
C       -4.574270     1.380626    -3.010494
C       -4.943634     0.801208    -1.807091
C       -4.009786     0.679554    -0.797242
C       -2.675606     1.122384    -0.957582
N       -1.821186     0.899478     0.166629
C       -2.373170     1.264571     1.452965
C       -2.992608     2.525178     1.603770
C       -3.522656     2.930202     2.832244
C       -3.450582     2.084411     3.937248
C       -2.860746     0.827673     3.808982
C       -2.326467     0.420292     2.579868
H        0.358440     1.417770     2.581598
H        0.936183     0.310538     3.863589
H        1.978331     0.637520     2.413926
H        2.064219    -1.781381     2.333252
H        0.658287    -2.228373     3.359564
H        0.633904    -2.649814     1.622688
H       -2.143621    -3.104511    -2.896243
H       -3.310557    -2.113005    -1.963349
H       -3.285674    -3.906542    -1.757699
H        0.059102    -4.035460     0.001329
H       -1.309832    -5.016673    -0.624701
H       -0.195293    -4.186663    -1.765499
H       -1.621088    -2.571359     1.382707
H       -3.017797    -1.812601     0.526768
H       -2.948387    -3.595007     0.754343
H        1.632729    -1.356342    -3.309597
H        2.193297    -3.553952    -4.281365
H        3.045811    -5.378056    -2.832338
H        3.334947    -4.993973    -0.401745
H        2.797963    -2.827339     0.571481
H        3.991582    -1.010575     0.913118
H        5.842434     0.545332     1.268498
H        5.916920     2.695604     0.045351
H        4.108980     3.295645    -1.534227
H        1.751418     0.983218    -2.909165
H        2.047114     2.743017    -2.690742
H       -1.427824     4.401379    -0.791091
H       -1.223614     6.302290     0.766599
H        0.613911     6.369567     2.429599
H        2.238325     4.504801     2.553652
H        2.047453     2.601527     1.026644
H       -0.889864     3.369262    -2.848114
H       -0.570180     1.687861    -3.397897
H       -3.022170     2.299454    -4.151574
H       -5.311361     1.465560    -3.796993
H       -5.952412     0.435678    -1.648500
H       -4.327761     0.208480     0.127870
H       -3.060954     3.202761     0.764425
H       -3.990369     3.901875     2.926450
H       -3.863624     2.397374     4.888426
H       -2.826074     0.162990     4.663553
H       -1.931914    -0.571955     2.526729
86
ex_0331 frame22 axial-3
C       -1.990651    -0.151128     2.718782
N       -1.962742    -1.091418     1.601595
C       -3.296102    -1.106360     0.964834
Ta      -0.523830    -0.544849     0.170992
N       -1.102879    -2.443011    -0.521358
C       -0.877403    -3.770018     0.082621
C       -1.521392    -4.769922    -0.897902
C        0.613415    -4.097193     0.214733
C       -1.573133    -3.941322     1.442517
N       -1.131801     1.424817    -0.245091
C       -0.550940     2.564403     0.406177
C       -0.663117     3.837900    -0.198340
C       -0.143283     4.974003     0.414646
C        0.497828     4.863556     1.645966
C        0.634089     3.609537     2.252477
C        0.127512     2.458825     1.627351
C       -2.396204     1.576603    -0.912654
C       -3.333080     2.458713    -0.315612
C       -4.597985     2.645475    -0.844508
C       -4.962416     1.973661    -2.000615
C       -4.056625     1.112259    -2.635733
C       -2.752988     0.893588    -2.130405
C       -1.845684    -0.061862    -2.945926
P       -0.145221    -0.138342    -2.266576
C        0.554105     1.475917    -2.641906
C        1.632915     1.937804    -1.882849
C        2.247912     3.149026    -2.205354
C        1.769071     3.917052    -3.270409
C        0.666831     3.481159    -4.005295
C        0.042150     2.280308    -3.677360
C        0.810522    -1.637922    -2.584761
C        2.168929    -1.699063    -1.875353
C        3.247926    -2.052191    -2.721624
C        4.539527    -2.231730    -2.236479
C        4.808367    -2.038739    -0.897295
C        3.796010    -1.643825    -0.041028
C        2.455675    -1.442517    -0.477050
N        1.499767    -0.998635     0.520053
C        1.910880    -0.598491     1.832560
C        1.355391    -1.225035     2.957071
C        1.752718    -0.859163     4.247984
C        2.700971     0.149334     4.429345
C        3.253411     0.793142     3.319478
C        2.868678     0.418631     2.026064
H       -1.025852    -0.163028     3.248938
H       -2.202188     0.877833     2.359308
H       -2.779207    -0.451484     3.444002
H       -3.709480    -0.086264     0.829519
H       -4.003518    -1.699466     1.582032
H       -3.265531    -1.571069    -0.038826
H       -1.048307    -4.696075    -1.901585
H       -1.427676    -5.816487    -0.539219
H       -2.603924    -4.539418    -1.023424
H        1.100033    -3.426045     0.942124
H        1.126921    -4.023980    -0.764732
H        0.744573    -5.136743     0.584691
H       -2.662846    -3.749058     1.356498
H       -1.133684    -3.284258     2.212440
H       -1.449984    -4.983602     1.807085
H       -1.160436     3.950932    -1.153986
H       -0.248171     5.939076    -0.065954
H        0.885859     5.752277     2.126992
H        1.125602     3.535004     3.213289
H        0.226021     1.507193     2.119419
H       -3.100951     2.975683     0.609686
H       -5.297841     3.305780    -0.342352
H       -5.956784     2.124208    -2.401330
H       -4.383644     0.611048    -3.535510
H       -2.310512    -1.064625    -2.832969
H       -1.845714     0.163632    -4.027410
H        2.027065     1.339289    -1.073462
H        3.106982     3.481903    -1.640770
H        2.258062     4.843310    -3.536126
H        0.304044     4.061584    -4.844047
H       -0.782073     1.970595    -4.296348
H        0.940454    -1.696118    -3.686061
H        0.254008    -2.548454    -2.346065
H        3.088193    -2.250601    -3.772764
H        5.335101    -2.544654    -2.899152
H        5.807883    -2.198366    -0.510348
H        4.087829    -1.528836     0.992113
H        0.624672    -2.007938     2.838392
H        1.325625    -1.358767     5.108807
H        3.005176     0.432816     5.429574
H        3.980715     1.582012     3.463107
H        3.301050     0.931724     1.177311
86
ex_0331 frame23 square-pyramidal ap-N1/N0-P,N2-N2-Λ-conf2
C        0.430854     1.314715     2.802270
N        0.352973     0.045463     2.073854
C       -0.149497    -0.988252     3.006074
Ta       0.000000     0.000000     0.000000
N        2.063531     0.227659    -0.318356
C        3.402071     0.061641     0.388873
C        4.146447    -1.169073    -0.190758
C        4.266364     1.278311    -0.010323
C        3.470148     0.025302     1.956538
N       -0.409203     2.032033    -0.360350
C        0.454765     2.873412    -1.085161
C        0.077683     3.203356    -2.381584
C        0.834819     4.106939    -3.119688
C        1.997384     4.656406    -2.570489
C        2.407406     4.288558    -1.284944
C        1.650382     3.373352    -0.551196
C       -1.209493     2.734346     0.622517
C       -0.690152     3.750646     1.486483
C       -1.484405     4.340527     2.474683
C       -2.820897     3.983064     2.595951
C       -3.369249     3.036010     1.724066
C       -2.567477     2.406797     0.740046
C       -3.131116     1.379044    -0.202743
P       -2.477061    -0.285493     0.185802
C       -3.143001    -0.892763     1.780422
C       -3.786714    -2.130210     1.900631
C       -4.321595    -2.537625     3.134888
C       -4.193725    -1.730463     4.269542
C       -3.538838    -0.507797     4.173648
C       -3.012695    -0.098528     2.944130
C       -3.136443    -1.209974    -1.222592
C       -2.217424    -2.353031    -1.723463
C       -2.765755    -3.130441    -2.764377
C       -2.096792    -4.240502    -3.298545
C       -0.844781    -4.602153    -2.830632
C       -0.248737    -3.842199    -1.851688
C       -0.897586    -2.726167    -1.277616
N       -0.122391    -2.081727    -0.281185
C        0.196535    -2.973795     0.833090
C       -0.734928    -3.967410     1.247223
C       -0.497753    -4.773110     2.369566
C        0.694328    -4.654357     3.078858
C        1.652354    -3.733348     2.658706
C        1.398445    -2.911581     1.542167
H       -0.570874     1.747049     2.927242
H        0.763967     1.149317     3.855959
H        1.156641     2.001097     2.347445
H        0.715748    -1.452241     3.519525
H       -0.722972    -0.578363     3.862423
H       -0.820526    -1.717129     2.551724
H        4.173905    -1.106171    -1.296572
H        3.716466    -2.148742     0.057182
H        5.196211    -1.207746     0.181144
H        3.904339     2.205463     0.467579
H        5.323856     1.161450     0.323129
H        4.265055     1.411038    -1.111079
H        3.075490     0.939652     2.428617
H        3.034290    -0.845056     2.467264
H        4.544508    -0.007113     2.272258
H       -0.843833     2.802418    -2.785884
H        0.501980     4.392855    -4.106319
H        2.570974     5.375005    -3.136777
H        3.296821     4.726427    -0.849668
H        1.953982     3.120152     0.452444
H        0.333591     4.072653     1.474830
H       -1.056747     5.070641     3.156850
H       -3.428964     4.447525     3.365907
H       -4.417285     2.790332     1.830018
H       -2.890637     1.698468    -1.236844
H       -4.235999     1.333786    -0.097060
H       -3.911079    -2.763889     1.038458
H       -4.845839    -3.478841     3.213474
H       -4.609359    -2.044724     5.220422
H       -3.444411     0.126776     5.050411
H       -2.531620     0.857980     2.917371
H       -4.170139    -1.536133    -1.001468
H       -3.169177    -0.511214    -2.085399
H       -3.747635    -2.897244    -3.145971
H       -2.555296    -4.836988    -4.071452
H       -0.323810    -5.469422    -3.219562
H        0.737749    -4.141700    -1.501361
H       -1.687817    -4.070777     0.750832
H       -1.250460    -5.477220     2.702324
H        0.867871    -5.267050     3.958097
H        2.574102    -3.634982     3.222246
H        2.098281    -2.191863     1.259495
86
ex_0331 frame24 equatorial
C       -0.915361    -0.147069     3.501539
N       -0.098326    -0.945219     2.596908
C       -0.321029    -2.385374     2.661231
Ta       0.151790    -0.141495     0.671476
N        1.537657    -0.501196    -0.866496
C        2.847088    -1.175972    -0.744504
C        2.841613    -2.384598     0.208340
C        3.924113    -0.173976    -0.302961
C        3.210411    -1.676267    -2.169540
N       -1.155636    -1.324587    -0.476441
C       -0.767655    -2.128247    -1.586772
C       -1.220434    -1.804519    -2.871674
C       -0.896317    -2.622868    -3.959722
C       -0.083322    -3.745674    -3.775804
C        0.392940    -4.057926    -2.500946
C        0.061386    -3.240434    -1.416791
C       -2.379696    -1.748777     0.146313
C       -2.700422    -3.134927     0.193398
C       -3.849281    -3.599690     0.826135
C       -4.734954    -2.700817     1.396320
C       -4.468089    -1.336905     1.337064
C       -3.297515    -0.840012     0.725117
C       -3.158193     0.653482     0.761641
P       -1.690002     1.424538     0.033049
C       -1.819028     1.771268    -1.726848
C       -0.589279     1.769965    -2.414107
C       -0.530033     1.964271    -3.787861
C       -1.703471     2.198451    -4.497066
C       -2.933934     2.233764    -3.823599
C       -2.997232     2.030491    -2.431985
C       -1.131558     3.023760     0.663066
C        0.194669     3.516472     0.195913
C        0.271209     4.729334    -0.510217
C        1.511874     5.245942    -0.886685
C        2.676076     4.530383    -0.613044
C        2.598680     3.295005     0.028461
C        1.361770     2.785010     0.453903
N        1.332453     1.537256     1.135911
C        1.927026     1.545984     2.445271
C        2.421681     0.362091     3.011982
C        2.991522     0.344269     4.286232
C        3.067927     1.518650     5.030785
C        2.585188     2.712666     4.493002
C        2.035261     2.734899     3.204558
H       -0.758829     0.928144     3.283448
H       -1.988696    -0.398930     3.399697
H       -0.589269    -0.336867     4.547174
H        0.135801    -2.870814     1.779795
H       -1.401495    -2.629477     2.704278
H        0.180235    -2.786541     3.568705
H        2.370719    -3.268106    -0.232517
H        2.369532    -2.165015     1.172758
H        3.885273    -2.718072     0.396951
H        3.950475     0.690260    -1.001987
H        4.928195    -0.652772    -0.321260
H        3.741622     0.206778     0.713172
H        3.883418    -2.560325    -2.151315
H        3.693011    -0.885264    -2.783171
H        2.292119    -1.974921    -2.721460
H       -1.873319    -0.954445    -3.017014
H       -1.289408    -2.396650    -4.941701
H        0.157453    -4.386003    -4.614666
H        0.996933    -4.943873    -2.348585
H        0.361636    -3.519996    -0.425088
H       -2.044606    -3.889301    -0.207849
H       -4.045926    -4.663589     0.881701
H       -5.628544    -3.061215     1.889602
H       -5.178714    -0.656750     1.791025
H       -3.114399     0.903720     1.840088
H       -4.054910     1.158283     0.345159
H        0.335995     1.569413    -1.891707
H        0.427025     1.921185    -4.296589
H       -1.653476     2.342895    -5.568643
H       -3.837454     2.407870    -4.389215
H       -3.951758     2.041105    -1.928495
H       -1.932245     3.764521     0.450585
H       -1.048562     2.939917     1.767599
H       -0.617979     5.320888    -0.689988
H        1.572849     6.214671    -1.364650
H        3.641091     4.940199    -0.880644
H        3.511830     2.762488     0.259442
H        2.375811    -0.553308     2.470251
H        3.368677    -0.584478     4.696367
H        3.497684     1.500794     6.024350
H        2.632478     3.621245     5.078783
H        1.655015     3.673709     2.825914
86
ex_0331 frame25 N1-P-ax-Δ
C        0.974592    -0.216580     3.066616
N        0.036868     0.348075     2.072798
C       -1.290069     0.462245     2.664877
Ta       0.000000     0.000000     0.000000
N       -0.612847     1.845614    -0.797823
C       -1.503609     2.923913    -0.251059
C       -0.808109     3.691429     0.892545
C       -1.695242     3.931812    -1.402305
C       -2.969822     2.512850     0.114120
N        2.091926    -0.050029    -0.220212
C        2.926905     0.958127     0.372422
C        3.131779     2.178052    -0.290243
C        3.949133     3.171597     0.269513
C        4.544482     2.973318     1.516760
C        4.349352     1.772078     2.190176
C        3.563639     0.771054     1.618554
C        2.741236    -1.142478    -0.900165
C        3.548617    -2.018658    -0.152328
C        4.178417    -3.105226    -0.749002
C        4.020074    -3.344877    -2.109908
C        3.230516    -2.496650    -2.887193
C        2.600189    -1.378455    -2.317971
C        1.797067    -0.471340    -3.237753
P        0.190043    -0.230611    -2.484077
C       -0.332778     1.235053    -3.442276
C        0.410095     2.430343    -3.480788
C       -0.025786     3.513914    -4.255383
C       -1.216686     3.426140    -4.979061
C       -1.969836     2.253097    -4.935387
C       -1.530287     1.166758    -4.173991
C       -0.606963    -1.827092    -2.904922
C       -1.991814    -1.934882    -2.320052
C       -3.166524    -2.004154    -3.092812
C       -4.414439    -2.132701    -2.460602
C       -4.495665    -2.167735    -1.064832
C       -3.334674    -2.070409    -0.301956
C       -2.090163    -1.966330    -0.935900
N       -0.902293    -1.890569    -0.186308
C       -0.500006    -3.046846     0.557316
C       -1.250364    -4.249166     0.559513
C       -0.859126    -5.329615     1.354464
C        0.281185    -5.230720     2.152333
C        1.050668    -4.067000     2.117157
C        0.659154    -3.001692     1.303410
H        1.535168     0.620319     3.533200
H        1.690111    -0.933785     2.700659
H        0.451280    -0.745576     3.897086
H       -1.239264     0.757941     3.737388
H       -1.780888     1.293644     2.213730
H       -1.866605    -0.476363     2.541058
H        0.185474     4.056689     0.552420
H       -1.408824     4.583830     1.184749
H       -0.649586     3.085168     1.797679
H       -0.720248     4.322181    -1.751978
H       -2.215186     3.438969    -2.253148
H       -2.317468     4.802661    -1.096147
H       -3.158954     1.848889     0.954557
H       -3.486380     2.045964    -0.746664
H       -3.545083     3.432702     0.385477
H        2.690855     2.349478    -1.254090
H        4.124222     4.097128    -0.262410
H        5.166990     3.741459     1.958318
H        4.814044     1.607495     3.155307
H        3.485134    -0.137594     2.172615
H        3.687175    -1.879962     0.906709
H        4.791408    -3.764594    -0.147813
H        4.520797    -4.188058    -2.565675
H        3.143153    -2.693243    -3.947720
H        2.344164     0.492157    -3.198242
H        1.732912    -0.791457    -4.298970
H        1.329167     2.529305    -2.934574
H        0.557028     4.425418    -4.290409
H       -1.556822     4.265471    -5.572463
H       -2.894533     2.182750    -5.494095
H       -2.129898     0.272098    -4.163943
H       -0.006064    -2.676448    -2.519951
H       -0.641987    -1.906243    -4.013257
H       -3.120974    -1.996202    -4.173728
H       -5.319554    -2.217959    -3.047630
H       -5.453204    -2.280733    -0.571672
H       -3.391016    -2.111664     0.779468
H       -2.143433    -4.366434    -0.036943
H       -1.447997    -6.237799     1.357812
H        0.574566    -6.058952     2.783108
H        1.947655    -3.988311     2.716620
H        1.242894    -2.129191     1.222022
86
ex_0331 frame26 N1-P-ax-Λ-conf4
C        0.104483     1.183624     2.887279
N        0.418339     0.028323     2.058625
C        0.483035    -1.260349     2.746849
Ta       0.000000     0.000000     0.000000
N        1.843643     0.608632    -0.806185
C        3.214313     0.279181    -0.264581
C        4.048190    -0.492545    -1.315754
C        3.955140     1.605113    -0.028322
C        3.264538    -0.550473     1.033873
N       -1.141286     1.757358    -0.183670
C       -2.466581     1.876047     0.338862
C       -2.725462     2.333596     1.644743
C       -4.035493     2.406626     2.128222
C       -5.104206     2.034959     1.312613
C       -4.863519     1.606940     0.007114
C       -3.553969     1.526028    -0.472345
C       -0.593317     2.886505    -0.875804
C       -0.379757     4.047093    -0.109545
C        0.203201     5.180545    -0.660014
C        0.593218     5.181847    -1.993154
C        0.382619     4.053917    -2.792951
C       -0.255391     2.901502    -2.284349
C       -0.534555     1.758224    -3.284475
P       -0.236360     0.174956    -2.483956
C        1.016943    -0.749002    -3.434766
C        1.772339    -1.741799    -2.803281
C        2.670996    -2.534817    -3.530396
C        2.868325    -2.300703    -4.888957
C        2.151211    -1.289025    -5.525213
C        1.254871    -0.496058    -4.798956
C       -1.711100    -0.844095    -2.860744
C       -1.284949    -2.256958    -2.537725
C       -1.115628    -3.244547    -3.527843
C       -0.652222    -4.522183    -3.178187
C       -0.362649    -4.825038    -1.845374
C       -0.557298    -3.860077    -0.859061
C       -1.052214    -2.589459    -1.206363
N       -1.325580    -1.619302    -0.215497
C       -2.341656    -1.971442     0.750715
C       -3.130638    -3.147939     0.593796
C       -4.061903    -3.532520     1.555487
C       -4.250135    -2.750563     2.688954
C       -3.523389    -1.568784     2.843085
C       -2.591203    -1.177935     1.872024
H        0.216868     2.108787     2.290588
H       -0.901806     1.075970     3.335901
H        0.821031     1.240763     3.732950
H       -0.459376    -1.487739     3.278708
H        1.294504    -1.232150     3.505626
H        0.708440    -2.063439     2.016836
H        5.125100    -0.537001    -1.038670
H        3.976815    -0.017505    -2.317727
H        3.759767    -1.555971    -1.354616
H        3.946350     2.219622    -0.953792
H        3.483230     2.177775     0.794535
H        5.020668     1.422944     0.247627
H        2.763118    -1.532377     0.909778
H        2.859171     0.003409     1.897136
H        4.329687    -0.769813     1.294459
H       -1.939056     2.658938     2.294407
H       -4.221808     2.757913     3.135158
H       -6.118064     2.094761     1.686031
H       -5.691360     1.340892    -0.636677
H       -3.392346     1.216514    -1.487431
H       -0.651635     4.071987     0.936846
H        0.357783     6.058570    -0.043727
H        1.046230     6.071496    -2.411640
H        0.672111     4.110453    -3.833768
H        0.025265     1.896534    -4.227742
H       -1.615716     1.825871    -3.504164
H        1.603096    -1.968444    -1.759152
H        3.204423    -3.340914    -3.041422
H        3.554670    -2.920086    -5.453275
H        2.271649    -1.134768    -6.589761
H        0.682815     0.230709    -5.348883
H       -2.617967    -0.557751    -2.308829
H       -1.914223    -0.765485    -3.949376
H       -1.315658    -3.023334    -4.567152
H       -0.508250    -5.278141    -3.939058
H        0.000413    -5.808905    -1.572818
H       -0.352349    -4.103833     0.177267
H       -3.029418    -3.802052    -0.260171
H       -4.628320    -4.446572     1.421005
H       -4.962813    -3.060768     3.441906
H       -3.675783    -0.959625     3.723162
H       -2.048141    -0.273527     2.014959
86
ex_0331 frame27 N0-P-ax-Λ-conf2
C        2.870313     1.129658     0.157641
N        2.102431    -0.114065     0.023805
C        2.814633    -1.187379     0.726901
Ta       0.000000     0.000000     0.000000
N       -0.687809    -0.481934     1.925768
C       -0.190970    -0.235792     3.320664
C       -1.335713    -0.721509     4.230165
C        1.070568    -1.038486     3.682660
C        0.064061     1.238021     3.683761
N       -0.861301     1.891716    -0.327447
C       -0.496196     2.854804     0.658076
C        0.785137     3.376305     0.588085
C        1.280499     4.242601     1.550393
C        0.455366     4.656800     2.590438
C       -0.872653     4.212294     2.643147
C       -1.354433     3.297791     1.683016
C       -1.230344     2.540381    -1.568296
C       -2.331507     3.428253    -1.473127
C       -2.783451     4.163184    -2.557885
C       -2.161107     4.028389    -3.787595
C       -1.096769     3.139907    -3.943973
C       -0.601449     2.376362    -2.865260
C        0.561454     1.445521    -3.185854
P        0.178242    -0.150888    -2.487128
C       -1.156687    -0.681507    -3.630173
C       -0.943116    -1.869367    -4.355887
C       -1.872990    -2.326347    -5.291211
C       -3.043745    -1.608348    -5.517973
C       -3.295141    -0.444799    -4.788823
C       -2.372087     0.009025    -3.833038
C        1.702270    -1.203930    -2.533950
C        1.674245    -2.442396    -1.606815
C        2.759750    -3.343215    -1.636813
C        2.826253    -4.437207    -0.752038
C        1.785475    -4.700225     0.132180
C        0.673323    -3.887702     0.120566
C        0.624714    -2.749966    -0.711590
N       -0.516949    -1.949400    -0.598622
C       -1.777325    -2.675639    -0.576497
C       -1.918438    -3.741731    -1.508979
C       -3.026920    -4.577021    -1.524517
C       -4.057867    -4.363730    -0.623080
C       -3.986405    -3.287750     0.273528
C       -2.866556    -2.416918     0.284126
H        2.598421     1.657402     1.095575
H        3.965988     0.937495     0.239982
H        2.809962     1.724186    -0.769564
H        3.603095    -1.557141     0.032846
H        3.389207    -0.828112     1.602398
H        2.153808    -1.992298     1.051089
H       -1.547814    -1.795026     4.040868
H       -2.262324    -0.147332     4.002710
H       -1.106942    -0.587787     5.310079
H        1.954446    -0.634346     3.170778
H        1.284203    -0.940949     4.775363
H        0.943613    -2.116613     3.461426
H        0.877599     1.687021     3.080086
H       -0.872513     1.809308     3.609951
H        0.365779     1.326043     4.756274
H        1.394866     3.097629    -0.236039
H        2.304739     4.583899     1.478400
H        0.847465     5.329287     3.341407
H       -1.512424     4.556718     3.444685
H       -2.373237     2.938579     1.756491
H       -2.848620     3.567954    -0.531477
H       -3.616089     4.846963    -2.436098
H       -2.507080     4.618380    -4.625194
H       -0.636711     3.068710    -4.919195
H        1.434786     1.830183    -2.623539
H        0.822314     1.393117    -4.261786
H       -0.043800    -2.449471    -4.220951
H       -1.675948    -3.233830    -5.848299
H       -3.754019    -1.956726    -6.258072
H       -4.207054     0.109834    -4.973153
H       -2.616348     0.909466    -3.301396
H        1.889750    -1.487022    -3.588413
H        2.575569    -0.600941    -2.232904
H        3.597461    -3.152862    -2.288056
H        3.697559    -5.073023    -0.726965
H        1.836360    -5.515997     0.844639
H       -0.121621    -4.079714     0.838896
H       -1.127357    -3.960537    -2.215052
H       -3.067095    -5.403964    -2.226292
H       -4.904820    -5.042515    -0.623643
H       -4.801629    -3.155430     0.973480
H       -2.836620    -1.625115     1.014946
86
ex_0331 frame28 N1-P-ax-Λ-conf2
C       -0.027965     0.794435     2.901348
N       -0.481807    -0.290606     2.024958
C        0.002220    -1.550785     2.581655
Ta       0.000000     0.000000     0.000000
N        2.072390    -0.334672    -0.120818
C        3.506505     0.057477     0.162897
C        4.467466    -0.696729    -0.806091
C        3.828099     1.543023    -0.047857
C        3.919510    -0.373192     1.574924
N       -0.818814     1.901807    -0.376211
C       -0.406463     2.859649     0.596933
C        0.950810     3.073429     0.718605
C        1.474430     3.951915     1.668830
C        0.609917     4.650599     2.509725
C       -0.772150     4.474930     2.385986
C       -1.288756     3.588427     1.427652
C       -1.216594     2.518972    -1.631627
C       -2.302717     3.428417    -1.565404
C       -2.752908     4.134954    -2.668467
C       -2.143336     3.955917    -3.896443
C       -1.098928     3.041676    -4.032028
C       -0.617144     2.297524    -2.930929
C        0.504350     1.318033    -3.220118
P        0.028667    -0.249446    -2.488314
C       -1.245706    -0.750736    -3.686742
C       -1.021060    -1.919488    -4.437810
C       -1.940965    -2.348938    -5.392044
C       -3.104173    -1.617072    -5.616995
C       -3.354599    -0.462560    -4.871975
C       -2.439104    -0.034820    -3.901629
C        1.563446    -1.273786    -2.596980
C        1.636531    -2.491386    -1.640127
C        2.746183    -3.359837    -1.699384
C        2.873177    -4.451512    -0.819869
C        1.865575    -4.745719     0.088891
C        0.744582    -3.947088     0.129570
C        0.643312    -2.800010    -0.687504
N       -0.488654    -1.981921    -0.509248
C       -1.758470    -2.682977    -0.509680
C       -1.904886    -3.754243    -1.435558
C       -3.041184    -4.549625    -1.476494
C       -4.085851    -4.295484    -0.601134
C       -3.998579    -3.219391     0.294669
C       -2.850934    -2.388911     0.328635
H       -0.680225     1.659147     2.787791
H       -0.161191     0.535566     3.975831
H        1.037084     1.043223     2.714760
H        1.104836    -1.540752     2.721387
H       -0.490828    -1.725797     3.565451
H       -0.314394    -2.379943     1.955572
H        4.345410    -0.417924    -1.870679
H        4.388885    -1.787741    -0.682206
H        5.531089    -0.452524    -0.595048
H        3.440792     2.150511     0.781219
H        4.927137     1.718398    -0.008178
H        3.480531     1.888028    -1.047287
H        3.340747     0.168485     2.345020
H        3.772177    -1.467951     1.698535
H        5.003420    -0.160352     1.735202
H        1.562562     2.527729     0.042051
H        2.544443     4.087650     1.757020
H        1.012434     5.323945     3.255546
H       -1.439916     5.013135     3.045352
H       -2.356822     3.444198     1.392350
H       -2.827794     3.613163    -0.647807
H       -3.576926     4.831386    -2.559443
H       -2.489893     4.526333    -4.747688
H       -0.652444     2.928012    -5.009901
H        1.396622     1.679902    -2.664837
H        0.764065     1.230814    -4.295286
H       -0.135111    -2.516702    -4.296033
H       -1.744643    -3.250209    -5.958704
H       -3.811499    -1.949590    -6.365203
H       -4.260879     0.101561    -5.048573
H       -2.675806     0.854291    -3.343633
H        1.717450    -1.582824    -3.647127
H        2.389985    -0.601372    -2.409359
H        3.547228    -3.163740    -2.394296
H        3.754408    -5.075234    -0.833432
H        1.946022    -5.580755     0.776489
H       -0.026819    -4.192696     0.852279
H       -1.108209    -3.998639    -2.127488
H       -3.094512    -5.374409    -2.180017
H       -4.957275    -4.941125    -0.622466
H       -4.824648    -3.051678     0.972844
H       -2.804021    -1.588458     1.050880
86
ex_0331 frame29 N1-P-ax-Λ-conf3
C       -0.593113    -0.697330     3.011541
N        0.367919    -0.133052     2.066054
C        1.073710     0.998628     2.669489
Ta       0.000000     0.000000     0.000000
N        1.877295    -0.525241    -0.782201
C        3.272850    -0.223076    -0.289543
C        3.716884     1.253294    -0.476254
C        3.556787    -0.607225     1.180037
C        4.193275    -1.101007    -1.163143
N       -1.213124     1.713877    -0.132431
C       -1.729397     2.210228     1.086615
C       -3.003763     1.794101     1.479330
C       -3.553641     2.249976     2.676780
C       -2.824238     3.118415     3.493697
C       -1.550514     3.543265     3.102640
C       -1.004200     3.094803     1.895726
C       -1.450859     2.540916    -1.290929
C       -1.337487     3.951423    -1.202426
C       -1.586385     4.770659    -2.304602
C       -1.964369     4.208919    -3.518109
C       -2.072290     2.826438    -3.635609
C       -1.799338     1.990230    -2.535713
C       -1.883417     0.526471    -2.704904
P       -0.179526    -0.059123    -2.492895
C        0.933433     0.928444    -3.503467
C        1.156866     0.608010    -4.850353
C        1.917912     1.453264    -5.656747
C        2.514261     2.589606    -5.110558
C        2.347795     2.880269    -3.753998
C        1.586353     2.030778    -2.942873
C       -0.236612    -1.742222    -3.108116
C       -1.559877    -2.231491    -2.610769
C       -2.411240    -2.768697    -3.596728
C       -3.698394    -3.177418    -3.289088
C       -4.153617    -3.094640    -1.985227
C       -3.314333    -2.628548    -0.977941
C       -1.991803    -2.184260    -1.234699
N       -1.202173    -1.726146    -0.092321
C       -1.108322    -2.772348     0.875602
C       -0.042557    -3.684777     0.819030
C        0.041319    -4.730338     1.748521
C       -0.910447    -4.845676     2.766561
C       -1.966747    -3.937312     2.839796
C       -2.071592    -2.911901     1.898006
H       -1.630217    -0.470967     2.704830
H       -0.334941    -1.760435     3.161164
H       -0.465415    -0.308237     4.046965
H        0.403521     1.637387     3.268471
H        1.586407     1.599926     1.897921
H        1.793604     0.605277     3.421618
H        3.705480     1.558784    -1.538280
H        3.093316     1.957124     0.111391
H        4.773342     1.389975    -0.138798
H        4.657580    -0.590515     1.369371
H        3.222912     0.157948     1.878767
H        3.176673    -1.606628     1.456789
H        4.275686    -0.684798    -2.190163
H        3.770033    -2.124604    -1.242956
H        5.224531    -1.187175    -0.753996
H       -3.568079     1.120292     0.845935
H       -4.542931     1.925987     2.969231
H       -3.247469     3.463142     4.426903
H       -0.984257     4.214037     3.735512
H       -0.015444     3.425019     1.599682
H       -1.050488     4.439129    -0.285484
H       -1.490983     5.845432    -2.214032
H       -2.170641     4.844529    -4.369669
H       -2.365435     2.407531    -4.590385
H       -2.612621     0.103612    -1.989093
H       -2.208258     0.280581    -3.738150
H        0.669288    -0.227167    -5.322303
H        2.018587     1.238350    -6.712616
H        3.084158     3.254876    -5.745296
H        2.786912     3.777694    -3.338348
H        1.425048     2.294871    -1.905339
H       -0.173798    -1.814634    -4.206230
H        0.621067    -2.303533    -2.672555
H       -2.096391    -2.824851    -4.631908
H       -4.350164    -3.540655    -4.071906
H       -5.168083    -3.387730    -1.750202
H       -3.741876    -2.574183     0.005725
H        0.693199    -3.614873     0.027666
H        0.842860    -5.454437     1.680964
H       -0.836194    -5.643051     3.494837
H       -2.705246    -4.022699     3.626677
H       -2.897877    -2.218427     1.976673
86
ex_0331 frame30 square-pyramidal ap-N2/N0-P,N1-N2-Λ-conf4
C        2.851739     0.949722    -0.566189
N        2.062546    -0.261043    -0.314225
C        2.814572    -1.249996     0.463957
Ta       0.000000     0.000000     0.000000
N        0.204844    -2.049139    -0.428471
C        0.054983    -3.488936     0.077772
C       -1.135042    -4.136163    -0.640179
C        1.325324    -4.282666    -0.316589
C       -0.077009    -3.811657     1.602362
N        0.385715     0.175284     2.061835
C       -0.470899    -0.194615     3.163523
C       -0.409850    -1.464908     3.741158
C       -1.187618    -1.826488     4.839758
C       -2.091446    -0.918124     5.375235
C       -2.193024     0.356806     4.817874
C       -1.407402     0.708693     3.706212
C        1.584307     0.743171     2.584225
C        2.394334    -0.054035     3.431565
C        3.570720     0.429509     3.985176
C        3.955945     1.737048     3.741524
C        3.172394     2.550282     2.922499
C        2.002395     2.059856     2.298021
C        1.316252     3.028163     1.371358
P       -0.111214     2.471668     0.355745
C        0.057250     3.585082    -1.030395
C       -0.065433     2.950461    -2.250806
C        0.029324     3.662540    -3.436656
C        0.275784     5.031531    -3.389167
C        0.414005     5.683712    -2.152962
C        0.290363     4.967725    -0.948582
C       -1.859493     2.859559     0.715111
C       -2.654138     2.570389    -0.493884
C       -3.329698     3.586454    -1.180405
C       -4.060521     3.279142    -2.326963
C       -4.093107     1.964506    -2.802553
C       -3.397394     0.955602    -2.126624
C       -2.716968     1.256000    -0.937218
N       -2.084809     0.239014    -0.168135
C       -3.077950    -0.547236     0.535058
C       -4.464219    -0.198841     0.551018
C       -5.408774    -0.995463     1.202046
C       -5.004923    -2.155926     1.852983
C       -3.651469    -2.497382     1.870676
C       -2.710198    -1.676371     1.223164
H        2.233771     1.736815    -1.027566
H        3.315669     1.317097     0.365562
H        3.697518     0.721809    -1.242539
H        3.454949    -0.773796     1.225235
H        3.498746    -1.801631    -0.219950
H        2.143200    -1.935224     0.996849
H       -1.206775    -5.220726    -0.380987
H       -1.008203    -4.056853    -1.736695
H       -2.094978    -3.672443    -0.353506
H        1.567103    -4.177890    -1.386832
H        2.212642    -3.982509     0.280835
H        1.193051    -5.369705    -0.086578
H       -0.961368    -3.473180     2.157070
H        0.864915    -3.600362     2.141371
H       -0.193526    -4.911966     1.739016
H        0.318632    -2.148190     3.416665
H       -1.062246    -2.803429     5.290654
H       -2.679758    -1.192113     6.242672
H       -2.861480     1.079092     5.269047
H       -1.464721     1.719366     3.355847
H        2.149485    -1.078377     3.646159
H        4.181603    -0.218372     4.602360
H        4.871079     2.114999     4.177741
H        3.505444     3.564963     2.742915
H        2.100937     3.348590     0.663063
H        0.999156     3.938635     1.929727
H       -0.253311     1.879928    -2.306859
H       -0.086187     3.142486    -4.380398
H        0.361606     5.581250    -4.314753
H        0.617379     6.742165    -2.128691
H        0.398097     5.467982     0.000888
H       -2.270997     2.264359     1.543088
H       -1.938933     3.930071     0.994148
H       -3.317304     4.603379    -0.806514
H       -4.610460     4.058714    -2.836008
H       -4.677124     1.724643    -3.679892
H       -3.461291    -0.067963    -2.472804
H       -4.843546     0.688250     0.065340
H       -6.455098    -0.712404     1.193138
H       -5.740527    -2.781868     2.344678
H       -3.342313    -3.399497     2.381235
H       -1.681843    -1.881489     1.207080
86
ex_0331 frame31 N0-P-ax-Δ
C       -2.270396     1.724370     0.398062
N       -1.174887     1.645734    -0.573381
C       -0.402619     2.891053    -0.552363
Ta       0.000000     0.000000     0.000000
N        0.400137     0.437098     2.015755
C        0.045782     0.126089     3.440778
C        0.472105    -1.276370     3.909384
C        0.848787     1.132933     4.292994
C       -1.443885     0.313036     3.771862
N        2.077764    -0.017264    -0.328170
C        2.893698     0.933366     0.356473
C        3.361471     2.059668    -0.334014
C        4.153556     3.013578     0.314651
C        4.488203     2.849385     1.660830
C        4.036530     1.727127     2.357332
C        3.243353     0.771955     1.709529
C        2.730361    -1.128437    -0.954021
C        3.532383    -1.978435    -0.169454
C        4.170499    -3.077872    -0.733770
C        4.020467    -3.349915    -2.091668
C        3.226712    -2.525202    -2.895237
C        2.589365    -1.397637    -2.355236
C        1.771023    -0.498201    -3.269623
P        0.169501    -0.230334    -2.485450
C       -0.340995     1.231739    -3.441007
C        0.431719     2.405681    -3.524217
C        0.000252     3.481199    -4.314873
C       -1.213650     3.407416    -5.002993
C       -1.997017     2.258121    -4.906759
C       -1.566178     1.182014    -4.127213
C       -0.618888    -1.834210    -2.876735
C       -1.987865    -1.954188    -2.265189
C       -3.170107    -2.024111    -3.025983
C       -4.409064    -2.163392    -2.382906
C       -4.474282    -2.212076    -0.986787
C       -3.304258    -2.118842    -0.232597
C       -2.065080    -1.996644    -0.876609
N       -0.863239    -1.913326    -0.138956
C       -0.429987    -3.050045     0.605856
C       -1.140507    -4.275297     0.554183
C       -0.750474    -5.358850     1.337784
C        0.357790    -5.246212     2.173798
C        1.093374    -4.058585     2.197657
C        0.707122    -2.972232     1.401566
H       -1.859510     1.874100     1.416554
H       -2.848970     0.779000     0.399457
H       -2.951585     2.570543     0.165803
H       -0.624407     3.542043     0.322617
H        0.676217     2.662334    -0.565352
H       -0.675255     3.483306    -1.448203
H        1.539718    -1.478229     3.679524
H        0.364510    -1.370848     5.014703
H       -0.197193    -2.048341     3.494433
H        1.938258     1.003538     4.134291
H        0.583550     2.175322     4.016704
H        0.662211     0.999502     5.381100
H       -2.073643    -0.410888     3.216628
H       -1.779031     1.348558     3.575809
H       -1.604558     0.130567     4.862704
H        3.109380     2.197749    -1.375348
H        4.507764     3.881016    -0.226433
H        5.100113     3.588804     2.162696
H        4.301404     1.598947     3.399959
H        2.909643    -0.091701     2.264800
H        3.665243    -1.797728     0.888328
H        4.785666    -3.718031    -0.112994
H        4.531883    -4.198908    -2.524056
H        3.146136    -2.742839    -3.951164
H        2.329997     0.458778    -3.241633
H        1.697220    -0.825393    -4.326696
H        1.377565     2.488490    -3.011948
H        0.608568     4.372391    -4.400454
H       -1.546227     4.236747    -5.615314
H       -2.936157     2.195861    -5.442860
H       -2.185967     0.301310    -4.081725
H       -0.003450    -2.676494    -2.499740
H       -0.672640    -1.917829    -3.984141
H       -3.136022    -2.004778    -4.107805
H       -5.319443    -2.245076    -2.963247
H       -5.427981    -2.330705    -0.487864
H       -3.352374    -2.166924     0.848216
H       -2.011946    -4.403999    -0.073244
H       -1.319459    -6.279675     1.303382
H        0.645109    -6.080058     2.799553
H        1.951775    -3.971249     2.848696
H        1.266837    -2.052951     1.438146
86
ex_0331 frame32 N2-N2-ax-conf2
C        2.736643     1.096321     0.341251
N        2.076575    -0.030622    -0.322602
C        2.796967    -1.288965    -0.220615
Ta       0.000000     0.000000     0.000000
N       -0.793404     1.791628    -0.760193
C       -1.646667     2.926229    -0.307263
C       -1.601185     3.939422    -1.466117
C       -3.108908     2.496487    -0.096208
C       -1.130192     3.690450     0.927910
N       -0.115260    -0.112581     2.097209
C       -0.557570     0.929850     2.942342
C       -1.929651     1.116749     3.183000
C       -2.361110     2.131197     4.041662
C       -1.427461     2.971950     4.653843
C       -0.061128     2.797911     4.408517
C        0.373976     1.785761     3.546991
C        0.114237    -1.351364     2.734486
C        1.205679    -1.491763     3.605986
C        1.446554    -2.705559     4.244911
C        0.600173    -3.790457     4.018433
C       -0.491673    -3.664234     3.149367
C       -0.752444    -2.442195     2.494155
C       -1.943286    -2.313758     1.552077
P       -1.395844    -2.066913    -0.169519
C       -0.399431    -3.418811    -0.853068
C       -0.704700    -4.048581    -2.068128
C        0.060057    -5.139802    -2.505918
C        1.151210    -5.586572    -1.754383
C        1.485110    -4.941054    -0.566191
C        0.728007    -3.852464    -0.130979
C       -2.909363    -1.897672    -1.099531
C       -2.726040    -0.906004    -2.263031
C       -3.908391    -0.662138    -2.994343
C       -3.940033     0.210803    -4.082600
C       -2.787409     0.859351    -4.491746
C       -1.598825     0.642344    -3.814183
C       -1.520262    -0.211877    -2.686360
N       -0.209614    -0.292974    -2.073126
C        0.884914    -0.493009    -2.995006
C        0.781260    -1.534122    -3.940841
C        1.811377    -1.801782    -4.842325
C        2.974219    -1.035406    -4.819302
C        3.093221     0.017450    -3.910472
C        2.056383     0.292609    -3.007363
H        1.971305     1.815810     0.698440
H        3.362667     0.772713     1.199482
H        3.384650     1.623718    -0.392274
H        3.794386    -1.169123    -0.699331
H        2.926012    -1.596123     0.837513
H        2.271936    -2.047179    -0.814774
H       -1.957990     3.473219    -2.407881
H       -0.552489     4.278427    -1.627333
H       -2.221643     4.838945    -1.257141
H       -3.212771     1.815031     0.768700
H       -3.746536     3.391709     0.098640
H       -3.503917     1.994843    -1.004205
H       -1.195813     3.101025     1.829778
H       -0.087455     4.045290     0.801313
H       -1.772314     4.584168     1.119968
H       -2.666995     0.480239     2.725215
H       -3.418647     2.264218     4.229913
H       -1.763095     3.756431     5.318568
H        0.660977     3.445441     4.887152
H        1.433067     1.654270     3.368070
H        1.869468    -0.658142     3.793372
H        2.289178    -2.801443     4.919125
H        0.790733    -4.729111     4.523308
H       -1.136690    -4.519975     2.999234
H       -2.598473    -1.493669     1.881881
H       -2.543960    -3.248297     1.569659
H       -1.556631    -3.740671    -2.654235
H       -0.201738    -5.652115    -3.421324
H        1.732639    -6.438220    -2.084936
H        2.322463    -5.290581     0.027019
H        1.004758    -3.389360     0.802910
H       -3.329487    -2.883270    -1.382155
H       -3.635269    -1.387792    -0.430558
H       -4.831939    -1.147152    -2.708220
H       -4.865961     0.388485    -4.612731
H       -2.811078     1.542512    -5.333082
H       -0.723679     1.187251    -4.153471
H       -0.109286    -2.144535    -3.979011
H        1.704923    -2.607740    -5.556921
H        3.774538    -1.249103    -5.516705
H        3.989681     0.624986    -3.912401
H        2.169522     1.142610    -2.355739
86
ex_0331 frame33 N0-P-ax-Λ-conf4
C        2.657686     1.300517    -0.364911
N        2.040471    -0.013735    -0.505782
C        2.730764    -1.015319     0.311173
Ta       0.000000     0.000000     0.000000
N       -0.063625     0.655770     1.997289
C        0.215470     0.156824     3.377576
C        1.663778     0.458580     3.785749
C       -0.698354     0.986660     4.311699
C       -0.062756    -1.338996     3.647383
N       -1.221742     1.655198    -0.438615
C       -2.494735     1.806258     0.189729
C       -2.627780     2.173286     1.542779
C       -3.893284     2.284675     2.127829
C       -5.038081     2.039621     1.367979
C       -4.917924     1.696553     0.019954
C       -3.653895     1.581869    -0.564718
C       -0.621436     2.815266    -1.021284
C       -0.431366     3.952695    -0.211668
C        0.189529     5.091416    -0.710913
C        0.635705     5.117239    -2.028630
C        0.450053     4.005895    -2.861403
C       -0.211997     2.852329    -2.393344
C       -0.468896     1.689749    -3.356108
P       -0.049724     0.144282    -2.498296
C        1.178414    -0.778075    -3.476866
C        1.960358    -1.772557    -2.870046
C        2.850052    -2.545508    -3.615104
C        3.006207    -2.306231    -4.978079
C        2.260059    -1.302417    -5.595141
C        1.373611    -0.522650    -4.846544
C       -1.572580    -0.813326    -2.848901
C       -1.206195    -2.236280    -2.521841
C       -1.045878    -3.215153    -3.521134
C       -0.624565    -4.507631    -3.180118
C       -0.364815    -4.832392    -1.846819
C       -0.556723    -3.876283    -0.851497
C       -1.021129    -2.592185    -1.188796
N       -1.310158    -1.635529    -0.187243
C       -2.368954    -1.992451     0.740607
C       -3.121474    -3.195260     0.582604
C       -4.095684    -3.577538     1.504550
C       -4.365179    -2.772523     2.603565
C       -3.679871    -1.570037     2.758226
C       -2.704511    -1.185298     1.827259
H        2.107914     2.033382    -0.981821
H        2.653629     1.631522     0.694574
H        3.703890     1.255737    -0.740876
H        2.939390    -0.641786     1.321475
H        3.695694    -1.291956    -0.163423
H        2.101259    -1.925907     0.403709
H        1.801884     0.270269     4.875452
H        1.918462     1.519961     3.586353
H        2.373415    -0.202941     3.272902
H       -0.499639     2.074220     4.184772
H       -1.770174     0.810466     4.076033
H       -0.546020     0.734264     5.382899
H        0.522840    -1.998232     2.979179
H       -1.124841    -1.604235     3.605693
H        0.211663    -1.578531     4.701711
H       -1.765630     2.381964     2.150348
H       -3.985985     2.561368     3.170666
H       -6.017584     2.124425     1.820391
H       -5.804270     1.518568    -0.574111
H       -3.580062     1.323137    -1.609621
H       -0.746135     3.960163     0.821975
H        0.328619     5.953340    -0.067873
H        1.116152     6.010744    -2.406185
H        0.785942     4.070062    -3.886955
H        0.014215     1.844043    -4.335646
H       -1.566563     1.713210    -3.505393
H        1.812635    -2.035753    -1.843355
H        3.396878    -3.348389    -3.137553
H        3.681966    -2.917856    -5.560380
H        2.350531    -1.142055    -6.661156
H        0.784533     0.201576    -5.380540
H       -2.461852    -0.464531    -2.292905
H       -1.782922    -0.735711    -3.937023
H       -1.220662    -2.975405    -4.561391
H       -0.488249    -5.256854    -3.948645
H       -0.031152    -5.827543    -1.580367
H       -0.381771    -4.139028     0.185362
H       -2.971908    -3.869859    -0.245488
H       -4.634541    -4.507100     1.366104
H       -5.108710    -3.078592     3.328118
H       -3.892674    -0.939265     3.610980
H       -2.201767    -0.271049     1.988161
86
ex_0331 frame34 square-pyramidal ap-N0/N1-P,N2-N2-Δ-conf2
C       -0.121883     3.036753    -0.954693
N       -0.196163     2.086954     0.171896
C        0.468590     2.714984     1.329609
Ta       0.000000     0.000000     0.000000
N        0.108821    -0.008043     2.098361
C        0.086614     0.072717     3.627031
C       -1.245881    -0.374198     4.223123
C        1.149576    -0.866481     4.231765
C        0.317684     1.489581     4.213083
N        2.063460     0.012882    -0.413018
C        2.897827     0.681508     0.571818
C        3.207539     0.061859     1.806144
C        3.993802     0.692429     2.780705
C        4.492850     1.962837     2.552332
C        4.223774     2.597075     1.337791
C        3.434664     1.964987     0.351281
C        2.778459    -1.100031    -0.958009
C        3.755253    -0.793701    -1.916335
C        4.525001    -1.790480    -2.509474
C        4.318154    -3.123717    -2.175159
C        3.345029    -3.463203    -1.243678
C        2.578047    -2.471120    -0.607538
C        1.595208    -2.956316     0.406142
P       -0.112737    -2.496323     0.110022
C       -0.757834    -3.447999    -1.218672
C       -1.901064    -4.247083    -1.122435
C       -2.404918    -4.838291    -2.278851
C       -1.727705    -4.693456    -3.495621
C       -0.544514    -3.958344    -3.558522
C       -0.047877    -3.363128    -2.414522
C       -1.160996    -2.889338     1.557285
C       -2.349279    -2.021670     1.815209
C       -3.147782    -2.379872     2.932361
C       -4.202111    -1.573495     3.354095
C       -4.518957    -0.430759     2.635368
C       -3.804448    -0.114567     1.479297
C       -2.708539    -0.900369     1.032125
N       -2.034207    -0.505879    -0.188103
C       -2.995419    -0.174571    -1.184914
C       -4.062599    -1.070540    -1.444244
C       -5.088580    -0.713622    -2.315325
C       -5.032265     0.512974    -2.976501
C       -3.943303     1.364539    -2.772470
C       -2.918576     0.991937    -1.905121
H       -0.489142     2.680463    -1.917407
H       -0.719542     3.939489    -0.660462
H        0.915902     3.373297    -1.140663
H        1.109800     3.587597     1.066645
H       -0.295964     3.099555     2.026672
H        1.177255     2.042857     1.808266
H       -1.330930    -1.458124     4.132147
H       -2.088209     0.196760     3.788733
H       -1.274968    -0.219393     5.327067
H        2.158986    -0.477909     4.109550
H        1.021226    -0.958121     5.331252
H        1.089880    -1.884495     3.796891
H        1.300329     1.917779     3.941388
H       -0.512588     2.173873     3.950083
H        0.320075     1.449236     5.329586
H        2.846997    -0.909171     2.041056
H        4.214581     0.199697     3.723775
H        5.091229     2.444924     3.319302
H        4.631770     3.583652     1.170568
H        3.243798     2.478927    -0.575760
H        3.940767     0.240628    -2.176812
H        5.290438    -1.524965    -3.223897
H        4.922904    -3.898619    -2.624905
H        3.227259    -4.508105    -0.979052
H        1.874931    -2.555469     1.387397
H        1.629306    -4.058771     0.548841
H       -2.479397    -4.326348    -0.214528
H       -3.337604    -5.380162    -2.234719
H       -2.128342    -5.129471    -4.395313
H       -0.021056    -3.814204    -4.492582
H        0.835597    -2.746797    -2.497733
H       -1.376445    -3.976546     1.604144
H       -0.524421    -2.717656     2.445577
H       -2.894348    -3.242217     3.541316
H       -4.750526    -1.816960     4.257770
H       -5.317208     0.215957     2.977723
H       -4.082600     0.783890     0.945437
H       -4.142213    -2.009727    -0.904466
H       -5.936095    -1.374097    -2.449847
H       -5.839435     0.812147    -3.628207
H       -3.904982     2.330496    -3.253264
H       -2.146815     1.654592    -1.689214
86
ex_0331 frame35 N1-N2-ax-Λ-conf5
C       -1.168803     0.322231     2.866391
N       -0.152330    -0.362622     2.065502
C        1.122874    -0.333511     2.743726
Ta       0.000000     0.000000     0.000000
N        1.935386    -0.698087    -0.428369
C        3.348784    -0.193306    -0.239464
C        3.835011     0.034130     1.218315
C        4.225137    -1.327932    -0.796078
C        3.669773     1.094573    -1.025334
N       -0.105647    -0.181545    -2.093727
C       -0.678090     0.719479    -3.053175
C       -1.750488     0.264239    -3.850563
C       -2.338877     1.083184    -4.809510
C       -1.869753     2.380884    -4.991564
C       -0.804386     2.851502    -4.216554
C       -0.222285     2.031594    -3.236208
C        0.416249    -1.344268    -2.746395
C        1.436300    -1.084902    -3.687751
C        2.050418    -2.102138    -4.395408
C        1.661076    -3.414976    -4.182682
C        0.644281    -3.713241    -3.267510
C       -0.011282    -2.707597    -2.517602
C       -1.107901    -3.216734    -1.545626
P       -1.489002    -1.990211    -0.270377
C       -1.315885    -2.910053     1.296949
C       -0.254908    -3.801058     1.560520
C       -0.209194    -4.506139     2.772728
C       -1.189182    -4.299061     3.746692
C       -2.223858    -3.395397     3.508680
C       -2.293072    -2.716762     2.288963
C       -2.970293    -0.999750    -0.745542
C       -3.384338     0.157095     0.181418
C       -4.593291     0.032626     0.909394
C       -5.053293     1.053069     1.752368
C       -4.326313     2.223973     1.895657
C       -3.141492     2.382381     1.199999
C       -2.627405     1.357865     0.360437
N       -1.366737     1.574489    -0.272891
C       -0.916076     2.913832    -0.526997
C       -1.820890     3.882898    -1.019078
C       -1.408229     5.191652    -1.263422
C       -0.085178     5.558299    -1.024412
C        0.826647     4.610898    -0.544617
C        0.414487     3.290936    -0.297130
H       -1.236517    -0.175459     3.861235
H       -2.164866     0.165577     2.451478
H       -0.927161     1.394522     3.014816
H        1.753227    -1.095781     2.271508
H        1.532176     0.695265     2.720277
H        1.025935    -0.642359     3.807424
H        3.771005    -0.875886     1.845830
H        4.924469     0.276175     1.226034
H        3.358028     0.911399     1.689516
H        3.978569    -1.514240    -1.861681
H        4.023056    -2.263658    -0.227239
H        5.311735    -1.104559    -0.715048
H        3.143615     1.972703    -0.608665
H        4.762531     1.322123    -0.935851
H        3.444157     0.988648    -2.102703
H       -2.113370    -0.751132    -3.752886
H       -3.149520     0.700971    -5.418157
H       -2.319439     3.009408    -5.749375
H       -0.422637     3.848653    -4.388568
H        0.626697     2.396035    -2.682881
H        1.761716    -0.065594    -3.870871
H        2.831699    -1.864269    -5.108607
H        2.151104    -4.205034    -4.735938
H        0.373435    -4.751931    -3.137801
H       -2.001898    -3.646731    -2.038402
H       -0.617648    -4.057137    -1.024049
H        0.523071    -3.983191     0.833739
H        0.586055    -5.216541     2.960383
H       -1.148434    -4.837913     4.685819
H       -2.978077    -3.224851     4.267080
H       -3.109427    -2.029378     2.126430
H       -3.798161    -1.737719    -0.797380
H       -2.862433    -0.571850    -1.739443
H       -5.195887    -0.860441     0.828496
H       -5.977127     0.940284     2.304095
H       -4.668492     3.013418     2.556235
H       -2.592892     3.299886     1.376498
H       -2.851706     3.619242    -1.219926
H       -2.118169     5.919289    -1.637724
H        0.229346     6.577482    -1.212360
H        1.851577     4.905932    -0.362338
H        1.119999     2.570015     0.082820
86
ex_0331 frame36 square-pyramidal ap-N0/N1-P,N2-N2-Δ-conf3
C       -0.013989     2.910452    -1.151354
N       -0.126947     2.097884     0.069074
C       -0.018349     2.814667     1.324225
Ta       0.000000     0.000000     0.000000
N        0.289924    -0.558776     2.005516
C        0.024498    -0.180143     3.416823
C       -1.391630     0.393008     3.713257
C        0.103232    -1.498388     4.219997
C        1.165746     0.721028     3.942546
N        1.950107     0.096479    -0.782814
C        2.605648     1.342651    -0.506984
C        2.786523     2.260850    -1.547146
C        3.309352     3.533011    -1.293519
C        3.721869     3.878418    -0.005946
C        3.630996     2.942192     1.028606
C        3.075423     1.673010     0.784241
C        2.762374    -1.086698    -1.071309
C        4.178366    -0.998407    -0.928203
C        5.020156    -2.074373    -1.204532
C        4.496061    -3.271034    -1.663039
C        3.125670    -3.412899    -1.817116
C        2.238690    -2.367406    -1.498844
C        0.774958    -2.707998    -1.643516
P        0.117420    -2.496882     0.007650
C        1.033733    -3.893162     0.702330
C        0.689279    -5.224965     0.420768
C        1.439163    -6.273451     0.966094
C        2.533802    -5.999818     1.791612
C        2.874855    -4.677042     2.082730
C        2.122111    -3.627571     1.548620
C       -1.671662    -2.780912    -0.259477
C       -2.311524    -2.086252    -1.433951
C       -2.735282    -2.858558    -2.526529
C       -3.338314    -2.253965    -3.629821
C       -3.532169    -0.872258    -3.652930
C       -3.130215    -0.096050    -2.568856
C       -2.499176    -0.696115    -1.475510
N       -2.057101     0.112064    -0.422053
C       -3.016859     0.862658     0.360352
C       -3.909589     0.209535     1.238372
C       -4.837806     0.945135     2.002607
C       -4.889670     2.337400     1.904404
C       -4.024600     2.994043     1.039240
C       -3.105724     2.262804     0.284834
H        0.212552     2.271852    -2.022276
H       -0.927353     3.469470    -1.398207
H        0.723253     3.724264    -1.000990
H        0.997779     3.216163     1.479992
H       -0.244431     2.126113     2.105824
H       -0.759058     3.638522     1.373367
H       -1.646876     1.383375     3.314838
H       -2.176426    -0.312194     3.375580
H       -1.508037     0.507232     4.816813
H        0.005143    -1.316282     5.313631
H       -0.704789    -2.196620     3.908884
H        1.073609    -2.010778     4.043364
H        0.960420     1.052604     4.982090
H        1.351266     1.618214     3.334789
H        2.126278     0.159758     3.945435
H        2.441627     2.015311    -2.541543
H        3.363570     4.259558    -2.093512
H        4.107098     4.873117     0.186982
H        3.965186     3.216536     2.022866
H        2.987748     0.972261     1.603449
H        4.662674    -0.099536    -0.573211
H        6.089762    -1.977810    -1.064454
H        5.151812    -4.101690    -1.888235
H        2.748824    -4.369324    -2.157136
H        0.293303    -1.985092    -2.334832
H        0.582281    -3.737009    -2.009446
H       -0.148085    -5.457569    -0.220959
H        1.175390    -7.299368     0.744690
H        3.118438    -6.812051     2.204619
H        3.725002    -4.464641     2.718740
H        2.402434    -2.606587     1.776585
H       -1.786873    -3.874027    -0.390771
H       -2.224550    -2.532519     0.673474
H       -2.604490    -3.933342    -2.521079
H       -3.655127    -2.859835    -4.466069
H       -3.989733    -0.400860    -4.510885
H       -3.271838     0.978008    -2.591277
H       -3.893716    -0.865529     1.337380
H       -5.522674     0.442016     2.672898
H       -5.603764     2.910422     2.485811
H       -4.067878     4.073476     0.942041
H       -2.505786     2.810896    -0.378014
86
ex_0331 frame37 square-pyramidal ap-N2/N0-P,N1-N2-Λ-conf3
C        2.794995    -0.007362    -1.252933
N        2.063200    -0.415458    -0.044883
C        3.016335    -0.494515     1.089469
Ta       0.000000     0.000000     0.000000
N        0.126323    -2.037272    -0.506811
C       -0.062403    -3.411956     0.125675
C       -1.004599    -4.222672    -0.778835
C        1.316093    -4.120711     0.132979
C       -0.698220    -3.578577     1.537795
N        0.334141     0.041571     2.080741
C        0.203699    -1.067850     3.008784
C       -0.959721    -1.159543     3.806442
C       -1.104239    -2.181613     4.761953
C       -0.102501    -3.137456     4.935315
C        1.047150    -3.076863     4.161317
C        1.181720    -2.091849     3.178327
C        0.762403     1.169291     2.930063
C        1.794298     0.998504     3.915447
C        2.260327     2.045448     4.708810
C        1.711053     3.307537     4.579480
C        0.688297     3.515009     3.660976
C        0.215033     2.456353     2.847453
C       -0.866457     2.712367     1.902669
P       -0.214388     2.479591     0.196030
C        1.281401     3.473102     0.128294
C        1.281234     4.805407    -0.295861
C        2.459758     5.554768    -0.244160
C        3.656541     4.958918     0.165141
C        3.664661     3.622043     0.555684
C        2.481838     2.891626     0.512865
C       -1.508910     3.212083    -0.782042
C       -2.711122     2.746846    -0.046120
C       -3.635409     3.743121     0.312948
C       -4.739490     3.442572     1.091390
C       -4.976833     2.131837     1.473045
C       -4.118355     1.110952     1.059681
C       -2.946282     1.371461     0.294411
N       -2.090391     0.237084    -0.077216
C       -2.899781    -0.774592    -0.654901
C       -3.198558    -0.693676    -2.019882
C       -4.077049    -1.608302    -2.602272
C       -4.622666    -2.639066    -1.833384
C       -4.287648    -2.754958    -0.481258
C       -3.401631    -1.841830     0.102139
H        2.622693    -0.738876    -2.059035
H        2.545030     1.030389    -1.543921
H        3.906092    -0.017956    -1.092240
H        3.528805    -1.476336     1.087664
H        2.594849    -0.306387     2.034069
H        3.814140     0.278250     1.074351
H       -2.058739    -3.988540    -0.550458
H       -0.825994    -4.015838    -1.845674
H       -0.898163    -5.314003    -0.574824
H        1.260860    -5.127137     0.613144
H        1.699141    -4.259769    -0.896641
H        2.060848    -3.531949     0.708536
H       -1.386165    -4.452182     1.609710
H       -1.332998    -2.753920     1.862842
H        0.008461    -4.023389     2.251868
H       -1.736872    -0.411663     3.722814
H       -1.988583    -2.231482     5.382620
H       -0.208547    -3.927617     5.668468
H        1.830043    -3.816028     4.289738
H        2.090754    -2.169178     2.637139
H        2.267351     0.047442     4.100117
H        3.050194     1.871009     5.430825
H        2.068137     4.118074     5.204630
H        0.249605     4.504067     3.607062
H       -1.699898     2.051621     2.209317
H       -1.215441     3.762340     2.017599
H        0.370691     5.308750    -0.566512
H        2.437020     6.603086    -0.502245
H        4.567749     5.537590     0.209224
H        4.574270     3.155946     0.914661
H        2.469236     1.899679     0.872370
H       -1.474280     4.310054    -0.836092
H       -1.422021     2.785000    -1.805214
H       -3.455786     4.780290     0.057429
H       -5.396672     4.237877     1.417298
H       -5.825610     1.908238     2.106445
H       -4.347621     0.119897     1.416412
H       -2.811536     0.128606    -2.608860
H       -4.352105    -1.500908    -3.642997
H       -5.317410    -3.336594    -2.281501
H       -4.723742    -3.543287     0.118499
H       -3.186290    -1.915519     1.156683
86
ex_0331 frame38 N0-P-ax-Λ-conf3
C        2.812598     0.218934    -1.032687
N        1.942534    -0.734502    -0.330860
C        2.585672    -1.065689     0.937735
Ta       0.000000     0.000000     0.000000
N       -0.353249    -0.401344     2.033123
C        0.071196    -0.105549     3.428191
C       -1.175291     0.349786     4.213504
C        0.505917    -1.423290     4.106886
C        1.172857     0.960075     3.569653
N       -1.063151     1.809991    -0.154205
C       -1.646440     2.323265     1.040097
C       -2.965803     1.969147     1.372122
C       -3.579655     2.510484     2.507297
C       -2.873396     3.395268     3.328608
C       -1.547572     3.727412     3.021775
C       -0.928146     3.176469     1.892125
C       -1.378071     2.605807    -1.311146
C       -1.358031     4.019625    -1.220936
C       -1.661459     4.821338    -2.321116
C       -1.994786     4.237151    -3.536550
C       -2.021999     2.851330    -3.650014
C       -1.709393     2.036285    -2.543833
C       -1.735333     0.575906    -2.699878
P       -0.020512     0.006742    -2.500956
C        0.985372     0.996639    -3.646087
C        1.276072     0.617857    -4.970601
C        2.017327     1.467056    -5.797697
C        2.504619     2.679811    -5.307307
C        2.243943     3.052420    -3.989682
C        1.497581     2.213262    -3.164361
C       -0.254315    -1.618522    -3.253323
C       -1.548284    -2.177510    -2.696655
C       -2.463289    -2.668128    -3.655710
C       -3.704277    -3.170945    -3.288408
C       -4.062345    -3.216265    -1.953776
C       -3.175969    -2.772696    -0.979661
C       -1.896731    -2.239969    -1.298203
N       -1.060983    -1.808692    -0.185300
C       -1.007119    -2.797580     0.848111
C       -0.061522    -3.827813     0.761401
C       -0.021678    -4.833873     1.732463
C       -0.916916    -4.807890     2.808906
C       -1.848063    -3.774985     2.914903
C       -1.882925    -2.760352     1.951998
H        2.721651     0.072188    -2.116338
H        2.587509     1.257086    -0.711919
H        3.891921     0.015000    -0.855803
H        3.460442    -1.723309     0.759030
H        1.879607    -1.601173     1.580789
H        2.991111    -0.161091     1.428162
H       -1.481508     1.343717     3.892062
H       -2.036202    -0.329850     4.027873
H       -0.992729     0.405157     5.308144
H        0.753951    -1.249052     5.177030
H       -0.330060    -2.144601     4.116924
H        1.378224    -1.900595     3.635112
H        0.767142     1.987298     3.556672
H        1.911546     0.903636     2.774787
H        1.702991     0.843216     4.542095
H       -3.528318     1.301898     0.729192
H       -4.603210     2.250232     2.746305
H       -3.348586     3.813995     4.206190
H       -0.999434     4.405509     3.660913
H        0.091831     3.444437     1.651520
H       -1.106179     4.520964    -0.300689
H       -1.639369     5.899007    -2.226681
H       -2.235088     4.857043    -4.390021
H       -2.291127     2.413936    -4.604318
H       -2.453292     0.136981    -1.979114
H       -2.071059     0.323824    -3.730419
H        0.910620    -0.292075    -5.407696
H        2.205883     1.186967    -6.825552
H        3.075200     3.335359    -5.950878
H        2.610309     3.996176    -3.607522
H        1.290088     2.532268    -2.151886
H       -0.311632    -1.589564    -4.352047
H        0.612010    -2.248093    -2.957421
H       -2.226991    -2.643706    -4.711780
H       -4.395092    -3.518886    -4.045190
H       -5.036566    -3.593226    -1.667814
H       -3.527905    -2.821746     0.037196
H        0.617609    -3.868405    -0.080319
H        0.693515    -5.641051     1.644453
H       -0.884615    -5.590463     3.555212
H       -2.541150    -3.757537     3.746444
H       -2.617229    -1.969280     2.043590
86
ex_0331 frame39 axial-1_mirror
C        2.168559    -2.805660     0.906079
N        1.984167    -1.401868     1.283049
C        3.266146    -0.708668     1.363304
Ta       0.484284    -0.453066     0.157761
N       -0.307234    -1.857486    -1.190938
C        0.302904    -2.354991    -2.418373
C        1.815512    -2.188938    -2.420080
C       -0.097439    -3.845335    -2.472434
C       -0.284082    -1.639990    -3.652045
N        1.166047     1.169287    -0.992873
C        0.340342     1.808559    -1.983096
C       -0.970101     1.358811    -2.214810
C       -1.780124     1.968739    -3.184554
C       -1.290646     3.036757    -3.938713
C        0.002576     3.505040    -3.717026
C        0.812051     2.900958    -2.751091
C        2.427511     1.696237    -0.661343
C        3.470289     1.573383    -1.583894
C        4.732491     2.068448    -1.282029
C        4.964583     2.676276    -0.047099
C        3.931823     2.790004     0.892162
C        2.638110     2.339866     0.583067
C        1.517773     2.557834     1.587851
P        0.346150     1.199590     2.027937
C       -1.417740     1.702553     1.947209
C       -1.807507     2.565514     0.896741
C       -3.110467     3.066584     0.812525
C       -4.067628     2.671785     1.742256
C       -3.719236     1.776301     2.757777
C       -2.403884     1.286034     2.860389
C        0.610941     0.520373     3.676019
C        0.353328    -1.011426     3.723655
C        0.808423    -1.647946     4.896940
C        0.703031    -3.031365     5.077615
C        0.112633    -3.826300     4.106017
C       -0.386310    -3.242935     2.955219
C       -0.284997    -1.853589     2.730393
N       -0.842882    -1.389013     1.496600
C       -2.272566    -1.642191     1.271979
C       -3.092484    -2.044015     2.369266
C       -4.447428    -2.338700     2.222696
C       -5.047934    -2.251830     0.976291
C       -4.296308    -1.839555    -0.120450
C       -2.933953    -1.519070     0.020234
H        2.392238    -3.403055     1.812562
H        3.037388    -2.939813     0.229808
H        1.241377    -3.205701     0.451576
H        3.674823    -0.525452     0.349821
H        3.995644    -1.316762     1.942043
H        3.146499     0.222836     1.935094
H        2.090329    -1.132138    -2.225887
H        2.227408    -2.490147    -3.406233
H        2.273506    -2.855409    -1.689573
H        0.549235    -4.434014    -3.150910
H       -1.159052    -3.960912    -2.790989
H       -0.033950    -4.294723    -1.454221
H        0.066429    -2.134965    -4.585327
H       -1.396193    -1.683550    -3.644755
H        0.027945    -0.579728    -3.696196
H       -1.371239     0.545055    -1.640874
H       -2.789594     1.615701    -3.354451
H       -1.912858     3.507241    -4.690840
H        0.381361     4.339588    -4.294393
H        1.802554     3.305649    -2.611044
H        3.288707     1.102525    -2.542987
H        5.525653     1.984264    -2.012408
H        5.944308     3.075120     0.173856
H        4.126434     3.296235     1.828613
H        1.815998     3.112590     2.502462
H        0.899533     3.279970     1.022088
H       -1.095415     2.917380     0.166861
H       -3.374495     3.774083     0.032903
H       -5.075656     3.067982     1.678065
H       -4.471766     1.477798     3.475623
H       -2.163868     0.614153     3.668600
H        1.704408     0.604419     3.831205
H        0.108238     1.110250     4.470253
H        1.288191    -1.068653     5.673251
H        1.091451    -3.494580     5.973635
H        0.040415    -4.899476     4.237913
H       -0.840632    -3.882678     2.204090
H       -2.698338    -2.132013     3.370392
H       -5.029957    -2.642274     3.084228
H       -6.097954    -2.496859     0.865316
H       -4.777577    -1.771333    -1.088666
H       -2.456420    -1.204058    -0.877174
