41
ex_0370 frame0 T-4-1
Cd       0.000000     0.000000     0.000000
C        3.120959     0.878292     4.368714
N        3.176548     2.187086     3.727071
C        3.851805     3.259869     4.181174
C        4.642948     3.479790     5.290132
C        5.249082     4.690273     5.560025
C        5.060154     5.750578     4.676056
C        4.267717     5.523422     3.569106
C        3.665481     4.308352     3.307836
N        2.863463     3.860919     2.308517
C        2.586388     2.586388     2.586388
Se       1.524205     1.524205     1.524205
H        2.824781     0.147545     3.578013
H        2.478099     0.871205     5.253683
H        4.163352     0.561361     4.661335
H        4.826498     2.683537     6.018818
H        5.863297     4.812905     6.447747
H        5.531113     6.719431     4.870003
H        4.133726     6.365153     2.892236
H        2.537291     4.427934     1.485399
C        4.831599    -1.776782    -1.759583
N        3.931293    -2.583494    -2.575917
C        4.303345    -3.497010    -3.492494
C        5.530202    -3.945781    -3.936888
C        5.675358    -4.914140    -4.909882
C        4.533547    -5.473961    -5.479280
C        3.309924    -5.020335    -5.029985
C        3.175143    -4.050788    -4.055739
N        2.102641    -3.461301    -3.468957
C        2.586388    -2.586388    -2.586388
Se       1.524205    -1.524205    -1.524205
H        4.240346    -1.433174    -0.876819
H        5.304884    -0.970589    -2.327513
H        5.629275    -2.440194    -1.316579
H        6.461119    -3.542070    -3.525665
H        6.664541    -5.233716    -5.225692
H        4.624729    -6.243339    -6.252478
H        2.431668    -5.471163    -5.488284
H        1.095169    -3.670475    -3.684979
I       -1.633901     1.633901    -1.633901
I       -1.633901    -1.633901     1.633901
41
ex_0370 frame1 T-4-1-conf2
Cd       0.000000     0.000000     0.000000
C        3.120959     0.878292     4.368714
N        3.176548     2.187086     3.727071
C        3.851805     3.259869     4.181174
C        4.642948     3.479790     5.290132
C        5.249082     4.690273     5.560025
C        5.060154     5.750578     4.676056
C        4.267717     5.523422     3.569106
C        3.665481     4.308352     3.307836
N        2.863463     3.860919     2.308517
C        2.586388     2.586388     2.586388
Se       1.524205     1.524205     1.524205
H        2.824781     0.147545     3.578013
H        2.478099     0.871205     5.253683
H        4.163352     0.561361     4.661335
H        4.826498     2.683537     6.018818
H        5.863297     4.812905     6.447747
H        5.531113     6.719431     4.870003
H        4.133726     6.365153     2.892236
H        2.537291     4.427934     1.485399
C        1.043151    -4.581076    -2.747651
N        2.258510    -3.840980    -3.020914
C        3.306436    -4.279638    -3.775301
C        3.490643    -5.455356    -4.437194
C        4.659595    -5.659422    -5.141287
C        5.643050    -4.692281    -5.184988
C        5.450873    -3.490955    -4.506621
C        4.281794    -3.287211    -3.802620
N        3.813752    -2.256298    -3.063401
C        2.616399    -2.616399    -2.616399
Se       1.524205    -1.524205    -1.524205
H        0.347344    -4.631512    -3.616667
H        0.499579    -4.003670    -1.973364
H        1.260202    -5.577654    -2.312044
H        2.753020    -6.273209    -4.448970
H        4.810224    -6.591027    -5.668171
H        6.566356    -4.881583    -5.754641
H        6.207116    -2.715721    -4.525027
H        4.267095    -1.351123    -2.862231
I       -1.633901     1.633901    -1.633901
I       -1.633901    -1.633901     1.633901
41
ex_0370 frame2 T-4-1-conf3
Cd       0.000000     0.000000     0.000000
C        4.461526     0.952087     2.911433
N        3.822690     2.231415     3.119840
C        4.305021     3.293372     3.858188
C        5.470712     3.442926     4.575069
C        5.682400     4.661596     5.231529
C        4.742244     5.685617     5.158921
C        3.559331     5.526270     4.428101
C        3.352185     4.327037     3.782762
N        2.324619     3.868848     3.006686
C        2.670625     2.670625     2.670625
Se       1.524205     1.524205     1.524205
H        5.545411     0.978215     3.100371
H        3.988279     0.233356     3.642450
H        4.211585     0.649423     1.872127
H        6.174696     2.648923     4.617423
H        6.608698     4.790790     5.805762
H        4.913723     6.611102     5.663443
H        2.838242     6.315649     4.374170
H        1.468322     4.404017     2.765002
C        4.831599    -1.776782    -1.759583
N        3.931293    -2.583494    -2.575917
C        4.303345    -3.497010    -3.492494
C        5.530202    -3.945781    -3.936888
C        5.675358    -4.914140    -4.909882
C        4.533547    -5.473961    -5.479280
C        3.309924    -5.020335    -5.029985
C        3.175143    -4.050788    -4.055739
N        2.102641    -3.461301    -3.468957
C        2.586388    -2.586388    -2.586388
Se       1.524205    -1.524205    -1.524205
H        4.240346    -1.433174    -0.876819
H        5.304884    -0.970589    -2.327513
H        5.629275    -2.440194    -1.316579
H        6.461119    -3.542070    -3.525665
H        6.664541    -5.233716    -5.225692
H        4.624729    -6.243339    -6.252478
H        2.431668    -5.471163    -5.488284
H        1.095169    -3.670475    -3.684979
I       -1.633901     1.633901    -1.633901
I       -1.633901    -1.633901     1.633901
41
ex_0370 frame3 T-4-1-conf4
Cd       0.000000     0.000000     0.000000
C        4.461526     0.952087     2.911433
N        3.822690     2.231415     3.119840
C        4.305021     3.293372     3.858188
C        5.470712     3.442926     4.575069
C        5.682400     4.661596     5.231529
C        4.742244     5.685617     5.158921
C        3.559331     5.526270     4.428101
C        3.352185     4.327037     3.782762
N        2.324619     3.868848     3.006686
C        2.670625     2.670625     2.670625
Se       1.524205     1.524205     1.524205
H        5.545411     0.978215     3.100371
H        3.988279     0.233356     3.642450
H        4.211585     0.649423     1.872127
H        6.174696     2.648923     4.617423
H        6.608698     4.790790     5.805762
H        4.913723     6.611102     5.663443
H        2.838242     6.315649     4.374170
H        1.468322     4.404017     2.765002
C        1.043151    -4.581076    -2.747651
N        2.258510    -3.840980    -3.020914
C        3.306436    -4.279638    -3.775301
C        3.490643    -5.455356    -4.437194
C        4.659595    -5.659422    -5.141287
C        5.643050    -4.692281    -5.184988
C        5.450873    -3.490955    -4.506621
C        4.281794    -3.287211    -3.802620
N        3.813752    -2.256298    -3.063401
C        2.616399    -2.616399    -2.616399
Se       1.524205    -1.524205    -1.524205
H        0.347344    -4.631512    -3.616667
H        0.499579    -4.003670    -1.973364
H        1.260202    -5.577654    -2.312044
H        2.753020    -6.273209    -4.448970
H        4.810224    -6.591027    -5.668171
H        6.566356    -4.881583    -5.754641
H        6.207116    -2.715721    -4.525027
H        4.267095    -1.351123    -2.862231
I       -1.633901     1.633901    -1.633901
I       -1.633901    -1.633901     1.633901
41
ex_0370 frame4 T-4-1-conf5
Cd       0.000000     0.000000     0.000000
C        3.120959     0.878292     4.368714
N        3.176548     2.187086     3.727071
C        3.851805     3.259869     4.181174
C        4.642948     3.479790     5.290132
C        5.249082     4.690273     5.560025
C        5.060154     5.750578     4.676056
C        4.267717     5.523422     3.569106
C        3.665481     4.308352     3.307836
N        2.863463     3.860919     2.308517
C        2.586388     2.586388     2.586388
Se       1.524205     1.524205     1.524205
H        2.824781     0.147545     3.578013
H        2.478099     0.871205     5.253683
H        4.163352     0.561361     4.661335
H        4.826498     2.683537     6.018818
H        5.863297     4.812905     6.447747
H        5.531113     6.719431     4.870003
H        4.133726     6.365153     2.892236
H        2.537291     4.427934     1.485399
C        3.801861    -3.819060    -0.747044
N        3.476975    -3.484552    -2.129177
C        4.031556    -4.036072    -3.225221
C        4.996133    -5.005026    -3.411712
C        5.418780    -5.423038    -4.657563
C        4.850565    -4.845246    -5.790978
C        3.886495    -3.876845    -5.596906
C        3.470325    -3.465374    -4.345970
N        2.560631    -2.552976    -3.919292
C        2.586388    -2.586388    -2.586388
Se       1.524205    -1.524205    -1.524205
H        2.933718    -3.490074    -0.126547
H        4.764735    -3.407811    -0.430440
H        3.817171    -4.940787    -0.628090
H        5.477166    -5.493571    -2.558117
H        6.182250    -6.190274    -4.751425
H        5.170358    -5.161219    -6.788968
H        3.456247    -3.439126    -6.495742
H        1.963274    -1.948770    -4.538580
I       -1.633901     1.633901    -1.633901
I       -1.633901    -1.633901     1.633901
41
ex_0370 frame5 T-4-1-conf6
Cd       0.000000     0.000000     0.000000
C        4.368714     3.120959     0.878292
N        3.727071     3.176548     2.187086
C        4.181174     3.851805     3.259869
C        5.290132     4.642948     3.479790
C        5.560025     5.249082     4.690273
C        4.676056     5.060154     5.750578
C        3.569106     4.267717     5.523422
C        3.307836     3.665481     4.308352
N        2.308517     2.863463     3.860919
C        2.586388     2.586388     2.586388
Se       1.524205     1.524205     1.524205
H        3.578013     2.824781     0.147545
H        5.253683     2.478099     0.871205
H        4.661335     4.163352     0.561361
H        6.018818     4.826498     2.683537
H        6.447747     5.863297     4.812905
H        4.870003     5.531113     6.719431
H        2.892236     4.133726     6.365153
H        1.485399     2.537291     4.427934
C        4.831599    -1.776782    -1.759583
N        3.931293    -2.583494    -2.575917
C        4.303345    -3.497010    -3.492494
C        5.530202    -3.945781    -3.936888
C        5.675358    -4.914140    -4.909882
C        4.533547    -5.473961    -5.479280
C        3.309924    -5.020335    -5.029985
C        3.175143    -4.050788    -4.055739
N        2.102641    -3.461301    -3.468957
C        2.586388    -2.586388    -2.586388
Se       1.524205    -1.524205    -1.524205
H        4.240346    -1.433174    -0.876819
H        5.304884    -0.970589    -2.327513
H        5.629275    -2.440194    -1.316579
H        6.461119    -3.542070    -3.525665
H        6.664541    -5.233716    -5.225692
H        4.624729    -6.243339    -6.252478
H        2.431668    -5.471163    -5.488284
H        1.095169    -3.670475    -3.684979
I       -1.633901     1.633901    -1.633901
I       -1.633901    -1.633901     1.633901
41
ex_0370 frame6 T-4-1-conf7
Cd       0.000000     0.000000     0.000000
C        4.461526     0.952087     2.911433
N        3.822690     2.231415     3.119840
C        4.305021     3.293372     3.858188
C        5.470712     3.442926     4.575069
C        5.682400     4.661596     5.231529
C        4.742244     5.685617     5.158921
C        3.559331     5.526270     4.428101
C        3.352185     4.327037     3.782762
N        2.324619     3.868848     3.006686
C        2.670625     2.670625     2.670625
Se       1.524205     1.524205     1.524205
H        5.545411     0.978215     3.100371
H        3.988279     0.233356     3.642450
H        4.211585     0.649423     1.872127
H        6.174696     2.648923     4.617423
H        6.608698     4.790790     5.805762
H        4.913723     6.611102     5.663443
H        2.838242     6.315649     4.374170
H        1.468322     4.404017     2.765002
C        3.801861    -3.819060    -0.747044
N        3.476975    -3.484552    -2.129177
C        4.031556    -4.036072    -3.225221
C        4.996133    -5.005026    -3.411712
C        5.418780    -5.423038    -4.657563
C        4.850565    -4.845246    -5.790978
C        3.886495    -3.876845    -5.596906
C        3.470325    -3.465374    -4.345970
N        2.560631    -2.552976    -3.919292
C        2.586388    -2.586388    -2.586388
Se       1.524205    -1.524205    -1.524205
H        2.933718    -3.490074    -0.126547
H        4.764735    -3.407811    -0.430440
H        3.817171    -4.940787    -0.628090
H        5.477166    -5.493571    -2.558117
H        6.182250    -6.190274    -4.751425
H        5.170358    -5.161219    -6.788968
H        3.456247    -3.439126    -6.495742
H        1.963274    -1.948770    -4.538580
I       -1.633901     1.633901    -1.633901
I       -1.633901    -1.633901     1.633901
41
ex_0370 frame7 T-4-1-conf8
Cd       0.000000     0.000000     0.000000
C        4.368714     3.120959     0.878292
N        3.727071     3.176548     2.187086
C        4.181174     3.851805     3.259869
C        5.290132     4.642948     3.479790
C        5.560025     5.249082     4.690273
C        4.676056     5.060154     5.750578
C        3.569106     4.267717     5.523422
C        3.307836     3.665481     4.308352
N        2.308517     2.863463     3.860919
C        2.586388     2.586388     2.586388
Se       1.524205     1.524205     1.524205
H        3.578013     2.824781     0.147545
H        5.253683     2.478099     0.871205
H        4.661335     4.163352     0.561361
H        6.018818     4.826498     2.683537
H        6.447747     5.863297     4.812905
H        4.870003     5.531113     6.719431
H        2.892236     4.133726     6.365153
H        1.485399     2.537291     4.427934
C        1.043151    -4.581076    -2.747651
N        2.258510    -3.840980    -3.020914
C        3.306436    -4.279638    -3.775301
C        3.490643    -5.455356    -4.437194
C        4.659595    -5.659422    -5.141287
C        5.643050    -4.692281    -5.184988
C        5.450873    -3.490955    -4.506621
C        4.281794    -3.287211    -3.802620
N        3.813752    -2.256298    -3.063401
C        2.616399    -2.616399    -2.616399
Se       1.524205    -1.524205    -1.524205
H        0.347344    -4.631512    -3.616667
H        0.499579    -4.003670    -1.973364
H        1.260202    -5.577654    -2.312044
H        2.753020    -6.273209    -4.448970
H        4.810224    -6.591027    -5.668171
H        6.566356    -4.881583    -5.754641
H        6.207116    -2.715721    -4.525027
H        4.267095    -1.351123    -2.862231
I       -1.633901     1.633901    -1.633901
I       -1.633901    -1.633901     1.633901
41
ex_0370 frame8 T-4-1-conf9
Cd       0.000000     0.000000     0.000000
C        2.457684     4.700351     1.209930
N        2.883922     3.873384     2.333399
C        3.676760     4.268696     3.347392
C        4.298966     5.462123     3.651781
C        5.083838     5.642647     4.772895
C        5.264371     4.573947     5.648470
C        4.639113     3.383407     5.337724
C        3.855632     3.212761     4.213277
N        3.158469     2.161014     3.713416
C        2.586388     2.586388     2.586388
Se       1.524205     1.524205     1.524205
H        1.542112     4.219347     0.788880
H        3.257226     4.864120     0.481642
H        2.094013     5.696004     1.596031
H        4.192738     6.335698     3.000417
H        5.552669     6.603060     4.968219
H        5.882585     4.694267     6.543694
H        4.793684     2.562257     6.035174
H        3.096458     1.205815     4.148350
C        4.831599    -1.776782    -1.759583
N        3.931293    -2.583494    -2.575917
C        4.303345    -3.497010    -3.492494
C        5.530202    -3.945781    -3.936888
C        5.675358    -4.914140    -4.909882
C        4.533547    -5.473961    -5.479280
C        3.309924    -5.020335    -5.029985
C        3.175143    -4.050788    -4.055739
N        2.102641    -3.461301    -3.468957
C        2.586388    -2.586388    -2.586388
Se       1.524205    -1.524205    -1.524205
H        4.240346    -1.433174    -0.876819
H        5.304884    -0.970589    -2.327513
H        5.629275    -2.440194    -1.316579
H        6.461119    -3.542070    -3.525665
H        6.664541    -5.233716    -5.225692
H        4.624729    -6.243339    -6.252478
H        2.431668    -5.471163    -5.488284
H        1.095169    -3.670475    -3.684979
I       -1.633901     1.633901    -1.633901
I       -1.633901    -1.633901     1.633901
41
ex_0370 frame9 T-4-1-conf10
Cd       0.000000     0.000000     0.000000
C        3.120959     0.878292     4.368714
N        3.176548     2.187086     3.727071
C        3.851805     3.259869     4.181174
C        4.642948     3.479790     5.290132
C        5.249082     4.690273     5.560025
C        5.060154     5.750578     4.676056
C        4.267717     5.523422     3.569106
C        3.665481     4.308352     3.307836
N        2.863463     3.860919     2.308517
C        2.586388     2.586388     2.586388
Se       1.524205     1.524205     1.524205
H        2.824781     0.147545     3.578013
H        2.478099     0.871205     5.253683
H        4.163352     0.561361     4.661335
H        4.826498     2.683537     6.018818
H        5.863297     4.812905     6.447747
H        5.531113     6.719431     4.870003
H        4.133726     6.365153     2.892236
H        2.537291     4.427934     1.485399
C        1.776782    -1.759583    -4.831599
N        2.583494    -2.575917    -3.931293
C        3.497010    -3.492494    -4.303345
C        3.945781    -3.936888    -5.530202
C        4.914140    -4.909882    -5.675358
C        5.473961    -5.479280    -4.533547
C        5.020335    -5.029985    -3.309924
C        4.050788    -4.055739    -3.175143
N        3.461301    -3.468957    -2.102641
C        2.586388    -2.586388    -2.586388
Se       1.524205    -1.524205    -1.524205
H        1.433174    -0.876819    -4.240346
H        0.970589    -2.327513    -5.304884
H        2.440194    -1.316579    -5.629275
H        3.542070    -3.525665    -6.461119
H        5.233716    -5.225692    -6.664541
H        6.243339    -6.252478    -4.624729
H        5.471163    -5.488284    -2.431668
H        3.670475    -3.684979    -1.095169
I       -1.633901     1.633901    -1.633901
I       -1.633901    -1.633901     1.633901
41
ex_0370 frame10 T-4-1-reembed1
Cd       0.000000     0.000000     0.000000
C        1.456112     4.797980     2.116603
N        2.437390     3.922560     2.730921
C        3.407514     4.326463     3.589163
C        3.755799     5.576265     4.115615
C        4.809486     5.696589     4.984846
C        5.553332     4.598094     5.364591
C        5.218789     3.357606     4.851005
C        4.164931     3.219676     3.978152
N        3.626661     2.152659     3.335361
C        2.606707     2.606707     2.606707
Se       1.524205     1.524205     1.524205
H        1.903470     5.243761     1.208078
H        0.506005     4.275533     1.898425
H        1.224987     5.588467     2.868395
H        3.174334     6.434701     3.818713
H        5.028239     6.688453     5.356392
H        6.394599     4.710637     6.061860
H        5.790508     2.489493     5.138176
H        3.949087     1.167323     3.399327
C        1.357922    -2.243960    -4.768813
N        2.393753    -2.787520    -3.909597
C        3.380539    -3.624152    -4.318450
C        3.702326    -4.184972    -5.560381
C        4.783452    -5.018615    -5.688856
C        5.581448    -5.328122    -4.606446
C        5.273532    -4.780000    -3.373868
C        4.192744    -3.942077    -3.227938
N        3.669992    -3.279159    -2.165530
C        2.606707    -2.606707    -2.606707
Se       1.524205    -1.524205    -1.524205
H        0.536102    -2.981627    -4.837580
H        1.001417    -1.255849    -4.422697
H        1.828037    -2.086208    -5.767605
H        3.078535    -3.942969    -6.406244
H        4.979483    -5.419630    -6.673970
H        6.444153    -5.997585    -4.725357
H        5.887577    -5.012273    -2.518327
H        4.030849    -3.293277    -1.191611
I       -1.633901     1.633901    -1.633901
I       -1.633901    -1.633901     1.633901
41
ex_0370 frame11 T-4-1-reembed2
Cd       0.000000     0.000000     0.000000
C        4.797980     2.116603     1.456112
N        3.922560     2.730921     2.437390
C        4.326463     3.589163     3.407514
C        5.576265     4.115615     3.755799
C        5.696589     4.984846     4.809486
C        4.598094     5.364591     5.553332
C        3.357606     4.851005     5.218789
C        3.219676     3.978152     4.164931
N        2.152659     3.335361     3.626661
C        2.606707     2.606707     2.606707
Se       1.524205     1.524205     1.524205
H        5.243761     1.208078     1.903470
H        4.275533     1.898425     0.506005
H        5.588467     2.868395     1.224987
H        6.434701     3.818713     3.174334
H        6.688453     5.356392     5.028239
H        4.710637     6.061860     6.394599
H        2.489493     5.138176     5.790508
H        1.167323     3.399327     3.949087
C        1.357922    -2.243960    -4.768813
N        2.393753    -2.787520    -3.909597
C        3.380539    -3.624152    -4.318450
C        3.702326    -4.184972    -5.560381
C        4.783452    -5.018615    -5.688856
C        5.581448    -5.328122    -4.606446
C        5.273532    -4.780000    -3.373868
C        4.192744    -3.942077    -3.227938
N        3.669992    -3.279159    -2.165530
C        2.606707    -2.606707    -2.606707
Se       1.524205    -1.524205    -1.524205
H        0.536102    -2.981627    -4.837580
H        1.001417    -1.255849    -4.422697
H        1.828037    -2.086208    -5.767605
H        3.078535    -3.942969    -6.406244
H        4.979483    -5.419630    -6.673970
H        6.444153    -5.997585    -4.725357
H        5.887577    -5.012273    -2.518327
H        4.030849    -3.293277    -1.191611
I       -1.633901     1.633901    -1.633901
I       -1.633901    -1.633901     1.633901
41
ex_0370 frame12 T-4-1-reembed3
Cd       0.000000     0.000000     0.000000
C        2.116603     1.456112     4.797980
N        2.730921     2.437390     3.922560
C        3.589163     3.407514     4.326463
C        4.115615     3.755799     5.576265
C        4.984846     4.809486     5.696589
C        5.364591     5.553332     4.598094
C        4.851005     5.218789     3.357606
C        3.978152     4.164931     3.219676
N        3.335361     3.626661     2.152659
C        2.606707     2.606707     2.606707
Se       1.524205     1.524205     1.524205
H        1.208078     1.903470     5.243761
H        1.898425     0.506005     4.275533
H        2.868395     1.224987     5.588467
H        3.818713     3.174334     6.434701
H        5.356392     5.028239     6.688453
H        6.061860     6.394599     4.710637
H        5.138176     5.790508     2.489493
H        3.399327     3.949087     1.167323
C        1.357922    -2.243960    -4.768813
N        2.393753    -2.787520    -3.909597
C        3.380539    -3.624152    -4.318450
C        3.702326    -4.184972    -5.560381
C        4.783452    -5.018615    -5.688856
C        5.581448    -5.328122    -4.606446
C        5.273532    -4.780000    -3.373868
C        4.192744    -3.942077    -3.227938
N        3.669992    -3.279159    -2.165530
C        2.606707    -2.606707    -2.606707
Se       1.524205    -1.524205    -1.524205
H        0.536102    -2.981627    -4.837580
H        1.001417    -1.255849    -4.422697
H        1.828037    -2.086208    -5.767605
H        3.078535    -3.942969    -6.406244
H        4.979483    -5.419630    -6.673970
H        6.444153    -5.997585    -4.725357
H        5.887577    -5.012273    -2.518327
H        4.030849    -3.293277    -1.191611
I       -1.633901     1.633901    -1.633901
I       -1.633901    -1.633901     1.633901
41
ex_0370 frame13 T-4-1-reembed4
Cd       0.000000     0.000000     0.000000
C        1.456112     4.797980     2.116603
N        2.437390     3.922560     2.730921
C        3.407514     4.326463     3.589163
C        3.755799     5.576265     4.115615
C        4.809486     5.696589     4.984846
C        5.553332     4.598094     5.364591
C        5.218789     3.357606     4.851005
C        4.164931     3.219676     3.978152
N        3.626661     2.152659     3.335361
C        2.606707     2.606707     2.606707
Se       1.524205     1.524205     1.524205
H        1.903470     5.243761     1.208078
H        0.506005     4.275533     1.898425
H        1.224987     5.588467     2.868395
H        3.174334     6.434701     3.818713
H        5.028239     6.688453     5.356392
H        6.394599     4.710637     6.061860
H        5.790508     2.489493     5.138176
H        3.949087     1.167323     3.399327
C        2.243960    -4.768813    -1.357922
N        2.787520    -3.909597    -2.393753
C        3.624152    -4.318450    -3.380539
C        4.184972    -5.560381    -3.702326
C        5.018615    -5.688856    -4.783452
C        5.328122    -4.606446    -5.581448
C        4.780000    -3.373868    -5.273532
C        3.942077    -3.227938    -4.192744
N        3.279159    -2.165530    -3.669992
C        2.606707    -2.606707    -2.606707
Se       1.524205    -1.524205    -1.524205
H        2.981627    -4.837580    -0.536102
H        1.255849    -4.422697    -1.001417
H        2.086208    -5.767605    -1.828037
H        3.942969    -6.406244    -3.078535
H        5.419630    -6.673970    -4.979483
H        5.997585    -4.725357    -6.444153
H        5.012273    -2.518327    -5.887577
H        3.293277    -1.191611    -4.030849
I       -1.633901     1.633901    -1.633901
I       -1.633901    -1.633901     1.633901
41
ex_0370 frame14 T-4-1-reembed5
Cd       0.000000     0.000000     0.000000
C        1.456112     4.797980     2.116603
N        2.437390     3.922560     2.730921
C        3.407514     4.326463     3.589163
C        3.755799     5.576265     4.115615
C        4.809486     5.696589     4.984846
C        5.553332     4.598094     5.364591
C        5.218789     3.357606     4.851005
C        4.164931     3.219676     3.978152
N        3.626661     2.152659     3.335361
C        2.606707     2.606707     2.606707
Se       1.524205     1.524205     1.524205
H        1.903470     5.243761     1.208078
H        0.506005     4.275533     1.898425
H        1.224987     5.588467     2.868395
H        3.174334     6.434701     3.818713
H        5.028239     6.688453     5.356392
H        6.394599     4.710637     6.061860
H        5.790508     2.489493     5.138176
H        3.949087     1.167323     3.399327
C        4.768813    -1.357922    -2.243960
N        3.909597    -2.393753    -2.787520
C        4.318450    -3.380539    -3.624152
C        5.560381    -3.702326    -4.184972
C        5.688856    -4.783452    -5.018615
C        4.606446    -5.581448    -5.328122
C        3.373868    -5.273532    -4.780000
C        3.227938    -4.192744    -3.942077
N        2.165530    -3.669992    -3.279159
C        2.606707    -2.606707    -2.606707
Se       1.524205    -1.524205    -1.524205
H        4.837580    -0.536102    -2.981627
H        4.422697    -1.001417    -1.255849
H        5.767605    -1.828037    -2.086208
H        6.406244    -3.078535    -3.942969
H        6.673970    -4.979483    -5.419630
H        4.725357    -6.444153    -5.997585
H        2.518327    -5.887577    -5.012273
H        1.191611    -4.030849    -3.293277
I       -1.633901     1.633901    -1.633901
I       -1.633901    -1.633901     1.633901
41
ex_0370 frame15 T-4-1-reembed6
Cd       0.000000     0.000000     0.000000
C        4.797980     2.116603     1.456112
N        3.922560     2.730921     2.437390
C        4.326463     3.589163     3.407514
C        5.576265     4.115615     3.755799
C        5.696589     4.984846     4.809486
C        4.598094     5.364591     5.553332
C        3.357606     4.851005     5.218789
C        3.219676     3.978152     4.164931
N        2.152659     3.335361     3.626661
C        2.606707     2.606707     2.606707
Se       1.524205     1.524205     1.524205
H        5.243761     1.208078     1.903470
H        4.275533     1.898425     0.506005
H        5.588467     2.868395     1.224987
H        6.434701     3.818713     3.174334
H        6.688453     5.356392     5.028239
H        4.710637     6.061860     6.394599
H        2.489493     5.138176     5.790508
H        1.167323     3.399327     3.949087
C        2.243960    -4.768813    -1.357922
N        2.787520    -3.909597    -2.393753
C        3.624152    -4.318450    -3.380539
C        4.184972    -5.560381    -3.702326
C        5.018615    -5.688856    -4.783452
C        5.328122    -4.606446    -5.581448
C        4.780000    -3.373868    -5.273532
C        3.942077    -3.227938    -4.192744
N        3.279159    -2.165530    -3.669992
C        2.606707    -2.606707    -2.606707
Se       1.524205    -1.524205    -1.524205
H        2.981627    -4.837580    -0.536102
H        1.255849    -4.422697    -1.001417
H        2.086208    -5.767605    -1.828037
H        3.942969    -6.406244    -3.078535
H        5.419630    -6.673970    -4.979483
H        5.997585    -4.725357    -6.444153
H        5.012273    -2.518327    -5.887577
H        3.293277    -1.191611    -4.030849
I       -1.633901     1.633901    -1.633901
I       -1.633901    -1.633901     1.633901
41
ex_0370 frame16 SP-4-1
Cd       0.000000     0.000000     0.000000
C        4.831247     0.942152    -2.317077
N        5.248521     0.415673    -1.022303
C        6.519929     0.248666    -0.611601
C        7.743924     0.488638    -1.201779
C        8.948571     0.234748    -0.577380
C        8.941301    -0.290058     0.713306
C        7.713541    -0.527533     1.297348
C        6.513475    -0.270079     0.664178
N        5.215147    -0.419037     1.030544
C        4.479755     0.000000    -0.000000
Se       2.640000     0.000000     0.000000
H        3.781840     1.302673    -2.191817
H        4.966937     0.220309    -3.127645
H        5.419037     1.877209    -2.546917
H        7.810887     0.900256    -2.214093
H        9.886516     0.441263    -1.085276
H        9.884552    -0.499225     1.227718
H        7.731364    -0.937434     2.305455
H        4.878970    -0.794268     1.953368
C       -2.343351     4.831247     0.874758
N       -1.033895     5.248521     0.385938
C       -0.618536     6.519929     0.230877
C       -1.215406     7.743924     0.453682
C       -0.583926     8.948571     0.217955
C        0.721395     8.941301    -0.269310
C        1.312060     7.713541    -0.489798
C        0.671710     6.513475    -0.250761
N        1.042230     5.215147    -0.389062
C       -0.000000     4.479755     0.000000
Se       0.000000     2.640000     0.000000
H       -2.228568     3.781840     1.238750
H       -3.132707     4.966937     0.129778
H       -2.600134     5.419037     1.802777
H       -2.239199     7.810887     0.835856
H       -1.097582     9.886516     0.409696
H        1.241640     9.884552    -0.463516
H        2.331598     7.731364    -0.870377
H        1.975518     4.878970    -0.737452
I       -2.830000     0.000000     0.000000
I        0.000000    -2.830000     0.000000
41
ex_0370 frame17 SP-4-2
Cd       0.000000     0.000000     0.000000
C        4.831247     0.942152    -2.317077
N        5.248521     0.415673    -1.022303
C        6.519929     0.248666    -0.611601
C        7.743924     0.488638    -1.201779
C        8.948571     0.234748    -0.577380
C        8.941301    -0.290058     0.713306
C        7.713541    -0.527533     1.297348
C        6.513475    -0.270079     0.664178
N        5.215147    -0.419037     1.030544
C        4.479755     0.000000    -0.000000
Se       2.640000     0.000000     0.000000
H        3.781840     1.302673    -2.191817
H        4.966937     0.220309    -3.127645
H        5.419037     1.877209    -2.546917
H        7.810887     0.900256    -2.214093
H        9.886516     0.441263    -1.085276
H        9.884552    -0.499225     1.227718
H        7.731364    -0.937434     2.305455
H        4.878970    -0.794268     1.953368
I        0.000000     2.830000     0.000000
C       -4.831247    -2.500838     0.047989
N       -5.248521    -1.103376     0.021165
C       -6.519929    -0.660100     0.012650
C       -7.743924    -1.297082     0.024870
C       -8.948571    -0.623162     0.011938
C       -8.941301     0.769883    -0.014791
C       -7.713541     1.400243    -0.026883
C       -6.513475     0.716859    -0.013771
N       -5.215147     1.112275    -0.021348
C       -4.479755     0.000000    -0.000000
Se      -2.640000     0.000000     0.000000
H       -3.781840    -2.513283     0.429447
H       -4.966937    -2.998413    -0.916634
H       -5.419037    -3.050893     0.838304
H       -7.810887    -2.389679     0.045835
H       -9.886516    -1.171338     0.022455
H       -9.884552     1.325092    -0.025446
H       -7.731364     2.488298    -0.047754
H       -4.878970     2.108286    -0.040460
I        0.000000    -2.830000     0.000000
