56
ex_0352 frame0 SP-4-chelate-1
Ni       0.000000     0.000000     0.000000
C       -0.320800    -0.976486    -4.243544
C       -0.162249    -0.318473    -2.886569
N        1.026178    -0.452383    -2.373244
N        1.541476     0.169343    -1.182233
C        2.633994     0.706100    -0.850453
S        2.973880     1.355831     0.607427
N        3.666962     0.732777    -1.884821
C        4.937271     1.276216    -1.622665
C        6.028880     0.435427    -2.067709
O        5.830446    -0.024479    -3.378814
C        4.661170     0.468282    -3.968173
C        3.480656     0.206179    -3.172183
S       -0.258433    -1.647178     1.569750
C        0.337800    -0.242985     2.705504
N        1.163450    -0.682483     3.713359
C        2.262027     0.055219     4.187996
C        2.380257    -0.136593     5.610407
O        1.156371    -0.426550     6.224177
C        0.567545    -1.617529     5.783766
C        0.865155    -1.871829     4.395542
N       -0.051001     1.095187     2.497779
N       -0.788663     1.180584     1.336687
C       -1.928416     1.650544     1.012759
C       -2.887127     2.374086     1.833300
C       -2.299438     1.404025    -0.399311
N       -1.363916     0.737942    -1.182233
C       -1.296099     0.352227    -2.355413
C       -2.557426     0.689945    -3.113326
C       -3.525603     1.345725    -2.437923
C       -3.405050     1.735858    -1.009280
H       -0.167198    -0.188848    -5.009813
H       -1.367799    -1.330076    -4.360077
H        0.400808    -1.778020    -4.397166
H        5.070543     1.560156    -0.530763
H        4.997493     2.262301    -2.185841
H        5.990659    -0.499542    -1.442700
H        7.035494     0.830594    -1.936708
H        4.631907    -0.008530    -4.978410
H        4.824512     1.565129    -4.089590
H        2.614360     0.726689    -3.688896
H        3.225711    -0.900022    -3.147864
H        3.193613    -0.324697     3.683212
H        2.174268     1.170081     3.931591
H        3.125142    -0.918955     5.857214
H        2.714021     0.812117     6.093695
H        0.919304    -2.437819     6.481299
H       -0.522260    -1.513921     5.944094
H        0.011916    -2.459990     3.953169
H        1.778866    -2.579334     4.337159
H       -2.407777     2.619317     2.818678
H       -3.228491     3.350498     1.423628
H       -3.776724     1.757147     2.093844
H       -2.631120     0.408430    -4.129957
H       -4.446362     1.602894    -2.972293
H       -4.155539     2.257629    -0.458527
56
ex_0352 frame1 SP-4-chelate-1-reembed1
Ni       0.000000     0.000000     0.000000
C       -0.320800    -0.976486    -4.243544
C       -0.162249    -0.318473    -2.886569
N        1.026178    -0.452383    -2.373244
N        1.541476     0.169343    -1.182233
C        2.633994     0.706100    -0.850453
S        2.973880     1.355831     0.607427
N        3.666962     0.732777    -1.884821
C        4.937271     1.276216    -1.622665
C        6.028880     0.435427    -2.067709
O        5.830446    -0.024479    -3.378814
C        4.661170     0.468282    -3.968173
C        3.480656     0.206179    -3.172183
S       -0.258433    -1.647178     1.569750
C        0.337800    -0.242985     2.705504
N        1.163450    -0.682483     3.713359
C        2.262027     0.055219     4.187996
C        2.380257    -0.136593     5.610407
O        1.156371    -0.426550     6.224177
C        0.567545    -1.617529     5.783766
C        0.865155    -1.871829     4.395542
N       -0.051001     1.095187     2.497779
N       -0.788663     1.180584     1.336687
C       -1.928416     1.650544     1.012759
C       -2.887127     2.374086     1.833300
C       -2.299438     1.404025    -0.399311
N       -1.363916     0.737942    -1.182233
C       -1.296099     0.352227    -2.355413
C       -2.557426     0.689945    -3.113326
C       -3.525603     1.345725    -2.437923
C       -3.405050     1.735858    -1.009280
H       -0.167198    -0.188848    -5.009813
H       -1.367799    -1.330076    -4.360077
H        0.400808    -1.778020    -4.397166
H        5.070543     1.560156    -0.530763
H        4.997493     2.262301    -2.185841
H        5.990659    -0.499542    -1.442700
H        7.035494     0.830594    -1.936708
H        4.631907    -0.008530    -4.978410
H        4.824512     1.565129    -4.089590
H        2.614360     0.726689    -3.688896
H        3.225711    -0.900022    -3.147864
H        3.193613    -0.324697     3.683212
H        2.174268     1.170081     3.931591
H        3.125142    -0.918955     5.857214
H        2.714021     0.812117     6.093695
H        0.919304    -2.437819     6.481299
H       -0.522260    -1.513921     5.944094
H        0.011916    -2.459990     3.953169
H        1.778866    -2.579334     4.337159
H       -2.407777     2.619317     2.818678
H       -3.228491     3.350498     1.423628
H       -3.776724     1.757147     2.093844
H       -2.631120     0.408430    -4.129957
H       -4.446362     1.602894    -2.972293
H       -4.155539     2.257629    -0.458527
56
ex_0352 frame2 T-4-chelate-1
Ni       0.000000     0.000000     0.000000
C        3.436944     2.689351    -0.137506
C        2.080263     2.019117    -0.236011
N        1.402325     2.039186     0.874750
N        0.039165     1.625106     1.077031
C       -0.947942     2.070961     1.724035
S       -2.430465     1.392146     1.790523
N       -0.711245     3.305847     2.470146
C       -1.726686     3.881174     3.254758
C       -1.286572     4.263790     4.580090
O       -0.078930     4.977931     4.541482
C        0.393777     5.197952     3.243213
C        0.522610     3.974288     2.480351
S        0.244804    -2.118163     0.835198
C       -1.649638    -2.078546     0.671749
N       -2.290007    -2.737058     1.694938
C       -3.505978    -2.302482     2.250738
C       -4.307013    -3.450339     2.589547
O       -4.029034    -4.563748     1.788464
C       -2.717090    -5.036687     1.907789
C       -1.789459    -3.961861     2.162064
N       -2.288294    -1.429043    -0.403093
N       -1.343383    -0.786965    -1.174099
C       -1.031859    -0.771834    -2.410042
C       -1.676316    -1.448326    -3.524924
C        0.158074     0.053560    -2.718510
N        0.748522     0.719204    -1.650745
C        1.718717     1.470391    -1.495282
C        2.437432     1.708852    -2.801427
C        1.933462     1.108356    -3.900974
C        0.729641     0.237703    -3.877800
H        3.318303     3.726544    -0.513391
H        4.147263     2.183516    -0.826267
H        3.808234     2.714554     0.886351
H       -2.652571     3.225578     3.314471
H       -2.072479     4.818757     2.712059
H       -1.022638     3.311879     5.119042
H       -2.019089     4.762077     5.213905
H        1.361302     5.739307     3.383254
H       -0.342392     5.888300     2.767848
H        0.816482     4.274476     1.425876
H        1.360389     3.317511     2.875372
H       -3.283312    -1.715940     3.185287
H       -4.075323    -1.600763     1.543773
H       -4.207487    -3.716998     3.660454
H       -5.383598    -3.231318     2.394583
H       -2.724256    -5.830996     2.715369
H       -2.476041    -5.553816     0.959851
H       -0.788636    -4.249542     1.731671
H       -1.614520    -3.887052     3.303396
H       -2.640076    -1.899375    -3.166311
H       -1.959472    -0.797652    -4.381772
H       -1.080661    -2.309875    -3.902824
H        3.292171     2.331447    -2.805730
H        2.439050     1.272909    -4.858464
H        0.312815    -0.242390    -4.734874
56
ex_0352 frame3 T-4-chelate-1-conf2
Ni       0.000000     0.000000     0.000000
C        3.283104     2.709594    -0.309767
C        1.911032     2.081857    -0.318727
N        1.276162     2.097891     0.835700
N       -0.078115     1.636057     1.058166
C       -1.109357     2.033010     1.696457
S       -2.533197     1.158484     1.681848
N       -1.170588     3.257030     2.489494
C       -2.360059     3.649929     3.156151
C       -2.456250     5.099479     3.168995
O       -1.838445     5.675172     2.060256
C       -0.470089     5.407794     1.944545
C       -0.101495     4.166584     2.610464
S       -0.070420    -2.100846     0.908618
C       -1.929933    -1.749367     0.926755
N       -2.507068    -2.233805     2.063684
C       -3.511534    -3.221683     1.932740
C       -2.977496    -4.468508     2.444647
O       -2.362129    -4.253114     3.675940
C       -2.584521    -2.999346     4.243177
C       -2.141713    -1.915554     3.393073
N       -2.572319    -1.074920    -0.123146
N       -1.590595    -0.560903    -0.978721
C       -1.450557    -0.556772    -2.270768
C       -2.280688    -1.181720    -3.323016
C       -0.263034     0.208887    -2.691420
N        0.446998     0.844642    -1.699786
C        1.441070     1.554767    -1.565997
C        2.091833     1.785004    -2.930176
C        1.465870     1.206529    -3.986466
C        0.228859     0.376900    -3.906352
H        4.049935     1.928773    -0.494616
H        3.454809     3.331106     0.577077
H        3.285795     3.384035    -1.191648
H       -2.284945     3.292102     4.217151
H       -3.260012     3.210356     2.654524
H       -1.955325     5.540134     4.072887
H       -3.492990     5.463010     3.175727
H       -0.158828     5.382986     0.880240
H        0.058673     6.264873     2.419295
H        0.903330     3.837055     2.274801
H       -0.010047     4.389288     3.725197
H       -3.927111    -3.318559     0.893480
H       -4.396846    -2.918379     2.588574
H       -3.695504    -5.320913     2.502608
H       -2.152766    -4.773968     1.733435
H       -3.645268    -2.925521     4.582248
H       -1.992093    -3.007752     5.190386
H       -2.638238    -0.984393     3.778728
H       -1.029644    -1.806577     3.487772
H       -3.004187    -0.475172    -3.774977
H       -2.846671    -2.036609    -2.872238
H       -1.546469    -1.578300    -4.084617
H        2.943396     2.362125    -2.971718
H        1.908169     1.366525    -4.964737
H       -0.268566    -0.065772    -4.713019
56
ex_0352 frame4 T-4-chelate-1-conf4
Ni       0.000000     0.000000     0.000000
C       -1.441443     4.004809     0.408200
C       -0.638692     2.778748     0.059898
N        0.214535     2.392410     0.982378
N        1.177440     1.305138     0.844245
C        2.385188     1.129559     1.128120
S        3.245083    -0.242474     0.850908
N        3.083342     2.250485     1.762452
C        4.424960     2.154110     2.153708
C        4.610034     2.620818     3.510089
O        4.102528     3.920635     3.669896
C        3.432361     4.394835     2.534586
C        2.442741     3.467703     2.037877
S       -0.775555    -1.919961     0.977939
C        0.957690    -2.529598     0.491205
N        1.515459    -3.296558     1.474783
C        1.489689    -2.973520     2.840942
C        1.462279    -4.140792     3.688030
O        0.807686    -5.181970     2.984110
C        1.672031    -5.664009     1.968330
C        2.066897    -4.545969     1.145356
N        1.529528    -2.190617    -0.747989
N        0.737582    -1.206546    -1.342654
C        0.256914    -1.023516    -2.535486
C        0.312284    -1.866051    -3.750106
C       -0.463645     0.254226    -2.666491
N       -0.448566     1.081796    -1.559168
C       -0.876567     2.182119    -1.219110
C       -1.688606     2.802682    -2.356504
C       -1.762586     2.069408    -3.491606
C       -1.129240     0.730345    -3.697558
H       -2.519475     3.742002     0.211613
H       -1.277233     4.324585     1.444083
H       -1.214181     4.788609    -0.355071
H        5.116711     2.751373     1.477486
H        4.812360     1.094930     2.114890
H        5.696581     2.691203     3.754496
H        4.144596     1.986916     4.276582
H        4.199610     4.615858     1.750658
H        2.985487     5.366011     2.816312
H        1.601274     3.342311     2.775031
H        2.035475     3.921214     1.071437
H        2.353214    -2.295165     3.122574
H        0.515311    -2.398353     3.079967
H        2.511669    -4.552085     3.816920
H        0.958150    -4.081325     4.649881
H        1.092410    -6.428982     1.428232
H        2.541804    -6.174874     2.429586
H        1.862893    -4.774057     0.068363
H        3.215216    -4.432780     1.171998
H       -0.506097    -2.612482    -3.653199
H        0.248716    -1.292238    -4.694786
H        1.255501    -2.470194    -3.717958
H       -2.121783     3.733463    -2.203281
H       -2.333989     2.500201    -4.321643
H       -1.175380     0.164583    -4.571965
56
ex_0352 frame5 T-4-chelate-1-reembed1
Ni       0.000000     0.000000     0.000000
C        3.436944     2.689351    -0.137506
C        2.080263     2.019117    -0.236011
N        1.402325     2.039186     0.874750
N        0.039165     1.625106     1.077031
C       -0.947942     2.070961     1.724035
S       -2.430465     1.392146     1.790523
N       -0.711245     3.305847     2.470146
C       -1.726686     3.881174     3.254758
C       -1.286572     4.263790     4.580090
O       -0.078930     4.977931     4.541482
C        0.393777     5.197952     3.243213
C        0.522610     3.974288     2.480351
S        0.244804    -2.118163     0.835198
C       -1.649638    -2.078546     0.671749
N       -2.290007    -2.737058     1.694938
C       -3.505978    -2.302482     2.250738
C       -4.307013    -3.450339     2.589547
O       -4.029034    -4.563748     1.788464
C       -2.717090    -5.036687     1.907789
C       -1.789459    -3.961861     2.162064
N       -2.288294    -1.429043    -0.403093
N       -1.343383    -0.786965    -1.174099
C       -1.031859    -0.771834    -2.410042
C       -1.676316    -1.448326    -3.524924
C        0.158074     0.053560    -2.718510
N        0.748522     0.719204    -1.650745
C        1.718717     1.470391    -1.495282
C        2.437432     1.708852    -2.801427
C        1.933462     1.108356    -3.900974
C        0.729641     0.237703    -3.877800
H        3.318303     3.726544    -0.513391
H        4.147263     2.183516    -0.826267
H        3.808234     2.714554     0.886351
H       -2.652571     3.225578     3.314471
H       -2.072479     4.818757     2.712059
H       -1.022638     3.311879     5.119042
H       -2.019089     4.762077     5.213905
H        1.361302     5.739307     3.383254
H       -0.342392     5.888300     2.767848
H        0.816482     4.274476     1.425876
H        1.360389     3.317511     2.875372
H       -3.283312    -1.715940     3.185287
H       -4.075323    -1.600763     1.543773
H       -4.207487    -3.716998     3.660454
H       -5.383598    -3.231318     2.394583
H       -2.724256    -5.830996     2.715369
H       -2.476041    -5.553816     0.959851
H       -0.788636    -4.249542     1.731671
H       -1.614520    -3.887052     3.303396
H       -2.640076    -1.899375    -3.166311
H       -1.959472    -0.797652    -4.381772
H       -1.080661    -2.309875    -3.902824
H        3.292171     2.331447    -2.805730
H        2.439050     1.272909    -4.858464
H        0.312815    -0.242390    -4.734874
56
ex_0352 frame6 SP-4-chelate-1_mirror
Ni       0.000000     0.000000     0.000000
C       -0.320800    -0.976486     4.243544
C       -0.162249    -0.318473     2.886569
N        1.026178    -0.452383     2.373244
N        1.541476     0.169343     1.182233
C        2.633994     0.706100     0.850453
S        2.973880     1.355831    -0.607427
N        3.666962     0.732777     1.884821
C        4.937271     1.276216     1.622665
C        6.028880     0.435427     2.067709
O        5.830446    -0.024479     3.378814
C        4.661170     0.468282     3.968173
C        3.480656     0.206179     3.172183
S       -0.258433    -1.647178    -1.569750
C        0.337800    -0.242985    -2.705504
N        1.163450    -0.682483    -3.713359
C        2.262027     0.055219    -4.187996
C        2.380257    -0.136593    -5.610407
O        1.156371    -0.426550    -6.224177
C        0.567545    -1.617529    -5.783766
C        0.865155    -1.871829    -4.395542
N       -0.051001     1.095187    -2.497779
N       -0.788663     1.180584    -1.336687
C       -1.928416     1.650544    -1.012759
C       -2.887127     2.374086    -1.833300
C       -2.299438     1.404025     0.399311
N       -1.363916     0.737942     1.182233
C       -1.296099     0.352227     2.355413
C       -2.557426     0.689945     3.113326
C       -3.525603     1.345725     2.437923
C       -3.405050     1.735858     1.009280
H       -0.167198    -0.188848     5.009813
H       -1.367799    -1.330076     4.360077
H        0.400808    -1.778020     4.397166
H        5.070543     1.560156     0.530763
H        4.997493     2.262301     2.185841
H        5.990659    -0.499542     1.442700
H        7.035494     0.830594     1.936708
H        4.631907    -0.008530     4.978410
H        4.824512     1.565129     4.089590
H        2.614360     0.726689     3.688896
H        3.225711    -0.900022     3.147864
H        3.193613    -0.324697    -3.683212
H        2.174268     1.170081    -3.931591
H        3.125142    -0.918955    -5.857214
H        2.714021     0.812117    -6.093695
H        0.919304    -2.437819    -6.481299
H       -0.522260    -1.513921    -5.944094
H        0.011916    -2.459990    -3.953169
H        1.778866    -2.579334    -4.337159
H       -2.407777     2.619317    -2.818678
H       -3.228491     3.350498    -1.423628
H       -3.776724     1.757147    -2.093844
H       -2.631120     0.408430     4.129957
H       -4.446362     1.602894     2.972293
H       -4.155539     2.257629     0.458527
