45
ex_0444 frame0 T-4-1
Hg       0.000000     0.000000     0.000000
Cl       1.351000     1.351000     1.351000
Cl       1.351000    -1.351000    -1.351000
C       -1.425319     4.341978    -0.287399
C       -2.059302     4.805248    -1.524716
C       -1.174238     5.836006    -2.211422
N       -2.515979     3.894771    -2.482264
C       -3.164073     4.269883    -3.752896
C       -3.908019     3.076146    -4.240555
N       -3.409842     1.965751    -3.445096
C       -2.474238     2.474238    -2.474238
Se      -1.454923     1.454923    -1.454923
H       -0.441331     3.880558    -0.325912
H       -2.085756     3.630234     0.277169
H       -1.305096     5.213126     0.394220
H       -2.957270     5.405569    -1.209186
H       -0.776017     6.519674    -1.430898
H       -1.800451     6.375497    -2.979391
H       -0.363561     5.267474    -2.698319
H       -3.805860     5.161292    -3.654078
H       -2.319914     4.537040    -4.427130
H       -3.656349     2.885111    -5.321720
H       -5.011871     3.165468    -4.181105
H       -3.707049     0.976833    -3.586639
C       -4.411634    -0.543534     1.099527
C       -4.828714    -1.762247     1.798305
C       -5.723253    -2.601590     0.896823
N       -3.888138    -2.599954     2.404923
C       -4.216240    -3.843140     3.127471
C       -3.055653    -4.167447     4.001620
N       -1.972703    -3.321832     3.526153
C       -2.474238    -2.474238     2.474238
Se      -1.454923    -1.454923     1.454923
H       -3.866469    -0.619686     0.161646
H       -3.805242     0.129688     1.763268
H       -5.320159     0.049848     0.853691
H       -5.526252    -1.429527     2.616245
H       -6.429637    -1.915808     0.381144
H       -6.252206    -3.361217     1.541917
H       -5.051280    -3.100384     0.177690
H       -5.164079    -3.770572     3.686578
H       -4.356781    -4.601832     2.325471
H       -2.759631    -5.244809     3.858739
H       -3.243078    -4.029396     5.085970
H       -1.004655    -3.354855     3.911011
45
ex_0444 frame1 T-4-1-conf2
Hg       0.000000     0.000000     0.000000
Cl       1.351000     1.351000     1.351000
Cl       1.351000    -1.351000    -1.351000
C       -1.425319     4.341978    -0.287399
C       -2.059302     4.805248    -1.524716
C       -1.174238     5.836006    -2.211422
N       -2.515979     3.894771    -2.482264
C       -3.164073     4.269883    -3.752896
C       -3.908019     3.076146    -4.240555
N       -3.409842     1.965751    -3.445096
C       -2.474238     2.474238    -2.474238
Se      -1.454923     1.454923    -1.454923
H       -0.441331     3.880558    -0.325912
H       -2.085756     3.630234     0.277169
H       -1.305096     5.213126     0.394220
H       -2.957270     5.405569    -1.209186
H       -0.776017     6.519674    -1.430898
H       -1.800451     6.375497    -2.979391
H       -0.363561     5.267474    -2.698319
H       -3.805860     5.161292    -3.654078
H       -2.319914     4.537040    -4.427130
H       -3.656349     2.885111    -5.321720
H       -5.011871     3.165468    -4.181105
H       -3.707049     0.976833    -3.586639
C       -4.822577    -0.702969     4.618424
C       -3.357327    -0.791562     4.240090
C       -2.959223     0.262612     3.265656
N       -3.024890    -2.094087     3.768749
C       -3.170453    -3.318179     4.546420
C       -3.582627    -4.306333     3.469232
N       -2.952968    -3.824654     2.256931
C       -2.499477    -2.499477     2.499477
Se      -1.454923    -1.454923     1.454923
H       -5.413749    -0.161516     3.850766
H       -5.223402    -1.736777     4.614668
H       -4.973289    -0.289130     5.634208
H       -2.785165    -0.587634     5.188740
H       -3.382349     0.132644     2.257946
H       -1.859575     0.394958     3.270862
H       -3.370436     1.248913     3.631209
H       -2.182778    -3.547903     4.962489
H       -3.941777    -3.166394     5.298383
H       -3.222461    -5.331557     3.727033
H       -4.668613    -4.222343     3.354439
H       -2.848993    -4.349477     1.367643
45
ex_0444 frame2 T-4-1-conf3
Hg       0.000000     0.000000     0.000000
Cl       1.351000     1.351000     1.351000
Cl       1.351000    -1.351000    -1.351000
C       -4.894280     4.541569    -0.708121
C       -4.407055     3.114925    -0.866999
C       -3.479160     2.708354     0.225247
N       -3.827289     2.908687    -2.151750
C       -4.529965     3.089208    -3.415878
C       -3.421487     3.641952    -4.294753
N       -2.202106     3.061753    -3.770694
C       -2.499477     2.499477    -2.499477
Se      -1.454923     1.454923    -1.454923
H       -4.208711     5.142403    -0.074917
H       -4.850228     5.014659    -1.709960
H       -5.943584     4.594184    -0.358858
H       -5.323843     2.467624    -0.770072
H       -2.497872     3.205985     0.196206
H       -3.414526     1.604166     0.283214
H       -3.938180     3.022665     1.208113
H       -4.858074     2.094937    -3.740159
H       -5.343615     3.795804    -3.267135
H       -3.583886     3.339634    -5.357531
H       -3.390518     4.724383    -4.130495
H       -1.274628     3.055147    -4.236337
C       -4.411634    -0.543534     1.099527
C       -4.828714    -1.762247     1.798305
C       -5.723253    -2.601590     0.896823
N       -3.888138    -2.599954     2.404923
C       -4.216240    -3.843140     3.127471
C       -3.055653    -4.167447     4.001620
N       -1.972703    -3.321832     3.526153
C       -2.474238    -2.474238     2.474238
Se      -1.454923    -1.454923     1.454923
H       -3.866469    -0.619686     0.161646
H       -3.805242     0.129688     1.763268
H       -5.320159     0.049848     0.853691
H       -5.526252    -1.429527     2.616245
H       -6.429637    -1.915808     0.381144
H       -6.252206    -3.361217     1.541917
H       -5.051280    -3.100384     0.177690
H       -5.164079    -3.770572     3.686578
H       -4.356781    -4.601832     2.325471
H       -2.759631    -5.244809     3.858739
H       -3.243078    -4.029396     5.085970
H       -1.004655    -3.354855     3.911011
45
ex_0444 frame3 T-4-1-conf4
Hg       0.000000     0.000000     0.000000
Cl       1.351000     1.351000     1.351000
Cl       1.351000    -1.351000    -1.351000
C       -1.425319     4.341978    -0.287399
C       -2.059302     4.805248    -1.524716
C       -1.174238     5.836006    -2.211422
N       -2.515979     3.894771    -2.482264
C       -3.173543     4.294508    -3.770441
C       -3.914056     3.078686    -4.247992
N       -3.409842     1.965751    -3.445096
C       -2.466485     2.460656    -2.461747
Se      -1.454923     1.454923    -1.454923
H       -0.441331     3.880558    -0.325912
H       -2.085756     3.630234     0.277169
H       -1.305096     5.213126     0.394220
H       -2.957270     5.405569    -1.209186
H       -0.776017     6.519674    -1.430898
H       -1.800451     6.375497    -2.979391
H       -0.363561     5.267474    -2.698319
H       -3.805860     5.161292    -3.654078
H       -2.319914     4.537040    -4.427130
H       -3.656349     2.885111    -5.321720
H       -5.011871     3.165468    -4.181105
H       -3.707049     0.976833    -3.586639
C       -5.220282    -0.168855     3.145508
C       -4.781950    -1.294946     2.218181
C       -4.336583    -0.809697     0.872949
N       -3.827387    -2.175151     2.855726
C       -4.145517    -2.935071     4.081881
C       -3.459712    -4.266334     3.687005
N       -2.204417    -3.738776     3.107433
C       -2.474184    -2.479255     2.473794
Se      -1.454923    -1.454923     1.454923
H       -4.401223     0.598135     3.242400
H       -6.156461     0.228462     2.747191
H       -5.368739    -0.580415     4.142804
H       -5.733559    -1.872829     2.032065
H       -3.879030    -1.586420     0.249307
H       -3.725541     0.117080     0.926330
H       -5.276874    -0.478537     0.353682
H       -5.183882    -3.034985     4.272897
H       -3.514418    -2.549194     4.910444
H       -3.307290    -4.877279     4.562662
H       -4.104374    -4.694670     2.890877
H       -1.263457    -4.184484     3.133576
45
ex_0444 frame4 T-4-1-conf5
Hg       0.000000     0.000000     0.000000
Cl       1.351000     1.351000     1.351000
Cl       1.351000    -1.351000    -1.351000
C       -6.016143     2.492749    -1.635078
C       -4.852995     1.576388    -1.959596
C       -4.239878     0.984880    -0.737509
N       -3.883039     2.240435    -2.764253
C       -4.147170     2.806940    -4.080941
C       -3.261764     4.040671    -4.055757
N       -2.149753     3.687413    -3.197388
C       -2.499477     2.499477    -2.499477
Se      -1.454923     1.454923    -1.454923
H       -5.965074     2.868888    -0.592070
H       -5.908832     3.393955    -2.272060
H       -6.995663     2.032473    -1.868491
H       -5.293420     0.721677    -2.546442
H       -3.692919     1.704839    -0.109893
H       -3.647284     0.087051    -1.001144
H       -5.073567     0.598027    -0.081138
H       -3.807503     2.068943    -4.816723
H       -5.205600     3.047585    -4.153370
H       -2.909400     4.284578    -5.087074
H       -3.835443     4.838269    -3.571684
H       -1.255398     4.205747    -3.104967
C       -4.822577    -0.702969     4.618424
C       -3.357327    -0.791562     4.240090
C       -2.959223     0.262612     3.265656
N       -3.024890    -2.094087     3.768749
C       -3.170453    -3.318179     4.546420
C       -3.582627    -4.306333     3.469232
N       -2.952968    -3.824654     2.256931
C       -2.499477    -2.499477     2.499477
Se      -1.454923    -1.454923     1.454923
H       -5.413749    -0.161516     3.850766
H       -5.223402    -1.736777     4.614668
H       -4.973289    -0.289130     5.634208
H       -2.785165    -0.587634     5.188740
H       -3.382349     0.132644     2.257946
H       -1.859575     0.394958     3.270862
H       -3.370436     1.248913     3.631209
H       -2.182778    -3.547903     4.962489
H       -3.941777    -3.166394     5.298383
H       -3.222461    -5.331557     3.727033
H       -4.668613    -4.222343     3.354439
H       -2.848993    -4.349477     1.367643
45
ex_0444 frame5 T-4-1-conf6
Hg       0.000000     0.000000     0.000000
Cl       1.351000     1.351000     1.351000
Cl       1.351000    -1.351000    -1.351000
C       -1.425319     4.341978    -0.287399
C       -2.059302     4.805248    -1.524716
C       -1.174238     5.836006    -2.211422
N       -2.515979     3.894771    -2.482264
C       -3.164073     4.269883    -3.752896
C       -3.908019     3.076146    -4.240555
N       -3.409842     1.965751    -3.445096
C       -2.474238     2.474238    -2.474238
Se      -1.454923     1.454923    -1.454923
H       -0.441331     3.880558    -0.325912
H       -2.085756     3.630234     0.277169
H       -1.305096     5.213126     0.394220
H       -2.957270     5.405569    -1.209186
H       -0.776017     6.519674    -1.430898
H       -1.800451     6.375497    -2.979391
H       -0.363561     5.267474    -2.698319
H       -3.805860     5.161292    -3.654078
H       -2.319914     4.537040    -4.427130
H       -3.656349     2.885111    -5.321720
H       -5.011871     3.165468    -4.181105
H       -3.707049     0.976833    -3.586639
C       -5.780295    -1.518734     1.385486
C       -4.663581    -2.523584     1.064531
C       -3.903722    -1.916560    -0.063047
N       -3.871794    -2.723373     2.258714
C       -4.431763    -3.234573     3.495788
C       -3.312472    -3.383780     4.464145
N       -2.122369    -3.220516     3.664791
C       -2.492796    -2.492796     2.492796
Se      -1.454923    -1.454923     1.454923
H       -6.099845    -0.955439     0.483732
H       -5.390966    -0.776044     2.097215
H       -6.682445    -2.039156     1.761599
H       -5.186057    -3.435782     0.712462
H       -3.017695    -2.474686    -0.406038
H       -3.716573    -0.845994     0.165610
H       -4.595967    -1.914690    -0.944522
H       -4.902293    -4.228924     3.375364
H       -5.156046    -2.493291     3.925692
H       -3.293622    -2.543185     5.213152
H       -3.299057    -4.339989     4.997946
H       -1.138308    -3.548115     3.848092
45
ex_0444 frame6 T-4-1-conf7
Hg       0.000000     0.000000     0.000000
Cl       1.351000     1.351000     1.351000
Cl       1.351000    -1.351000    -1.351000
C       -4.269898     5.127569    -0.746503
C       -4.016265     3.633057    -0.739658
C       -2.989965     3.237336     0.265033
N       -3.684716     3.160898    -2.042112
C       -4.569928     3.283395    -3.216515
C       -3.539583     3.524378    -4.324623
N       -2.335623     2.825648    -3.873282
C       -2.485330     2.491655    -2.488855
Se      -1.454923     1.454923    -1.454923
H       -3.415133     5.691951    -0.318947
H       -4.322610     5.444504    -1.807733
H       -5.231945     5.395927    -0.268755
H       -4.986016     3.161251    -0.414273
H       -1.966928     3.561874     0.021152
H       -3.069935     2.155842     0.490298
H       -3.230101     3.805929     1.160772
H       -5.059837     2.312056    -3.321277
H       -5.223452     4.117666    -3.065436
H       -3.902790     3.100294    -5.277968
H       -3.325328     4.591913    -4.328154
H       -1.504994     2.605774    -4.455343
C       -5.220282    -0.168855     3.145508
C       -4.781950    -1.294946     2.218181
C       -4.315517    -0.849935     0.900221
N       -3.827387    -2.175151     2.855726
C       -4.138423    -2.933143     4.075056
C       -3.457510    -4.262328     3.684291
N       -2.204417    -3.738776     3.107433
C       -2.478833    -2.482222     2.478564
Se      -1.454923    -1.454923     1.454923
H       -4.401223     0.598135     3.242400
H       -6.156461     0.228462     2.747191
H       -5.368739    -0.580415     4.142804
H       -5.733559    -1.872829     2.032065
H       -3.587987    -0.010024     0.914297
H       -5.197337    -0.710352     0.226643
H       -3.847168    -1.697448     0.387333
H       -5.183882    -3.034985     4.272897
H       -3.514418    -2.549194     4.910444
H       -3.307290    -4.877279     4.562662
H       -4.104374    -4.694670     2.890877
H       -1.263457    -4.184484     3.133576
45
ex_0444 frame7 T-4-1-conf8
Hg       0.000000     0.000000     0.000000
Cl       1.351000     1.351000     1.351000
Cl       1.351000    -1.351000    -1.351000
C       -5.776721     1.363282    -1.394641
C       -4.716162     2.428893    -1.150022
C       -3.923920     2.194671     0.099362
N       -3.892878     2.645962    -2.319423
C       -4.442823     3.100089    -3.603709
C       -3.327592     4.100406    -3.976131
N       -2.143867     3.301370    -3.605390
C       -2.477799     2.481875    -2.479945
Se      -1.454923     1.454923    -1.454923
H       -5.307601     0.339354    -1.398533
H       -6.546969     1.496429    -0.631792
H       -6.190725     1.510059    -2.391174
H       -5.317616     3.364290    -0.956546
H       -3.062806     2.863595     0.211646
H       -3.663389     1.125395     0.253995
H       -4.631589     2.420473     0.942968
H       -5.409315     3.550856    -3.531593
H       -4.333420     2.287257    -4.353380
H       -3.377092     4.339095    -5.031045
H       -3.460473     4.953235    -3.276214
H       -1.208225     3.310479    -4.062813
C       -4.822577    -0.702969     4.618424
C       -3.357327    -0.791562     4.240090
C       -2.959223     0.262612     3.265656
N       -3.024890    -2.094087     3.768749
C       -3.177053    -3.326232     4.566554
C       -3.591155    -4.320560     3.476868
N       -2.952968    -3.824654     2.256931
C       -2.491912    -2.488337     2.485592
Se      -1.454923    -1.454923     1.454923
H       -5.413749    -0.161516     3.850766
H       -5.223402    -1.736777     4.614668
H       -4.973289    -0.289130     5.634208
H       -2.785165    -0.587634     5.188740
H       -3.382349     0.132644     2.257946
H       -1.859575     0.394958     3.270862
H       -3.370436     1.248913     3.631209
H       -2.182778    -3.547903     4.962489
H       -3.941777    -3.166394     5.298383
H       -3.222461    -5.331557     3.727033
H       -4.668613    -4.222343     3.354439
H       -2.848993    -4.349477     1.367643
45
ex_0444 frame8 T-4-1-conf9
Hg       0.000000     0.000000     0.000000
Cl       1.351000     1.351000     1.351000
Cl       1.351000    -1.351000    -1.351000
C       -5.415556     3.876500    -0.851914
C       -4.688076     2.575081    -1.125822
C       -3.866697     2.130242     0.034671
N       -3.910933     2.660149    -2.316644
C       -4.452133     2.942805    -3.640113
C       -3.336362     3.777354    -4.244476
N       -2.123750     3.294434    -3.616370
C       -2.499477     2.499477    -2.499477
Se      -1.454923     1.454923    -1.454923
H       -4.929594     4.456532    -0.039905
H       -5.310247     4.506008    -1.758591
H       -6.497708     3.726884    -0.672035
H       -5.493344     1.800318    -1.267878
H       -2.983702     2.756726     0.232777
H       -3.633995     1.050741    -0.050743
H       -4.501532     2.216003     0.964802
H       -4.568148     1.977958    -4.147063
H       -5.381449     3.497093    -3.528013
H       -3.299724     3.630362    -5.350964
H       -3.502817     4.813061    -3.929517
H       -1.151986     3.490906    -3.923220
C       -5.780295    -1.518734     1.385486
C       -4.663581    -2.523584     1.064531
C       -3.903722    -1.916560    -0.063047
N       -3.871794    -2.723373     2.258714
C       -4.431763    -3.234573     3.495788
C       -3.312472    -3.383780     4.464145
N       -2.122369    -3.220516     3.664791
C       -2.492796    -2.492796     2.492796
Se      -1.454923    -1.454923     1.454923
H       -6.099845    -0.955439     0.483732
H       -5.390966    -0.776044     2.097215
H       -6.682445    -2.039156     1.761599
H       -5.186057    -3.435782     0.712462
H       -3.017695    -2.474686    -0.406038
H       -3.716573    -0.845994     0.165610
H       -4.595967    -1.914690    -0.944522
H       -4.902293    -4.228924     3.375364
H       -5.156046    -2.493291     3.925692
H       -3.293622    -2.543185     5.213152
H       -3.299057    -4.339989     4.997946
H       -1.138308    -3.548115     3.848092
45
ex_0444 frame9 T-4-1-conf10
Hg       0.000000     0.000000     0.000000
Cl       1.351000     1.351000     1.351000
Cl       1.351000    -1.351000    -1.351000
C       -5.681507     2.068577    -0.784560
C       -4.458578     2.973232    -0.863267
C       -3.515787     2.789452     0.286010
N       -3.812050     2.891536    -2.154678
C       -4.493297     3.246448    -3.406876
C       -3.325166     3.993306    -4.085657
N       -2.219044     3.073282    -3.758301
C       -2.477581     2.481486    -2.480551
Se      -1.454923     1.454923    -1.454923
H       -5.365045     0.991943    -0.688501
H       -6.293217     2.427873     0.045901
H       -6.226071     2.140994    -1.724894
H       -4.886110     4.010800    -0.741543
H       -2.644108     3.332035     0.179642
H       -3.383948     1.723926     0.573084
H       -4.040563     3.240386     1.171854
H       -5.364001     3.852333    -3.275431
H       -4.619145     2.330982    -4.023929
H       -3.510201     4.088879    -5.148151
H       -3.224739     4.944766    -3.520417
H       -1.376945     2.868588    -4.335983
C       -5.220282    -0.168855     3.145508
C       -4.781950    -1.294946     2.218181
C       -4.336583    -0.809697     0.872949
N       -3.827387    -2.175151     2.855726
C       -4.138423    -2.933143     4.075056
C       -3.457510    -4.262328     3.684291
N       -2.204417    -3.738776     3.107433
C       -2.478833    -2.482222     2.478564
Se      -1.454923    -1.454923     1.454923
H       -4.401223     0.598135     3.242400
H       -6.156461     0.228462     2.747191
H       -5.368739    -0.580415     4.142804
H       -5.733559    -1.872829     2.032065
H       -3.946455    -1.589269     0.295544
H       -3.725541     0.117080     0.926330
H       -5.276874    -0.478537     0.353682
H       -5.183882    -3.034985     4.272897
H       -3.514418    -2.549194     4.910444
H       -3.307290    -4.877279     4.562662
H       -4.104374    -4.694670     2.890877
H       -1.263457    -4.184484     3.133576
45
ex_0444 frame10 T-4-1-reembed1
Hg       0.000000     0.000000     0.000000
Cl       1.351000     1.351000     1.351000
Cl       1.351000    -1.351000    -1.351000
C        0.018807     4.129934    -4.417922
C       -0.753307     4.220826    -3.116616
C       -0.950568     5.687489    -2.734273
N       -2.033778     3.591743    -3.261776
C       -3.073959     3.956096    -4.194370
C       -4.327210     3.555033    -3.450727
N       -3.896475     2.386560    -2.706365
C       -2.476451     2.476451    -2.476451
Se      -1.454923     1.454923    -1.454923
H        0.603729     5.054143    -4.568778
H        0.664066     3.211717    -4.437296
H       -0.650077     4.034759    -5.304891
H       -0.151034     3.764749    -2.326853
H       -1.804754     5.777142    -2.055493
H        0.002582     6.063366    -2.280343
H       -1.128231     6.225154    -3.686989
H       -3.148114     5.056952    -4.357557
H       -2.905572     3.400179    -5.121934
H       -5.088198     3.240300    -4.163866
H       -4.628578     4.370138    -2.768671
H       -4.523381     1.614076    -2.394459
C       -3.715687    -4.771441     0.041920
C       -3.989958    -3.423009     0.677783
C       -5.496029    -3.164562     0.711740
N       -3.473762    -3.398090     2.015446
C       -3.852830    -4.268101     3.103494
C       -3.636483    -3.385341     4.311146
N       -2.500902    -2.574255     3.914243
C       -2.476451    -2.476451     2.476451
Se      -1.454923    -1.454923     1.454923
H       -4.564531    -5.058022    -0.603362
H       -2.742677    -4.759789    -0.517520
H       -3.608009    -5.584899     0.796818
H       -3.548776    -2.648495     0.045365
H       -5.723380    -2.426443     1.487566
H       -5.818294    -2.831366    -0.308534
H       -5.964291    -4.144786     0.931297
H       -4.937712    -4.526967     3.097944
H       -3.206055    -5.150379     3.071252
H       -3.334589    -3.997864     5.159911
H       -4.531770    -2.759506     4.476110
H       -1.820307    -2.138577     4.573032
45
ex_0444 frame11 T-4-1-reembed2
Hg       0.000000     0.000000     0.000000
Cl       1.351000     1.351000     1.351000
Cl       1.351000    -1.351000    -1.351000
C       -4.129934     4.417922     0.018807
C       -4.220826     3.116616    -0.753307
C       -5.687489     2.734273    -0.950568
N       -3.591743     3.261776    -2.033778
C       -3.956096     4.194370    -3.073959
C       -3.555033     3.450727    -4.327210
N       -2.386560     2.706365    -3.896475
C       -2.476451     2.476451    -2.476451
Se      -1.454923     1.454923    -1.454923
H       -5.054143     4.568778     0.603729
H       -3.211717     4.437296     0.664066
H       -4.034759     5.304891    -0.650077
H       -3.764749     2.326853    -0.151034
H       -5.777142     2.055493    -1.804754
H       -6.063366     2.280343     0.002582
H       -6.225154     3.686989    -1.128231
H       -5.056952     4.357557    -3.148114
H       -3.400179     5.121934    -2.905572
H       -3.240300     4.163866    -5.088198
H       -4.370138     2.768671    -4.628578
H       -1.614076     2.394459    -4.523381
C       -3.715687    -4.771441     0.041920
C       -3.989958    -3.423009     0.677783
C       -5.496029    -3.164562     0.711740
N       -3.473762    -3.398090     2.015446
C       -3.852830    -4.268101     3.103494
C       -3.636483    -3.385341     4.311146
N       -2.500902    -2.574255     3.914243
C       -2.476451    -2.476451     2.476451
Se      -1.454923    -1.454923     1.454923
H       -4.564531    -5.058022    -0.603362
H       -2.742677    -4.759789    -0.517520
H       -3.608009    -5.584899     0.796818
H       -3.548776    -2.648495     0.045365
H       -5.723380    -2.426443     1.487566
H       -5.818294    -2.831366    -0.308534
H       -5.964291    -4.144786     0.931297
H       -4.937712    -4.526967     3.097944
H       -3.206055    -5.150379     3.071252
H       -3.334589    -3.997864     5.159911
H       -4.531770    -2.759506     4.476110
H       -1.820307    -2.138577     4.573032
45
ex_0444 frame12 T-4-1-reembed3
Hg       0.000000     0.000000     0.000000
Cl       1.351000     1.351000     1.351000
Cl       1.351000    -1.351000    -1.351000
C       -4.417922    -0.018807    -4.129934
C       -3.116616     0.753307    -4.220826
C       -2.734273     0.950568    -5.687489
N       -3.261776     2.033778    -3.591743
C       -4.194370     3.073959    -3.956096
C       -3.450727     4.327210    -3.555033
N       -2.706365     3.896475    -2.386560
C       -2.476451     2.476451    -2.476451
Se      -1.454923     1.454923    -1.454923
H       -4.568778    -0.603729    -5.054143
H       -4.437296    -0.664066    -3.211717
H       -5.304891     0.650077    -4.034759
H       -2.326853     0.151034    -3.764749
H       -2.055493     1.804754    -5.777142
H       -2.280343    -0.002582    -6.063366
H       -3.686989     1.128231    -6.225154
H       -4.357557     3.148114    -5.056952
H       -5.121934     2.905572    -3.400179
H       -4.163866     5.088198    -3.240300
H       -2.768671     4.628578    -4.370138
H       -2.394459     4.523381    -1.614076
C       -3.715687    -4.771441     0.041920
C       -3.989958    -3.423009     0.677783
C       -5.496029    -3.164562     0.711740
N       -3.473762    -3.398090     2.015446
C       -3.852830    -4.268101     3.103494
C       -3.636483    -3.385341     4.311146
N       -2.500902    -2.574255     3.914243
C       -2.476451    -2.476451     2.476451
Se      -1.454923    -1.454923     1.454923
H       -4.564531    -5.058022    -0.603362
H       -2.742677    -4.759789    -0.517520
H       -3.608009    -5.584899     0.796818
H       -3.548776    -2.648495     0.045365
H       -5.723380    -2.426443     1.487566
H       -5.818294    -2.831366    -0.308534
H       -5.964291    -4.144786     0.931297
H       -4.937712    -4.526967     3.097944
H       -3.206055    -5.150379     3.071252
H       -3.334589    -3.997864     5.159911
H       -4.531770    -2.759506     4.476110
H       -1.820307    -2.138577     4.573032
45
ex_0444 frame13 T-4-1-reembed4
Hg       0.000000     0.000000     0.000000
Cl       1.351000     1.351000     1.351000
Cl       1.351000    -1.351000    -1.351000
C       -3.075761     0.229101    -5.222069
C       -2.200432     1.370443    -4.775913
C       -1.744276     2.158347    -6.011034
N       -2.894485     2.221189    -3.845952
C       -4.123724     2.972110    -4.047733
C       -3.758632     4.274556    -3.356664
N       -3.097817     3.756866    -2.166242
C       -2.505437     2.505437    -2.505437
Se      -1.454923     1.454923    -1.454923
H       -3.553239     0.421983    -6.214143
H       -3.920009     0.035936    -4.524780
H       -2.493836    -0.738411    -5.253839
H       -1.320015     0.935796    -4.293230
H       -1.208260     1.497457    -6.685243
H       -1.057384     2.967128    -5.626033
H       -2.588103     2.658158    -6.484272
H       -4.396426     3.120258    -5.096575
H       -4.909264     2.464429    -3.450623
H       -3.033341     4.789748    -4.027023
H       -4.645073     4.885379    -3.130176
H       -3.029436     4.165836    -1.216899
C       -3.715687    -4.771441     0.041920
C       -3.989958    -3.423009     0.677783
C       -5.496029    -3.164562     0.711740
N       -3.473762    -3.398090     2.015446
C       -3.852830    -4.268101     3.103494
C       -3.636483    -3.385341     4.311146
N       -2.500902    -2.574255     3.914243
C       -2.476451    -2.476451     2.476451
Se      -1.454923    -1.454923     1.454923
H       -4.564531    -5.058022    -0.603362
H       -2.742677    -4.759789    -0.517520
H       -3.608009    -5.584899     0.796818
H       -3.548776    -2.648495     0.045365
H       -5.723380    -2.426443     1.487566
H       -5.818294    -2.831366    -0.308534
H       -5.964291    -4.144786     0.931297
H       -4.937712    -4.526967     3.097944
H       -3.206055    -5.150379     3.071252
H       -3.334589    -3.997864     5.159911
H       -4.531770    -2.759506     4.476110
H       -1.820307    -2.138577     4.573032
45
ex_0444 frame14 T-4-1-reembed5
Hg       0.000000     0.000000     0.000000
Cl       1.351000     1.351000     1.351000
Cl       1.351000    -1.351000    -1.351000
C       -0.229101     5.222069    -3.075761
C       -1.370443     4.775913    -2.200432
C       -2.158347     6.011034    -1.744276
N       -2.221189     3.845952    -2.894485
C       -2.972110     4.047733    -4.123724
C       -4.274556     3.356664    -3.758632
N       -3.756866     2.166242    -3.097817
C       -2.505437     2.505437    -2.505437
Se      -1.454923     1.454923    -1.454923
H       -0.421983     6.214143    -3.553239
H       -0.035936     4.524780    -3.920009
H        0.738411     5.253839    -2.493836
H       -0.935796     4.293230    -1.320015
H       -1.497457     6.685243    -1.208260
H       -2.967128     5.626033    -1.057384
H       -2.658158     6.484272    -2.588103
H       -3.120258     5.096575    -4.396426
H       -2.464429     3.450623    -4.909264
H       -4.789748     4.027023    -3.033341
H       -4.885379     3.130176    -4.645073
H       -4.165836     1.216899    -3.029436
C       -3.715687    -4.771441     0.041920
C       -3.989958    -3.423009     0.677783
C       -5.496029    -3.164562     0.711740
N       -3.473762    -3.398090     2.015446
C       -3.852830    -4.268101     3.103494
C       -3.636483    -3.385341     4.311146
N       -2.500902    -2.574255     3.914243
C       -2.476451    -2.476451     2.476451
Se      -1.454923    -1.454923     1.454923
H       -4.564531    -5.058022    -0.603362
H       -2.742677    -4.759789    -0.517520
H       -3.608009    -5.584899     0.796818
H       -3.548776    -2.648495     0.045365
H       -5.723380    -2.426443     1.487566
H       -5.818294    -2.831366    -0.308534
H       -5.964291    -4.144786     0.931297
H       -4.937712    -4.526967     3.097944
H       -3.206055    -5.150379     3.071252
H       -3.334589    -3.997864     5.159911
H       -4.531770    -2.759506     4.476110
H       -1.820307    -2.138577     4.573032
45
ex_0444 frame15 T-4-1-reembed6
Hg       0.000000     0.000000     0.000000
Cl       1.351000     1.351000     1.351000
Cl       1.351000    -1.351000    -1.351000
C       -5.222069     3.075761    -0.229101
C       -4.775913     2.200432    -1.370443
C       -6.011034     1.744276    -2.158347
N       -3.845952     2.894485    -2.221189
C       -4.047733     4.123724    -2.972110
C       -3.356664     3.758632    -4.274556
N       -2.166242     3.097817    -3.756866
C       -2.505437     2.505437    -2.505437
Se      -1.454923     1.454923    -1.454923
H       -6.214143     3.553239    -0.421983
H       -4.524780     3.920009    -0.035936
H       -5.253839     2.493836     0.738411
H       -4.293230     1.320015    -0.935796
H       -6.685243     1.208260    -1.497457
H       -5.626033     1.057384    -2.967128
H       -6.484272     2.588103    -2.658158
H       -5.096575     4.396426    -3.120258
H       -3.450623     4.909264    -2.464429
H       -4.027023     3.033341    -4.789748
H       -3.130176     4.645073    -4.885379
H       -1.216899     3.029436    -4.165836
C       -3.715687    -4.771441     0.041920
C       -3.989958    -3.423009     0.677783
C       -5.496029    -3.164562     0.711740
N       -3.473762    -3.398090     2.015446
C       -3.852830    -4.268101     3.103494
C       -3.636483    -3.385341     4.311146
N       -2.500902    -2.574255     3.914243
C       -2.476451    -2.476451     2.476451
Se      -1.454923    -1.454923     1.454923
H       -4.564531    -5.058022    -0.603362
H       -2.742677    -4.759789    -0.517520
H       -3.608009    -5.584899     0.796818
H       -3.548776    -2.648495     0.045365
H       -5.723380    -2.426443     1.487566
H       -5.818294    -2.831366    -0.308534
H       -5.964291    -4.144786     0.931297
H       -4.937712    -4.526967     3.097944
H       -3.206055    -5.150379     3.071252
H       -3.334589    -3.997864     5.159911
H       -4.531770    -2.759506     4.476110
H       -1.820307    -2.138577     4.573032
45
ex_0444 frame16 T-4-1-reembed7
Hg       0.000000     0.000000     0.000000
Cl       1.351000     1.351000     1.351000
Cl       1.351000    -1.351000    -1.351000
C       -5.473677     3.253748    -0.640675
C       -3.984376     3.491037    -0.679157
C       -3.747609     4.920923    -0.212066
N       -3.468880     3.400337    -2.027319
C       -3.883524     4.240696    -3.134047
C       -3.067112     3.781562    -4.307459
N       -2.453048     2.521693    -3.897291
C       -2.481940     2.481940    -2.481940
Se      -1.454923     1.454923    -1.454923
H       -5.892152     3.724317     0.261903
H       -5.675039     2.166112    -0.569485
H       -5.946686     3.621887    -1.553984
H       -3.447773     2.831134     0.006534
H       -2.646677     5.063764    -0.220663
H       -4.165070     5.047119     0.803113
H       -4.248574     5.631342    -0.924335
H       -4.960906     4.266931    -3.295273
H       -3.550074     5.291609    -2.912979
H       -2.217057     4.466361    -4.533057
H       -3.681505     3.663212    -5.205086
H       -2.086826     1.834486    -4.581396
C       -3.715687    -4.771441     0.041920
C       -3.989958    -3.423009     0.677783
C       -5.496029    -3.164562     0.711740
N       -3.473762    -3.398090     2.015446
C       -3.852830    -4.268101     3.103494
C       -3.636483    -3.385341     4.311146
N       -2.500902    -2.574255     3.914243
C       -2.476451    -2.476451     2.476451
Se      -1.454923    -1.454923     1.454923
H       -4.564531    -5.058022    -0.603362
H       -2.742677    -4.759789    -0.517520
H       -3.608009    -5.584899     0.796818
H       -3.548776    -2.648495     0.045365
H       -5.723380    -2.426443     1.487566
H       -5.818294    -2.831366    -0.308534
H       -5.964291    -4.144786     0.931297
H       -4.937712    -4.526967     3.097944
H       -3.206055    -5.150379     3.071252
H       -3.334589    -3.997864     5.159911
H       -4.531770    -2.759506     4.476110
H       -1.820307    -2.138577     4.573032
45
ex_0444 frame17 T-4-1-reembed8
Hg       0.000000     0.000000     0.000000
Cl       1.351000     1.351000     1.351000
Cl       1.351000    -1.351000    -1.351000
C       -3.253748     0.640675    -5.473677
C       -3.491037     0.679157    -3.984376
C       -4.920923     0.212066    -3.747609
N       -3.400337     2.027319    -3.468880
C       -4.240696     3.134047    -3.883524
C       -3.781562     4.307459    -3.067112
N       -2.521693     3.897291    -2.453048
C       -2.481940     2.481940    -2.481940
Se      -1.454923     1.454923    -1.454923
H       -3.724317    -0.261903    -5.892152
H       -2.166112     0.569485    -5.675039
H       -3.621887     1.553984    -5.946686
H       -2.831134    -0.006534    -3.447773
H       -5.063764     0.220663    -2.646677
H       -5.047119    -0.803113    -4.165070
H       -5.631342     0.924335    -4.248574
H       -4.266931     3.295273    -4.960906
H       -5.291609     2.912979    -3.550074
H       -4.466361     4.533057    -2.217057
H       -3.663212     5.205086    -3.681505
H       -1.834486     4.581396    -2.086826
C       -3.715687    -4.771441     0.041920
C       -3.989958    -3.423009     0.677783
C       -5.496029    -3.164562     0.711740
N       -3.473762    -3.398090     2.015446
C       -3.852830    -4.268101     3.103494
C       -3.636483    -3.385341     4.311146
N       -2.500902    -2.574255     3.914243
C       -2.476451    -2.476451     2.476451
Se      -1.454923    -1.454923     1.454923
H       -4.564531    -5.058022    -0.603362
H       -2.742677    -4.759789    -0.517520
H       -3.608009    -5.584899     0.796818
H       -3.548776    -2.648495     0.045365
H       -5.723380    -2.426443     1.487566
H       -5.818294    -2.831366    -0.308534
H       -5.964291    -4.144786     0.931297
H       -4.937712    -4.526967     3.097944
H       -3.206055    -5.150379     3.071252
H       -3.334589    -3.997864     5.159911
H       -4.531770    -2.759506     4.476110
H       -1.820307    -2.138577     4.573032
45
ex_0444 frame18 SP-4-1
Hg       0.000000     0.000000     0.000000
Cl       2.340000     0.000000     0.000000
Cl       0.000000     2.340000     0.000000
C       -3.495680     2.690485    -1.228176
C       -4.843545     2.120362    -1.303853
C       -5.324131     2.104562    -2.748205
N       -5.134384     0.884224    -0.719218
C       -6.458732     0.235673    -0.746141
C       -6.480595    -0.773503     0.348098
N       -5.092627    -0.926056     0.753296
C       -4.285507     0.000000     0.000000
Se      -2.520000     0.000000     0.000000
H       -2.683409     2.229667    -1.785390
H       -3.140105     2.778102    -0.166394
H       -3.535694     3.739228    -1.597626
H       -5.526411     2.868034    -0.812966
H       -5.038299     3.071963    -3.214718
H       -6.440539     1.941593    -2.741358
H       -4.808955     1.257700    -3.232882
H       -7.286870     0.960454    -0.674416
H       -6.514869    -0.239897    -1.750755
H       -6.849210    -1.760466    -0.050372
H       -7.135151    -0.510685     1.203951
H       -4.774987    -1.606996     1.475619
C       -2.926103    -3.495680     0.430168
C       -2.488518    -4.843545     0.056957
C       -3.259773    -5.324131    -1.164340
N       -1.133072    -5.134384    -0.123595
C       -0.603155    -6.458732    -0.498470
C        0.838528    -6.480595    -0.127867
N        1.186705    -5.092627     0.129486
C        0.000000    -4.285507     0.000000
Se       0.000000    -2.520000     0.000000
H       -2.458483    -2.990986     1.272332
H       -4.033598    -3.453399     0.612264
H       -2.758693    -2.818480    -0.436626
H       -2.849651    -5.526411     0.875228
H       -4.325423    -5.038299    -1.030578
H       -3.119222    -6.440539    -1.247111
H       -2.811986    -4.808955    -2.031274
H       -1.172741    -7.286870    -0.044572
H       -0.749525    -6.514869    -1.600284
H        1.450773    -6.849210    -0.998517
H        1.082729    -7.135151     0.733482
H        2.150780    -4.774987     0.366104
45
ex_0444 frame19 SP-4-2
Hg       0.000000     0.000000     0.000000
Cl       2.340000     0.000000     0.000000
C       -1.942112     3.495680     2.230544
C       -1.391700     4.843545     2.063768
C       -0.780230     5.324131     3.372396
N       -0.507814     5.134384     1.020417
C        0.093855     6.458732     0.776826
C        0.560415     6.480595    -0.636722
N        0.531817     5.092627    -1.068740
C        0.000000     4.285507     0.000000
Se       0.000000     2.520000     0.000000
H       -1.292165     2.683409     2.547419
H       -2.460824     3.140105     1.299955
H       -2.744321     3.535694     3.000490
H       -2.275424     5.526411     1.925871
H       -1.468248     5.038299     4.197097
H       -0.634668     6.440539     3.298791
H        0.191245     4.808955     3.463634
H       -0.595747     7.286870     1.011136
H        0.942187     6.514869     1.494984
H        1.623821     6.849210    -0.681896
H       -0.032697     7.135151    -1.307375
H        0.853246     4.774987    -2.007948
Cl      -2.340000     0.000000     0.000000
C       -2.926103    -3.495680     0.430168
C       -2.488518    -4.843545     0.056957
C       -3.259773    -5.324131    -1.164340
N       -1.133072    -5.134384    -0.123595
C       -0.603155    -6.458732    -0.498470
C        0.838528    -6.480595    -0.127867
N        1.186705    -5.092627     0.129486
C        0.000000    -4.285507     0.000000
Se       0.000000    -2.520000     0.000000
H       -2.841848    -2.683409    -0.287983
H       -2.422946    -3.140105     1.369259
H       -4.007327    -3.535694     0.689610
H       -2.849651    -5.526411     0.875228
H       -4.325423    -5.038299    -1.030578
H       -3.119222    -6.440539    -1.247111
H       -2.811986    -4.808955    -2.031274
H       -1.172741    -7.286870    -0.044572
H       -0.749525    -6.514869    -1.600284
H        1.450773    -6.849210    -0.998517
H        1.082729    -7.135151     0.733482
H        2.150780    -4.774987     0.366104
