96
ex_0323 frame0 As-trans-conf13-2
O        3.162558     0.000000     0.000000
C        2.020000     0.000000     0.000000
Ru       0.000000     0.000000     0.000000
Cl       0.060365     2.406538    -0.020097
As       0.000000     0.000000     2.650000
C        1.472252    -0.908782     3.549102
C        2.337930    -1.727100     2.809072
C        3.388277    -2.394305     3.437648
C        3.584258    -2.240666     4.811069
C        2.725728    -1.421079     5.553514
C        1.671515    -0.751482     4.923141
C        0.083151     1.790676     3.446468
C       -0.771918     2.173540     4.492960
C       -0.737877     3.485513     4.975335
C        0.165077     4.407759     4.439227
C        1.047019     4.014827     3.430473
C        1.020714     2.703739     2.953984
C       -1.513276    -0.873980     3.561490
C       -2.764987    -0.242108     3.602162
C       -3.845086    -0.856177     4.242759
C       -3.683378    -2.107559     4.842572
C       -2.441052    -2.746597     4.800737
C       -1.353347    -2.128174     4.174097
As       0.000000     0.000000    -2.650000
C        0.089586     1.770201    -3.499140
C       -0.861589     2.185768    -4.446033
C       -0.782940     3.467494    -4.997918
C        0.252181     4.329785    -4.627116
C        1.212077     3.911563    -3.702925
C        1.132663     2.635061    -3.145608
C        1.514188    -0.926465    -3.523938
C        2.368045    -0.243245    -4.406220
C        3.444400    -0.907983    -5.000467
C        3.667119    -2.260956    -4.736509
C        2.817093    -2.951199    -3.869373
C        1.745241    -2.287297    -3.263370
C       -1.591773    -0.840828    -3.476047
C       -1.498597    -2.071661    -4.145424
C       -2.639178    -2.659837    -4.700136
C       -3.874089    -2.013423    -4.618417
C       -3.974004    -0.782107    -3.967318
C       -2.838993    -0.199535    -3.394308
S       -0.037794    -2.351810     0.027030
C       -1.870782    -2.465623    -0.076195
N       -2.481715    -3.736967    -0.172955
C       -1.795287    -4.970621    -0.210503
C       -0.807825    -5.287689     0.743021
C       -0.151944    -6.519267     0.679093
C       -0.478482    -7.432425    -0.328172
C       -1.457818    -7.115113    -1.273507
C       -2.110515    -5.885061    -1.218416
Cl      -3.332090    -5.485790    -2.420275
C       -2.645729    -1.361770    -0.065457
C       -4.122555    -1.479536    -0.120948
C       -4.867676    -0.369932    -0.131238
C       -4.234976     0.964110    -0.058040
C       -2.902299     1.087432     0.000194
N       -2.060030    -0.059115    -0.000505
H        2.193320    -1.873553     1.751976
H        4.044391    -3.033168     2.858920
H        4.397685    -2.760773     5.298281
H        2.875045    -1.307277     6.617650
H        1.006565    -0.124409     5.500596
H       -1.488133     1.495847     4.922052
H       -1.421878     3.790541     5.756482
H        0.179434     5.426472     4.802387
H        1.741686     4.727375     3.005844
H        1.694395     2.412315     2.159439
H       -2.904773     0.722420     3.131959
H       -4.808154    -0.363077     4.271932
H       -4.522267    -2.584765     5.333155
H       -2.322708    -3.723674     5.251641
H       -0.407033    -2.648549     4.142665
H       -1.670951     1.553784    -4.761168
H       -1.528363     3.792858    -5.711913
H        0.309830     5.321315    -5.055000
H        2.014802     4.575990    -3.412733
H        1.873675     2.318587    -2.422479
H        2.231133     0.798796    -4.634633
H        4.107547    -0.370970    -5.666130
H        4.499934    -2.772243    -5.201960
H        2.991279    -4.000089    -3.665493
H        1.101341    -2.834688    -2.588984
H       -0.571249    -2.604276    -4.225962
H       -2.564568    -3.620703    -5.192757
H       -4.752823    -2.469190    -5.056432
H       -4.931488    -0.280799    -3.905369
H       -2.932784     0.751108    -2.886416
H       -0.548690    -4.596754     1.536682
H        0.606391    -6.766417     1.411109
H        0.025648    -8.386823    -0.377621
H       -1.707739    -7.817748    -2.055716
H       -4.610072    -2.446080    -0.178517
H       -5.946691    -0.451595    -0.195092
H       -4.862772     1.850390    -0.056874
H       -2.488254     2.081744     0.048336
96
ex_0323 frame1 As-trans-conf13
O        3.162558     0.000000     0.000000
C        2.020000     0.000000     0.000000
Ru       0.000000     0.000000     0.000000
Cl      -0.054200     2.400643     0.009416
As       0.000000     0.000000     2.650000
C        1.478365    -0.886214     3.590747
C        2.369598    -1.677876     2.867652
C        3.410727    -2.353720     3.492744
C        3.584798    -2.221318     4.867759
C        2.711026    -1.411596     5.606985
C        1.655365    -0.739584     4.970175
C        0.087898     1.791177     3.453594
C       -0.771419     2.175223     4.496579
C       -0.736103     3.486325     4.982060
C        0.172596     4.407006     4.453433
C        1.061046     4.012794     3.450824
C        1.033002     2.702544     2.969757
C       -1.511645    -0.871765     3.564131
C       -2.764317    -0.241516     3.603106
C       -3.842715    -0.854597     4.246758
C       -3.677531    -2.102508     4.852737
C       -2.434824    -2.740261     4.811450
C       -1.349325    -2.123222     4.180483
As       0.000000     0.000000    -2.650000
C        0.094146     1.773209    -3.501173
C       -0.852337     2.188271    -4.453962
C       -0.773789     3.469943    -5.005504
C        0.257843     4.333808    -4.630524
C        1.214849     3.916789    -3.702558
C        1.134796     2.640032    -3.143401
C        1.513863    -0.922527    -3.534007
C        2.370830    -0.236925    -4.411788
C        3.448242    -0.903059    -5.005204
C        3.669859    -2.256944    -4.742143
C        2.814481    -2.948182    -3.882528
C        1.740515    -2.284220    -3.284074
C       -1.584298    -0.839228    -3.496957
C       -1.489896    -2.073300    -4.161793
C       -2.629787    -2.662187    -4.719246
C       -3.863048    -2.012082    -4.649228
C       -3.960616    -0.774906    -4.012848
C       -2.827592    -0.192602    -3.434536
S       -2.351136    -0.046709     0.002108
C       -2.478215    -1.855703     0.089886
N       -3.754131    -2.467713     0.185465
C       -4.995340    -1.794618     0.208070
C       -5.296521    -0.790526    -0.725945
C       -6.528087    -0.138418    -0.682509
C       -7.461014    -0.483623     0.297924
C       -7.163748    -1.485241     1.227461
C       -5.933663    -2.140620     1.181717
Cl      -5.567273    -3.401548     2.350748
C       -1.375068    -2.634297     0.067722
C       -1.500535    -4.121771     0.119595
C       -0.396252    -4.874039     0.108664
C        0.937029    -4.248099     0.006185
C        1.063830    -2.914220    -0.057051
N       -0.108283    -2.059411    -0.003731
H        2.248165    -1.789689     1.824670
H        4.073930    -2.979882     2.906545
H        4.394754    -2.748054     5.353998
H        2.851238    -1.311568     6.673026
H        0.978674    -0.124928     5.545799
H       -1.491541     1.499059     4.921042
H       -1.423969     3.792421     5.759556
H        0.186304     5.425580     4.817856
H        1.761353     4.724767     3.034248
H        1.711740     2.411069     2.179144
H       -2.906095     0.720671     3.128553
H       -4.807416    -0.364437     4.272460
H       -4.515399    -2.579633     5.344919
H       -2.314532    -3.715426     5.265646
H       -0.401811    -2.641479     4.149567
H       -1.658807     1.557147    -4.775551
H       -1.516942     3.793908    -5.722759
H        0.314801     5.325521    -5.058595
H        2.015446     4.583320    -3.411203
H        1.873733     2.325495    -2.417506
H        2.236174     0.805865    -4.638046
H        4.114088    -0.367000    -5.668651
H        4.504173    -2.769308    -5.203489
H        2.984099    -3.997902    -3.678537
H        1.088262    -2.832953    -2.624905
H       -0.565985    -2.611220    -4.234399
H       -2.557085    -3.627237    -5.203435
H       -4.743354    -2.468956    -5.082675
H       -4.917655    -0.271587    -3.955801
H       -2.922262     0.759373    -2.927529
H       -4.591336    -0.514349    -1.485528
H       -6.756070     0.633142    -1.407391
H       -8.414052     0.023218     0.337262
H       -7.882170    -1.750050     1.989151
H       -2.468456    -4.610735     0.179683
H       -0.475164    -5.955079     0.158775
H        1.821261    -4.876784    -0.034870
H        2.058018    -2.512098    -0.160451
96
ex_0323 frame2 As-trans-conf12-2
O        3.155132     0.000000     0.000000
C        2.020000     0.000000     0.000000
Ru       0.000000     0.000000     0.000000
Cl       0.052389     2.398081     0.090795
As       0.000000     0.000000     2.650000
C       -1.658428    -0.566349     3.539791
C       -2.754291     0.307035     3.592820
C       -3.943664    -0.090001     4.209176
C       -4.045314    -1.362179     4.777442
C       -2.956789    -2.238444     4.728259
C       -1.758830    -1.838561     4.124433
C        0.410862     1.727486     3.477143
C       -0.318155     2.210844     4.575340
C       -0.031650     3.474765     5.098842
C        0.992426     4.248803     4.545346
C        1.738540     3.755738     3.472799
C        1.458864     2.491857     2.953547
C        1.288828    -1.148873     3.572645
C        1.904431    -2.201851     2.878496
C        2.809954    -3.043075     3.524183
C        3.122288    -2.824576     4.866208
C        2.522758    -1.767318     5.560390
C        1.603204    -0.931878     4.916813
As       0.000000     0.000000    -2.650000
C        0.210562     1.751543    -3.493481
C       -0.520028     2.108023    -4.636294
C       -0.390340     3.392201    -5.172032
C        0.481739     4.314041    -4.584946
C        1.235257     3.948418    -3.467659
C        1.113251     2.664290    -2.937372
C        1.400046    -0.992671    -3.585934
C        2.327853    -1.748588    -2.852692
C        3.331780    -2.463061    -3.506636
C        3.413150    -2.427978    -4.899531
C        2.488990    -1.677554    -5.635619
C        1.485480    -0.956349    -4.980247
C       -1.582560    -0.759882    -3.541204
C       -1.548220    -2.054257    -4.085032
C       -2.687373    -2.584957    -4.701995
C       -3.854823    -1.821524    -4.796852
C       -3.890455    -0.531272    -4.262524
C       -2.759088    -0.002524    -3.635684
S       -0.076802    -2.348437    -0.088814
C       -1.876920    -2.464518    -0.123640
N       -2.489055    -3.736564    -0.195402
C       -1.801061    -4.969063    -0.223237
C       -0.813317    -5.278248     0.733778
C       -0.154712    -6.509805     0.675848
C       -0.479030    -7.427912    -0.328162
C       -1.459783    -7.117413    -1.274088
C       -2.115089    -5.889264    -1.224516
Cl      -3.339853    -5.498468    -2.425853
C       -2.647189    -1.366705    -0.084419
C       -4.128226    -1.477188    -0.120566
C       -4.872599    -0.368044    -0.118984
C       -4.236043     0.964878    -0.039565
C       -2.886752     1.079681     0.022973
N       -2.057964    -0.120098    -0.009637
H       -2.689731     1.289765     3.144170
H       -4.787371     0.587231     4.242124
H       -4.969789    -1.670939     5.248592
H       -3.044627    -3.229707     5.154193
H       -0.934638    -2.536574     4.082449
H       -1.116696     1.643405     5.021578
H       -0.610568     3.857185     5.928922
H        1.206305     5.230501     4.945102
H        2.526460     4.354224     3.034989
H        2.030311     2.123227     2.111965
H        1.683820    -2.389236     1.845415
H        3.266944    -3.862909     2.982361
H        3.827974    -3.474452     5.365744
H        2.768674    -1.596127     6.598302
H        1.141731    -0.122060     5.461769
H       -1.205537     1.422525    -5.105471
H       -0.974337     3.674504    -6.037382
H        0.572855     5.310777    -4.993943
H        1.906516     4.659998    -3.004649
H        1.692984     2.393028    -2.065948
H        2.276127    -1.803224    -1.779367
H        4.042359    -3.045693    -2.932359
H        4.189362    -2.985201    -5.406475
H        2.548772    -1.655938    -6.714224
H        0.772062    -0.381770    -5.553286
H       -0.659712    -2.665439    -4.010783
H       -2.667927    -3.589570    -5.104815
H       -4.733697    -2.230946    -5.278603
H       -4.795023     0.059000    -4.332366
H       -2.799688     0.994831    -3.217902
H       -0.555605    -4.580180     1.522588
H        0.605120    -6.753403     1.407725
H        0.028259    -8.380713    -0.375762
H       -1.707642    -7.822638    -2.054361
H       -4.618966    -2.444344    -0.181660
H       -5.952644    -0.447372    -0.176257
H       -4.864283     1.850606    -0.035324
H       -2.486567     2.078798     0.068322
96
ex_0323 frame3 As-trans-conf15-2
O        3.154728     0.000000     0.000000
C        2.020000     0.000000     0.000000
Ru       0.000000     0.000000     0.000000
Cl       0.102030     2.397517    -0.020076
As       0.000000     0.000000     2.650000
C       -1.722945    -0.489399     3.490322
C       -1.907403    -1.754674     4.072790
C       -3.138390    -2.098442     4.638211
C       -4.184057    -1.173892     4.657012
C       -4.005325     0.091859     4.093607
C       -2.780650     0.433209     3.509557
C        1.251247    -1.217441     3.588971
C        1.267676    -2.580643     3.259758
C        2.144399    -3.461536     3.892184
C        3.014568    -2.987826     4.872776
C        3.005210    -1.631965     5.217036
C        2.125594    -0.744866     4.580583
C        0.495161     1.729158     3.433958
C       -0.284311     2.349949     4.423523
C        0.084528     3.608810     4.910925
C        1.238812     4.237790     4.434439
C        2.031015     3.606969     3.473449
C        1.664585     2.353471     2.984181
As       0.000000     0.000000    -2.650000
C       -1.659423    -0.509914    -3.579529
C       -1.740765    -1.710983    -4.301550
C       -2.936431    -2.065564    -4.937546
C       -4.044061    -1.214331    -4.878197
C       -3.964007    -0.013442    -4.169576
C       -2.777015     0.336718    -3.521055
C        0.448595     1.752959    -3.408824
C       -0.356233     2.357489    -4.389693
C       -0.053239     3.643150    -4.846216
C        1.069553     4.314569    -4.356679
C        1.897200     3.696565    -3.415959
C        1.597667     2.411206    -2.958780
C        1.295192    -1.226956    -3.483451
C        1.629091    -1.110865    -4.835437
C        2.530556    -2.021570    -5.408187
C        3.093768    -3.044916    -4.634169
C        2.772865    -3.149975    -3.283741
C        1.894761    -2.234880    -2.712314
S       -0.127266    -2.343517     0.017596
C       -1.904509    -2.461606    -0.076725
N       -2.519455    -3.739606    -0.168928
C       -1.828022    -4.976176    -0.211443
C       -0.845629    -5.296995     0.745433
C       -0.175190    -6.521123     0.676572
C       -0.486658    -7.430365    -0.337692
C       -1.466406    -7.116265    -1.283963
C       -2.131455    -5.889897    -1.226204
Cl      -3.350563    -5.497307    -2.431543
C       -2.665627    -1.355188    -0.065197
C       -4.145260    -1.456581    -0.119362
C       -4.878971    -0.341021    -0.134239
C       -4.231087     0.986705    -0.066082
C       -2.891846     1.098110    -0.006608
N       -2.060539    -0.069300    -0.000736
H       -1.133307    -2.498227     4.068241
H       -3.281863    -3.085586     5.059149
H       -5.133847    -1.441801     5.101871
H       -4.818013     0.806380     4.106300
H       -2.662062     1.412080     3.064143
H        0.605087    -2.966141     2.512520
H        2.146700    -4.510320     3.619891
H        3.694499    -3.672166     5.363684
H        3.682303    -1.269380     5.978267
H        2.142665     0.293951     4.867387
H       -1.177947     1.897779     4.814032
H       -0.528854     4.100776     5.654388
H        1.518769     5.213812     4.807485
H        2.923659     4.090606     3.099086
H        2.274080     1.876854     2.227939
H       -0.903572    -2.391137    -4.350425
H       -3.006754    -3.002651    -5.474452
H       -4.965977    -1.487492    -5.375650
H       -4.821919     0.645104    -4.120638
H       -2.728578     1.265652    -2.967795
H       -1.236054     1.880983    -4.782058
H       -0.698352     4.124033    -5.570482
H        1.294191     5.314916    -4.701827
H        2.761674     4.218449    -3.028088
H        2.227552     1.949975    -2.210081
H        1.188272    -0.331277    -5.439568
H        2.789314    -1.941177    -6.453467
H        3.778856    -3.757155    -5.074413
H        3.198451    -3.940048    -2.674707
H        1.683741    -2.344690    -1.676116
H       -0.599499    -4.614577     1.544258
H        0.583560    -6.765689     1.409858
H        0.029548    -8.379081    -0.391025
H       -1.703719    -7.818962    -2.070398
H       -4.643317    -2.419533    -0.172404
H       -5.959505    -0.412770    -0.198002
H       -4.852404     1.876900    -0.068990
H       -2.471331     2.089812     0.037506
96
ex_0323 frame4 As-trans-conf12
O        3.155132     0.000000     0.000000
C        2.020000     0.000000     0.000000
Ru       0.000000     0.000000     0.000000
Cl      -0.089341     2.397679     0.060592
As       0.000000     0.000000     2.650000
C       -1.658479    -0.562523     3.542085
C       -2.755417     0.309667     3.593390
C       -3.944613    -0.089007     4.209671
C       -4.043135    -1.359394     4.782265
C       -2.952825    -2.233256     4.736202
C       -1.756680    -1.832910     4.130532
C        0.410223     1.730429     3.475903
C       -0.315766     2.212690     4.577117
C       -0.027027     3.475549     5.102857
C        0.995508     4.250616     4.548134
C        1.738197     3.759749     3.472055
C        1.454649     2.497839     2.948140
C        1.288628    -1.114923     3.656659
C        1.912620    -2.164490     3.002117
C        2.817041    -3.005048     3.633154
C        3.126626    -2.782224     4.968969
C        2.517998    -1.719487     5.655489
C        1.591475    -0.881564     5.003179
As       0.000000     0.000000    -2.650000
C        0.211548     1.753508    -3.496146
C       -0.517364     2.110286    -4.640994
C       -0.385553     3.394163    -5.178265
C        0.487200     4.315480    -4.591721
C        1.239862     3.949843    -3.473669
C        1.113659     2.667076    -2.939171
C        1.407103    -0.959689    -3.642422
C        2.375029    -1.667440    -2.934865
C        3.362818    -2.401101    -3.579392
C        3.407847    -2.408707    -4.969705
C        2.461752    -1.676167    -5.701329
C        1.457885    -0.947704    -5.040011
C       -1.579789    -0.757849    -3.545903
C       -1.544113    -2.052292    -4.087610
C       -2.682199    -2.584461    -4.705192
C       -3.850191    -1.821983    -4.802372
C       -3.886283    -0.530225    -4.272461
C       -2.755223     0.000361    -3.646046
S       -2.351233    -0.042628     0.000640
C       -2.482364    -1.853640     0.063039
N       -3.754961    -2.464208     0.164721
C       -4.992845    -1.791363     0.188433
C       -5.296306    -0.797536    -0.757527
C       -6.526515    -0.141692    -0.706633
C       -7.453825    -0.476153     0.284638
C       -7.154026    -1.470207     1.220823
C       -5.925189    -2.126012     1.173868
Cl      -5.551300    -3.374106     2.356292
C       -1.392931    -2.635299     0.019839
C       -1.521264    -4.121328     0.049749
C       -0.424680    -4.884351     0.040827
C        0.907381    -4.268452    -0.049489
C        1.036574    -2.935560    -0.108153
N       -0.110263    -2.058494    -0.054572
H       -2.692670     1.290902     3.141206
H       -4.790980     0.584913     4.238855
H       -4.967272    -1.669903     5.252701
H       -3.037979    -3.223584     5.164734
H       -0.930996    -2.529247     4.090430
H       -1.110984     1.643007     5.026623
H       -0.602191     3.856296     5.936481
H        1.211167     5.231254     4.950258
H        2.526863     4.358794     3.036110
H        2.024402     2.130367     2.104780
H        1.680728    -2.328495     2.006866
H        3.268884    -3.822274     3.080050
H        3.835102    -3.434587     5.462258
H        2.766944    -1.551628     6.692059
H        1.127200    -0.070793     5.541482
H       -1.201707     1.425198    -5.112395
H       -0.968081     3.677227    -6.044725
H        0.579361     5.311989    -5.001940
H        1.913285     4.661301    -3.013597
H        1.691608     2.395768    -2.065834
H        2.361578    -1.656326    -1.886134
H        4.086104    -2.960187    -2.995379
H        4.177058    -2.979708    -5.472246
H        2.505959    -1.680803    -6.779858
H        0.725392    -0.395858    -5.609296
H       -0.654541    -2.661681    -4.010619
H       -2.661550    -3.589739    -5.105834
H       -4.729226    -2.233554    -5.281829
H       -4.792034     0.058579    -4.341465
H       -2.797287     0.997871    -3.228389
H       -4.591736    -0.534049    -1.533378
H       -6.759080     0.624444    -1.434770
H       -8.405566     0.032716     0.327525
H       -7.868715    -1.727911     1.989306
H       -2.489026    -4.605577     0.125882
H       -0.510089    -5.964034     0.110571
H        1.790835    -4.900365    -0.037870
H        2.048962    -2.560770    -0.111512
96
ex_0323 frame5 As-trans-conf14-2
O        3.123172     0.000000     0.000000
C        2.020000     0.000000     0.000000
Ru       0.000000     0.000000     0.000000
Cl       0.014843     2.394605    -0.161180
As       0.000000     0.000000     2.650000
C        0.902609    -1.441482     3.651650
C        0.166780    -2.417483     4.347000
C        0.834736    -3.419236     5.062758
C        2.232122    -3.453744     5.086989
C        2.966145    -2.490713     4.390546
C        2.304321    -1.492560     3.669700
C        0.844353     1.479844     3.697213
C        1.346315     1.266688     4.995540
C        1.923007     2.321549     5.709620
C        2.020819     3.590895     5.135141
C        1.532865     3.809527     3.848650
C        0.945601     2.761597     3.139978
C       -1.740318    -0.041572     3.653134
C       -2.866215    -0.638729     3.081520
C       -4.100385    -0.658598     3.724044
C       -4.217036    -0.098257     4.989590
C       -3.098085     0.481372     5.594063
C       -1.867801     0.517172     4.929072
As       0.000000     0.000000    -2.650000
C        0.761775    -1.456636    -3.760740
C        0.711551    -1.393961    -5.163776
C        1.244361    -2.431457    -5.936142
C        1.828250    -3.539220    -5.317527
C        1.886673    -3.607900    -3.923770
C        1.360750    -2.568371    -3.147311
C        0.985450     1.399117    -3.629933
C        0.468797     1.953392    -4.809941
C        1.179237     2.939345    -5.495018
C        2.409197     3.385472    -5.007365
C        2.932077     2.841894    -3.831176
C        2.223220     1.850282    -3.142827
C       -1.766574     0.065327    -3.505772
C       -2.462364     1.280873    -3.580613
C       -3.710733     1.338265    -4.207219
C       -4.272294     0.181498    -4.754883
C       -3.590709    -1.035778    -4.666902
C       -2.340714    -1.095879    -4.044490
S       -0.085472    -2.345132     0.145684
C       -1.861138    -2.454532    -0.059676
N       -2.462861    -3.722361    -0.196249
C       -1.783750    -4.957306    -0.218739
C       -0.802875    -5.278657     0.742417
C       -0.154405    -6.513513     0.681268
C       -0.485015    -7.424697    -0.326346
C       -1.460214    -7.102233    -1.273999
C       -2.102373    -5.869256    -1.223064
Cl      -3.318585    -5.460190    -2.428103
C       -2.637471    -1.353575    -0.085311
C       -4.108843    -1.471591    -0.205988
C       -4.860154    -0.364790    -0.183292
C       -4.236497     0.972979    -0.081301
C       -2.902223     1.098915    -0.006452
N       -2.083622    -0.034080     0.001809
H       -0.912799    -2.414477     4.346730
H        0.270618    -4.169253     5.602626
H        2.746515    -4.226093     5.645225
H        4.048152    -2.515103     4.412413
H        2.880914    -0.746122     3.139572
H        1.275887     0.303910     5.476029
H        2.290154     2.153968     6.712183
H        2.468567     4.406477     5.686530
H        1.602854     4.792397     3.398362
H        0.569563     2.974521     2.170954
H       -2.807717    -1.099607     2.157121
H       -4.958486    -1.114562     3.240090
H       -5.169038    -0.121477     5.500714
H       -3.178853     0.907962     6.580828
H       -1.049328     0.977790     5.430295
H        0.258540    -0.556523    -5.666616
H        1.201461    -2.378165    -7.016157
H        2.235077    -4.343197    -5.918416
H        2.339963    -4.467991    -3.446215
H        1.423851    -2.640920    -2.075710
H       -0.471672     1.625447    -5.217723
H        0.772391     3.353827    -6.407149
H        2.956007     4.150245    -5.542963
H        3.886806     3.189508    -3.455993
H        2.643497     1.440001    -2.236902
H       -2.033682     2.181742    -3.160366
H       -4.241191     2.279452    -4.272232
H       -5.236363     0.228007    -5.244430
H       -4.029356    -1.933059    -5.083531
H       -1.830533    -2.046782    -3.981050
H       -0.539686    -4.592567     1.539445
H        0.600884    -6.765408     1.415092
H        0.011810    -8.382137    -0.374498
H       -1.715740    -7.801710    -2.055814
H       -4.590567    -2.439612    -0.272306
H       -5.939519    -0.450641    -0.234758
H       -4.871802     1.854944    -0.068906
H       -2.492845     2.096200     0.062196
96
ex_0323 frame6 As-trans-conf15
O        3.154728     0.000000     0.000000
C        2.020000     0.000000     0.000000
Ru       0.000000     0.000000     0.000000
Cl      -0.021549     2.396226    -0.138742
As       0.000000     0.000000     2.650000
C       -1.725938    -0.486851     3.494199
C       -1.913195    -1.751465     4.078510
C       -3.142327    -2.093523     4.645445
C       -4.186275    -1.168295     4.665134
C       -4.007150     0.096424     4.100146
C       -2.782678     0.436807     3.514312
C        1.239049    -1.219385     3.605511
C        1.226836    -2.588768     3.307761
C        2.115376    -3.468180     3.924377
C        3.011612    -2.988815     4.877633
C        3.014315    -1.629662     5.210110
C        2.131956    -0.742246     4.577094
C        0.494299     1.729601     3.431029
C       -0.284761     2.350672     4.421112
C        0.084289     3.609292     4.908407
C        1.238494     4.237809     4.431414
C        2.029578     3.607164     3.469213
C        1.662196     2.354252     2.979120
As       0.000000     0.000000    -2.650000
C       -1.660682    -0.504873    -3.584242
C       -1.743955    -1.708639    -4.302525
C       -2.938519    -2.062854    -4.940247
C       -4.043678    -1.208579    -4.887795
C       -3.961504    -0.004284    -4.185709
C       -2.775521     0.345498    -3.533794
C        0.445034     1.754698    -3.408405
C       -0.360950     2.360856    -4.387576
C       -0.056821     3.645898    -4.844474
C        1.067229     4.315987    -4.356198
C        1.895120     3.697223    -3.416312
C        1.594375     2.412672    -2.958616
C        1.280892    -1.193936    -3.568575
C        1.626591    -1.054972    -4.915757
C        2.537722    -1.975064    -5.483629
C        3.087265    -3.013172    -4.708583
C        2.736657    -3.128103    -3.371365
C        1.854096    -2.207601    -2.837043
S       -2.351026    -0.047928     0.001423
C       -2.470337    -1.858038     0.085692
N       -3.743237    -2.475672     0.132561
C       -4.978669    -1.797497     0.167993
C       -5.285675    -0.798587    -0.770938
C       -6.515630    -0.141929    -0.711481
C       -7.438282    -0.480194     0.282978
C       -7.132816    -1.476099     1.215236
C       -5.904922    -2.132791     1.158866
Cl      -5.524358    -3.383048     2.336420
C       -1.370460    -2.637160     0.106631
C       -1.493417    -4.121703     0.121684
C       -0.390851    -4.878343     0.158395
C        0.943721    -4.254410     0.216443
C        1.071380    -2.917553     0.224796
N       -0.079159    -2.059191     0.114695
H       -1.146674    -2.499218     4.077183
H       -3.285321    -3.081249     5.065469
H       -5.135598    -1.436550     5.110192
H       -4.819794     0.810507     4.112834
H       -2.663846     1.414888     3.067470
H        0.526952    -2.979348     2.596250
H        2.105275    -4.519679     3.662151
H        3.698814    -3.672098     5.359692
H        3.705320    -1.264200     5.956879
H        2.162577     0.299924     4.849035
H       -1.177902     1.898804     4.813065
H       -0.528600     4.101035     5.652524
H        1.519274     5.213275     4.805111
H        2.922370     4.090261     3.094852
H        2.270707     1.877172     2.222516
H       -0.909519    -2.392557    -4.346505
H       -3.009923    -3.002603    -5.472434
H       -4.965705    -1.482618    -5.384414
H       -4.818755     0.655216    -4.139701
H       -2.727453     1.274935    -2.980967
H       -1.240424     1.886141    -4.781570
H       -0.701737     4.126914    -5.568780
H        1.293021     5.315633    -4.702219
H        2.761110     4.217423    -3.029800
H        2.224858     1.949980    -2.211197
H        1.199685    -0.265554    -5.514006
H        2.819064    -1.894369    -6.521362
H        3.779672    -3.729540    -5.130892
H        3.134336    -3.919815    -2.742827
H        1.577639    -2.267533    -1.856384
H       -4.583979    -0.533061    -1.547397
H       -6.752518     0.626829    -1.435728
H       -8.390773     0.026953     0.331748
H       -7.842933    -1.736086     1.987135
H       -2.461425    -4.610378     0.096494
H       -0.476090    -5.959971     0.161032
H        1.826912    -4.885398     0.260045
H        2.073802    -2.511115     0.283321
96
ex_0323 frame7 As-trans-conf14
O        3.123172     0.000000     0.000000
C        2.020000     0.000000     0.000000
Ru       0.000000     0.000000     0.000000
Cl      -0.082496     2.395987    -0.131315
As       0.000000     0.000000     2.650000
C        0.903448    -1.442739     3.642762
C        0.167161    -2.417468     4.338275
C        0.832846    -3.418098     5.055116
C        2.229868    -3.455167     5.077817
C        2.965339    -2.495918     4.377196
C        2.304942    -1.497545     3.655304
C        0.853098     1.475451     3.704486
C        1.366042     1.257014     4.999872
C        1.942554     2.312307     5.716573
C        2.029519     3.585319     5.148542
C        1.533437     3.807515     3.865793
C        0.948852     2.759884     3.153572
C       -1.732473    -0.035315     3.694192
C       -2.866749    -0.648804     3.148988
C       -4.092453    -0.637628     3.809940
C       -4.199561    -0.051991     5.061201
C       -3.074739     0.526483     5.648715
C       -1.846526     0.543140     4.971830
As       0.000000     0.000000    -2.650000
C        0.755711    -1.439102    -3.799701
C        0.690076    -1.372849    -5.202741
C        1.224825    -2.411951    -5.979392
C        1.821357    -3.517924    -5.364844
C        1.891807    -3.582705    -3.974615
C        1.366963    -2.543560    -3.205960
C        0.978968     1.402321    -3.634937
C        0.462595     1.961097    -4.816415
C        1.178740     2.947476    -5.498913
C        2.409360     3.388436    -5.007407
C        2.927504     2.840559    -3.831518
C        2.214635     1.850929    -3.147051
C       -1.766927     0.065619    -3.507510
C       -2.462513     1.280806    -3.581369
C       -3.713801     1.337654    -4.202371
C       -4.277388     0.180781    -4.748011
C       -3.593763    -1.035495    -4.665803
C       -2.341198    -1.095235    -4.048336
S       -2.350869    -0.054400    -0.004100
C       -2.470965    -1.873458     0.036388
N       -3.746433    -2.498003     0.028420
C       -4.984133    -1.819697     0.091957
C       -5.291591    -0.789147    -0.812040
C       -6.517051    -0.125875    -0.720176
C       -7.434514    -0.485034     0.272124
C       -7.133400    -1.516088     1.166429
C       -5.912305    -2.186531     1.075341
Cl      -5.543705    -3.492812     2.199228
C       -1.367612    -2.645207     0.076787
C       -1.481181    -4.128260     0.095904
C       -0.372111    -4.873504     0.150331
C        0.960436    -4.236917     0.189888
C        1.081014    -2.898694     0.184465
N       -0.076298    -2.057864     0.101864
H       -0.912118    -2.412807     4.340605
H        0.265863    -4.163928     5.597522
H        2.742410    -4.226533     5.638499
H        4.047153    -2.522879     4.398047
H        2.882177    -0.752857     3.123033
H        1.303027     0.292458     5.478326
H        2.317816     2.144374     6.716717
H        2.475630     4.401166     5.701878
H        1.595199     4.793508     3.421367
H        0.567953     2.973563     2.186151
H       -2.830506    -1.137555     2.223590
H       -4.962528    -1.082390     3.355036
H       -5.153774    -0.055487     5.571166
H       -3.158468     0.970536     6.629224
H       -1.028144     1.013373     5.467282
H        0.227094    -0.539149    -5.701781
H        1.174861    -2.364272    -7.058658
H        2.229594    -4.323679    -5.961945
H        2.352247    -4.435640    -3.489872
H        1.437093    -2.601059    -2.153131
H       -0.478267     1.638421    -5.229540
H        0.778427     3.367569    -6.412104
H        2.961251     4.152358    -5.539306
H        3.882312     3.181863    -3.452107
H        2.629837     1.435000    -2.242106
H       -2.032061     2.180932    -3.161639
H       -4.245357     2.278381    -4.263095
H       -5.244639     0.225815    -5.231294
H       -4.033754    -1.932444    -5.081865
H       -1.830521    -2.046151    -3.989133
H       -4.591721    -0.502266    -1.586771
H       -6.753866     0.667074    -1.417206
H       -8.380580     0.032727     0.347058
H       -7.842185    -1.789524     1.936624
H       -2.446809    -4.623471     0.078519
H       -0.451101    -5.955435     0.170208
H        1.847294    -4.862734     0.220847
H        2.079270    -2.484970     0.208945
96
ex_0323 frame8 As-trans-conf28-2
O        3.162558     0.000000     0.000000
C        2.020000     0.000000     0.000000
Ru       0.000000     0.000000     0.000000
Cl       0.065902     2.399027     0.033965
As       0.000000     0.000000     2.650000
C        1.475984    -0.902417     3.569597
C        2.348389    -1.720816     2.839371
C        3.397297    -2.383807     3.475866
C        3.587621    -2.225957     4.849352
C        2.724701    -1.405433     5.585217
C        1.669844    -0.739686     4.947378
C        0.102855     1.788075     3.471065
C       -0.763039     2.172717     4.508214
C       -0.719415     3.479827     5.005665
C        0.202892     4.396612     4.494129
C        1.098803     4.001833     3.498650
C        1.064065     2.694845     3.006538
C       -1.511164    -0.869729     3.561668
C       -2.768514    -0.249015     3.578687
C       -3.849957    -0.865741     4.214775
C       -3.681605    -2.105745     4.836741
C       -2.431564    -2.730161     4.822535
C       -1.344481    -2.110412     4.198362
As       0.000000     0.000000    -2.650000
C        0.109192     1.785418    -3.495795
C       -0.827798     2.203677    -4.459696
C       -0.740864     3.482647    -5.015741
C        0.285465     4.346879    -4.630703
C        1.230503     3.931849    -3.689247
C        1.144829     2.654932    -3.126119
C        1.509226    -0.921224    -3.530439
C        2.363019    -0.239566    -4.415560
C        3.436789    -0.909527    -5.010835
C        3.659454    -2.261396    -4.738789
C        2.808180    -2.947117    -3.869441
C        1.735664    -2.280750    -3.269541
C       -1.558216    -0.750504    -3.604935
C       -1.432229    -1.857251    -4.458633
C       -2.561585    -2.370070    -5.109259
C       -3.816416    -1.788870    -4.910209
C       -3.943916    -0.681435    -4.071967
C       -2.818925    -0.163854    -3.425560
S        0.030668    -2.351362    -0.005511
C       -1.685044    -2.576546    -0.480924
N       -2.030107    -3.763152    -0.875386
C       -3.231630    -4.338493    -1.358903
C       -3.412813    -4.462901    -2.736780
C       -4.574272    -5.029662    -3.262022
C       -5.578010    -5.472566    -2.400298
C       -5.413804    -5.350873    -1.014065
C       -4.239465    -4.786964    -0.485766
Cl      -4.041984    -4.647982     1.253717
C       -2.625071    -1.373826    -0.410779
C       -4.103207    -1.408240    -0.720449
C       -4.791372    -0.249322    -0.712733
C       -4.168786     1.019139    -0.275131
C       -2.870800     1.067729     0.045176
N       -2.059754    -0.114403    -0.020543
H        2.209580    -1.868966     1.782546
H        4.057423    -3.023094     2.902586
H        4.400746    -2.743527     5.341175
H        2.873068    -1.289562     6.650077
H        1.003869    -0.112868     5.524217
H       -1.494205     1.498996     4.917880
H       -1.411693     3.786908     5.778795
H        0.221502     5.412689     4.866443
H        1.809925     4.711940     3.096450
H        1.751091     2.405316     2.222800
H       -2.911465     0.706751     3.091513
H       -4.819182    -0.384295     4.222708
H       -4.520681    -2.585919     5.323484
H       -2.305877    -3.697540     5.291659
H       -0.392497    -2.620643     4.187756
H       -1.632191     1.575413    -4.792813
H       -1.473468     3.804019    -5.745440
H        0.347398     5.337148    -5.062690
H        2.026910     4.601346    -3.392829
H        1.877962     2.343619    -2.393696
H        2.225452     0.801965    -4.649609
H        4.098806    -0.378631    -5.682882
H        4.491803    -2.776540    -5.200789
H        2.980701    -3.994660    -3.658816
H        1.086064    -2.823071    -2.598644
H       -0.486299    -2.343862    -4.619117
H       -2.468141    -3.238163    -5.749045
H       -4.689373    -2.200640    -5.400074
H       -4.913867    -0.225719    -3.919430
H       -2.925135     0.697873    -2.782978
H       -2.621452    -4.158644    -3.393750
H       -4.687699    -5.135614    -4.334647
H       -6.473818    -5.923769    -2.808930
H       -6.188539    -5.720532    -0.355787
H       -4.619097    -2.272956    -1.087152
H       -5.832561    -0.304896    -0.994223
H       -4.760581     1.928410    -0.242631
H       -2.447798     2.021027     0.329635
96
ex_0323 frame9 As-trans-conf16-2
O        3.160339     0.000000     0.000000
C        2.020000     0.000000     0.000000
Ru       0.000000     0.000000     0.000000
Cl       0.165372     2.390426     0.137754
As       0.000000     0.000000     2.650000
C        0.210282     1.771557     3.439277
C       -0.721813     2.758593     3.117108
C       -0.577285     4.052674     3.611434
C        0.488092     4.359417     4.460388
C        1.408879     3.369475     4.812804
C        1.267111     2.072530     4.314846
C        1.390409    -1.096291     3.531558
C        1.039126    -2.245320     4.260139
C        2.030401    -3.024873     4.865955
C        3.373443    -2.652046     4.770441
C        3.729857    -1.506588     4.054931
C        2.743491    -0.732062     3.434755
C       -1.592579    -0.667045     3.629313
C       -2.512253    -1.438939     2.962713
C       -3.689499    -1.901920     3.508638
C       -3.937900    -1.618150     4.838098
C       -2.991465    -0.877586     5.575915
C       -1.817129    -0.385118     4.965387
As       0.000000     0.000000    -2.650000
C        1.068218    -1.404917    -3.541541
C        2.465334    -1.283240    -3.635427
C        3.219680    -2.276491    -4.269396
C        2.587491    -3.401728    -4.802718
C        1.200201    -3.535332    -4.703107
C        0.439618    -2.534957    -4.087756
C        0.646711     1.659579    -3.477675
C        0.156757     2.875329    -2.997157
C        0.648896     4.083276    -3.480864
C        1.602873     4.084591    -4.497115
C        2.058466     2.874397    -5.028284
C        1.578163     1.660013    -4.528163
C       -1.711638    -0.249573    -3.646304
C       -2.695805    -1.085685    -3.129664
C       -3.948414    -1.224879    -3.703054
C       -4.208391    -0.570643    -4.895226
C       -3.205062     0.215183    -5.486554
C       -1.958915     0.391344    -4.855137
S       -0.034227    -2.347155    -0.131817
C       -1.840085    -2.445991    -0.144700
N       -2.452271    -3.708588    -0.208188
C       -1.773888    -4.941199    -0.226077
C       -0.789083    -5.258118     0.734415
C       -0.148139    -6.500257     0.679001
C       -0.487196    -7.413976    -0.325079
C       -1.461407    -7.088819    -1.272777
C       -2.097185    -5.853802    -1.224003
Cl      -3.314397    -5.439860    -2.425468
C       -2.632669    -1.336059    -0.095523
C       -4.106386    -1.462078    -0.139240
C       -4.860130    -0.359665    -0.124073
C       -4.237645     0.980639    -0.040223
C       -2.898943     1.111910     0.024539
N       -2.058569    -0.053075    -0.002337
H       -1.537145     2.526152     2.444806
H       -1.287074     4.816093     3.326400
H        0.601121     5.363858     4.841720
H        2.238240     3.607805     5.465907
H        2.001715     1.344962     4.603688
H        0.011607    -2.565609     4.339536
H        1.757539    -3.921339     5.407731
H        4.138249    -3.254166     5.244775
H        4.771437    -1.221055     3.979412
H        3.036726     0.147067     2.876403
H       -2.315006    -1.673499     1.927109
H       -4.378952    -2.485550     2.898457
H       -4.846780    -1.993748     5.285028
H       -3.169375    -0.686135     6.616133
H       -1.090464     0.187190     5.513857
H        2.972889    -0.423873    -3.217090
H        4.295136    -2.176856    -4.345758
H        3.173897    -4.173072    -5.285948
H        0.714752    -4.416833    -5.101385
H       -0.628667    -2.666202    -4.012837
H       -0.587946     2.887405    -2.222191
H        0.291498     5.013810    -3.060146
H        1.982736     5.022860    -4.874697
H        2.791349     2.876733    -5.822789
H        1.957692     0.754090    -4.961032
H       -2.490026    -1.614224    -2.210588
H       -4.698963    -1.849723    -3.222751
H       -5.175841    -0.696412    -5.361095
H       -3.396422     0.691302    -6.431324
H       -1.201304     1.006387    -5.306072
H       -0.521638    -4.561654     1.522899
H        0.607198    -6.757627     1.411837
H        0.001883    -8.375298    -0.372393
H       -1.723459    -7.786681    -2.053433
H       -4.576783    -2.436579    -0.206179
H       -5.937446    -0.454805    -0.177109
H       -4.877807     1.855852    -0.037318
H       -2.477085     2.109082     0.078634
96
ex_0323 frame10 As-trans-conf30-2
O        3.154728     0.000000     0.000000
C        2.020000     0.000000     0.000000
Ru       0.000000     0.000000     0.000000
Cl       0.121588     2.396878     0.012121
As       0.000000     0.000000     2.650000
C       -1.719285    -0.483210     3.495982
C       -1.894821    -1.731382     4.117804
C       -3.128834    -2.071274     4.679403
C       -4.185422    -1.159151     4.654776
C       -4.012916     0.091506     4.056547
C       -2.784596     0.429077     3.478981
C        1.249920    -1.213021     3.592199
C        1.263179    -2.579573     3.271784
C        2.144398    -3.452810     3.910862
C        3.018170    -2.970469     4.885285
C        3.009376    -1.613148     5.219721
C        2.127905    -0.733061     4.579153
C        0.503665     1.727017     3.449646
C       -0.275689     2.340466     4.443503
C        0.096056     3.593397     4.946122
C        1.251386     4.226512     4.477613
C        2.044049     3.604688     3.511275
C        1.676476     2.355576     3.007726
As       0.000000     0.000000    -2.650000
C       -1.643713    -0.462696    -3.630148
C       -1.701593    -1.597653    -4.452368
C       -2.889295    -1.916507    -5.121702
C       -4.016401    -1.103630    -4.982417
C       -3.958880     0.034141    -4.175464
C       -2.775786     0.355354    -3.504784
C        0.470557     1.752459    -3.414431
C       -0.326078     2.358178    -4.402335
C       -0.007704     3.634818    -4.874147
C        1.119141     4.301208    -4.388306
C        1.937330     3.685915    -3.437311
C        1.623052     2.407999    -2.963721
C        1.311517    -1.197890    -3.524827
C        1.593984    -1.088685    -4.893372
C        2.497638    -1.983581    -5.491027
C        3.119386    -2.979418    -4.727144
C        2.856675    -3.071991    -3.363199
C        1.973536    -2.175707    -2.767153
S       -0.025755    -2.350953    -0.002485
C       -1.715423    -2.529723    -0.521535
N       -2.060895    -3.694557    -0.974722
C       -3.257958    -4.268865    -1.465294
C       -3.472601    -4.330680    -2.845775
C       -4.629304    -4.919734    -3.359807
C       -5.593081    -5.433071    -2.489609
C       -5.398603    -5.356357    -1.105294
C       -4.230004    -4.779063    -0.587046
Cl      -3.992122    -4.698981     1.152145
C       -2.641903    -1.327695    -0.424976
C       -4.116348    -1.347363    -0.736412
C       -4.788242    -0.185260    -0.737250
C       -4.151528     1.074507    -0.294459
C       -2.854255     1.109762     0.037588
N       -2.061039    -0.082955    -0.004590
H       -1.112444    -2.466013     4.146934
H       -3.266775    -3.046232     5.129748
H       -5.138512    -1.424782     5.093685
H       -4.833163     0.796924     4.035999
H       -2.667677     1.395728     3.007485
H        0.594242    -2.975260     2.527301
H        2.147970    -4.503535     3.648979
H        3.700756    -3.649163     5.380099
H        3.688303    -1.243313     5.976514
H        2.148169     0.306990     4.861456
H       -1.170616     1.883097     4.826264
H       -0.515746     4.078402     5.695402
H        1.531916     5.198843     4.861390
H        2.938052     4.093166     3.145008
H        2.289644     1.887108     2.249268
H       -0.854332    -2.257275    -4.558918
H       -2.940421    -2.805433    -5.737369
H       -4.934899    -1.359272    -5.494687
H       -4.831538     0.664826    -4.066084
H       -2.740951     1.237006    -2.879229
H       -1.207298     1.884303    -4.795606
H       -0.643166     4.112425    -5.609232
H        1.354783     5.295207    -4.745947
H        2.807184     4.205228    -3.057157
H        2.250756     1.949106    -2.212042
H        1.109102    -0.333108    -5.494694
H        2.713043    -1.915304    -6.547959
H        3.805321    -3.680195    -5.185911
H        3.331135    -3.840164    -2.762860
H        1.807088    -2.275467    -1.720866
H       -2.714774    -3.968681    -3.519579
H       -4.770069    -4.990905    -4.431616
H       -6.482840    -5.902869    -2.889553
H       -6.141300    -5.775723    -0.439641
H       -4.639690    -2.213291    -1.099026
H       -5.827075    -0.229895    -1.029200
H       -4.733508     1.990644    -0.274783
H       -2.419660     2.057768     0.319235
96
ex_0323 frame11 As-trans-conf27-2
O        3.155132     0.000000     0.000000
C        2.020000     0.000000     0.000000
Ru       0.000000     0.000000     0.000000
Cl       0.063510     2.384411     0.171998
As       0.000000     0.000000     2.650000
C       -1.655175    -0.563196     3.543895
C       -2.755861     0.304675     3.585330
C       -3.945744    -0.095482     4.199317
C       -4.040849    -1.363081     4.779437
C       -2.945181    -2.230797     4.746189
C       -1.748422    -1.828511     4.143336
C        0.429454     1.723754     3.502284
C       -0.310440     2.211400     4.592363
C       -0.023646     3.474723     5.120970
C        1.012226     4.243848     4.583117
C        1.777172     3.742761     3.528070
C        1.500253     2.478055     3.005088
C        1.291199    -1.142020     3.588863
C        1.923872    -2.182412     2.895686
C        2.830730    -3.020191     3.543959
C        3.127584    -2.811717     4.891017
C        2.511396    -1.766478     5.588600
C        1.589813    -0.932602     4.941734
As       0.000000     0.000000    -2.650000
C        0.223627     1.760080    -3.494578
C       -0.504192     2.120757    -4.642173
C       -0.367768     3.402282    -5.182626
C        0.508012     4.320449    -4.598284
C        1.259233     3.953463    -3.479032
C        1.128013     2.671687    -2.938701
C        1.410477    -0.982976    -3.600395
C        2.333551    -1.748481    -2.874396
C        3.333887    -2.464142    -3.532084
C        3.420115    -2.419676    -4.924141
C        2.506155    -1.654520    -5.657020
C        1.506365    -0.928965    -4.997878
C       -1.566374    -0.680963    -3.637283
C       -1.498501    -1.878073    -4.365609
C       -2.621071    -2.337457    -5.063084
C       -3.817827    -1.621923    -5.023190
C       -3.891723    -0.430623    -4.299471
C       -2.768822     0.041626    -3.612308
S        0.029277    -2.340705    -0.187500
C       -1.700042    -2.561981    -0.576802
N       -2.059554    -3.756989    -0.933719
C       -3.263100    -4.341038    -1.399312
C       -3.461694    -4.450251    -2.771964
C       -4.620612    -5.017906    -3.294997
C       -5.609491    -5.482729    -2.428720
C       -5.428894    -5.379651    -1.041476
C       -4.252280    -4.812000    -0.519270
Cl      -4.031850    -4.697867     1.218578
C       -2.624545    -1.349367    -0.481042
C       -4.092949    -1.358209    -0.834754
C       -4.774115    -0.198640    -0.793934
C       -4.155983     1.043450    -0.277660
C       -2.867180     1.071045     0.081912
N       -2.059006    -0.100776    -0.019298
H       -2.695559     1.283590     3.127610
H       -4.795326     0.574835     4.220422
H       -4.965447    -1.675348     5.247654
H       -3.026038    -3.218039     5.182378
H       -0.918925    -2.520474     4.113176
H       -1.121020     1.650471     5.024547
H       -0.614040     3.863716     5.940156
H        1.220414     5.228446     4.980930
H        2.575277     4.338765     3.104303
H        2.088720     2.107209     2.176665
H        1.711858    -2.359592     1.859071
H        3.300587    -3.830362     2.999603
H        3.834249    -3.460767     5.391282
H        2.747550    -1.605555     6.631371
H        1.117608    -0.132840     5.493273
H       -1.192160     1.441801    -5.117219
H       -0.949174     3.685903    -6.050359
H        0.602900     5.315664    -5.011865
H        1.935599     4.664714    -3.023531
H        1.704565     2.400323    -2.065261
H        2.279389    -1.810625    -1.802848
H        4.037304    -3.056721    -2.960088
H        4.192833    -2.981204    -5.432330
H        2.571033    -1.628100    -6.736016
H        0.800122    -0.347297    -5.573563
H       -0.598896    -2.474587    -4.384060
H       -2.570153    -3.270259    -5.611289
H       -4.687934    -1.997526    -5.546007
H       -4.819424     0.125195    -4.270580
H       -2.833966     0.968537    -3.058507
H       -2.674524    -4.139656    -3.423575
H       -4.738896    -5.109588    -4.368693
H       -6.503103    -5.939106    -2.835990
H       -6.188822    -5.772239    -0.379563
H       -4.599843    -2.213327    -1.246135
H       -5.806769    -0.236480    -1.107930
H       -4.745148     1.954763    -0.221083
H       -2.454185     2.010950     0.420524
96
ex_0323 frame12 all-cis-conf12-3
O        3.155132     0.000000     0.000000
C        2.020000     0.000000     0.000000
Ru       0.000000     0.000000     0.000000
Cl       0.187469     2.387183    -0.171522
As       0.000000    -2.650000     0.000000
C       -1.746148    -3.585199     0.208500
C       -2.362008    -3.618193     1.452702
C       -3.586787    -4.247328     1.651436
C       -4.221281    -4.866908     0.579105
C       -3.623063    -4.847310    -0.686544
C       -2.379987    -4.218783    -0.875703
C        1.223464    -3.558502     1.258877
C        0.819662    -4.678104     2.005211
C        1.705936    -5.254050     2.928867
C        2.993266    -4.730417     3.095790
C        3.405137    -3.641995     2.329641
C        2.527944    -3.071716     1.409828
C        0.569980    -3.690894    -1.590632
C        0.674253    -3.052208    -2.820520
C        1.034574    -3.740368    -3.975159
C        1.325857    -5.098128    -3.901361
C        1.250323    -5.758831    -2.669174
C        0.872418    -5.060054    -1.509624
As       0.000000     0.000000     2.650000
C        1.790271    -0.137134     3.547533
C        1.981618    -0.887370     4.728877
C        3.262002    -1.061271     5.258384
C        4.359283    -0.456115     4.649968
C        4.171549     0.351690     3.527428
C        2.889941     0.527996     2.993085
C       -0.605502     1.601974     3.627009
C       -1.183785     2.666533     2.925380
C       -1.615129     3.811300     3.595253
C       -1.479284     3.898506     4.980739
C       -0.911294     2.837777     5.694242
C       -0.465745     1.693158     5.020548
C       -1.053890    -1.281003     3.786026
C       -2.319441    -0.928378     4.299278
C       -3.085899    -1.871714     4.992412
C       -2.580941    -3.151975     5.229519
C       -1.300347    -3.488076     4.788064
C       -0.536566    -2.551612     4.083147
S       -0.007446     0.367265    -2.340105
C       -1.787382     0.281647    -2.579593
N       -2.324876     0.337809    -3.754180
C       -1.703092     0.364789    -5.026968
C       -0.743825    -0.594729    -5.374874
C       -0.145548    -0.571659    -6.635007
C       -0.489107     0.425656    -7.549958
C       -1.440535     1.391678    -7.207782
C       -2.051468     1.361611    -5.949432
Cl      -3.253522     2.575485    -5.532582
C       -2.661201     0.145324    -1.404843
C       -4.165779     0.142097    -1.520524
C       -4.904743     0.082151    -0.407868
C       -4.253674     0.000741     0.912956
C       -2.916447    -0.034634     1.022602
N       -2.059084     0.011650    -0.111843
H       -1.902877    -3.132960     2.255383
H       -4.040933    -4.244382     2.635359
H       -5.177940    -5.350057     0.731087
H       -4.129384    -5.315377    -1.519341
H       -1.951620    -4.205761    -1.865705
H       -0.170398    -5.091764     1.904814
H        1.393353    -6.099380     3.526064
H        3.673717    -5.165158     3.816491
H        4.400763    -3.231772     2.450503
H        2.867640    -2.238387     0.834341
H        0.451006    -2.030453    -2.888071
H        1.082199    -3.219399    -4.924190
H        1.606168    -5.631965    -4.800027
H        1.480003    -6.813570    -2.619177
H        0.808657    -5.591294    -0.573786
H        1.187386    -1.372332     5.254812
H        3.402582    -1.678281     6.137507
H        5.351774    -0.607764     5.054306
H        5.022762     0.831004     3.062879
H        2.768081     1.155533     2.128950
H       -1.326619     2.610879     1.866187
H       -2.060714     4.626209     3.038053
H       -1.821767     4.784492     5.499180
H       -0.819704     2.903492     6.769788
H       -0.035503     0.880234     5.586536
H       -2.752469     0.045698     4.122410
H       -4.081689    -1.615101     5.330525
H       -3.184893    -3.885439     5.748292
H       -0.909722    -4.481925     4.964936
H        0.433206    -2.832750     3.720224
H       -0.497372    -1.381768    -4.693010
H        0.576594    -1.332120    -6.903075
H       -0.025937     0.443106    -8.527043
H       -1.711317     2.156055    -7.923551
H       -4.654481     0.207666    -2.486970
H       -5.988541     0.101453    -0.469021
H       -4.866950    -0.024160     1.809312
H       -2.511157    -0.074898     1.986091
96
ex_0323 frame13 As-trans-conf29-2
O        3.123172     0.000000     0.000000
C        2.020000     0.000000     0.000000
Ru       0.000000     0.000000     0.000000
Cl       0.063183     2.397508    -0.078526
As       0.000000     0.000000     2.650000
C        0.901177    -1.442728     3.641522
C        0.164503    -2.414179     4.340294
C        0.829503    -3.415365     5.056091
C        2.226536    -3.455940     5.074941
C        2.962713    -2.499656     4.370880
C        2.302690    -1.500711     3.649728
C        0.850143     1.473444     3.722633
C        1.366725     1.247430     5.015787
C        1.950097     2.300116     5.734675
C        2.036353     3.576591     5.173195
C        1.530909     3.806503     3.897177
C        0.939564     2.764132     3.185860
C       -1.734324    -0.053618     3.645596
C       -2.845271    -0.669674     3.058997
C       -4.082391    -0.694045     3.704619
C       -4.218164    -0.119925     4.967128
C       -3.114037     0.474829     5.581094
C       -1.876078     0.512342     4.927387
As       0.000000     0.000000    -2.650000
C        0.762489    -1.446778    -3.767041
C        0.699467    -1.388057    -5.170620
C        1.232972    -2.425986    -5.942691
C        1.830242    -3.526529    -5.322858
C        1.901378    -3.587326    -3.929969
C        1.375627    -2.548785    -3.156427
C        0.977651     1.402773    -3.638149
C        0.461331     1.964387    -4.820386
C        1.179995     2.952077    -5.500603
C        2.411000     3.390085    -5.006895
C        2.927231     2.838517    -3.832132
C        2.213076     1.848581    -3.150841
C       -1.760744     0.082687    -3.514143
C       -2.464929     1.293939    -3.563797
C       -3.719651     1.349845    -4.180842
C       -4.275535     0.196526    -4.743938
C       -3.576748    -1.011897    -4.691406
C       -2.320596    -1.064308    -4.083626
S        0.004692    -2.351628     0.050179
C       -1.695705    -2.524998    -0.545398
N       -2.028690    -3.686664    -1.021993
C       -3.228646    -4.254622    -1.526261
C       -3.479708    -4.262694    -2.908160
C       -4.640768    -4.857373    -3.412635
C       -5.569920    -5.425665    -2.539246
C       -5.341825    -5.395340    -1.159949
C       -4.172553    -4.815395    -0.648563
Cl      -3.897256    -4.794711     1.086434
C       -2.624687    -1.325107    -0.475715
C       -4.088226    -1.332111    -0.850554
C       -4.762725    -0.170022    -0.834880
C       -4.144512     1.074865    -0.327496
C       -2.858895     1.101411     0.044053
N       -2.060104    -0.076910    -0.012991
H       -0.914634    -2.407088     4.345215
H        0.261366    -4.158798     5.600230
H        2.738343    -4.227923     5.635072
H        4.044537    -2.529422     4.388167
H        2.880208    -0.758189     3.114258
H        1.309082     0.280193     5.488699
H        2.333885     2.128821     6.730877
H        2.488143     4.390085     5.725610
H        1.590508     4.794302     3.455581
H        0.551870     2.991682     2.230396
H       -2.762548    -1.132583     2.106498
H       -4.934211    -1.159391     3.224160
H       -5.176419    -0.139846     5.469921
H       -3.218944     0.912405     6.565062
H       -1.066633     0.987093     5.441536
H        0.234304    -0.556238    -5.673338
H        1.180182    -2.379652    -7.022591
H        2.238261    -4.331473    -5.920726
H        2.364051    -4.439718    -3.448643
H        1.450017    -2.613340    -2.087556
H       -0.480281     1.645233    -5.236057
H        0.782498     3.376514    -6.413454
H        2.965145     4.154718    -5.535641
H        3.881678     3.176903    -3.449990
H        2.625588     1.429725    -2.246498
H       -2.041324     2.189314    -3.127733
H       -4.261251     2.285582    -4.223006
H       -5.246753     0.237809    -5.219439
H       -4.006344    -1.907507    -5.121500
H       -1.785236    -1.995926    -4.046928
H       -2.761297    -3.864406    -3.602103
H       -4.812813    -4.893122    -4.481993
H       -6.459792    -5.901941    -2.932526
H       -6.057723    -5.855888    -0.491789
H       -4.600654    -2.186057    -1.256404
H       -5.790865    -0.206916    -1.163462
H       -4.731285     1.987822    -0.286797
H       -2.438085     2.037924     0.379390
96
ex_0323 frame14 As-trans-conf27
O        3.155132     0.000000     0.000000
C        2.020000     0.000000     0.000000
Ru       0.000000     0.000000     0.000000
Cl       0.240624     2.379996     0.075303
As       0.000000     0.000000     2.650000
C       -1.583368    -0.481123     3.725540
C       -2.732970     0.319524     3.656734
C       -3.858923     0.006357     4.423449
C       -3.844478    -1.108727     5.267095
C       -2.703701    -1.919095     5.336197
C       -1.579006    -1.613482     4.560246
C        0.425542     1.744769     3.462598
C       -0.289554     2.233153     4.573180
C        0.007517     3.491184     5.101366
C        1.025255     4.263950     4.539677
C        1.754993     3.774078     3.453302
C        1.461921     2.514360     2.922583
C        1.320405    -1.084751     3.663330
C        1.998414    -2.099531     3.007850
C        2.886461    -2.942181     3.660395
C        3.143282    -2.742385     5.011242
C        2.504534    -1.695337     5.692327
C        1.590611    -0.858593     5.021756
As       0.000000     0.000000    -2.650000
C        0.224736     1.751006    -3.526029
C       -0.528294     2.113991    -4.654027
C       -0.393871     3.396520    -5.198645
C        0.500998     4.311175    -4.635107
C        1.283140     3.936911    -3.541782
C        1.161594     2.654229    -3.006287
C        1.407611    -0.929385    -3.691287
C        2.436970    -1.573835    -3.012562
C        3.415699    -2.299150    -3.680665
C        3.394212    -2.357391    -5.069998
C        2.394411    -1.676591    -5.779351
C        1.397171    -0.956955    -5.093912
C       -1.579862    -0.758363    -3.540137
C       -1.539794    -2.048863    -4.089586
C       -2.675951    -2.582463    -4.707642
C       -3.848537    -1.825977    -4.794289
C       -3.890446    -0.538248    -4.253688
C       -2.759752    -0.005452    -3.628726
S       -2.351752     0.036324    -0.010126
C       -2.525249    -1.706150     0.520647
N       -3.782197    -2.108143     0.778228
C       -4.304839    -3.288592     1.395367
C       -4.189436    -3.440817     2.772246
C       -4.739210    -4.535640     3.443910
C       -5.385184    -5.530914     2.712977
C       -5.471298    -5.422249     1.316873
C       -4.934172    -4.299499     0.651182
Cl      -5.056295    -4.176128    -1.092242
C       -1.327439    -2.621161     0.567134
C       -1.341259    -4.067924     1.023601
C       -0.230185    -4.803607     0.870388
C        1.008943    -4.210992     0.346742
C        1.062654    -2.918837     0.007871
N       -0.086311    -2.057132     0.141110
H       -2.748845     1.190664     3.014101
H       -4.743262     0.627018     4.360689
H       -4.724444    -1.361460     5.843745
H       -2.706222    -2.804432     5.958639
H       -0.728481    -2.275242     4.608654
H       -1.079227     1.672715     5.041056
H       -0.557069     3.867918     5.944886
H        1.247381     5.241228     4.947099
H        2.543138     4.373316     3.017709
H        2.026130     2.147347     2.076381
H        1.818525    -2.245105     1.998161
H        3.364745    -3.746780     3.112085
H        3.836005    -3.399634     5.520395
H        2.714864    -1.544323     6.740689
H        1.092904    -0.068785     5.562669
H       -1.232409     1.436980    -5.106578
H       -0.993393     3.686568    -6.051103
H        0.589502     5.308848    -5.044628
H        1.975447     4.642570    -3.100106
H        1.770185     2.379938    -2.155973
H        2.479933    -1.517268    -1.966572
H        4.184013    -2.813836    -3.114244
H        4.155737    -2.925694    -5.588523
H        2.392968    -1.718453    -6.858936
H        0.623735    -0.449099    -5.650739
H       -0.645667    -2.652597    -4.021264
H       -2.649228    -3.583947    -5.117026
H       -4.726064    -2.239194    -5.274683
H       -4.799299     0.046246    -4.316612
H       -2.803784     0.990135    -3.206191
H       -3.716401    -2.665286     3.299119
H       -4.677372    -4.602401     4.526165
H       -5.824868    -6.376828     3.230954
H       -5.982026    -6.197649     0.762070
H       -2.199076    -4.581102     1.411803
H       -0.226769    -5.855716     1.132011
H        1.895936    -4.829856     0.232307
H        1.999381    -2.576724    -0.361551
96
ex_0323 frame15 all-cis-conf12
O        3.155132     0.000000     0.000000
C        2.020000     0.000000     0.000000
Ru       0.000000     0.000000     0.000000
Cl      -0.095956     2.378403    -0.307068
As      -2.650000     0.000000     0.000000
C       -3.589207     1.707296     0.298126
C       -3.726691     2.213779     1.595709
C       -4.346894     3.445610     1.814985
C       -4.855262     4.171433     0.736512
C       -4.746176     3.661642    -0.560798
C       -4.125451     2.426331    -0.781643
C       -3.615051    -1.246494     1.194326
C       -4.717851    -0.835961     1.967066
C       -5.352005    -1.744446     2.820486
C       -4.897712    -3.063106     2.906051
C       -3.815028    -3.478374     2.128900
C       -3.186261    -2.574767     1.270945
C       -3.637625    -0.556324    -1.630248
C       -2.992597    -0.547229    -2.870402
C       -3.650072    -0.946017    -4.030764
C       -4.977025    -1.362333    -3.964285
C       -5.644030    -1.367428    -2.734750
C       -4.980745    -0.962490    -1.567399
As       0.000000     0.000000     2.650000
C        1.781549    -0.172113     3.537170
C        1.966921    -0.958231     4.693009
C        3.244567    -1.143786     5.225256
C        4.344622    -0.520203     4.639172
C        4.162368     0.315602     3.536084
C        2.883385     0.504798     3.001357
C       -0.544311     1.618016     3.656489
C       -1.001284     2.742527     2.966452
C       -1.428291     3.882663     3.641065
C       -1.389709     3.915985     5.031714
C       -0.914974     2.806609     5.741447
C       -0.480468     1.659743     5.057861
C       -1.090077    -1.289194     3.803091
C       -2.325693    -0.887959     4.332709
C       -3.098025    -1.786735     5.084865
C       -2.653861    -3.092576     5.311449
C       -1.420674    -3.498421     4.818756
C       -0.634147    -2.606696     4.095792
S        0.418388     0.046537    -2.300279
C        0.311883    -1.749618    -2.602801
N        0.279104    -2.276910    -3.782171
C        0.324491    -1.646139    -5.051002
C        1.181957    -0.559865    -5.299069
C        1.201136     0.037388    -6.560276
C        0.362389    -0.435958    -7.572934
C       -0.488001    -1.517178    -7.330894
C       -0.507771    -2.123823    -6.074505
Cl      -1.580046    -3.488698    -5.780864
C        0.260148    -2.635411    -1.444539
C        0.315344    -4.144573    -1.569022
C        0.289695    -4.892382    -0.459979
C        0.232239    -4.240841     0.863594
C        0.176307    -2.899711     0.963105
N        0.151517    -2.050932    -0.119284
H       -3.329669     1.663333     2.434885
H       -4.424437     3.839966     2.820200
H       -5.327535     5.130394     0.906251
H       -5.134193     4.229608    -1.396101
H       -4.033658     2.061137    -1.794228
H       -5.105768     0.164047     1.930044
H       -6.189303    -1.422367     3.425768
H       -5.377757    -3.759206     3.581086
H       -3.456630    -4.497196     2.196616
H       -2.359328    -2.905945     0.670441
H       -1.992106    -0.221094    -2.958110
H       -3.127857    -0.928605    -4.979725
H       -5.486399    -1.674640    -4.866350
H       -6.675963    -1.686636    -2.688638
H       -5.519795    -0.973756    -0.634132
H        1.167609    -1.456356     5.196608
H        3.380646    -1.782991     6.088886
H        5.335021    -0.680158     5.044943
H        5.014838     0.807519     3.087197
H        2.763104     1.154265     2.151837
H       -1.074268     2.735434     1.910073
H       -1.802264     4.731127     3.079732
H       -1.734828     4.798940     5.553476
H       -0.894461     2.835982     6.821546
H       -0.130679     0.806704     5.620085
H       -2.710633     0.102204     4.149732
H       -4.059128    -1.481817     5.473977
H       -3.264258    -3.794712     5.864847
H       -1.068350    -4.509229     4.991610
H        0.323037    -2.992178     3.777372
H        1.857632    -0.190725    -4.540421
H        1.870133     0.865191    -6.751613
H        0.376355     0.030075    -8.547812
H       -1.130877    -1.887748    -8.118362
H        0.380147    -4.628478    -2.542020
H        0.327565    -5.974772    -0.522307
H        0.250170    -4.847793     1.763746
H        0.158178    -2.450365     1.876569
96
ex_0323 frame16 As-trans-conf31
O        3.160339     0.000000     0.000000
C        2.020000     0.000000     0.000000
Ru       0.000000     0.000000     0.000000
Cl       0.251373     2.379910     0.182834
As       0.000000     0.000000     2.650000
C        0.193518     1.778557     3.464431
C       -0.747905     2.767690     3.159211
C       -0.597070     4.063733     3.654845
C        0.478117     4.369704     4.491704
C        1.396382     3.375716     4.839604
C        1.249662     2.077652     4.341162
C        1.386126    -1.092990     3.533855
C        1.034377    -2.234066     4.275635
C        2.026336    -3.013471     4.879260
C        3.370150    -2.648444     4.767992
C        3.725929    -1.509567     4.040984
C        2.738100    -0.733960     3.425330
C       -1.585727    -0.668461     3.619860
C       -2.497985    -1.461946     2.941751
C       -3.663727    -1.923861     3.534069
C       -3.914676    -1.614434     4.865167
C       -2.985330    -0.850446     5.588731
C       -1.817273    -0.367342     4.966721
As       0.000000     0.000000    -2.650000
C        1.069431    -1.403470    -3.537630
C        2.466086    -1.286860    -3.614167
C        3.222652    -2.280287    -4.245579
C        2.591052    -3.398835    -4.795927
C        1.202716    -3.525966    -4.714556
C        0.442353    -2.528023    -4.098724
C        0.644090     1.666803    -3.486527
C        0.150140     2.887106    -3.011679
C        0.634883     4.094758    -3.512030
C        1.593889     4.092222    -4.524898
C        2.054756     2.879474    -5.045747
C        1.577292     1.665735    -4.537369
C       -1.674588    -0.194101    -3.756957
C       -2.637800    -1.091321    -3.342042
C       -3.874466    -1.219612    -3.953588
C       -4.143911    -0.476509    -5.085704
C       -3.158680     0.382977    -5.595326
C       -1.916732     0.536396    -4.932493
S        0.022626    -2.349327    -0.108847
C       -1.697336    -2.526367    -0.564688
N       -2.045563    -3.689031    -1.019080
C       -3.237405    -4.264984    -1.517995
C       -3.483807    -4.264685    -2.900292
C       -4.636185    -4.864607    -3.411979
C       -5.561419    -5.444940    -2.542706
C       -5.335665    -5.422577    -1.161835
C       -4.172486    -4.838688    -0.645817
Cl      -3.893488    -4.829120     1.087810
C       -2.655117    -1.320039    -0.415984
C       -4.146252    -1.335874    -0.648155
C       -4.802686    -0.162861    -0.656053
C       -4.142089     1.098402    -0.258266
C       -2.839141     1.118417     0.046111
N       -2.058268    -0.117639    -0.030227
H       -1.571671     2.543350     2.496812
H       -1.306487     4.832067     3.377581
H        0.601695     5.376687     4.866993
H        2.230964     3.613673     5.486329
H        1.984030     1.346804     4.622778
H        0.006700    -2.550616     4.367247
H        1.753065    -3.904355     5.430266
H        4.135503    -3.251979     5.239086
H        4.767825    -1.230281     3.951864
H        3.027208     0.140151     2.857085
H       -2.281623    -1.738762     1.961375
H       -4.359682    -2.523227     2.957534
H       -4.821073    -1.979641     5.329606
H       -3.177957    -0.632938     6.628177
H       -1.109726     0.225191     5.526750
H        2.968950    -0.430995    -3.183402
H        4.298986    -2.185084    -4.306757
H        3.176920    -4.170296    -5.279087
H        0.714411    -4.399742    -5.127071
H       -0.624699    -2.658956    -4.042304
H       -0.594567     2.903448    -2.232210
H        0.271127     5.029918    -3.105919
H        1.975236     5.029466    -4.907424
H        2.790454     2.880106    -5.838739
H        1.956742     0.756943    -4.965950
H       -2.422480    -1.689123    -2.535923
H       -4.616500    -1.895997    -3.542950
H       -5.110552    -0.586365    -5.560957
H       -3.374464     0.933985    -6.496711
H       -1.186966     1.215960    -5.336120
H       -2.761261    -3.846914    -3.589466
H       -4.803976    -4.891618    -4.482179
H       -6.445665    -5.925029    -2.940833
H       -6.045204    -5.894240    -0.496602
H       -4.680298    -2.213877    -0.969058
H       -5.851566    -0.195454    -0.911372
H       -4.699056     2.029795    -0.243991
H       -2.377701     2.067397     0.296313
96
ex_0323 frame17 all-cis-conf27-2
O        3.155132     0.000000     0.000000
C        2.020000     0.000000     0.000000
Ru       0.000000     0.000000     0.000000
Cl       0.261347     2.370710    -0.297981
As       0.000000    -2.650000     0.000000
C       -1.749737    -3.587941     0.226324
C       -2.333056    -3.636793     1.479686
C       -3.553959    -4.256842     1.711612
C       -4.224046    -4.857805     0.653141
C       -3.661438    -4.826667    -0.629834
C       -2.416030    -4.205241    -0.848886
C        1.233931    -3.549250     1.254776
C        0.843092    -4.669478     2.005672
C        1.733039    -5.221302     2.941410
C        3.012675    -4.678058     3.108373
C        3.414945    -3.597033     2.327949
C        2.534958    -3.052491     1.396876
C        0.511863    -3.630884    -1.642861
C        0.453276    -2.984680    -2.882571
C        0.808029    -3.644607    -4.057045
C        1.232151    -4.970339    -4.004228
C        1.291142    -5.634206    -2.773580
C        0.934753    -4.968312    -1.590838
As       0.000000     0.000000     2.650000
C        1.788353    -0.157429     3.544004
C        1.975833    -0.914643     4.721141
C        3.257212    -1.113952     5.237698
C        4.358612    -0.520924     4.625090
C        4.173957     0.301267     3.512509
C        2.891324     0.501028     2.990257
C       -0.600897     1.606740     3.604088
C       -1.133819     2.680510     2.881760
C       -1.573478     3.829740     3.540938
C       -1.483804     3.912090     4.931775
C       -0.953123     2.843389     5.662014
C       -0.503548     1.693843     5.001009
C       -1.066368    -1.282296     3.758879
C       -2.345190    -0.933323     4.230097
C       -3.130284    -1.883040     4.896345
C       -2.627977    -3.163725     5.145635
C       -1.331085    -3.492883     4.748918
C       -0.546687    -2.547878     4.078771
S        0.118247     0.437187    -2.308131
C       -1.624652     0.838018    -2.562323
N       -1.972849     1.241676    -3.741707
C       -3.208941     1.662117    -4.284825
C       -3.533360     3.022369    -4.268996
C       -4.722276     3.469453    -4.846815
C       -5.609894     2.553879    -5.417941
C       -5.312602     1.186409    -5.404346
C       -4.111116     0.733410    -4.840075
Cl      -3.745528    -0.986390    -4.832389
C       -2.586448     0.679441    -1.387130
C       -4.045410     1.091129    -1.372395
C       -4.774890     0.832197    -0.270551
C       -4.185259     0.128971     0.890294
C       -2.897345    -0.239012     0.888059
N       -2.052286     0.086896    -0.194954
H       -1.844777    -3.163977     2.260129
H       -3.976184    -4.259423     2.709745
H       -5.179851    -5.333780     0.831617
H       -4.199162    -5.279798    -1.450711
H       -2.017575    -4.182244    -1.850623
H       -0.142514    -5.093976     1.909590
H        1.427921    -6.060197     3.551011
H        3.694321    -5.090268     3.840904
H        4.403363    -3.169286     2.448406
H        2.866188    -2.222685     0.814729
H        0.109320    -1.983656    -2.956869
H        0.747568    -3.125331    -5.006299
H        1.506571    -5.480917    -4.918246
H        1.612118    -6.666056    -2.740123
H        0.981135    -5.500774    -0.653739
H        1.179948    -1.391917     5.250663
H        3.394648    -1.742800     6.108835
H        5.351823    -0.693242     5.018519
H        5.027895     0.771851     3.044474
H        2.770971     1.136621     2.131959
H       -1.229275     2.624183     1.813067
H       -1.988789     4.652590     2.972574
H       -1.830969     4.801227     5.441899
H       -0.894148     2.905874     6.740375
H       -0.102854     0.872484     5.577735
H       -2.769907     0.037790     4.016877
H       -4.140132    -1.635698     5.196555
H       -3.248639    -3.906476     5.630932
H       -0.946285    -4.490148     4.922292
H        0.430774    -2.830470     3.736415
H       -2.839689     3.735484    -3.842708
H       -4.946748     4.527712    -4.861567
H       -6.523860     2.906944    -5.877765
H       -6.004086     0.486088    -5.856567
H       -4.544908     1.593037    -2.182486
H       -5.818625     1.126808    -0.225400
H       -4.799257    -0.083289     1.763249
H       -2.495578    -0.730291     1.737450
96
ex_0323 frame18 As-trans-conf29
O        3.123172     0.000000     0.000000
C        2.020000     0.000000     0.000000
Ru       0.000000     0.000000     0.000000
Cl      -0.036504     2.358702    -0.444084
As       0.000000     0.000000     2.650000
C        0.896294    -1.442088     3.636147
C        0.154525    -2.411681     4.327651
C        0.815469    -3.416725     5.043398
C        2.213272    -3.460292     5.066744
C        2.953874    -2.504022     4.367569
C        2.297779    -1.502126     3.648319
C        0.869906     1.475983     3.664821
C        1.401481     1.267243     4.955638
C        1.966439     2.327273     5.668081
C        2.035810     3.596823     5.094040
C        1.537629     3.807277     3.805800
C        0.960078     2.750215     3.092949
C       -1.706752     0.104549     3.812565
C       -2.917775    -0.272084     3.262201
C       -4.121277    -0.267270     3.942347
C       -4.147863     0.148132     5.256421
C       -2.957071     0.561939     5.866286
C       -1.730529     0.541682     5.157838
As       0.000000     0.000000    -2.650000
C        0.740417    -1.435636    -3.813567
C        0.685168    -1.348790    -5.218173
C        1.217787    -2.378534    -6.007409
C        1.803684    -3.495954    -5.405392
C        1.857857    -3.585729    -4.014543
C        1.330071    -2.558403    -3.229075
C        0.977563     1.404423    -3.638435
C        0.459947     1.967945    -4.818728
C        1.178474     2.954845    -5.499616
C        2.410606     3.391466    -5.007663
C        2.928123     2.839058    -3.833905
C        2.214395     1.848965    -3.152510
C       -1.767430     0.067611    -3.508198
C       -2.462730     1.282842    -3.580520
C       -3.715181     1.340035    -4.199411
C       -4.279892     0.183652    -4.745325
C       -3.595769    -1.032428    -4.666716
C       -2.342355    -1.092686    -4.051235
S       -2.350396    -0.072405     0.015806
C       -2.495196    -1.817934     0.541443
N       -3.690383    -2.249806     0.812570
C       -4.206674    -3.376677     1.511814
C       -3.987671    -3.521852     2.900377
C       -4.582828    -4.577466     3.598796
C       -5.340066    -5.526314     2.910681
C       -5.498814    -5.423537     1.524867
C       -4.938730    -4.348725     0.824672
Cl      -5.157225    -4.225021    -0.912566
C       -1.240601    -2.669061     0.634923
C       -1.218697    -4.130499     1.044821
C       -0.057840    -4.794711     1.023030
C        1.193460    -4.130914     0.607989
C        1.213574    -2.832488     0.287336
N        0.016185    -2.041653     0.310861
H       -0.925679    -2.392940     4.323844
H        0.245153    -4.160259     5.584712
H        2.723046    -4.233958     5.626584
H        4.035820    -2.535365     4.387244
H        2.878155    -0.759578     3.115825
H        1.348281     0.305478     5.443701
H        2.341235     2.164488     6.670851
H        2.470795     4.417296     5.650048
H        1.590649     4.793276     3.363464
H        0.565920     2.934787     2.109767
H       -2.958516    -0.585014     2.313913
H       -5.022136    -0.599669     3.434075
H       -5.092079     0.144669     5.785626
H       -2.995732     0.894456     6.892312
H       -0.869748     0.868254     5.691297
H        0.232548    -0.506015    -5.711613
H        1.175932    -2.313938    -7.086990
H        2.213904    -4.292708    -6.013666
H        2.308060    -4.450673    -3.543097
H        1.377908    -2.640193    -2.169380
H       -0.482695     1.650273    -5.232623
H        0.779706     3.379518    -6.411686
H        2.964509     4.155748    -5.537007
H        3.883261     3.176748    -3.452834
H        2.628156     1.429247    -2.248959
H       -2.031779     2.182422    -3.160392
H       -4.247247     2.280585    -4.257517
H       -5.248590     0.228711    -5.225799
H       -4.036337    -1.929038    -5.083285
H       -1.832549    -2.044268    -3.995136
H       -3.426178    -2.798553     3.467289
H       -4.472840    -4.652471     4.675574
H       -5.810808    -6.337383     3.452182
H       -6.088435    -6.160049     0.998625
H       -2.091284    -4.684905     1.351606
H       -0.022151    -5.841574     1.305497
H        2.111000    -4.705120     0.553840
H        2.159376    -2.418226    -0.014263
96
ex_0323 frame19 all-cis-conf14
O        3.123172     0.000000     0.000000
C        2.020000     0.000000     0.000000
Ru       0.000000     0.000000     0.000000
Cl       0.094967     2.445314     0.038790
As      -2.650000     0.000000     0.000000
C       -3.640194    -1.714636     0.150090
C       -4.344293    -2.270668    -0.932257
C       -5.068803    -3.460321    -0.750947
C       -5.084249    -4.097948     0.495776
C       -4.361746    -3.559534     1.557769
C       -3.636062    -2.387383     1.368482
C       -3.793099     0.983701     1.301572
C       -5.000322     0.445258     1.802786
C       -5.763749     1.169776     2.724543
C       -5.331432     2.421972     3.163833
C       -4.146429     2.961958     2.663733
C       -3.388749     2.245655     1.732585
C       -3.632453     0.650090    -1.614965
C       -3.041206     0.536069    -2.880155
C       -3.699111     0.998922    -4.022820
C       -4.965298     1.573924    -3.915063
C       -5.575144     1.681519    -2.664273
C       -4.916459     1.226009    -1.516764
As       0.000000     0.000000     2.650000
C       -0.526554     1.517784     3.842627
C       -0.707296     1.333097     5.229430
C       -1.140686     2.394820     6.032057
C       -1.378409     3.649819     5.468422
C       -1.158910     3.850393     4.106714
C       -0.723003     2.792952     3.305676
C        1.731099    -0.042442     3.647744
C        1.882162    -0.757213     4.856674
C        3.112742    -0.788153     5.514381
C        4.205407    -0.103188     4.986929
C        4.064221     0.625652     3.803975
C        2.833183     0.656338     3.137838
C       -1.031281    -1.372260     3.756214
C       -0.471955    -2.641478     4.056419
C       -1.226979    -3.624115     4.693045
C       -2.527532    -3.343447     5.102588
C       -3.066674    -2.069695     4.893759
C       -2.318480    -1.077668     4.239493
S        0.386920    -0.027887    -2.317887
C        0.303042    -1.715925    -2.609487
N        0.279519    -2.211042    -3.798392
C        0.322361    -1.596687    -5.069583
C        1.176904    -0.515206    -5.322578
C        1.200424     0.069201    -6.587482
C        0.363476    -0.412166    -7.598535
C       -0.488380    -1.491203    -7.350602
C       -0.508564    -2.086030    -6.088990
Cl      -1.579519    -3.450553    -5.783547
C        0.250586    -2.616931    -1.483177
C        0.381108    -4.114517    -1.623109
C        0.252078    -4.877672    -0.529283
C        0.023065    -4.252806     0.784899
C       -0.071414    -2.922493     0.891371
N        0.067274    -2.051004    -0.192024
H       -4.361342    -1.799257    -1.901342
H       -5.628109    -3.886041    -1.572526
H       -5.654178    -5.006283     0.642479
H       -4.368902    -4.038726     2.529547
H       -3.095181    -1.969031     2.171168
H       -5.389142    -0.505504     1.483610
H       -6.694647     0.761096     3.096580
H       -5.919662     2.978475     3.882137
H       -3.817459     3.937591     2.995157
H       -2.490269     2.673173     1.330839
H       -2.081139     0.084168    -2.994818
H       -3.226408     0.909328    -4.992784
H       -5.475455     1.931279    -4.800414
H       -6.561409     2.120251    -2.583190
H       -5.432686     1.331769    -0.581323
H       -0.545435     0.376613     5.699193
H       -1.303386     2.242114     7.090813
H       -1.729239     4.467348     6.084920
H       -1.337629     4.822970     3.665646
H       -0.561175     2.978228     2.270347
H        1.081260    -1.285237     5.330811
H        3.215623    -1.344619     6.438067
H        5.157074    -0.131117     5.501552
H        4.910592     1.167424     3.403953
H        2.739987     1.234168     2.232499
H        0.528339    -2.904791     3.731048
H       -0.807118    -4.611766     4.845438
H       -3.117867    -4.118836     5.574513
H       -4.079343    -1.863670     5.211458
H       -2.774240    -0.117252     4.046980
H        1.849320    -0.147998    -4.560617
H        1.872915     0.892328    -6.780841
H        0.380653     0.045899    -8.576247
H       -1.128216    -1.869924    -8.137227
H        0.533959    -4.583668    -2.588472
H        0.302568    -5.959219    -0.597114
H       -0.078731    -4.869644     1.673789
H       -0.245445    -2.484843     1.786533
96
ex_0323 frame20 all-cis-conf27
O        3.155132     0.000000     0.000000
C        2.020000     0.000000     0.000000
Ru       0.000000     0.000000     0.000000
Cl       0.747119     2.281128     0.010249
As       0.000000    -2.650000     0.000000
C       -1.721626    -3.627477     0.274299
C       -2.348641    -3.570723     1.505445
C       -3.556985    -4.209529     1.760437
C       -4.172747    -4.929184     0.745816
C       -3.560908    -5.010025    -0.508656
C       -2.323018    -4.375546    -0.744329
C        1.235473    -3.530243     1.268407
C        0.843987    -4.645179     2.028361
C        1.736471    -5.200088     2.958725
C        3.017115    -4.658882     3.120644
C        3.417007    -3.576689     2.340316
C        2.534230    -3.029563     1.413109
C        0.567929    -3.730466    -1.576259
C        0.646156    -3.113941    -2.808203
C        0.993623    -3.791800    -3.966661
C        1.304780    -5.142439    -3.892776
C        1.259838    -5.797100    -2.652801
C        0.892372    -5.095570    -1.485088
As       0.000000     0.000000     2.650000
C        1.785557    -0.159955     3.548089
C        1.970539    -0.914076     4.727197
C        3.252106    -1.117535     5.242162
C        4.355115    -0.529146     4.627504
C        4.172161     0.292606     3.514560
C        2.890042     0.495036     2.993423
C       -0.601607     1.606150     3.599277
C       -1.125030     2.682955     2.872611
C       -1.565068     3.832803     3.530690
C       -1.484967     3.912696     4.922443
C       -0.963516     2.841147     5.655201
C       -0.514576     1.690655     4.996329
C       -1.082082    -1.275852     3.716799
C       -2.382433    -0.938955     4.122984
C       -3.171638    -1.882399     4.795396
C       -2.656649    -3.147957     5.097739
C       -1.346181    -3.470614     4.743040
C       -0.555935    -2.530564     4.076212
S       -2.351909    -0.019636    -0.052537
C       -2.522720    -0.627708    -1.709174
N       -3.645307    -1.201401    -2.027397
C       -4.197497    -1.741324    -3.225884
C       -4.136224    -3.119696    -3.471845
C       -4.728610    -3.675934    -4.605086
C       -5.354229    -2.848434    -5.534428
C       -5.383056    -1.464137    -5.328416
C       -4.811582    -0.905094    -4.173590
Cl      -4.869145     0.830924    -3.924165
C       -1.349249    -0.448216    -2.643339
C       -1.361581    -0.733597    -4.130532
C       -0.229703    -0.551741    -4.834036
C        0.991734     0.008029    -4.200118
C        1.027292     0.284740    -2.884574
N       -0.113960     0.037735    -2.058381
H       -1.908167    -3.003976     2.245197
H       -4.015813    -4.132731     2.738438
H       -5.124300    -5.410204     0.932665
H       -4.059407    -5.554884    -1.298155
H       -1.876820    -4.436802    -1.722712
H       -0.140635    -5.072990     1.932589
H        1.433461    -6.042215     3.565050
H        3.702078    -5.075426     3.847418
H        4.407504    -3.152682     2.455002
H        2.867146    -2.205286     0.826440
H        0.407865    -2.111965    -2.859456
H        1.013163    -3.263556    -4.913421
H        1.575292    -5.671221    -4.797557
H        1.504566    -6.848116    -2.607136
H        0.851053    -5.620989    -0.544783
H        1.172769    -1.386548     5.258533
H        3.388478    -1.746133     6.113517
H        5.348279    -0.704345     5.019575
H        5.026692     0.760413     3.044748
H        2.771367     1.129405     2.134357
H       -1.211571     2.629134     1.799810
H       -1.972997     4.658123     2.960636
H       -1.832197     4.802281     5.431424
H       -0.910973     2.901912     6.733866
H       -0.120485     0.866734     5.574008
H       -2.809204     0.021280     3.869322
H       -4.192058    -1.642468     5.062845
H       -3.277839    -3.885724     5.589384
H       -0.951699    -4.457426     4.951785
H        0.434777    -2.810030     3.770009
H       -3.691212    -3.779606    -2.772965
H       -4.713745    -4.750637    -4.751199
H       -5.824490    -3.283684    -6.406647
H       -5.882605    -0.831917    -6.048565
H       -2.200106    -1.164952    -4.648963
H       -0.273041    -0.795792    -5.885207
H        1.883857     0.153340    -4.800899
H        1.950710     0.650336    -2.456930
96
ex_0323 frame21 all-cis-conf19-2
O        3.123172     0.000000     0.000000
C        2.020000     0.000000     0.000000
Ru       0.000000     0.000000     0.000000
Cl       0.002051     2.402012    -0.052083
As      -2.650000     0.000000     0.000000
C       -3.656259    -1.710574     0.145336
C       -4.340064    -2.271358    -0.947493
C       -5.065724    -3.462056    -0.775944
C       -5.102479    -4.097043     0.471695
C       -4.406414    -3.551211     1.547047
C       -3.684662    -2.375128     1.370006
C       -3.792634     0.990134     1.300075
C       -4.998571     0.452747     1.806752
C       -5.760711     1.178645     2.727241
C       -5.330663     2.433653     3.159059
C       -4.147940     2.974222     2.653468
C       -3.389666     2.255205     1.724443
C       -3.620198     0.651226    -1.613562
C       -3.016850     0.543773    -2.873056
C       -3.674796     1.001271    -4.019360
C       -4.946250     1.568434    -3.917851
C       -5.562537     1.674417    -2.670425
C       -4.907236     1.221530    -1.521070
As       0.000000     0.000000     2.650000
C       -0.526697     1.511673     3.854781
C       -0.703512     1.319641     5.240100
C       -1.129926     2.380258     6.049900
C       -1.364739     3.639988     5.494120
C       -1.152885     3.846124     4.133065
C       -0.727069     2.790565     3.326225
C        1.723627    -0.057575     3.643703
C        1.872058    -0.795497     4.837141
C        3.099859    -0.820979     5.503570
C        4.190292    -0.117354     4.991976
C        4.051064     0.623865     3.816740
C        2.823462     0.654111     3.146545
C       -1.000401    -1.386676     3.668338
C       -0.454848    -2.671505     3.831737
C       -1.176801    -3.669408     4.489264
C       -2.439001    -3.386943     5.014943
C       -2.975845    -2.101920     4.893211
C       -2.256742    -1.098370     4.232445
S        0.515861     0.176851    -2.288054
C        1.345064    -1.406805    -2.364494
N        2.081034    -1.608644    -3.446230
C        2.867623    -2.702202    -3.854064
C        4.231553    -2.699597    -3.556114
C        5.046384    -3.744339    -3.986170
C        4.493296    -4.814262    -4.694622
C        3.120578    -4.841719    -4.968483
C        2.301464    -3.784393    -4.552579
Cl       0.579130    -3.821840    -4.907506
C        1.121502    -2.415481    -1.272896
C        1.778217    -3.763733    -1.149843
C        1.367284    -4.577894    -0.161389
C        0.343516    -4.152342     0.824545
C       -0.205077    -2.931431     0.755400
N        0.186555    -2.037126    -0.257864
H       -4.337234    -1.804335    -1.918901
H       -5.607453    -3.892366    -1.606801
H       -5.669484    -5.008620     0.609292
H       -4.430082    -4.028103     2.519757
H       -3.168879    -1.950798     2.187731
H       -5.389764    -0.498570     1.494726
H       -6.689170     0.768066     3.103564
H       -5.919395     2.991298     3.875911
H       -3.821005     3.952337     2.979389
H       -2.492340     2.683504     1.320541
H       -2.045926     0.098739    -2.974307
H       -3.199404     0.914301    -4.987745
H       -5.455804     1.922068    -4.805113
H       -6.551406     2.108640    -2.593011
H       -5.428655     1.323450    -0.587675
H       -0.541255     0.358675     5.700897
H       -1.288375     2.224415     7.108449
H       -1.707061     4.457456     6.115376
H       -1.327836     4.821753     3.696292
H       -0.572213     2.985862     2.294696
H        1.063684    -1.340719     5.286664
H        3.203825    -1.386402     6.421229
H        5.139664    -0.140888     5.511289
H        4.894972     1.177218     3.426394
H        2.729440     1.243403     2.247872
H        0.516431    -2.906810     3.416846
H       -0.761563    -4.665092     4.579073
H       -3.003567    -4.166619     5.509652
H       -3.958755    -1.889240     5.292410
H       -2.705513    -0.121178     4.119126
H        4.661818    -1.861420    -3.021668
H        6.107257    -3.714543    -3.778000
H        5.131771    -5.616900    -5.037316
H        2.702434    -5.669533    -5.526532
H        2.521840    -4.128734    -1.832348
H        1.787491    -5.567612    -0.075611
H        0.035177    -4.836454     1.610277
H       -0.944209    -2.624145     1.467188
96
ex_0323 frame22 all-cis-conf17
O        3.155132     0.000000     0.000000
C        2.020000     0.000000     0.000000
Ru       0.000000     0.000000     0.000000
Cl      -0.071823     2.386587    -0.244855
As      -2.650000     0.000000     0.000000
C       -3.582689     1.713051     0.296985
C       -3.713320     2.224077     1.593434
C       -4.332160     3.455818     1.813846
C       -4.843698     4.180265     0.736607
C       -4.739566     3.668257    -0.560450
C       -4.120905     2.431428    -0.782119
C       -3.647329    -1.243795     1.186071
C       -4.696662    -0.806885     2.017718
C       -5.326884    -1.706912     2.883082
C       -4.924211    -3.043806     2.922271
C       -3.911480    -3.489476     2.072879
C       -3.295707    -2.596533     1.195071
C       -3.617835    -0.559562    -1.634661
C       -2.951534    -0.574798    -2.864731
C       -3.607730    -0.971818    -4.030000
C       -4.944461    -1.364791    -3.975176
C       -5.625153    -1.350553    -2.753745
C       -4.968922    -0.944167    -1.584279
As       0.000000     0.000000     2.650000
C        1.778350    -0.183941     3.533319
C        1.960425    -0.978314     4.684112
C        3.238206    -1.168530     5.215316
C        4.340032    -0.544978     4.631051
C        4.159978     0.295933     3.531595
C        2.881429     0.492553     3.000295
C       -0.549513     1.620743     3.654761
C       -1.013193     2.741481     2.964083
C       -1.443422     3.882529     3.632039
C       -1.403231     3.921369     5.021121
C       -0.922363     2.816339     5.734115
C       -0.482788     1.668156     5.054831
C       -1.067372    -1.289329     3.758728
C       -2.280430    -0.899032     4.346153
C       -3.034299    -1.825735     5.079380
C       -2.586560    -3.141760     5.232319
C       -1.371546    -3.531134     4.674102
C       -0.608897    -2.608035     3.961253
S        0.506830     0.159281    -2.291104
C        1.325499    -1.426180    -2.423452
N        2.024833    -1.628779    -3.486000
C        2.830571    -2.705468    -3.883966
C        4.188413    -2.683276    -3.564087
C        5.024801    -3.711377    -3.989024
C        4.497886    -4.783899    -4.713806
C        3.129253    -4.831244    -5.006912
C        2.289276    -3.790636    -4.594084
Cl       0.570915    -3.851746    -4.967079
C        1.153802    -2.428925    -1.280902
C        1.804751    -3.791186    -1.182848
C        1.544853    -4.547599    -0.099888
C        0.575225    -4.110858     0.932030
C       -0.011885    -2.912970     0.844940
N        0.290905    -2.033267    -0.201216
H       -3.315011     1.674104     2.432853
H       -4.406481     3.850401     2.819300
H       -5.314917     5.139494     0.907649
H       -5.130817     4.235547    -1.394552
H       -4.034453     2.063307    -1.794111
H       -5.044378     0.205766     2.029209
H       -6.116254    -1.362691     3.538476
H       -5.392241    -3.731731     3.613870
H       -3.594846    -4.523895     2.100385
H       -2.532354    -2.957007     0.530970
H       -1.932233    -0.272797    -2.933697
H       -3.076839    -0.973629    -4.974120
H       -5.450589    -1.676833    -4.879521
H       -6.662143    -1.655591    -2.715035
H       -5.518062    -0.939369    -0.655480
H        1.155967    -1.480305     5.180870
H        3.373539    -1.811828     6.075766
H        5.330568    -0.709494     5.034469
H        5.013341     0.786325     3.082485
H        2.762073     1.146305     2.153806
H       -1.095012     2.733021     1.913519
H       -1.822645     4.725909     3.065809
H       -1.752667     4.804812     5.538399
H       -0.901367     2.850408     6.813620
H       -0.128508     0.818578     5.618630
H       -2.666613     0.100314     4.216201
H       -3.982894    -1.532885     5.508702
H       -3.184838    -3.863528     5.773398
H       -1.021763    -4.550371     4.783294
H        0.331395    -2.934490     3.538770
H        4.595868    -1.842221    -3.015836
H        6.081401    -3.665589    -3.763788
H        5.153302    -5.573504    -5.052921
H        2.729652    -5.661958    -5.573470
H        2.517832    -4.168785    -1.890528
H        2.047235    -5.499377     0.032118
H        0.359113    -4.750344     1.782562
H       -0.687170    -2.575565     1.584348
96
ex_0323 frame23 all-cis-conf12-2
O        3.155132     0.000000     0.000000
C        2.020000     0.000000     0.000000
Ru       0.000000     0.000000     0.000000
Cl       0.224639     2.379624    -0.211961
As       0.000000    -2.650000     0.000000
C       -1.752870    -3.587735     0.218100
C       -2.341717    -3.642832     1.469223
C       -3.564886    -4.263940     1.690812
C       -4.230325    -4.859065     0.625781
C       -3.661649    -4.821841    -0.653726
C       -2.415945    -4.199278    -0.863193
C        1.228116    -3.550007     1.260081
C        0.832997    -4.667309     2.012940
C        1.723012    -5.225510     2.944634
C        3.005615    -4.688658     3.109298
C        3.410318    -3.606740     2.331294
C        2.530313    -3.055989     1.403779
C        0.510450    -3.665319    -1.627478
C        0.410553    -3.051595    -2.875252
C        0.766992    -3.713600    -4.045348
C        1.231733    -5.023630    -3.978838
C        1.326855    -5.665715    -2.737781
C        0.971377    -4.989965    -1.557931
As       0.000000     0.000000     2.650000
C        1.785122    -0.154786     3.550643
C        1.970535    -0.906965     4.730827
C        3.251977    -1.102903     5.250130
C        4.354180    -0.510744     4.637268
C        4.170737     0.306981     3.521482
C        2.888978     0.502333     2.996233
C       -0.606895     1.601642     3.617072
C       -1.151783     2.675590     2.903113
C       -1.585671     3.823969     3.565119
C       -1.483791     3.905360     4.954059
C       -0.947989     2.834905     5.678718
C       -0.502303     1.685209     5.013250
C       -1.085255    -1.277391     3.710114
C       -2.389856    -0.942971     4.104157
C       -3.176846    -1.878871     4.788472
C       -2.657948    -3.138054     5.108724
C       -1.346495    -3.461694     4.757732
C       -0.558960    -2.528752     4.076742
S       -2.350716     0.047436    -0.026395
C       -2.547755    -0.034822    -1.812907
N       -3.711719    -0.156399    -2.357980
C       -4.976430    -0.193606    -1.708626
C       -5.310836     0.745688    -0.713259
C       -6.564289     0.697861    -0.098616
C       -7.484336    -0.288605    -0.461863
C       -7.154920    -1.226688    -1.443972
C       -5.904282    -1.182679    -2.067091
Cl      -5.501401    -2.370896    -3.299665
C       -1.342369     0.034592    -2.676235
C       -1.435623     0.004746    -4.173909
C       -0.308825     0.033647    -4.893264
C        1.012160     0.151967    -4.231313
C        1.120585     0.205060    -2.890697
N       -0.053821     0.132775    -2.066260
H       -1.856011    -3.178639     2.257029
H       -3.992554    -4.273156     2.686526
H       -5.186847    -5.336428     0.796453
H       -4.194267    -5.271715    -1.479779
H       -2.014472    -4.173240    -1.863224
H       -0.153327    -5.089628     1.915931
H        1.416611    -6.066113     3.551240
H        3.687990    -5.107215     3.837556
H        4.401367    -3.184522     2.449609
H        2.864188    -2.226875     0.821056
H        0.030730    -2.072465    -2.949836
H        0.675201    -3.207104    -4.999328
H        1.507312    -5.538300    -4.890145
H        1.675937    -6.687744    -2.695218
H        1.047476    -5.506708    -0.614673
H        1.172339    -1.381360     5.260203
H        3.389364    -1.728034     6.123819
H        5.347175    -0.679790     5.032857
H        5.024768     0.777573     3.053267
H        2.769652     1.134549     2.135185
H       -1.262495     2.623911     1.838507
H       -2.005589     4.646441     2.999043
H       -1.826560     4.794979     5.466122
H       -0.881009     2.897428     6.756246
H       -0.095676     0.864122     5.585451
H       -2.816884     0.015192     3.842553
H       -4.196815    -1.636239     5.055404
H       -3.275899    -3.869158     5.613996
H       -0.948341    -4.443389     4.982290
H        0.434100    -2.809604     3.775596
H       -4.620986     1.530165    -0.430463
H       -6.824209     1.429803     0.655278
H       -8.455309    -0.323053     0.013626
H       -7.872244    -1.986644    -1.724082
H       -2.397462    -0.084887    -4.669323
H       -0.361329    -0.034196    -5.975030
H        1.907286     0.177935    -4.843375
H        2.110433     0.269977    -2.467037
96
ex_0323 frame24 As-trans-conf28
O        3.162558     0.000000     0.000000
C        2.020000     0.000000     0.000000
Ru       0.000000     0.000000     0.000000
Cl       0.026691     2.387092    -0.252087
As       0.000000     0.000000     2.650000
C        1.492229    -0.882269     3.577152
C        2.381039    -1.678589     2.851402
C        3.418677    -2.357186     3.481766
C        3.594152    -2.221897     4.857075
C        2.728032    -1.404040     5.594281
C        1.679752    -0.725728     4.955580
C        0.099659     1.805645     3.436527
C       -0.732238     2.194630     4.504744
C       -0.695450     3.504114     4.983792
C        0.193912     4.425333     4.431218
C        1.057132     4.032347     3.404645
C        1.020165     2.721557     2.919243
C       -1.462480    -0.790970     3.741988
C       -2.719052    -0.163086     3.789779
C       -3.733675    -0.665272     4.614623
C       -3.511073    -1.818207     5.380069
C       -2.279595    -2.485836     5.290610
C       -1.260139    -1.976719     4.472977
As       0.000000     0.000000    -2.650000
C        0.097345     1.771740    -3.512272
C       -0.854217     2.186309    -4.458800
C       -0.776482     3.468666    -5.011633
C        0.257693     4.332936    -4.642091
C        1.221473     3.914704    -3.722744
C        1.146063     2.636687    -3.167933
C        1.511228    -0.924023    -3.542899
C        2.372107    -0.235998    -4.416421
C        3.450891    -0.900818    -5.009012
C        3.669519    -2.255997    -4.751461
C        2.807959    -2.950577    -3.900845
C        1.731851    -2.288532    -3.303803
C       -1.591891    -0.838859    -3.481770
C       -1.498859    -2.064020    -4.163761
C       -2.641169    -2.651844    -4.715557
C       -3.877422    -2.010401    -4.620057
C       -3.976377    -0.783636    -3.960359
C       -2.839623    -0.201041    -3.390997
S       -2.344694    -0.053229     0.015230
C       -2.444998    -1.774361     0.542693
N       -3.733373    -2.196417     0.751873
C       -4.266319    -3.348088     1.386977
C       -4.080607    -3.512850     2.743337
C       -4.655550    -4.568575     3.449927
C       -5.389149    -5.524418     2.750042
C       -5.532234    -5.408603     1.357126
C       -4.973550    -4.312997     0.672699
Cl      -5.165373    -4.163154    -1.062598
C       -1.261835    -2.647969     0.621944
C       -1.230471    -4.066622     1.116349
C       -0.097487    -4.767404     0.940592
C        1.117947    -4.145088     0.374247
C        1.122775    -2.857504     0.018665
N       -0.040550    -2.053492     0.175906
H        2.263190    -1.801501     1.804857
H        4.077839    -2.990921     2.899897
H        4.398758    -2.753748     5.346487
H        2.865720    -1.304598     6.661080
H        1.004806    -0.109708     5.532653
H       -1.434463     1.531731     4.968104
H       -1.367002     3.804397     5.778693
H        0.211393     5.442359     4.798753
H        1.745388     4.747017     2.975335
H        1.677547     2.430574     2.111531
H       -2.900899     0.731384     3.207569
H       -4.695312    -0.169674     4.648387
H       -4.306748    -2.223959     5.991581
H       -2.126683    -3.411358     5.830728
H       -0.329103    -2.519739     4.410139
H       -1.664682     1.553413    -4.769616
H       -1.523244     3.794676    -5.723774
H        0.311802     5.326268    -5.066992
H        2.023002     4.581324    -3.432955
H        1.891242     2.323015    -2.447649
H        2.243092     0.807998    -4.638656
H        4.121167    -0.362440    -5.666406
H        4.506303    -2.766909    -5.210069
H        2.975196    -4.001421    -3.701495
H        1.074900    -2.840741    -2.650827
H       -0.572841    -2.595368    -4.257209
H       -2.566969    -3.608888    -5.216047
H       -4.757992    -2.466368    -5.054001
H       -4.934846    -0.286257    -3.887534
H       -2.932222     0.745595    -2.874741
H       -3.528115    -2.760019     3.204551
H       -4.544687    -4.635157     4.528715
H       -5.848288    -6.344634     3.288338
H       -6.102749    -6.150113     0.819932
H       -2.071963    -4.586989     1.533063
H       -0.059179    -5.813679     1.215801
H        2.019513    -4.735126     0.243296
H        2.033284    -2.440469    -0.392082
96
ex_0323 frame25 all-cis-conf22
O        3.155132     0.000000     0.000000
C        2.020000     0.000000     0.000000
Ru       0.000000     0.000000     0.000000
Cl       0.617657     2.263632     0.510646
As       0.000000    -2.650000     0.000000
C       -1.758896    -3.590555     0.244590
C       -2.281956    -3.672870     1.503542
C       -3.487884    -4.277810     1.808830
C       -4.223072    -4.843057     0.784891
C       -3.730152    -4.782897    -0.530206
C       -2.482273    -4.169543    -0.809667
C        1.239931    -3.516699     1.254959
C        0.868848    -4.636788     2.012574
C        1.763532    -5.151407     2.963124
C        3.031713    -4.579025     3.125947
C        3.414708    -3.503051     2.331060
C        2.528199    -2.996056     1.391426
C        0.504158    -3.621853    -1.660196
C        0.447816    -2.982440    -2.904697
C        0.811808    -3.615386    -4.079526
C        1.235111    -4.933674    -4.033240
C        1.281888    -5.605842    -2.803367
C        0.920763    -4.951135    -1.614448
As       0.000000     0.000000     2.650000
C        1.767311    -0.206791     3.515373
C        1.944188    -0.987587     4.673231
C        3.217727    -1.207315     5.185585
C        4.324023    -0.613395     4.582185
C        4.149763     0.219171     3.475697
C        2.872422     0.439578     2.963295
C       -0.630001     1.609596     3.605330
C       -1.179051     2.692241     2.895730
C       -1.595445     3.843981     3.552320
C       -1.497542     3.918497     4.938529
C       -0.981783     2.835763     5.661365
C       -0.535983     1.687633     4.995877
C       -1.084896    -1.291281     3.725690
C       -2.357586    -0.946043     4.211279
C       -3.165832    -1.925354     4.805542
C       -2.682854    -3.226014     4.982909
C       -1.381068    -3.543224     4.596669
C       -0.576708    -2.563493     4.005227
S       -0.128029     0.214118    -2.337109
C       -1.104123     1.441050    -1.781289
N       -0.925265     2.556216    -2.417201
C       -1.396542     3.873872    -2.524601
C       -2.548662     4.129583    -3.263114
C       -3.015974     5.437745    -3.386510
C       -2.374477     6.480351    -2.710717
C       -1.229510     6.227480    -1.961634
C       -0.714648     4.939023    -1.897531
Cl       0.785732     4.663268    -1.030180
C       -2.074691     1.211769    -0.574296
C       -3.044554     2.235233    -0.194069
C       -3.830944     2.008569     0.853740
C       -3.774185     0.742968     1.630872
C       -2.917175    -0.241530     1.308170
N       -2.046110    -0.054700     0.229659
H       -1.734255    -3.213738     2.211476
H       -3.849903    -4.293770     2.829598
H       -5.171982    -5.306700     1.024353
H       -4.326743    -5.205900    -1.322146
H       -2.128469    -4.115789    -1.825316
H       -0.110082    -5.076792     1.924610
H        1.467262    -5.980152     3.588927
H        3.718823    -4.962120     3.866940
H        4.389917    -3.045112     2.445869
H        2.842016    -2.170143     0.805025
H        0.106859    -2.017306    -3.022370
H        0.754362    -3.072793    -5.019085
H        1.513865    -5.426217    -4.953109
H        1.598454    -6.634423    -2.772926
H        0.959336    -5.476270    -0.675013
H        1.144646    -1.465034     5.194453
H        3.338234    -1.849277     6.047848
H        5.311910    -0.791659     4.978514
H        5.002167     0.687703     3.005119
H        2.755772     1.086878     2.115861
H       -1.318404     2.669967     1.839575
H       -1.999968     4.671888     2.980352
H       -1.832265     4.811044     5.448011
H       -0.926737     2.885978     6.737828
H       -0.139682     0.855919     5.558764
H       -2.771251     0.035262     4.038952
H       -4.182298    -1.688595     5.091139
H       -3.324652    -3.996859     5.390141
H       -1.015564    -4.558987     4.683590
H        0.392282    -2.826287     3.640393
H       -3.023432     3.325366    -3.813276
H       -3.869592     5.644556    -4.012284
H       -2.739800     7.491328    -2.786054
H       -0.703085     7.032934    -1.468550
H       -3.110402     3.157636    -0.732537
H       -4.518969     2.763974     1.136072
H       -4.437146     0.614942     2.472272
H       -2.872055    -1.152673     1.862793
96
ex_0323 frame26 As-trans-conf13-2
O        3.162558     0.000000     0.000000
C        2.020000     0.000000     0.000000
Ru       0.000000     0.000000     0.000000
Cl       0.060365     2.406538    -0.020097
As       0.000000     0.000000     2.650000
C        1.472252    -0.908782     3.549102
C        2.337930    -1.727100     2.809072
C        3.388277    -2.394305     3.437648
C        3.584258    -2.240666     4.811069
C        2.725728    -1.421079     5.553514
C        1.671515    -0.751482     4.923141
C        0.083151     1.790676     3.446468
C       -0.771918     2.173540     4.492960
C       -0.737877     3.485513     4.975335
C        0.165077     4.407759     4.439227
C        1.047019     4.014827     3.430473
C        1.020714     2.703739     2.953984
C       -1.513276    -0.873980     3.561490
C       -2.764987    -0.242108     3.602162
C       -3.845086    -0.856177     4.242759
C       -3.683378    -2.107559     4.842572
C       -2.441052    -2.746597     4.800737
C       -1.353347    -2.128174     4.174097
As       0.000000     0.000000    -2.650000
C        0.089586     1.770201    -3.499140
C       -0.861589     2.185768    -4.446033
C       -0.782940     3.467494    -4.997918
C        0.252181     4.329785    -4.627116
C        1.212077     3.911563    -3.702925
C        1.132663     2.635061    -3.145608
C        1.514188    -0.926465    -3.523938
C        2.368045    -0.243245    -4.406220
C        3.444400    -0.907983    -5.000467
C        3.667119    -2.260956    -4.736509
C        2.817093    -2.951199    -3.869373
C        1.745241    -2.287297    -3.263370
C       -1.591773    -0.840828    -3.476047
C       -1.498597    -2.071661    -4.145424
C       -2.639178    -2.659837    -4.700136
C       -3.874089    -2.013423    -4.618417
C       -3.974004    -0.782107    -3.967318
C       -2.838993    -0.199535    -3.394308
S       -0.037794    -2.351810     0.027030
C       -1.870704    -2.465553    -0.077634
N       -2.481715    -3.736967    -0.172955
C       -1.795087    -4.970505    -0.210671
C       -0.807825    -5.287689     0.743021
C       -0.151944    -6.519267     0.679093
C       -0.478482    -7.432425    -0.328172
C       -1.457818    -7.115113    -1.273507
C       -2.110443    -5.885020    -1.218476
Cl      -3.332090    -5.485790    -2.420275
C       -2.645711    -1.361752    -0.065967
C       -4.122555    -1.479536    -0.120948
C       -4.867676    -0.369932    -0.131238
C       -4.234976     0.964110    -0.058040
C       -2.902299     1.087432     0.000194
N       -2.060030    -0.059115    -0.000505
H        2.193320    -1.873553     1.751976
H        4.044391    -3.033168     2.858920
H        4.397685    -2.760773     5.298281
H        2.875045    -1.307277     6.617650
H        1.006565    -0.124409     5.500596
H       -1.488133     1.495847     4.922052
H       -1.421878     3.790541     5.756482
H        0.179434     5.426472     4.802387
H        1.741686     4.727375     3.005844
H        1.694395     2.412315     2.159439
H       -2.904773     0.722420     3.131959
H       -4.808154    -0.363077     4.271932
H       -4.522267    -2.584765     5.333155
H       -2.322708    -3.723674     5.251641
H       -0.407033    -2.648549     4.142665
H       -1.670951     1.553784    -4.761168
H       -1.528363     3.792858    -5.711913
H        0.309830     5.321315    -5.055000
H        2.014802     4.575990    -3.412733
H        1.873675     2.318587    -2.422479
H        2.231133     0.798796    -4.634633
H        4.107547    -0.370970    -5.666130
H        4.499934    -2.772243    -5.201960
H        2.991279    -4.000089    -3.665493
H        1.101341    -2.834688    -2.588984
H       -0.571249    -2.604276    -4.225962
H       -2.564568    -3.620703    -5.192757
H       -4.752823    -2.469190    -5.056432
H       -4.931488    -0.280799    -3.905369
H       -2.932784     0.751108    -2.886416
H       -0.548690    -4.596754     1.536682
H        0.606391    -6.766417     1.411109
H        0.025648    -8.386823    -0.377621
H       -1.707739    -7.817748    -2.055716
H       -4.610072    -2.446080    -0.178517
H       -5.946691    -0.451595    -0.195092
H       -4.862772     1.850390    -0.056874
H       -2.488254     2.081744     0.048336
96
ex_0323 frame27 As-trans-conf13
O        3.162558     0.000000     0.000000
C        2.020000     0.000000     0.000000
Ru       0.000000     0.000000     0.000000
Cl      -0.054200     2.400643     0.009416
As       0.000000     0.000000     2.650000
C        1.478365    -0.886214     3.590747
C        2.369598    -1.677876     2.867652
C        3.410727    -2.353720     3.492744
C        3.584798    -2.221318     4.867759
C        2.711026    -1.411596     5.606985
C        1.655365    -0.739584     4.970175
C        0.087898     1.791177     3.453594
C       -0.771419     2.175223     4.496579
C       -0.736103     3.486325     4.982060
C        0.172596     4.407006     4.453433
C        1.061046     4.012794     3.450824
C        1.033002     2.702544     2.969757
C       -1.511645    -0.871765     3.564131
C       -2.764317    -0.241516     3.603106
C       -3.842715    -0.854597     4.246758
C       -3.677531    -2.102508     4.852737
C       -2.434824    -2.740261     4.811450
C       -1.349325    -2.123222     4.180483
As       0.000000     0.000000    -2.650000
C        0.094146     1.773209    -3.501173
C       -0.852337     2.188271    -4.453962
C       -0.773789     3.469943    -5.005504
C        0.257843     4.333808    -4.630524
C        1.214849     3.916789    -3.702558
C        1.134796     2.640032    -3.143401
C        1.513863    -0.922527    -3.534007
C        2.370830    -0.236925    -4.411788
C        3.448242    -0.903059    -5.005204
C        3.669859    -2.256944    -4.742143
C        2.814481    -2.948182    -3.882528
C        1.740515    -2.284220    -3.284074
C       -1.584298    -0.839228    -3.496957
C       -1.489896    -2.073300    -4.161793
C       -2.629787    -2.662187    -4.719246
C       -3.863048    -2.012082    -4.649228
C       -3.960616    -0.774906    -4.012848
C       -2.827592    -0.192602    -3.434536
S       -2.351136    -0.046709     0.002108
C       -2.478177    -1.855671     0.090599
N       -3.754131    -2.467713     0.185465
C       -4.995236    -1.794432     0.208236
C       -5.296521    -0.790526    -0.725945
C       -6.528087    -0.138418    -0.682509
C       -7.461014    -0.483623     0.297924
C       -7.163748    -1.485241     1.227461
C       -5.933625    -2.140554     1.181777
Cl      -5.567273    -3.401548     2.350748
C       -1.375057    -2.634289     0.067972
C       -1.500535    -4.121771     0.119595
C       -0.396252    -4.874039     0.108664
C        0.937029    -4.248099     0.006185
C        1.063830    -2.914220    -0.057051
N       -0.108283    -2.059411    -0.003731
H        2.248165    -1.789689     1.824670
H        4.073930    -2.979882     2.906545
H        4.394754    -2.748054     5.353998
H        2.851238    -1.311568     6.673026
H        0.978674    -0.124928     5.545799
H       -1.491541     1.499059     4.921042
H       -1.423969     3.792421     5.759556
H        0.186304     5.425580     4.817856
H        1.761353     4.724767     3.034248
H        1.711740     2.411069     2.179144
H       -2.906095     0.720671     3.128553
H       -4.807416    -0.364437     4.272460
H       -4.515399    -2.579633     5.344919
H       -2.314532    -3.715426     5.265646
H       -0.401811    -2.641479     4.149567
H       -1.658807     1.557147    -4.775551
H       -1.516942     3.793908    -5.722759
H        0.314801     5.325521    -5.058595
H        2.015446     4.583320    -3.411203
H        1.873733     2.325495    -2.417506
H        2.236174     0.805865    -4.638046
H        4.114088    -0.367000    -5.668651
H        4.504173    -2.769308    -5.203489
H        2.984099    -3.997902    -3.678537
H        1.088262    -2.832953    -2.624905
H       -0.565985    -2.611220    -4.234399
H       -2.557085    -3.627237    -5.203435
H       -4.743354    -2.468956    -5.082675
H       -4.917655    -0.271587    -3.955801
H       -2.922262     0.759373    -2.927529
H       -4.591336    -0.514349    -1.485528
H       -6.756070     0.633142    -1.407391
H       -8.414052     0.023218     0.337262
H       -7.882170    -1.750050     1.989151
H       -2.468456    -4.610735     0.179683
H       -0.475164    -5.955079     0.158775
H        1.821261    -4.876784    -0.034870
H        2.058018    -2.512098    -0.160451
96
ex_0323 frame28 As-trans-conf15-2
O        3.154728     0.000000     0.000000
C        2.020000     0.000000     0.000000
Ru       0.000000     0.000000     0.000000
Cl       0.102030     2.397517    -0.020076
As       0.000000     0.000000     2.650000
C       -1.722945    -0.489399     3.490322
C       -1.907403    -1.754674     4.072790
C       -3.138390    -2.098442     4.638211
C       -4.184057    -1.173892     4.657012
C       -4.005325     0.091859     4.093607
C       -2.780650     0.433209     3.509557
C        1.251247    -1.217441     3.588971
C        1.267676    -2.580643     3.259758
C        2.144399    -3.461536     3.892184
C        3.014568    -2.987826     4.872776
C        3.005210    -1.631965     5.217036
C        2.125594    -0.744866     4.580583
C        0.495161     1.729158     3.433958
C       -0.284311     2.349949     4.423523
C        0.084528     3.608810     4.910925
C        1.238812     4.237790     4.434439
C        2.031015     3.606969     3.473449
C        1.664585     2.353471     2.984181
As       0.000000     0.000000    -2.650000
C       -1.659423    -0.509914    -3.579529
C       -1.740765    -1.710983    -4.301550
C       -2.936431    -2.065564    -4.937546
C       -4.044061    -1.214331    -4.878197
C       -3.964007    -0.013442    -4.169576
C       -2.777015     0.336718    -3.521055
C        0.448595     1.752959    -3.408824
C       -0.356233     2.357489    -4.389693
C       -0.053239     3.643150    -4.846216
C        1.069553     4.314569    -4.356679
C        1.897200     3.696565    -3.415959
C        1.597667     2.411206    -2.958780
C        1.295192    -1.226956    -3.483451
C        1.629091    -1.110865    -4.835437
C        2.530556    -2.021570    -5.408187
C        3.093768    -3.044916    -4.634169
C        2.772865    -3.149975    -3.283741
C        1.894761    -2.234880    -2.712314
S       -0.127266    -2.343517     0.017596
C       -1.904438    -2.461541    -0.078127
N       -2.519455    -3.739606    -0.168928
C       -1.827782    -4.976035    -0.211642
C       -0.845629    -5.296995     0.745433
C       -0.175190    -6.521123     0.676572
C       -0.486658    -7.430365    -0.337692
C       -1.466406    -7.116265    -1.283963
C       -2.131369    -5.889847    -1.226275
Cl      -3.350563    -5.497307    -2.431543
C       -2.665610    -1.355171    -0.065693
C       -4.145260    -1.456581    -0.119362
C       -4.878971    -0.341021    -0.134239
C       -4.231087     0.986705    -0.066082
C       -2.891846     1.098110    -0.006608
N       -2.060539    -0.069300    -0.000736
H       -1.133307    -2.498227     4.068241
H       -3.281863    -3.085586     5.059149
H       -5.133847    -1.441801     5.101871
H       -4.818013     0.806380     4.106300
H       -2.662062     1.412080     3.064143
H        0.605087    -2.966141     2.512520
H        2.146700    -4.510320     3.619891
H        3.694499    -3.672166     5.363684
H        3.682303    -1.269380     5.978267
H        2.142665     0.293951     4.867387
H       -1.177947     1.897779     4.814032
H       -0.528854     4.100776     5.654388
H        1.518769     5.213812     4.807485
H        2.923659     4.090606     3.099086
H        2.274080     1.876854     2.227939
H       -0.903572    -2.391137    -4.350425
H       -3.006754    -3.002651    -5.474452
H       -4.965977    -1.487492    -5.375650
H       -4.821919     0.645104    -4.120638
H       -2.728578     1.265652    -2.967795
H       -1.236054     1.880983    -4.782058
H       -0.698352     4.124033    -5.570482
H        1.294191     5.314916    -4.701827
H        2.761674     4.218449    -3.028088
H        2.227552     1.949975    -2.210081
H        1.188272    -0.331277    -5.439568
H        2.789314    -1.941177    -6.453467
H        3.778856    -3.757155    -5.074413
H        3.198451    -3.940048    -2.674707
H        1.683741    -2.344690    -1.676116
H       -0.599499    -4.614577     1.544258
H        0.583560    -6.765689     1.409858
H        0.029548    -8.379081    -0.391025
H       -1.703719    -7.818962    -2.070398
H       -4.643317    -2.419533    -0.172404
H       -5.959505    -0.412770    -0.198002
H       -4.852404     1.876900    -0.068990
H       -2.471331     2.089812     0.037506
96
ex_0323 frame29 As-trans-conf12
O        3.155132     0.000000     0.000000
C        2.020000     0.000000     0.000000
Ru       0.000000     0.000000     0.000000
Cl      -0.089341     2.397679     0.060592
As       0.000000     0.000000     2.650000
C       -1.658479    -0.562523     3.542085
C       -2.755417     0.309667     3.593390
C       -3.944613    -0.089007     4.209671
C       -4.043135    -1.359394     4.782265
C       -2.952825    -2.233256     4.736202
C       -1.756680    -1.832910     4.130532
C        0.410223     1.730429     3.475903
C       -0.315766     2.212690     4.577117
C       -0.027027     3.475549     5.102857
C        0.995508     4.250616     4.548134
C        1.738197     3.759749     3.472055
C        1.454649     2.497839     2.948140
C        1.288628    -1.114923     3.656659
C        1.912620    -2.164490     3.002117
C        2.817041    -3.005048     3.633154
C        3.126626    -2.782224     4.968969
C        2.517998    -1.719487     5.655489
C        1.591475    -0.881564     5.003179
As       0.000000     0.000000    -2.650000
C        0.211548     1.753508    -3.496146
C       -0.517364     2.110286    -4.640994
C       -0.385553     3.394163    -5.178265
C        0.487200     4.315480    -4.591721
C        1.239862     3.949843    -3.473669
C        1.113659     2.667076    -2.939171
C        1.407103    -0.959689    -3.642422
C        2.375029    -1.667440    -2.934865
C        3.362818    -2.401101    -3.579392
C        3.407847    -2.408707    -4.969705
C        2.461752    -1.676167    -5.701329
C        1.457885    -0.947704    -5.040011
C       -1.579789    -0.757849    -3.545903
C       -1.544113    -2.052292    -4.087610
C       -2.682199    -2.584461    -4.705192
C       -3.850191    -1.821983    -4.802372
C       -3.886283    -0.530225    -4.272461
C       -2.755223     0.000361    -3.646046
S       -2.351233    -0.042628     0.000640
C       -2.482243    -1.853581     0.064935
N       -3.754961    -2.464208     0.164721
C       -4.992735    -1.791167     0.188604
C       -5.296306    -0.797536    -0.757527
C       -6.526515    -0.141692    -0.706633
C       -7.453825    -0.476153     0.284638
C       -7.154026    -1.470207     1.220823
C       -5.925149    -2.125942     1.173929
Cl      -5.551300    -3.374106     2.356292
C       -1.392896    -2.635289     0.020509
C       -1.521264    -4.121328     0.049749
C       -0.424680    -4.884351     0.040827
C        0.907381    -4.268452    -0.049489
C        1.036574    -2.935560    -0.108153
N       -0.110263    -2.058494    -0.054572
H       -2.692670     1.290902     3.141206
H       -4.790980     0.584913     4.238855
H       -4.967272    -1.669903     5.252701
H       -3.037979    -3.223584     5.164734
H       -0.930996    -2.529247     4.090430
H       -1.110984     1.643007     5.026623
H       -0.602191     3.856296     5.936481
H        1.211167     5.231254     4.950258
H        2.526863     4.358794     3.036110
H        2.024402     2.130367     2.104780
H        1.680728    -2.328495     2.006866
H        3.268884    -3.822274     3.080050
H        3.835102    -3.434587     5.462258
H        2.766944    -1.551628     6.692059
H        1.127200    -0.070793     5.541482
H       -1.201707     1.425198    -5.112395
H       -0.968081     3.677227    -6.044725
H        0.579361     5.311989    -5.001940
H        1.913285     4.661301    -3.013597
H        1.691608     2.395768    -2.065834
H        2.361578    -1.656326    -1.886134
H        4.086104    -2.960187    -2.995379
H        4.177058    -2.979708    -5.472246
H        2.505959    -1.680803    -6.779858
H        0.725392    -0.395858    -5.609296
H       -0.654541    -2.661681    -4.010619
H       -2.661550    -3.589739    -5.105834
H       -4.729226    -2.233554    -5.281829
H       -4.792034     0.058579    -4.341465
H       -2.797287     0.997871    -3.228389
H       -4.591736    -0.534049    -1.533378
H       -6.759080     0.624444    -1.434770
H       -8.405566     0.032716     0.327525
H       -7.868715    -1.727911     1.989306
H       -2.489026    -4.605577     0.125882
H       -0.510089    -5.964034     0.110571
H        1.790835    -4.900365    -0.037870
H        2.048962    -2.560770    -0.111512
96
ex_0323 frame30 As-trans-conf14-2
O        3.123172     0.000000     0.000000
C        2.020000     0.000000     0.000000
Ru       0.000000     0.000000     0.000000
Cl       0.014843     2.394605    -0.161180
As       0.000000     0.000000     2.650000
C        0.902609    -1.441482     3.651650
C        0.166780    -2.417483     4.347000
C        0.834736    -3.419236     5.062758
C        2.232122    -3.453744     5.086989
C        2.966145    -2.490713     4.390546
C        2.304321    -1.492560     3.669700
C        0.844353     1.479844     3.697213
C        1.346315     1.266688     4.995540
C        1.923007     2.321549     5.709620
C        2.020819     3.590895     5.135141
C        1.532865     3.809527     3.848650
C        0.945601     2.761597     3.139978
C       -1.740318    -0.041572     3.653134
C       -2.866215    -0.638729     3.081520
C       -4.100385    -0.658598     3.724044
C       -4.217036    -0.098257     4.989590
C       -3.098085     0.481372     5.594063
C       -1.867801     0.517172     4.929072
As       0.000000     0.000000    -2.650000
C        0.761775    -1.456636    -3.760740
C        0.711551    -1.393961    -5.163776
C        1.244361    -2.431457    -5.936142
C        1.828250    -3.539220    -5.317527
C        1.886673    -3.607900    -3.923770
C        1.360750    -2.568371    -3.147311
C        0.985450     1.399117    -3.629933
C        0.468797     1.953392    -4.809941
C        1.179237     2.939345    -5.495018
C        2.409197     3.385472    -5.007365
C        2.932077     2.841894    -3.831176
C        2.223220     1.850282    -3.142827
C       -1.766574     0.065327    -3.505772
C       -2.462364     1.280873    -3.580613
C       -3.710733     1.338265    -4.207219
C       -4.272294     0.181498    -4.754883
C       -3.590709    -1.035778    -4.666902
C       -2.340714    -1.095879    -4.044490
S       -0.085472    -2.345132     0.145684
C       -1.861205    -2.454565    -0.059079
N       -2.462861    -3.722361    -0.196249
C       -1.783542    -4.957188    -0.218912
C       -0.802875    -5.278657     0.742417
C       -0.154405    -6.513513     0.681268
C       -0.485015    -7.424697    -0.326346
C       -1.460214    -7.102233    -1.273999
C       -2.102298    -5.869214    -1.223126
Cl      -3.318585    -5.460190    -2.428103
C       -2.637488    -1.353582    -0.085096
C       -4.108843    -1.471591    -0.205988
C       -4.860154    -0.364790    -0.183292
C       -4.236497     0.972979    -0.081301
C       -2.902223     1.098915    -0.006452
N       -2.083622    -0.034080     0.001809
H       -0.912799    -2.414477     4.346730
H        0.270618    -4.169253     5.602626
H        2.746515    -4.226093     5.645225
H        4.048152    -2.515103     4.412413
H        2.880914    -0.746122     3.139572
H        1.275887     0.303910     5.476029
H        2.290154     2.153968     6.712183
H        2.468567     4.406477     5.686530
H        1.602854     4.792397     3.398362
H        0.569563     2.974521     2.170954
H       -2.807717    -1.099607     2.157121
H       -4.958486    -1.114562     3.240090
H       -5.169038    -0.121477     5.500714
H       -3.178853     0.907962     6.580828
H       -1.049328     0.977790     5.430295
H        0.258540    -0.556523    -5.666616
H        1.201461    -2.378165    -7.016157
H        2.235077    -4.343197    -5.918416
H        2.339963    -4.467991    -3.446215
H        1.423851    -2.640920    -2.075710
H       -0.471672     1.625447    -5.217723
H        0.772391     3.353827    -6.407149
H        2.956007     4.150245    -5.542963
H        3.886806     3.189508    -3.455993
H        2.643497     1.440001    -2.236902
H       -2.033682     2.181742    -3.160366
H       -4.241191     2.279452    -4.272232
H       -5.236363     0.228007    -5.244430
H       -4.029356    -1.933059    -5.083531
H       -1.830533    -2.046782    -3.981050
H       -0.539686    -4.592567     1.539445
H        0.600884    -6.765408     1.415092
H        0.011810    -8.382137    -0.374498
H       -1.715740    -7.801710    -2.055814
H       -4.590567    -2.439612    -0.272306
H       -5.939519    -0.450641    -0.234758
H       -4.871802     1.854944    -0.068906
H       -2.492845     2.096200     0.062196
96
ex_0323 frame31 As-trans-conf15
O        3.154728     0.000000     0.000000
C        2.020000     0.000000     0.000000
Ru       0.000000     0.000000     0.000000
Cl      -0.021549     2.396226    -0.138742
As       0.000000     0.000000     2.650000
C       -1.725938    -0.486851     3.494199
C       -1.913195    -1.751465     4.078510
C       -3.142327    -2.093523     4.645445
C       -4.186275    -1.168295     4.665134
C       -4.007150     0.096424     4.100146
C       -2.782678     0.436807     3.514312
C        1.239049    -1.219385     3.605511
C        1.226836    -2.588768     3.307761
C        2.115376    -3.468180     3.924377
C        3.011612    -2.988815     4.877633
C        3.014315    -1.629662     5.210110
C        2.131956    -0.742246     4.577094
C        0.494299     1.729601     3.431029
C       -0.284761     2.350672     4.421112
C        0.084289     3.609292     4.908407
C        1.238494     4.237809     4.431414
C        2.029578     3.607164     3.469213
C        1.662196     2.354252     2.979120
As       0.000000     0.000000    -2.650000
C       -1.660682    -0.504873    -3.584242
C       -1.743955    -1.708639    -4.302525
C       -2.938519    -2.062854    -4.940247
C       -4.043678    -1.208579    -4.887795
C       -3.961504    -0.004284    -4.185709
C       -2.775521     0.345498    -3.533794
C        0.445034     1.754698    -3.408405
C       -0.360950     2.360856    -4.387576
C       -0.056821     3.645898    -4.844474
C        1.067229     4.315987    -4.356198
C        1.895120     3.697223    -3.416312
C        1.594375     2.412672    -2.958616
C        1.280892    -1.193936    -3.568575
C        1.626591    -1.054972    -4.915757
C        2.537722    -1.975064    -5.483629
C        3.087265    -3.013172    -4.708583
C        2.736657    -3.128103    -3.371365
C        1.854096    -2.207601    -2.837043
S       -2.351026    -0.047928     0.001423
C       -2.470329    -1.858011     0.086284
N       -3.743237    -2.475672     0.132561
C       -4.978564    -1.797315     0.168153
C       -5.285675    -0.798587    -0.770938
C       -6.515630    -0.141929    -0.711481
C       -7.438282    -0.480194     0.282978
C       -7.132816    -1.476099     1.215236
C       -5.904884    -2.132726     1.158923
Cl      -5.524358    -3.383048     2.336420
C       -1.370462    -2.637158     0.106841
C       -1.493417    -4.121703     0.121684
C       -0.390851    -4.878343     0.158395
C        0.943721    -4.254410     0.216443
C        1.071380    -2.917553     0.224796
N       -0.079159    -2.059191     0.114695
H       -1.146674    -2.499218     4.077183
H       -3.285321    -3.081249     5.065469
H       -5.135598    -1.436550     5.110192
H       -4.819794     0.810507     4.112834
H       -2.663846     1.414888     3.067470
H        0.526952    -2.979348     2.596250
H        2.105275    -4.519679     3.662151
H        3.698814    -3.672098     5.359692
H        3.705320    -1.264200     5.956879
H        2.162577     0.299924     4.849035
H       -1.177902     1.898804     4.813065
H       -0.528600     4.101035     5.652524
H        1.519274     5.213275     4.805111
H        2.922370     4.090261     3.094852
H        2.270707     1.877172     2.222516
H       -0.909519    -2.392557    -4.346505
H       -3.009923    -3.002603    -5.472434
H       -4.965705    -1.482618    -5.384414
H       -4.818755     0.655216    -4.139701
H       -2.727453     1.274935    -2.980967
H       -1.240424     1.886141    -4.781570
H       -0.701737     4.126914    -5.568780
H        1.293021     5.315633    -4.702219
H        2.761110     4.217423    -3.029800
H        2.224858     1.949980    -2.211197
H        1.199685    -0.265554    -5.514006
H        2.819064    -1.894369    -6.521362
H        3.779672    -3.729540    -5.130892
H        3.134336    -3.919815    -2.742827
H        1.577639    -2.267533    -1.856384
H       -4.583979    -0.533061    -1.547397
H       -6.752518     0.626829    -1.435728
H       -8.390773     0.026953     0.331748
H       -7.842933    -1.736086     1.987135
H       -2.461425    -4.610378     0.096494
H       -0.476090    -5.959971     0.161032
H        1.826912    -4.885398     0.260045
H        2.073802    -2.511115     0.283321
96
ex_0323 frame32 As-trans-conf14
O        3.123172     0.000000     0.000000
C        2.020000     0.000000     0.000000
Ru       0.000000     0.000000     0.000000
Cl      -0.082496     2.395987    -0.131315
As       0.000000     0.000000     2.650000
C        0.903448    -1.442739     3.642762
C        0.167161    -2.417468     4.338275
C        0.832846    -3.418098     5.055116
C        2.229868    -3.455167     5.077817
C        2.965339    -2.495918     4.377196
C        2.304942    -1.497545     3.655304
C        0.853098     1.475451     3.704486
C        1.366042     1.257014     4.999872
C        1.942554     2.312307     5.716573
C        2.029519     3.585319     5.148542
C        1.533437     3.807515     3.865793
C        0.948852     2.759884     3.153572
C       -1.732473    -0.035315     3.694192
C       -2.866749    -0.648804     3.148988
C       -4.092453    -0.637628     3.809940
C       -4.199561    -0.051991     5.061201
C       -3.074739     0.526483     5.648715
C       -1.846526     0.543140     4.971830
As       0.000000     0.000000    -2.650000
C        0.755711    -1.439102    -3.799701
C        0.690076    -1.372849    -5.202741
C        1.224825    -2.411951    -5.979392
C        1.821357    -3.517924    -5.364844
C        1.891807    -3.582705    -3.974615
C        1.366963    -2.543560    -3.205960
C        0.978968     1.402321    -3.634937
C        0.462595     1.961097    -4.816415
C        1.178740     2.947476    -5.498913
C        2.409360     3.388436    -5.007407
C        2.927504     2.840559    -3.831518
C        2.214635     1.850929    -3.147051
C       -1.766927     0.065619    -3.507510
C       -2.462513     1.280806    -3.581369
C       -3.713801     1.337654    -4.202371
C       -4.277388     0.180781    -4.748011
C       -3.593763    -1.035495    -4.665803
C       -2.341198    -1.095235    -4.048336
S       -2.350869    -0.054400    -0.004100
C       -2.470984    -1.873433     0.037420
N       -3.746433    -2.498003     0.028420
C       -4.984000    -1.819475     0.092165
C       -5.291591    -0.789147    -0.812040
C       -6.517051    -0.125875    -0.720176
C       -7.434514    -0.485034     0.272124
C       -7.133400    -1.516088     1.166429
C       -5.912256    -2.186453     1.075416
Cl      -5.543705    -3.492812     2.199228
C       -1.367621    -2.645202     0.077153
C       -1.481181    -4.128260     0.095904
C       -0.372111    -4.873504     0.150331
C        0.960436    -4.236917     0.189888
C        1.081014    -2.898694     0.184465
N       -0.076298    -2.057864     0.101864
H       -0.912118    -2.412807     4.340605
H        0.265863    -4.163928     5.597522
H        2.742410    -4.226533     5.638499
H        4.047153    -2.522879     4.398047
H        2.882177    -0.752857     3.123033
H        1.303027     0.292458     5.478326
H        2.317816     2.144374     6.716717
H        2.475630     4.401166     5.701878
H        1.595199     4.793508     3.421367
H        0.567953     2.973563     2.186151
H       -2.830506    -1.137555     2.223590
H       -4.962528    -1.082390     3.355036
H       -5.153774    -0.055487     5.571166
H       -3.158468     0.970536     6.629224
H       -1.028144     1.013373     5.467282
H        0.227094    -0.539149    -5.701781
H        1.174861    -2.364272    -7.058658
H        2.229594    -4.323679    -5.961945
H        2.352247    -4.435640    -3.489872
H        1.437093    -2.601059    -2.153131
H       -0.478267     1.638421    -5.229540
H        0.778427     3.367569    -6.412104
H        2.961251     4.152358    -5.539306
H        3.882312     3.181863    -3.452107
H        2.629837     1.435000    -2.242106
H       -2.032061     2.180932    -3.161639
H       -4.245357     2.278381    -4.263095
H       -5.244639     0.225815    -5.231294
H       -4.033754    -1.932444    -5.081865
H       -1.830521    -2.046151    -3.989133
H       -4.591721    -0.502266    -1.586771
H       -6.753866     0.667074    -1.417206
H       -8.380580     0.032727     0.347058
H       -7.842185    -1.789524     1.936624
H       -2.446809    -4.623471     0.078519
H       -0.451101    -5.955435     0.170208
H        1.847294    -4.862734     0.220847
H        2.079270    -2.484970     0.208945
96
ex_0323 frame33 As-trans-conf28-2
O        3.162558     0.000000     0.000000
C        2.020000     0.000000     0.000000
Ru       0.000000     0.000000     0.000000
Cl       0.065902     2.399027     0.033965
As       0.000000     0.000000     2.650000
C        1.475984    -0.902417     3.569597
C        2.348389    -1.720816     2.839371
C        3.397297    -2.383807     3.475866
C        3.587621    -2.225957     4.849352
C        2.724701    -1.405433     5.585217
C        1.669844    -0.739686     4.947378
C        0.102855     1.788075     3.471065
C       -0.763039     2.172717     4.508214
C       -0.719415     3.479827     5.005665
C        0.202892     4.396612     4.494129
C        1.098803     4.001833     3.498650
C        1.064065     2.694845     3.006538
C       -1.511164    -0.869729     3.561668
C       -2.768514    -0.249015     3.578687
C       -3.849957    -0.865741     4.214775
C       -3.681605    -2.105745     4.836741
C       -2.431564    -2.730161     4.822535
C       -1.344481    -2.110412     4.198362
As       0.000000     0.000000    -2.650000
C        0.109192     1.785418    -3.495795
C       -0.827798     2.203677    -4.459696
C       -0.740864     3.482647    -5.015741
C        0.285465     4.346879    -4.630703
C        1.230503     3.931849    -3.689247
C        1.144829     2.654932    -3.126119
C        1.509226    -0.921224    -3.530439
C        2.363019    -0.239566    -4.415560
C        3.436789    -0.909527    -5.010835
C        3.659454    -2.261396    -4.738789
C        2.808180    -2.947117    -3.869441
C        1.735664    -2.280750    -3.269541
C       -1.558216    -0.750504    -3.604935
C       -1.432229    -1.857251    -4.458633
C       -2.561585    -2.370070    -5.109259
C       -3.816416    -1.788870    -4.910209
C       -3.943916    -0.681435    -4.071967
C       -2.818925    -0.163854    -3.425560
S        0.030668    -2.351362    -0.005511
C       -1.683808    -2.575264    -0.485934
N       -2.030107    -3.763152    -0.875386
C       -3.231272    -4.339258    -1.358882
C       -3.412813    -4.462901    -2.736780
C       -4.574272    -5.029662    -3.262022
C       -5.578010    -5.472566    -2.400298
C       -5.413804    -5.350873    -1.014065
C       -4.239337    -4.787238    -0.485759
Cl      -4.041984    -4.647982     1.253717
C       -2.624726    -1.373452    -0.412478
C       -4.103207    -1.408240    -0.720449
C       -4.791372    -0.249322    -0.712733
C       -4.168786     1.019139    -0.275131
C       -2.870800     1.067729     0.045176
N       -2.059754    -0.114403    -0.020543
H        2.209580    -1.868966     1.782546
H        4.057423    -3.023094     2.902586
H        4.400746    -2.743527     5.341175
H        2.873068    -1.289562     6.650077
H        1.003869    -0.112868     5.524217
H       -1.494205     1.498996     4.917880
H       -1.411693     3.786908     5.778795
H        0.221502     5.412689     4.866443
H        1.809925     4.711940     3.096450
H        1.751091     2.405316     2.222800
H       -2.911465     0.706751     3.091513
H       -4.819182    -0.384295     4.222708
H       -4.520681    -2.585919     5.323484
H       -2.305877    -3.697540     5.291659
H       -0.392497    -2.620643     4.187756
H       -1.632191     1.575413    -4.792813
H       -1.473468     3.804019    -5.745440
H        0.347398     5.337148    -5.062690
H        2.026910     4.601346    -3.392829
H        1.877962     2.343619    -2.393696
H        2.225452     0.801965    -4.649609
H        4.098806    -0.378631    -5.682882
H        4.491803    -2.776540    -5.200789
H        2.980701    -3.994660    -3.658816
H        1.086064    -2.823071    -2.598644
H       -0.486299    -2.343862    -4.619117
H       -2.468141    -3.238163    -5.749045
H       -4.689373    -2.200640    -5.400074
H       -4.913867    -0.225719    -3.919430
H       -2.925135     0.697873    -2.782978
H       -2.621452    -4.158644    -3.393750
H       -4.687699    -5.135614    -4.334647
H       -6.473818    -5.923769    -2.808930
H       -6.188539    -5.720532    -0.355787
H       -4.619097    -2.272956    -1.087152
H       -5.832561    -0.304896    -0.994223
H       -4.760581     1.928410    -0.242631
H       -2.447798     2.021027     0.329635
96
ex_0323 frame34 As-trans-conf16-2
O        3.160339     0.000000     0.000000
C        2.020000     0.000000     0.000000
Ru       0.000000     0.000000     0.000000
Cl       0.165372     2.390426     0.137754
As       0.000000     0.000000     2.650000
C        0.210282     1.771557     3.439277
C       -0.721813     2.758593     3.117108
C       -0.577285     4.052674     3.611434
C        0.488092     4.359417     4.460388
C        1.408879     3.369475     4.812804
C        1.267111     2.072530     4.314846
C        1.390409    -1.096291     3.531558
C        1.039126    -2.245320     4.260139
C        2.030401    -3.024873     4.865955
C        3.373443    -2.652046     4.770441
C        3.729857    -1.506588     4.054931
C        2.743491    -0.732062     3.434755
C       -1.592579    -0.667045     3.629313
C       -2.512253    -1.438939     2.962713
C       -3.689499    -1.901920     3.508638
C       -3.937900    -1.618150     4.838098
C       -2.991465    -0.877586     5.575915
C       -1.817129    -0.385118     4.965387
As       0.000000     0.000000    -2.650000
C        1.068218    -1.404917    -3.541541
C        2.465334    -1.283240    -3.635427
C        3.219680    -2.276491    -4.269396
C        2.587491    -3.401728    -4.802718
C        1.200201    -3.535332    -4.703107
C        0.439618    -2.534957    -4.087756
C        0.646711     1.659579    -3.477675
C        0.156757     2.875329    -2.997157
C        0.648896     4.083276    -3.480864
C        1.602873     4.084591    -4.497115
C        2.058466     2.874397    -5.028284
C        1.578163     1.660013    -4.528163
C       -1.711638    -0.249573    -3.646304
C       -2.695805    -1.085685    -3.129664
C       -3.948414    -1.224879    -3.703054
C       -4.208391    -0.570643    -4.895226
C       -3.205062     0.215183    -5.486554
C       -1.958915     0.391344    -4.855137
S       -0.034227    -2.347155    -0.131817
C       -1.840084    -2.445980    -0.144938
N       -2.452271    -3.708588    -0.208188
C       -1.773679    -4.941082    -0.226252
C       -0.789083    -5.258118     0.734415
C       -0.148139    -6.500257     0.679001
C       -0.487196    -7.413976    -0.325079
C       -1.461407    -7.088819    -1.272777
C       -2.097110    -5.853761    -1.224065
Cl      -3.314397    -5.439860    -2.425468
C       -2.632667    -1.336054    -0.095606
C       -4.106386    -1.462078    -0.139240
C       -4.860130    -0.359665    -0.124073
C       -4.237645     0.980639    -0.040223
C       -2.898943     1.111910     0.024539
N       -2.058569    -0.053075    -0.002337
H       -1.537145     2.526152     2.444806
H       -1.287074     4.816093     3.326400
H        0.601121     5.363858     4.841720
H        2.238240     3.607805     5.465907
H        2.001715     1.344962     4.603688
H        0.011607    -2.565609     4.339536
H        1.757539    -3.921339     5.407731
H        4.138249    -3.254166     5.244775
H        4.771437    -1.221055     3.979412
H        3.036726     0.147067     2.876403
H       -2.315006    -1.673499     1.927109
H       -4.378952    -2.485550     2.898457
H       -4.846780    -1.993748     5.285028
H       -3.169375    -0.686135     6.616133
H       -1.090464     0.187190     5.513857
H        2.972889    -0.423873    -3.217090
H        4.295136    -2.176856    -4.345758
H        3.173897    -4.173072    -5.285948
H        0.714752    -4.416833    -5.101385
H       -0.628667    -2.666202    -4.012837
H       -0.587946     2.887405    -2.222191
H        0.291498     5.013810    -3.060146
H        1.982736     5.022860    -4.874697
H        2.791349     2.876733    -5.822789
H        1.957692     0.754090    -4.961032
H       -2.490026    -1.614224    -2.210588
H       -4.698963    -1.849723    -3.222751
H       -5.175841    -0.696412    -5.361095
H       -3.396422     0.691302    -6.431324
H       -1.201304     1.006387    -5.306072
H       -0.521638    -4.561654     1.522899
H        0.607198    -6.757627     1.411837
H        0.001883    -8.375298    -0.372393
H       -1.723459    -7.786681    -2.053433
H       -4.576783    -2.436579    -0.206179
H       -5.937446    -0.454805    -0.177109
H       -4.877807     1.855852    -0.037318
H       -2.477085     2.109082     0.078634
96
ex_0323 frame35 As-trans-conf30-2
O        3.154728     0.000000     0.000000
C        2.020000     0.000000     0.000000
Ru       0.000000     0.000000     0.000000
Cl       0.121588     2.396878     0.012121
As       0.000000     0.000000     2.650000
C       -1.719285    -0.483210     3.495982
C       -1.894821    -1.731382     4.117804
C       -3.128834    -2.071274     4.679403
C       -4.185422    -1.159151     4.654776
C       -4.012916     0.091506     4.056547
C       -2.784596     0.429077     3.478981
C        1.249920    -1.213021     3.592199
C        1.263179    -2.579573     3.271784
C        2.144398    -3.452810     3.910862
C        3.018170    -2.970469     4.885285
C        3.009376    -1.613148     5.219721
C        2.127905    -0.733061     4.579153
C        0.503665     1.727017     3.449646
C       -0.275689     2.340466     4.443503
C        0.096056     3.593397     4.946122
C        1.251386     4.226512     4.477613
C        2.044049     3.604688     3.511275
C        1.676476     2.355576     3.007726
As       0.000000     0.000000    -2.650000
C       -1.643713    -0.462696    -3.630148
C       -1.701593    -1.597653    -4.452368
C       -2.889295    -1.916507    -5.121702
C       -4.016401    -1.103630    -4.982417
C       -3.958880     0.034141    -4.175464
C       -2.775786     0.355354    -3.504784
C        0.470557     1.752459    -3.414431
C       -0.326078     2.358178    -4.402335
C       -0.007704     3.634818    -4.874147
C        1.119141     4.301208    -4.388306
C        1.937330     3.685915    -3.437311
C        1.623052     2.407999    -2.963721
C        1.311517    -1.197890    -3.524827
C        1.593984    -1.088685    -4.893372
C        2.497638    -1.983581    -5.491027
C        3.119386    -2.979418    -4.727144
C        2.856675    -3.071991    -3.363199
C        1.973536    -2.175707    -2.767153
S       -0.025755    -2.350953    -0.002485
C       -1.713899    -2.528081    -0.526996
N       -2.060895    -3.694557    -0.974722
C       -3.257533    -4.269725    -1.465322
C       -3.472601    -4.330680    -2.845775
C       -4.629304    -4.919734    -3.359807
C       -5.593081    -5.433071    -2.489609
C       -5.398603    -5.356357    -1.105294
C       -4.229850    -4.779369    -0.587053
Cl      -3.992122    -4.698981     1.152145
C       -2.641517    -1.327241    -0.426846
C       -4.116348    -1.347363    -0.736412
C       -4.788242    -0.185260    -0.737250
C       -4.151528     1.074507    -0.294459
C       -2.854255     1.109762     0.037588
N       -2.061039    -0.082955    -0.004590
H       -1.112444    -2.466013     4.146934
H       -3.266775    -3.046232     5.129748
H       -5.138512    -1.424782     5.093685
H       -4.833163     0.796924     4.035999
H       -2.667677     1.395728     3.007485
H        0.594242    -2.975260     2.527301
H        2.147970    -4.503535     3.648979
H        3.700756    -3.649163     5.380099
H        3.688303    -1.243313     5.976514
H        2.148169     0.306990     4.861456
H       -1.170616     1.883097     4.826264
H       -0.515746     4.078402     5.695402
H        1.531916     5.198843     4.861390
H        2.938052     4.093166     3.145008
H        2.289644     1.887108     2.249268
H       -0.854332    -2.257275    -4.558918
H       -2.940421    -2.805433    -5.737369
H       -4.934899    -1.359272    -5.494687
H       -4.831538     0.664826    -4.066084
H       -2.740951     1.237006    -2.879229
H       -1.207298     1.884303    -4.795606
H       -0.643166     4.112425    -5.609232
H        1.354783     5.295207    -4.745947
H        2.807184     4.205228    -3.057157
H        2.250756     1.949106    -2.212042
H        1.109102    -0.333108    -5.494694
H        2.713043    -1.915304    -6.547959
H        3.805321    -3.680195    -5.185911
H        3.331135    -3.840164    -2.762860
H        1.807088    -2.275467    -1.720866
H       -2.714774    -3.968681    -3.519579
H       -4.770069    -4.990905    -4.431616
H       -6.482840    -5.902869    -2.889553
H       -6.141300    -5.775723    -0.439641
H       -4.639690    -2.213291    -1.099026
H       -5.827075    -0.229895    -1.029200
H       -4.733508     1.990644    -0.274783
H       -2.419660     2.057768     0.319235
96
ex_0323 frame36 As-trans-conf27-2
O        3.155132     0.000000     0.000000
C        2.020000     0.000000     0.000000
Ru       0.000000     0.000000     0.000000
Cl       0.063510     2.384411     0.171998
As       0.000000     0.000000     2.650000
C       -1.655175    -0.563196     3.543895
C       -2.755861     0.304675     3.585330
C       -3.945744    -0.095482     4.199317
C       -4.040849    -1.363081     4.779437
C       -2.945181    -2.230797     4.746189
C       -1.748422    -1.828511     4.143336
C        0.429454     1.723754     3.502284
C       -0.310440     2.211400     4.592363
C       -0.023646     3.474723     5.120970
C        1.012226     4.243848     4.583117
C        1.777172     3.742761     3.528070
C        1.500253     2.478055     3.005088
C        1.291199    -1.142020     3.588863
C        1.923872    -2.182412     2.895686
C        2.830730    -3.020191     3.543959
C        3.127584    -2.811717     4.891017
C        2.511396    -1.766478     5.588600
C        1.589813    -0.932602     4.941734
As       0.000000     0.000000    -2.650000
C        0.223627     1.760080    -3.494578
C       -0.504192     2.120757    -4.642173
C       -0.367768     3.402282    -5.182626
C        0.508012     4.320449    -4.598284
C        1.259233     3.953463    -3.479032
C        1.128013     2.671687    -2.938701
C        1.410477    -0.982976    -3.600395
C        2.333551    -1.748481    -2.874396
C        3.333887    -2.464142    -3.532084
C        3.420115    -2.419676    -4.924141
C        2.506155    -1.654520    -5.657020
C        1.506365    -0.928965    -4.997878
C       -1.566374    -0.680963    -3.637283
C       -1.498501    -1.878073    -4.365609
C       -2.621071    -2.337457    -5.063084
C       -3.817827    -1.621923    -5.023190
C       -3.891723    -0.430623    -4.299471
C       -2.768822     0.041626    -3.612308
S        0.029277    -2.340705    -0.187500
C       -1.699067    -2.560827    -0.581721
N       -2.059554    -3.756989    -0.933719
C       -3.262643    -4.341984    -1.399304
C       -3.461694    -4.450251    -2.771964
C       -4.620612    -5.017906    -3.294997
C       -5.609491    -5.482729    -2.428720
C       -5.428894    -5.379651    -1.041476
C       -4.252118    -4.812339    -0.519268
Cl      -4.031850    -4.697867     1.218578
C       -2.624159    -1.348939    -0.482665
C       -4.092949    -1.358209    -0.834754
C       -4.774115    -0.198640    -0.793934
C       -4.155983     1.043450    -0.277660
C       -2.867180     1.071045     0.081912
N       -2.059006    -0.100776    -0.019298
H       -2.695559     1.283590     3.127610
H       -4.795326     0.574835     4.220422
H       -4.965447    -1.675348     5.247654
H       -3.026038    -3.218039     5.182378
H       -0.918925    -2.520474     4.113176
H       -1.121020     1.650471     5.024547
H       -0.614040     3.863716     5.940156
H        1.220414     5.228446     4.980930
H        2.575277     4.338765     3.104303
H        2.088720     2.107209     2.176665
H        1.711858    -2.359592     1.859071
H        3.300587    -3.830362     2.999603
H        3.834249    -3.460767     5.391282
H        2.747550    -1.605555     6.631371
H        1.117608    -0.132840     5.493273
H       -1.192160     1.441801    -5.117219
H       -0.949174     3.685903    -6.050359
H        0.602900     5.315664    -5.011865
H        1.935599     4.664714    -3.023531
H        1.704565     2.400323    -2.065261
H        2.279389    -1.810625    -1.802848
H        4.037304    -3.056721    -2.960088
H        4.192833    -2.981204    -5.432330
H        2.571033    -1.628100    -6.736016
H        0.800122    -0.347297    -5.573563
H       -0.598896    -2.474587    -4.384060
H       -2.570153    -3.270259    -5.611289
H       -4.687934    -1.997526    -5.546007
H       -4.819424     0.125195    -4.270580
H       -2.833966     0.968537    -3.058507
H       -2.674524    -4.139656    -3.423575
H       -4.738896    -5.109588    -4.368693
H       -6.503103    -5.939106    -2.835990
H       -6.188822    -5.772239    -0.379563
H       -4.599843    -2.213327    -1.246135
H       -5.806769    -0.236480    -1.107930
H       -4.745148     1.954763    -0.221083
H       -2.454185     2.010950     0.420524
96
ex_0323 frame37 all-cis-conf12-3
O        3.155132     0.000000     0.000000
C        2.020000     0.000000     0.000000
Ru       0.000000     0.000000     0.000000
Cl       0.187469     2.387183    -0.171522
As       0.000000    -2.650000     0.000000
C       -1.746148    -3.585199     0.208500
C       -2.362008    -3.618193     1.452702
C       -3.586787    -4.247328     1.651436
C       -4.221281    -4.866908     0.579105
C       -3.623063    -4.847310    -0.686544
C       -2.379987    -4.218783    -0.875703
C        1.223464    -3.558502     1.258877
C        0.819662    -4.678104     2.005211
C        1.705936    -5.254050     2.928867
C        2.993266    -4.730417     3.095790
C        3.405137    -3.641995     2.329641
C        2.527944    -3.071716     1.409828
C        0.569980    -3.690894    -1.590632
C        0.674253    -3.052208    -2.820520
C        1.034574    -3.740368    -3.975159
C        1.325857    -5.098128    -3.901361
C        1.250323    -5.758831    -2.669174
C        0.872418    -5.060054    -1.509624
As       0.000000     0.000000     2.650000
C        1.790271    -0.137134     3.547533
C        1.981618    -0.887370     4.728877
C        3.262002    -1.061271     5.258384
C        4.359283    -0.456115     4.649968
C        4.171549     0.351690     3.527428
C        2.889941     0.527996     2.993085
C       -0.605502     1.601974     3.627009
C       -1.183785     2.666533     2.925380
C       -1.615129     3.811300     3.595253
C       -1.479284     3.898506     4.980739
C       -0.911294     2.837777     5.694242
C       -0.465745     1.693158     5.020548
C       -1.053890    -1.281003     3.786026
C       -2.319441    -0.928378     4.299278
C       -3.085899    -1.871714     4.992412
C       -2.580941    -3.151975     5.229519
C       -1.300347    -3.488076     4.788064
C       -0.536566    -2.551612     4.083147
S       -0.007446     0.367265    -2.340105
C       -1.787417     0.282260    -2.579548
N       -2.324876     0.337809    -3.754180
C       -1.703306     0.364614    -5.027076
C       -0.743825    -0.594729    -5.374874
C       -0.145548    -0.571659    -6.635007
C       -0.489107     0.425656    -7.549958
C       -1.440535     1.391678    -7.207782
C       -2.051545     1.361548    -5.949471
Cl      -3.253522     2.575485    -5.532582
C       -2.661203     0.145529    -1.404821
C       -4.165779     0.142097    -1.520524
C       -4.904743     0.082151    -0.407868
C       -4.253674     0.000741     0.912956
C       -2.916447    -0.034634     1.022602
N       -2.059084     0.011650    -0.111843
H       -1.902877    -3.132960     2.255383
H       -4.040933    -4.244382     2.635359
H       -5.177940    -5.350057     0.731087
H       -4.129384    -5.315377    -1.519341
H       -1.951620    -4.205761    -1.865705
H       -0.170398    -5.091764     1.904814
H        1.393353    -6.099380     3.526064
H        3.673717    -5.165158     3.816491
H        4.400763    -3.231772     2.450503
H        2.867640    -2.238387     0.834341
H        0.451006    -2.030453    -2.888071
H        1.082199    -3.219399    -4.924190
H        1.606168    -5.631965    -4.800027
H        1.480003    -6.813570    -2.619177
H        0.808657    -5.591294    -0.573786
H        1.187386    -1.372332     5.254812
H        3.402582    -1.678281     6.137507
H        5.351774    -0.607764     5.054306
H        5.022762     0.831004     3.062879
H        2.768081     1.155533     2.128950
H       -1.326619     2.610879     1.866187
H       -2.060714     4.626209     3.038053
H       -1.821767     4.784492     5.499180
H       -0.819704     2.903492     6.769788
H       -0.035503     0.880234     5.586536
H       -2.752469     0.045698     4.122410
H       -4.081689    -1.615101     5.330525
H       -3.184893    -3.885439     5.748292
H       -0.909722    -4.481925     4.964936
H        0.433206    -2.832750     3.720224
H       -0.497372    -1.381768    -4.693010
H        0.576594    -1.332120    -6.903075
H       -0.025937     0.443106    -8.527043
H       -1.711317     2.156055    -7.923551
H       -4.654481     0.207666    -2.486970
H       -5.988541     0.101453    -0.469021
H       -4.866950    -0.024160     1.809312
H       -2.511157    -0.074898     1.986091
96
ex_0323 frame38 As-trans-conf29-2
O        3.123172     0.000000     0.000000
C        2.020000     0.000000     0.000000
Ru       0.000000     0.000000     0.000000
Cl       0.063183     2.397508    -0.078526
As       0.000000     0.000000     2.650000
C        0.901177    -1.442728     3.641522
C        0.164503    -2.414179     4.340294
C        0.829503    -3.415365     5.056091
C        2.226536    -3.455940     5.074941
C        2.962713    -2.499656     4.370880
C        2.302690    -1.500711     3.649728
C        0.850143     1.473444     3.722633
C        1.366725     1.247430     5.015787
C        1.950097     2.300116     5.734675
C        2.036353     3.576591     5.173195
C        1.530909     3.806503     3.897177
C        0.939564     2.764132     3.185860
C       -1.734324    -0.053618     3.645596
C       -2.845271    -0.669674     3.058997
C       -4.082391    -0.694045     3.704619
C       -4.218164    -0.119925     4.967128
C       -3.114037     0.474829     5.581094
C       -1.876078     0.512342     4.927387
As       0.000000     0.000000    -2.650000
C        0.762489    -1.446778    -3.767041
C        0.699467    -1.388057    -5.170620
C        1.232972    -2.425986    -5.942691
C        1.830242    -3.526529    -5.322858
C        1.901378    -3.587326    -3.929969
C        1.375627    -2.548785    -3.156427
C        0.977651     1.402773    -3.638149
C        0.461331     1.964387    -4.820386
C        1.179995     2.952077    -5.500603
C        2.411000     3.390085    -5.006895
C        2.927231     2.838517    -3.832132
C        2.213076     1.848581    -3.150841
C       -1.760744     0.082687    -3.514143
C       -2.464929     1.293939    -3.563797
C       -3.719651     1.349845    -4.180842
C       -4.275535     0.196526    -4.743938
C       -3.576748    -1.011897    -4.691406
C       -2.320596    -1.064308    -4.083626
S        0.004692    -2.351628     0.050179
C       -1.694036    -2.523378    -0.550579
N       -2.028690    -3.686664    -1.021993
C       -3.228185    -4.255523    -1.526340
C       -3.479708    -4.262694    -2.908160
C       -4.640768    -4.857373    -3.412635
C       -5.569920    -5.425665    -2.539246
C       -5.341825    -5.395340    -1.159949
C       -4.172384    -4.815715    -0.648586
Cl      -3.897256    -4.794711     1.086434
C       -2.624233    -1.324646    -0.477505
C       -4.088226    -1.332111    -0.850554
C       -4.762725    -0.170022    -0.834880
C       -4.144512     1.074865    -0.327496
C       -2.858895     1.101411     0.044053
N       -2.060104    -0.076910    -0.012991
H       -0.914634    -2.407088     4.345215
H        0.261366    -4.158798     5.600230
H        2.738343    -4.227923     5.635072
H        4.044537    -2.529422     4.388167
H        2.880208    -0.758189     3.114258
H        1.309082     0.280193     5.488699
H        2.333885     2.128821     6.730877
H        2.488143     4.390085     5.725610
H        1.590508     4.794302     3.455581
H        0.551870     2.991682     2.230396
H       -2.762548    -1.132583     2.106498
H       -4.934211    -1.159391     3.224160
H       -5.176419    -0.139846     5.469921
H       -3.218944     0.912405     6.565062
H       -1.066633     0.987093     5.441536
H        0.234304    -0.556238    -5.673338
H        1.180182    -2.379652    -7.022591
H        2.238261    -4.331473    -5.920726
H        2.364051    -4.439718    -3.448643
H        1.450017    -2.613340    -2.087556
H       -0.480281     1.645233    -5.236057
H        0.782498     3.376514    -6.413454
H        2.965145     4.154718    -5.535641
H        3.881678     3.176903    -3.449990
H        2.625588     1.429725    -2.246498
H       -2.041324     2.189314    -3.127733
H       -4.261251     2.285582    -4.223006
H       -5.246753     0.237809    -5.219439
H       -4.006344    -1.907507    -5.121500
H       -1.785236    -1.995926    -4.046928
H       -2.761297    -3.864406    -3.602103
H       -4.812813    -4.893122    -4.481993
H       -6.459792    -5.901941    -2.932526
H       -6.057723    -5.855888    -0.491789
H       -4.600654    -2.186057    -1.256404
H       -5.790865    -0.206916    -1.163462
H       -4.731285     1.987822    -0.286797
H       -2.438085     2.037924     0.379390
96
ex_0323 frame39 As-trans-conf27
O        3.155132     0.000000     0.000000
C        2.020000     0.000000     0.000000
Ru       0.000000     0.000000     0.000000
Cl       0.240624     2.379996     0.075303
As       0.000000     0.000000     2.650000
C       -1.583368    -0.481123     3.725540
C       -2.732970     0.319524     3.656734
C       -3.858923     0.006357     4.423449
C       -3.844478    -1.108727     5.267095
C       -2.703701    -1.919095     5.336197
C       -1.579006    -1.613482     4.560246
C        0.425542     1.744769     3.462598
C       -0.289554     2.233153     4.573180
C        0.007517     3.491184     5.101366
C        1.025255     4.263950     4.539677
C        1.754993     3.774078     3.453302
C        1.461921     2.514360     2.922583
C        1.320405    -1.084751     3.663330
C        1.998414    -2.099531     3.007850
C        2.886461    -2.942181     3.660395
C        3.143282    -2.742385     5.011242
C        2.504534    -1.695337     5.692327
C        1.590611    -0.858593     5.021756
As       0.000000     0.000000    -2.650000
C        0.224736     1.751006    -3.526029
C       -0.528294     2.113991    -4.654027
C       -0.393871     3.396520    -5.198645
C        0.500998     4.311175    -4.635107
C        1.283140     3.936911    -3.541782
C        1.161594     2.654229    -3.006287
C        1.407611    -0.929385    -3.691287
C        2.436970    -1.573835    -3.012562
C        3.415699    -2.299150    -3.680665
C        3.394212    -2.357391    -5.069998
C        2.394411    -1.676591    -5.779351
C        1.397171    -0.956955    -5.093912
C       -1.579862    -0.758363    -3.540137
C       -1.539794    -2.048863    -4.089586
C       -2.675951    -2.582463    -4.707642
C       -3.848537    -1.825977    -4.794289
C       -3.890446    -0.538248    -4.253688
C       -2.759752    -0.005452    -3.628726
S       -2.351752     0.036324    -0.010126
C       -2.523984    -1.706476     0.520062
N       -3.782197    -2.108143     0.778228
C       -4.305474    -3.288264     1.395457
C       -4.189436    -3.440817     2.772246
C       -4.739210    -4.535640     3.443910
C       -5.385184    -5.530914     2.712977
C       -5.471298    -5.422249     1.316873
C       -4.934397    -4.299377     0.651206
Cl      -5.056295    -4.176128    -1.092242
C       -1.327241    -2.621604     0.566503
C       -1.341702    -4.068301     1.022082
C       -0.230300    -4.803731     0.869869
C        1.009163    -4.210793     0.347552
C        1.062917    -2.918584     0.008914
N       -0.086311    -2.057132     0.141110
H       -2.748845     1.190664     3.014101
H       -4.743262     0.627018     4.360689
H       -4.724444    -1.361460     5.843745
H       -2.706222    -2.804432     5.958639
H       -0.728481    -2.275242     4.608654
H       -1.079227     1.672715     5.041056
H       -0.557069     3.867918     5.944886
H        1.247381     5.241228     4.947099
H        2.543138     4.373316     3.017709
H        2.026130     2.147347     2.076381
H        1.818525    -2.245105     1.998161
H        3.364745    -3.746780     3.112085
H        3.836005    -3.399634     5.520395
H        2.714864    -1.544323     6.740689
H        1.092904    -0.068785     5.562669
H       -1.232409     1.436980    -5.106578
H       -0.993393     3.686568    -6.051103
H        0.589502     5.308848    -5.044628
H        1.975447     4.642570    -3.100106
H        1.770185     2.379938    -2.155973
H        2.479933    -1.517268    -1.966572
H        4.184013    -2.813836    -3.114244
H        4.155737    -2.925694    -5.588523
H        2.392968    -1.718453    -6.858936
H        0.623735    -0.449099    -5.650739
H       -0.645667    -2.652597    -4.021264
H       -2.649228    -3.583947    -5.117026
H       -4.726064    -2.239194    -5.274683
H       -4.799299     0.046246    -4.316612
H       -2.803784     0.990135    -3.206191
H       -3.716401    -2.665286     3.299119
H       -4.677372    -4.602401     4.526165
H       -5.824868    -6.376828     3.230954
H       -5.982026    -6.197649     0.762070
H       -2.199751    -4.581706     1.409349
H       -0.226856    -5.855869     1.131334
H        1.896421    -4.829456     0.233910
H        1.999987    -2.576224    -0.359546
96
ex_0323 frame40 As-trans-conf31
O        3.160339     0.000000     0.000000
C        2.020000     0.000000     0.000000
Ru       0.000000     0.000000     0.000000
Cl       0.251373     2.379910     0.182834
As       0.000000     0.000000     2.650000
C        0.193518     1.778557     3.464431
C       -0.747905     2.767690     3.159211
C       -0.597070     4.063733     3.654845
C        0.478117     4.369704     4.491704
C        1.396382     3.375716     4.839604
C        1.249662     2.077652     4.341162
C        1.386126    -1.092990     3.533855
C        1.034377    -2.234066     4.275635
C        2.026336    -3.013471     4.879260
C        3.370150    -2.648444     4.767992
C        3.725929    -1.509567     4.040984
C        2.738100    -0.733960     3.425330
C       -1.585727    -0.668461     3.619860
C       -2.497985    -1.461946     2.941751
C       -3.663727    -1.923861     3.534069
C       -3.914676    -1.614434     4.865167
C       -2.985330    -0.850446     5.588731
C       -1.817273    -0.367342     4.966721
As       0.000000     0.000000    -2.650000
C        1.069431    -1.403470    -3.537630
C        2.466086    -1.286860    -3.614167
C        3.222652    -2.280287    -4.245579
C        2.591052    -3.398835    -4.795927
C        1.202716    -3.525966    -4.714556
C        0.442353    -2.528023    -4.098724
C        0.644090     1.666803    -3.486527
C        0.150140     2.887106    -3.011679
C        0.634883     4.094758    -3.512030
C        1.593889     4.092222    -4.524898
C        2.054756     2.879474    -5.045747
C        1.577292     1.665735    -4.537369
C       -1.674588    -0.194101    -3.756957
C       -2.637800    -1.091321    -3.342042
C       -3.874466    -1.219612    -3.953588
C       -4.143911    -0.476509    -5.085704
C       -3.158680     0.382977    -5.595326
C       -1.916732     0.536396    -4.932493
S        0.022626    -2.349327    -0.108847
C       -1.696174    -2.524813    -0.569616
N       -2.045563    -3.689031    -1.019080
C       -3.236869    -4.266007    -1.518092
C       -3.483807    -4.264685    -2.900292
C       -4.636185    -4.864607    -3.411979
C       -5.561419    -5.444940    -2.542706
C       -5.335665    -5.422577    -1.161835
C       -4.172290    -4.839052    -0.645846
Cl      -3.893488    -4.829120     1.087810
C       -2.654866    -1.319631    -0.417635
C       -4.146252    -1.335874    -0.648155
C       -4.802686    -0.162861    -0.656053
C       -4.142089     1.098402    -0.258266
C       -2.839141     1.118417     0.046111
N       -2.058268    -0.117639    -0.030227
H       -1.571671     2.543350     2.496812
H       -1.306487     4.832067     3.377581
H        0.601695     5.376687     4.866993
H        2.230964     3.613673     5.486329
H        1.984030     1.346804     4.622778
H        0.006700    -2.550616     4.367247
H        1.753065    -3.904355     5.430266
H        4.135503    -3.251979     5.239086
H        4.767825    -1.230281     3.951864
H        3.027208     0.140151     2.857085
H       -2.281623    -1.738762     1.961375
H       -4.359682    -2.523227     2.957534
H       -4.821073    -1.979641     5.329606
H       -3.177957    -0.632938     6.628177
H       -1.109726     0.225191     5.526750
H        2.968950    -0.430995    -3.183402
H        4.298986    -2.185084    -4.306757
H        3.176920    -4.170296    -5.279087
H        0.714411    -4.399742    -5.127071
H       -0.624699    -2.658956    -4.042304
H       -0.594567     2.903448    -2.232210
H        0.271127     5.029918    -3.105919
H        1.975236     5.029466    -4.907424
H        2.790454     2.880106    -5.838739
H        1.956742     0.756943    -4.965950
H       -2.422480    -1.689123    -2.535923
H       -4.616500    -1.895997    -3.542950
H       -5.110552    -0.586365    -5.560957
H       -3.374464     0.933985    -6.496711
H       -1.186966     1.215960    -5.336120
H       -2.761261    -3.846914    -3.589466
H       -4.803976    -4.891618    -4.482179
H       -6.445665    -5.925029    -2.940833
H       -6.045204    -5.894240    -0.496602
H       -4.680298    -2.213877    -0.969058
H       -5.851566    -0.195454    -0.911372
H       -4.699056     2.029795    -0.243991
H       -2.377701     2.067397     0.296313
96
ex_0323 frame41 all-cis-conf27-2
O        3.155132     0.000000     0.000000
C        2.020000     0.000000     0.000000
Ru       0.000000     0.000000     0.000000
Cl       0.261347     2.370710    -0.297981
As       0.000000    -2.650000     0.000000
C       -1.749737    -3.587941     0.226324
C       -2.333056    -3.636793     1.479686
C       -3.553959    -4.256842     1.711612
C       -4.224046    -4.857805     0.653141
C       -3.661438    -4.826667    -0.629834
C       -2.416030    -4.205241    -0.848886
C        1.233931    -3.549250     1.254776
C        0.843092    -4.669478     2.005672
C        1.733039    -5.221302     2.941410
C        3.012675    -4.678058     3.108373
C        3.414945    -3.597033     2.327949
C        2.534958    -3.052491     1.396876
C        0.511863    -3.630884    -1.642861
C        0.453276    -2.984680    -2.882571
C        0.808029    -3.644607    -4.057045
C        1.232151    -4.970339    -4.004228
C        1.291142    -5.634206    -2.773580
C        0.934753    -4.968312    -1.590838
As       0.000000     0.000000     2.650000
C        1.788353    -0.157429     3.544004
C        1.975833    -0.914643     4.721141
C        3.257212    -1.113952     5.237698
C        4.358612    -0.520924     4.625090
C        4.173957     0.301267     3.512509
C        2.891324     0.501028     2.990257
C       -0.600897     1.606740     3.604088
C       -1.133819     2.680510     2.881760
C       -1.573478     3.829740     3.540938
C       -1.483804     3.912090     4.931775
C       -0.953123     2.843389     5.662014
C       -0.503548     1.693843     5.001009
C       -1.066368    -1.282296     3.758879
C       -2.345190    -0.933323     4.230097
C       -3.130284    -1.883040     4.896345
C       -2.627977    -3.163725     5.145635
C       -1.331085    -3.492883     4.748918
C       -0.546687    -2.547878     4.078771
S        0.118247     0.437187    -2.308131
C       -1.624801     0.837225    -2.562551
N       -1.972849     1.241676    -3.741707
C       -3.208643     1.662196    -4.285441
C       -3.533360     3.022369    -4.268996
C       -4.722276     3.469453    -4.846815
C       -5.609894     2.553879    -5.417941
C       -5.312602     1.186409    -5.404346
C       -4.111005     0.733433    -4.840294
Cl      -3.745528    -0.986390    -4.832389
C       -2.586520     0.679188    -1.387223
C       -4.045410     1.091129    -1.372395
C       -4.774890     0.832197    -0.270551
C       -4.185259     0.128971     0.890294
C       -2.897345    -0.239012     0.888059
N       -2.052286     0.086896    -0.194954
H       -1.844777    -3.163977     2.260129
H       -3.976184    -4.259423     2.709745
H       -5.179851    -5.333780     0.831617
H       -4.199162    -5.279798    -1.450711
H       -2.017575    -4.182244    -1.850623
H       -0.142514    -5.093976     1.909590
H        1.427921    -6.060197     3.551011
H        3.694321    -5.090268     3.840904
H        4.403363    -3.169286     2.448406
H        2.866188    -2.222685     0.814729
H        0.109320    -1.983656    -2.956869
H        0.747568    -3.125331    -5.006299
H        1.506571    -5.480917    -4.918246
H        1.612118    -6.666056    -2.740123
H        0.981135    -5.500774    -0.653739
H        1.179948    -1.391917     5.250663
H        3.394648    -1.742800     6.108835
H        5.351823    -0.693242     5.018519
H        5.027895     0.771851     3.044474
H        2.770971     1.136621     2.131959
H       -1.229275     2.624183     1.813067
H       -1.988789     4.652590     2.972574
H       -1.830969     4.801227     5.441899
H       -0.894148     2.905874     6.740375
H       -0.102854     0.872484     5.577735
H       -2.769907     0.037790     4.016877
H       -4.140132    -1.635698     5.196555
H       -3.248639    -3.906476     5.630932
H       -0.946285    -4.490148     4.922292
H        0.430774    -2.830470     3.736415
H       -2.839689     3.735484    -3.842708
H       -4.946748     4.527712    -4.861567
H       -6.523860     2.906944    -5.877765
H       -6.004086     0.486088    -5.856567
H       -4.544908     1.593037    -2.182486
H       -5.818625     1.126808    -0.225400
H       -4.799257    -0.083289     1.763249
H       -2.495578    -0.730291     1.737450
96
ex_0323 frame42 As-trans-conf29
O        3.123172     0.000000     0.000000
C        2.020000     0.000000     0.000000
Ru       0.000000     0.000000     0.000000
Cl      -0.036504     2.358702    -0.444084
As       0.000000     0.000000     2.650000
C        0.896294    -1.442088     3.636147
C        0.154525    -2.411681     4.327651
C        0.815469    -3.416725     5.043398
C        2.213272    -3.460292     5.066744
C        2.953874    -2.504022     4.367569
C        2.297779    -1.502126     3.648319
C        0.869906     1.475983     3.664821
C        1.401481     1.267243     4.955638
C        1.966439     2.327273     5.668081
C        2.035810     3.596823     5.094040
C        1.537629     3.807277     3.805800
C        0.960078     2.750215     3.092949
C       -1.706752     0.104549     3.812565
C       -2.917775    -0.272084     3.262201
C       -4.121277    -0.267270     3.942347
C       -4.147863     0.148132     5.256421
C       -2.957071     0.561939     5.866286
C       -1.730529     0.541682     5.157838
As       0.000000     0.000000    -2.650000
C        0.740417    -1.435636    -3.813567
C        0.685168    -1.348790    -5.218173
C        1.217787    -2.378534    -6.007409
C        1.803684    -3.495954    -5.405392
C        1.857857    -3.585729    -4.014543
C        1.330071    -2.558403    -3.229075
C        0.977563     1.404423    -3.638435
C        0.459947     1.967945    -4.818728
C        1.178474     2.954845    -5.499616
C        2.410606     3.391466    -5.007663
C        2.928123     2.839058    -3.833905
C        2.214395     1.848965    -3.152510
C       -1.767430     0.067611    -3.508198
C       -2.462730     1.282842    -3.580520
C       -3.715181     1.340035    -4.199411
C       -4.279892     0.183652    -4.745325
C       -3.595769    -1.032428    -4.666716
C       -2.342355    -1.092686    -4.051235
S       -2.350396    -0.072405     0.015806
C       -2.495256    -1.818076     0.540954
N       -3.690383    -2.249806     0.812570
C       -4.207385    -3.376253     1.511971
C       -3.987671    -3.521852     2.900377
C       -4.582828    -4.577466     3.598796
C       -5.340066    -5.526314     2.910681
C       -5.498814    -5.423537     1.524867
C       -4.938982    -4.348566     0.824715
Cl      -5.157225    -4.225021    -0.912566
C       -1.240620    -2.669107     0.634758
C       -1.218697    -4.130499     1.044821
C       -0.057840    -4.794711     1.023030
C        1.193460    -4.130914     0.607989
C        1.213574    -2.832488     0.287336
N        0.016185    -2.041653     0.310861
H       -0.925679    -2.392940     4.323844
H        0.245153    -4.160259     5.584712
H        2.723046    -4.233958     5.626584
H        4.035820    -2.535365     4.387244
H        2.878155    -0.759578     3.115825
H        1.348281     0.305478     5.443701
H        2.341235     2.164488     6.670851
H        2.470795     4.417296     5.650048
H        1.590649     4.793276     3.363464
H        0.565920     2.934787     2.109767
H       -2.958516    -0.585014     2.313913
H       -5.022136    -0.599669     3.434075
H       -5.092079     0.144669     5.785626
H       -2.995732     0.894456     6.892312
H       -0.869748     0.868254     5.691297
H        0.232548    -0.506015    -5.711613
H        1.175932    -2.313938    -7.086990
H        2.213904    -4.292708    -6.013666
H        2.308060    -4.450673    -3.543097
H        1.377908    -2.640193    -2.169380
H       -0.482695     1.650273    -5.232623
H        0.779706     3.379518    -6.411686
H        2.964509     4.155748    -5.537007
H        3.883261     3.176748    -3.452834
H        2.628156     1.429247    -2.248959
H       -2.031779     2.182422    -3.160392
H       -4.247247     2.280585    -4.257517
H       -5.248590     0.228711    -5.225799
H       -4.036337    -1.929038    -5.083285
H       -1.832549    -2.044268    -3.995136
H       -3.426178    -2.798553     3.467289
H       -4.472840    -4.652471     4.675574
H       -5.810808    -6.337383     3.452182
H       -6.088435    -6.160049     0.998625
H       -2.091284    -4.684905     1.351606
H       -0.022151    -5.841574     1.305497
H        2.111000    -4.705120     0.553840
H        2.159376    -2.418226    -0.014263
96
ex_0323 frame43 all-cis-conf14
O        3.123172     0.000000     0.000000
C        2.020000     0.000000     0.000000
Ru       0.000000     0.000000     0.000000
Cl       0.094967     2.445314     0.038790
As      -2.650000     0.000000     0.000000
C       -3.640194    -1.714636     0.150090
C       -4.344293    -2.270668    -0.932257
C       -5.068803    -3.460321    -0.750947
C       -5.084249    -4.097948     0.495776
C       -4.361746    -3.559534     1.557769
C       -3.636062    -2.387383     1.368482
C       -3.793099     0.983701     1.301572
C       -5.000322     0.445258     1.802786
C       -5.763749     1.169776     2.724543
C       -5.331432     2.421972     3.163833
C       -4.146429     2.961958     2.663733
C       -3.388749     2.245655     1.732585
C       -3.632453     0.650090    -1.614965
C       -3.041206     0.536069    -2.880155
C       -3.699111     0.998922    -4.022820
C       -4.965298     1.573924    -3.915063
C       -5.575144     1.681519    -2.664273
C       -4.916459     1.226009    -1.516764
As       0.000000     0.000000     2.650000
C       -0.526554     1.517784     3.842627
C       -0.707296     1.333097     5.229430
C       -1.140686     2.394820     6.032057
C       -1.378409     3.649819     5.468422
C       -1.158910     3.850393     4.106714
C       -0.723003     2.792952     3.305676
C        1.731099    -0.042442     3.647744
C        1.882162    -0.757213     4.856674
C        3.112742    -0.788153     5.514381
C        4.205407    -0.103188     4.986929
C        4.064221     0.625652     3.803975
C        2.833183     0.656338     3.137838
C       -1.031281    -1.372260     3.756214
C       -0.471955    -2.641478     4.056419
C       -1.226979    -3.624115     4.693045
C       -2.527532    -3.343447     5.102588
C       -3.066674    -2.069695     4.893759
C       -2.318480    -1.077668     4.239493
S        0.386920    -0.027887    -2.317887
C        0.300929    -1.715816    -2.609494
N        0.279519    -2.211042    -3.798392
C        0.322506    -1.596815    -5.069640
C        1.176904    -0.515206    -5.322578
C        1.200424     0.069201    -6.587482
C        0.363476    -0.412166    -7.598535
C       -0.488380    -1.491203    -7.350602
C       -0.508512    -2.086075    -6.089011
Cl      -1.579519    -3.450553    -5.783547
C        0.249884    -2.616985    -1.483252
C        0.381108    -4.114517    -1.623109
C        0.252078    -4.877672    -0.529283
C        0.023065    -4.252806     0.784899
C       -0.071414    -2.922493     0.891371
N        0.067274    -2.051004    -0.192024
H       -4.361342    -1.799257    -1.901342
H       -5.628109    -3.886041    -1.572526
H       -5.654178    -5.006283     0.642479
H       -4.368902    -4.038726     2.529547
H       -3.095181    -1.969031     2.171168
H       -5.389142    -0.505504     1.483610
H       -6.694647     0.761096     3.096580
H       -5.919662     2.978475     3.882137
H       -3.817459     3.937591     2.995157
H       -2.490269     2.673173     1.330839
H       -2.081139     0.084168    -2.994818
H       -3.226408     0.909328    -4.992784
H       -5.475455     1.931279    -4.800414
H       -6.561409     2.120251    -2.583190
H       -5.432686     1.331769    -0.581323
H       -0.545435     0.376613     5.699193
H       -1.303386     2.242114     7.090813
H       -1.729239     4.467348     6.084920
H       -1.337629     4.822970     3.665646
H       -0.561175     2.978228     2.270347
H        1.081260    -1.285237     5.330811
H        3.215623    -1.344619     6.438067
H        5.157074    -0.131117     5.501552
H        4.910592     1.167424     3.403953
H        2.739987     1.234168     2.232499
H        0.528339    -2.904791     3.731048
H       -0.807118    -4.611766     4.845438
H       -3.117867    -4.118836     5.574513
H       -4.079343    -1.863670     5.211458
H       -2.774240    -0.117252     4.046980
H        1.849320    -0.147998    -4.560617
H        1.872915     0.892328    -6.780841
H        0.380653     0.045899    -8.576247
H       -1.128216    -1.869924    -8.137227
H        0.533959    -4.583668    -2.588472
H        0.302568    -5.959219    -0.597114
H       -0.078731    -4.869644     1.673789
H       -0.245445    -2.484843     1.786533
96
ex_0323 frame44 all-cis-conf27
O        3.155132     0.000000     0.000000
C        2.020000     0.000000     0.000000
Ru       0.000000     0.000000     0.000000
Cl       0.747119     2.281128     0.010249
As       0.000000    -2.650000     0.000000
C       -1.721626    -3.627477     0.274299
C       -2.348641    -3.570723     1.505445
C       -3.556985    -4.209529     1.760437
C       -4.172747    -4.929184     0.745816
C       -3.560908    -5.010025    -0.508656
C       -2.323018    -4.375546    -0.744329
C        1.235473    -3.530243     1.268407
C        0.843987    -4.645179     2.028361
C        1.736471    -5.200088     2.958725
C        3.017115    -4.658882     3.120644
C        3.417007    -3.576689     2.340316
C        2.534230    -3.029563     1.413109
C        0.567929    -3.730466    -1.576259
C        0.646156    -3.113941    -2.808203
C        0.993623    -3.791800    -3.966661
C        1.304780    -5.142439    -3.892776
C        1.259838    -5.797100    -2.652801
C        0.892372    -5.095570    -1.485088
As       0.000000     0.000000     2.650000
C        1.785557    -0.159955     3.548089
C        1.970539    -0.914076     4.727197
C        3.252106    -1.117535     5.242162
C        4.355115    -0.529146     4.627504
C        4.172161     0.292606     3.514560
C        2.890042     0.495036     2.993423
C       -0.601607     1.606150     3.599277
C       -1.125030     2.682955     2.872611
C       -1.565068     3.832803     3.530690
C       -1.484967     3.912696     4.922443
C       -0.963516     2.841147     5.655201
C       -0.514576     1.690655     4.996329
C       -1.082082    -1.275852     3.716799
C       -2.382433    -0.938955     4.122984
C       -3.171638    -1.882399     4.795396
C       -2.656649    -3.147957     5.097739
C       -1.346181    -3.470614     4.743040
C       -0.555935    -2.530564     4.076212
S       -2.351909    -0.019636    -0.052537
C       -2.521622    -0.630350    -1.708312
N       -3.645307    -1.201401    -2.027397
C       -4.198387    -1.741448    -3.225417
C       -4.136224    -3.119696    -3.471845
C       -4.728610    -3.675934    -4.605086
C       -5.354229    -2.848434    -5.534428
C       -5.383056    -1.464137    -5.328416
C       -4.811898    -0.905129    -4.173417
Cl      -4.869145     0.830924    -3.924165
C       -1.348963    -0.449154    -2.643162
C       -1.361581    -0.733597    -4.130532
C       -0.229703    -0.551741    -4.834036
C        0.991734     0.008029    -4.200118
C        1.027292     0.284740    -2.884574
N       -0.113960     0.037735    -2.058381
H       -1.908167    -3.003976     2.245197
H       -4.015813    -4.132731     2.738438
H       -5.124300    -5.410204     0.932665
H       -4.059407    -5.554884    -1.298155
H       -1.876820    -4.436802    -1.722712
H       -0.140635    -5.072990     1.932589
H        1.433461    -6.042215     3.565050
H        3.702078    -5.075426     3.847418
H        4.407504    -3.152682     2.455002
H        2.867146    -2.205286     0.826440
H        0.407865    -2.111965    -2.859456
H        1.013163    -3.263556    -4.913421
H        1.575292    -5.671221    -4.797557
H        1.504566    -6.848116    -2.607136
H        0.851053    -5.620989    -0.544783
H        1.172769    -1.386548     5.258533
H        3.388478    -1.746133     6.113517
H        5.348279    -0.704345     5.019575
H        5.026692     0.760413     3.044748
H        2.771367     1.129405     2.134357
H       -1.211571     2.629134     1.799810
H       -1.972997     4.658123     2.960636
H       -1.832197     4.802281     5.431424
H       -0.910973     2.901912     6.733866
H       -0.120485     0.866734     5.574008
H       -2.809204     0.021280     3.869322
H       -4.192058    -1.642468     5.062845
H       -3.277839    -3.885724     5.589384
H       -0.951699    -4.457426     4.951785
H        0.434777    -2.810030     3.770009
H       -3.691212    -3.779606    -2.772965
H       -4.713745    -4.750637    -4.751199
H       -5.824490    -3.283684    -6.406647
H       -5.882605    -0.831917    -6.048565
H       -2.200106    -1.164952    -4.648963
H       -0.273041    -0.795792    -5.885207
H        1.883857     0.153340    -4.800899
H        1.950710     0.650336    -2.456930
96
ex_0323 frame45 all-cis-conf19-2
O        3.123172     0.000000     0.000000
C        2.020000     0.000000     0.000000
Ru       0.000000     0.000000     0.000000
Cl       0.002051     2.402012    -0.052083
As      -2.650000     0.000000     0.000000
C       -3.656259    -1.710574     0.145336
C       -4.340064    -2.271358    -0.947493
C       -5.065724    -3.462056    -0.775944
C       -5.102479    -4.097043     0.471695
C       -4.406414    -3.551211     1.547047
C       -3.684662    -2.375128     1.370006
C       -3.792634     0.990134     1.300075
C       -4.998571     0.452747     1.806752
C       -5.760711     1.178645     2.727241
C       -5.330663     2.433653     3.159059
C       -4.147940     2.974222     2.653468
C       -3.389666     2.255205     1.724443
C       -3.620198     0.651226    -1.613562
C       -3.016850     0.543773    -2.873056
C       -3.674796     1.001271    -4.019360
C       -4.946250     1.568434    -3.917851
C       -5.562537     1.674417    -2.670425
C       -4.907236     1.221530    -1.521070
As       0.000000     0.000000     2.650000
C       -0.526697     1.511673     3.854781
C       -0.703512     1.319641     5.240100
C       -1.129926     2.380258     6.049900
C       -1.364739     3.639988     5.494120
C       -1.152885     3.846124     4.133065
C       -0.727069     2.790565     3.326225
C        1.723627    -0.057575     3.643703
C        1.872058    -0.795497     4.837141
C        3.099859    -0.820979     5.503570
C        4.190292    -0.117354     4.991976
C        4.051064     0.623865     3.816740
C        2.823462     0.654111     3.146545
C       -1.000401    -1.386676     3.668338
C       -0.454848    -2.671505     3.831737
C       -1.176801    -3.669408     4.489264
C       -2.439001    -3.386943     5.014943
C       -2.975845    -2.101920     4.893211
C       -2.256742    -1.098370     4.232445
S        0.515861     0.176851    -2.288054
C        1.346692    -1.406547    -2.365656
N        2.081034    -1.608644    -3.446230
C        2.867764    -2.701858    -3.854712
C        4.231553    -2.699597    -3.556114
C        5.046384    -3.744339    -3.986170
C        4.493296    -4.814262    -4.694622
C        3.120578    -4.841719    -4.968483
C        2.301509    -3.784267    -4.552810
Cl       0.579130    -3.821840    -4.907506
C        1.122491    -2.414708    -1.272659
C        1.780199    -3.762745    -1.148185
C        1.368000    -4.577567    -0.160942
C        0.342401    -4.152884     0.823683
C       -0.206511    -2.932112     0.754370
N        0.186555    -2.037126    -0.257864
H       -4.337234    -1.804335    -1.918901
H       -5.607453    -3.892366    -1.606801
H       -5.669484    -5.008620     0.609292
H       -4.430082    -4.028103     2.519757
H       -3.168879    -1.950798     2.187731
H       -5.389764    -0.498570     1.494726
H       -6.689170     0.768066     3.103564
H       -5.919395     2.991298     3.875911
H       -3.821005     3.952337     2.979389
H       -2.492340     2.683504     1.320541
H       -2.045926     0.098739    -2.974307
H       -3.199404     0.914301    -4.987745
H       -5.455804     1.922068    -4.805113
H       -6.551406     2.108640    -2.593011
H       -5.428655     1.323450    -0.587675
H       -0.541255     0.358675     5.700897
H       -1.288375     2.224415     7.108449
H       -1.707061     4.457456     6.115376
H       -1.327836     4.821753     3.696292
H       -0.572213     2.985862     2.294696
H        1.063684    -1.340719     5.286664
H        3.203825    -1.386402     6.421229
H        5.139664    -0.140888     5.511289
H        4.894972     1.177218     3.426394
H        2.729440     1.243403     2.247872
H        0.516431    -2.906810     3.416846
H       -0.761563    -4.665092     4.579073
H       -3.003567    -4.166619     5.509652
H       -3.958755    -1.889240     5.292410
H       -2.705513    -0.121178     4.119126
H        4.661818    -1.861420    -3.021668
H        6.107257    -3.714543    -3.778000
H        5.131771    -5.616900    -5.037316
H        2.702434    -5.669533    -5.526532
H        2.525121    -4.127133    -1.829778
H        1.824994    -5.553354    -0.127581
H        0.033014    -4.837520     1.608529
H       -0.946928    -2.625451     1.465167
96
ex_0323 frame46 all-cis-conf17
O        3.155132     0.000000     0.000000
C        2.020000     0.000000     0.000000
Ru       0.000000     0.000000     0.000000
Cl      -0.071823     2.386587    -0.244855
As      -2.650000     0.000000     0.000000
C       -3.582689     1.713051     0.296985
C       -3.713320     2.224077     1.593434
C       -4.332160     3.455818     1.813846
C       -4.843698     4.180265     0.736607
C       -4.739566     3.668257    -0.560450
C       -4.120905     2.431428    -0.782119
C       -3.647329    -1.243795     1.186071
C       -4.696662    -0.806885     2.017718
C       -5.326884    -1.706912     2.883082
C       -4.924211    -3.043806     2.922271
C       -3.911480    -3.489476     2.072879
C       -3.295707    -2.596533     1.195071
C       -3.617835    -0.559562    -1.634661
C       -2.951534    -0.574798    -2.864731
C       -3.607730    -0.971818    -4.030000
C       -4.944461    -1.364791    -3.975176
C       -5.625153    -1.350553    -2.753745
C       -4.968922    -0.944167    -1.584279
As       0.000000     0.000000     2.650000
C        1.778350    -0.183941     3.533319
C        1.960425    -0.978314     4.684112
C        3.238206    -1.168530     5.215316
C        4.340032    -0.544978     4.631051
C        4.159978     0.295933     3.531595
C        2.881429     0.492553     3.000295
C       -0.549513     1.620743     3.654761
C       -1.013193     2.741481     2.964083
C       -1.443422     3.882529     3.632039
C       -1.403231     3.921369     5.021121
C       -0.922363     2.816339     5.734115
C       -0.482788     1.668156     5.054831
C       -1.067372    -1.289329     3.758728
C       -2.280430    -0.899032     4.346153
C       -3.034299    -1.825735     5.079380
C       -2.586560    -3.141760     5.232319
C       -1.371546    -3.531134     4.674102
C       -0.608897    -2.608035     3.961253
S        0.506830     0.159281    -2.291104
C        1.327249    -1.425356    -2.422462
N        2.024833    -1.628779    -3.486000
C        2.830692    -2.705181    -3.884497
C        4.188413    -2.683276    -3.564087
C        5.024801    -3.711377    -3.989024
C        4.497886    -4.783899    -4.713806
C        3.129253    -4.831244    -5.006912
C        2.289313    -3.790531    -4.594273
Cl       0.570915    -3.851746    -4.967079
C        1.154370    -2.428629    -1.280556
C        1.804751    -3.791186    -1.182848
C        1.544853    -4.547599    -0.099888
C        0.575225    -4.110858     0.932030
C       -0.011885    -2.912970     0.844940
N        0.290905    -2.033267    -0.201216
H       -3.315011     1.674104     2.432853
H       -4.406481     3.850401     2.819300
H       -5.314917     5.139494     0.907649
H       -5.130817     4.235547    -1.394552
H       -4.034453     2.063307    -1.794111
H       -5.044378     0.205766     2.029209
H       -6.116254    -1.362691     3.538476
H       -5.392241    -3.731731     3.613870
H       -3.594846    -4.523895     2.100385
H       -2.532354    -2.957007     0.530970
H       -1.932233    -0.272797    -2.933697
H       -3.076839    -0.973629    -4.974120
H       -5.450589    -1.676833    -4.879521
H       -6.662143    -1.655591    -2.715035
H       -5.518062    -0.939369    -0.655480
H        1.155967    -1.480305     5.180870
H        3.373539    -1.811828     6.075766
H        5.330568    -0.709494     5.034469
H        5.013341     0.786325     3.082485
H        2.762073     1.146305     2.153806
H       -1.095012     2.733021     1.913519
H       -1.822645     4.725909     3.065809
H       -1.752667     4.804812     5.538399
H       -0.901367     2.850408     6.813620
H       -0.128508     0.818578     5.618630
H       -2.666613     0.100314     4.216201
H       -3.982894    -1.532885     5.508702
H       -3.184838    -3.863528     5.773398
H       -1.021763    -4.550371     4.783294
H        0.331395    -2.934490     3.538770
H        4.595868    -1.842221    -3.015836
H        6.081401    -3.665589    -3.763788
H        5.153302    -5.573504    -5.052921
H        2.729652    -5.661958    -5.573470
H        2.517832    -4.168785    -1.890528
H        2.047235    -5.499377     0.032118
H        0.359113    -4.750344     1.782562
H       -0.687170    -2.575565     1.584348
96
ex_0323 frame47 all-cis-conf12-2
O        3.155132     0.000000     0.000000
C        2.020000     0.000000     0.000000
Ru       0.000000     0.000000     0.000000
Cl       0.224639     2.379624    -0.211961
As       0.000000    -2.650000     0.000000
C       -1.752870    -3.587735     0.218100
C       -2.341717    -3.642832     1.469223
C       -3.564886    -4.263940     1.690812
C       -4.230325    -4.859065     0.625781
C       -3.661649    -4.821841    -0.653726
C       -2.415945    -4.199278    -0.863193
C        1.228116    -3.550007     1.260081
C        0.832997    -4.667309     2.012940
C        1.723012    -5.225510     2.944634
C        3.005615    -4.688658     3.109298
C        3.410318    -3.606740     2.331294
C        2.530313    -3.055989     1.403779
C        0.510450    -3.665319    -1.627478
C        0.410553    -3.051595    -2.875252
C        0.766992    -3.713600    -4.045348
C        1.231733    -5.023630    -3.978838
C        1.326855    -5.665715    -2.737781
C        0.971377    -4.989965    -1.557931
As       0.000000     0.000000     2.650000
C        1.785122    -0.154786     3.550643
C        1.970535    -0.906965     4.730827
C        3.251977    -1.102903     5.250130
C        4.354180    -0.510744     4.637268
C        4.170737     0.306981     3.521482
C        2.888978     0.502333     2.996233
C       -0.606895     1.601642     3.617072
C       -1.151783     2.675590     2.903113
C       -1.585671     3.823969     3.565119
C       -1.483791     3.905360     4.954059
C       -0.947989     2.834905     5.678718
C       -0.502303     1.685209     5.013250
C       -1.085255    -1.277391     3.710114
C       -2.389856    -0.942971     4.104157
C       -3.176846    -1.878871     4.788472
C       -2.657948    -3.138054     5.108724
C       -1.346495    -3.461694     4.757732
C       -0.558960    -2.528752     4.076742
S       -2.350716     0.047436    -0.026395
C       -2.547628    -0.036303    -1.812852
N       -3.711719    -0.156399    -2.357980
C       -4.976449    -0.193575    -1.708662
C       -5.310836     0.745688    -0.713259
C       -6.564289     0.697861    -0.098616
C       -7.484336    -0.288605    -0.461863
C       -7.154920    -1.226688    -1.443972
C       -5.904289    -1.182668    -2.067104
Cl      -5.501401    -2.370896    -3.299665
C       -1.342335     0.034096    -2.676227
C       -1.435623     0.004746    -4.173909
C       -0.308825     0.033647    -4.893264
C        1.012160     0.151967    -4.231313
C        1.120585     0.205060    -2.890697
N       -0.053821     0.132775    -2.066260
H       -1.856011    -3.178639     2.257029
H       -3.992554    -4.273156     2.686526
H       -5.186847    -5.336428     0.796453
H       -4.194267    -5.271715    -1.479779
H       -2.014472    -4.173240    -1.863224
H       -0.153327    -5.089628     1.915931
H        1.416611    -6.066113     3.551240
H        3.687990    -5.107215     3.837556
H        4.401367    -3.184522     2.449609
H        2.864188    -2.226875     0.821056
H        0.030730    -2.072465    -2.949836
H        0.675201    -3.207104    -4.999328
H        1.507312    -5.538300    -4.890145
H        1.675937    -6.687744    -2.695218
H        1.047476    -5.506708    -0.614673
H        1.172339    -1.381360     5.260203
H        3.389364    -1.728034     6.123819
H        5.347175    -0.679790     5.032857
H        5.024768     0.777573     3.053267
H        2.769652     1.134549     2.135185
H       -1.262495     2.623911     1.838507
H       -2.005589     4.646441     2.999043
H       -1.826560     4.794979     5.466122
H       -0.881009     2.897428     6.756246
H       -0.095676     0.864122     5.585451
H       -2.816884     0.015192     3.842553
H       -4.196815    -1.636239     5.055404
H       -3.275899    -3.869158     5.613996
H       -0.948341    -4.443389     4.982290
H        0.434100    -2.809604     3.775596
H       -4.620986     1.530165    -0.430463
H       -6.824209     1.429803     0.655278
H       -8.455309    -0.323053     0.013626
H       -7.872244    -1.986644    -1.724082
H       -2.397462    -0.084887    -4.669323
H       -0.361329    -0.034196    -5.975030
H        1.907286     0.177935    -4.843375
H        2.110433     0.269977    -2.467037
96
ex_0323 frame48 As-trans-conf28
O        3.162558     0.000000     0.000000
C        2.020000     0.000000     0.000000
Ru       0.000000     0.000000     0.000000
Cl       0.026691     2.387092    -0.252087
As       0.000000     0.000000     2.650000
C        1.492229    -0.882269     3.577152
C        2.381039    -1.678589     2.851402
C        3.418677    -2.357186     3.481766
C        3.594152    -2.221897     4.857075
C        2.728032    -1.404040     5.594281
C        1.679752    -0.725728     4.955580
C        0.099659     1.805645     3.436527
C       -0.732238     2.194630     4.504744
C       -0.695450     3.504114     4.983792
C        0.193912     4.425333     4.431218
C        1.057132     4.032347     3.404645
C        1.020165     2.721557     2.919243
C       -1.462480    -0.790970     3.741988
C       -2.719052    -0.163086     3.789779
C       -3.733675    -0.665272     4.614623
C       -3.511073    -1.818207     5.380069
C       -2.279595    -2.485836     5.290610
C       -1.260139    -1.976719     4.472977
As       0.000000     0.000000    -2.650000
C        0.097345     1.771740    -3.512272
C       -0.854217     2.186309    -4.458800
C       -0.776482     3.468666    -5.011633
C        0.257693     4.332936    -4.642091
C        1.221473     3.914704    -3.722744
C        1.146063     2.636687    -3.167933
C        1.511228    -0.924023    -3.542899
C        2.372107    -0.235998    -4.416421
C        3.450891    -0.900818    -5.009012
C        3.669519    -2.255997    -4.751461
C        2.807959    -2.950577    -3.900845
C        1.731851    -2.288532    -3.303803
C       -1.591891    -0.838859    -3.481770
C       -1.498859    -2.064020    -4.163761
C       -2.641169    -2.651844    -4.715557
C       -3.877422    -2.010401    -4.620057
C       -3.976377    -0.783636    -3.960359
C       -2.839623    -0.201041    -3.390997
S       -2.344694    -0.053229     0.015230
C       -2.441996    -1.774521     0.541604
N       -3.733373    -2.196417     0.751873
C       -4.266983    -3.347704     1.387115
C       -4.080607    -3.512850     2.743337
C       -4.655550    -4.568575     3.449927
C       -5.389149    -5.524418     2.750042
C       -5.532234    -5.408603     1.357126
C       -4.973785    -4.312853     0.672737
Cl      -5.165373    -4.163154    -1.062598
C       -1.261334    -2.648808     0.620972
C       -1.231238    -4.067296     1.113874
C       -0.097678    -4.767623     0.939743
C        1.118328    -4.144732     0.375571
C        1.123211    -2.857057     0.020364
N       -0.040550    -2.053492     0.175906
H        2.263190    -1.801501     1.804857
H        4.077839    -2.990921     2.899897
H        4.398758    -2.753748     5.346487
H        2.865720    -1.304598     6.661080
H        1.004806    -0.109708     5.532653
H       -1.434463     1.531731     4.968104
H       -1.367002     3.804397     5.778693
H        0.211393     5.442359     4.798753
H        1.745388     4.747017     2.975335
H        1.677547     2.430574     2.111531
H       -2.900899     0.731384     3.207569
H       -4.695312    -0.169674     4.648387
H       -4.306748    -2.223959     5.991581
H       -2.126683    -3.411358     5.830728
H       -0.329103    -2.519739     4.410139
H       -1.664682     1.553413    -4.769616
H       -1.523244     3.794676    -5.723774
H        0.311802     5.326268    -5.066992
H        2.023002     4.581324    -3.432955
H        1.891242     2.323015    -2.447649
H        2.243092     0.807998    -4.638656
H        4.121167    -0.362440    -5.666406
H        4.506303    -2.766909    -5.210069
H        2.975196    -4.001421    -3.701495
H        1.074900    -2.840741    -2.650827
H       -0.572841    -2.595368    -4.257209
H       -2.566969    -3.608888    -5.216047
H       -4.757992    -2.466368    -5.054001
H       -4.934846    -0.286257    -3.887534
H       -2.932222     0.745595    -2.874741
H       -3.528115    -2.760019     3.204551
H       -4.544687    -4.635157     4.528715
H       -5.848288    -6.344634     3.288338
H       -6.102749    -6.150113     0.819932
H       -2.073153    -4.588070     1.529066
H       -0.059335    -5.813949     1.214696
H        2.020297    -4.734415     0.245924
H        2.034171    -2.439592    -0.388777
96
ex_0323 frame49 all-cis-conf22
O        3.155132     0.000000     0.000000
C        2.020000     0.000000     0.000000
Ru       0.000000     0.000000     0.000000
Cl       0.617657     2.263632     0.510646
As       0.000000    -2.650000     0.000000
C       -1.758896    -3.590555     0.244590
C       -2.281956    -3.672870     1.503542
C       -3.487884    -4.277810     1.808830
C       -4.223072    -4.843057     0.784891
C       -3.730152    -4.782897    -0.530206
C       -2.482273    -4.169543    -0.809667
C        1.239931    -3.516699     1.254959
C        0.868848    -4.636788     2.012574
C        1.763532    -5.151407     2.963124
C        3.031713    -4.579025     3.125947
C        3.414708    -3.503051     2.331060
C        2.528199    -2.996056     1.391426
C        0.504158    -3.621853    -1.660196
C        0.447816    -2.982440    -2.904697
C        0.811808    -3.615386    -4.079526
C        1.235111    -4.933674    -4.033240
C        1.281888    -5.605842    -2.803367
C        0.920763    -4.951135    -1.614448
As       0.000000     0.000000     2.650000
C        1.767311    -0.206791     3.515373
C        1.944188    -0.987587     4.673231
C        3.217727    -1.207315     5.185585
C        4.324023    -0.613395     4.582185
C        4.149763     0.219171     3.475697
C        2.872422     0.439578     2.963295
C       -0.630001     1.609596     3.605330
C       -1.179051     2.692241     2.895730
C       -1.595445     3.843981     3.552320
C       -1.497542     3.918497     4.938529
C       -0.981783     2.835763     5.661365
C       -0.535983     1.687633     4.995877
C       -1.084896    -1.291281     3.725690
C       -2.357586    -0.946043     4.211279
C       -3.165832    -1.925354     4.805542
C       -2.682854    -3.226014     4.982909
C       -1.381068    -3.543224     4.596669
C       -0.576708    -2.563493     4.005227
S       -0.128029     0.214118    -2.337109
C       -1.096074     1.444040    -1.773982
N       -0.925265     2.556216    -2.417201
C       -1.395743     3.874060    -2.525785
C       -2.548662     4.129583    -3.263114
C       -3.015974     5.437745    -3.386510
C       -2.374477     6.480351    -2.710717
C       -1.229510     6.227480    -1.961634
C       -0.714382     4.939108    -1.897964
Cl       0.785732     4.663268    -1.030180
C       -2.070020     1.215355    -0.569302
C       -3.036758     2.239971    -0.186446
C       -3.830848     2.008402     0.852908
C       -3.778742     0.740399     1.627240
C       -2.916848    -0.241275     1.308724
N       -2.046110    -0.054700     0.229659
H       -1.734255    -3.213738     2.211476
H       -3.849903    -4.293770     2.829598
H       -5.171982    -5.306700     1.024353
H       -4.326743    -5.205900    -1.322146
H       -2.128469    -4.115789    -1.825316
H       -0.110082    -5.076792     1.924610
H        1.467262    -5.980152     3.588927
H        3.718823    -4.962120     3.866940
H        4.389917    -3.045112     2.445869
H        2.842016    -2.170143     0.805025
H        0.106859    -2.017306    -3.022370
H        0.754362    -3.072793    -5.019085
H        1.513865    -5.426217    -4.953109
H        1.598454    -6.634423    -2.772926
H        0.959336    -5.476270    -0.675013
H        1.144646    -1.465034     5.194453
H        3.338234    -1.849277     6.047848
H        5.311910    -0.791659     4.978514
H        5.002167     0.687703     3.005119
H        2.755772     1.086878     2.115861
H       -1.318404     2.669967     1.839575
H       -1.999968     4.671888     2.980352
H       -1.832265     4.811044     5.448011
H       -0.926737     2.885978     6.737828
H       -0.139682     0.855919     5.558764
H       -2.771251     0.035262     4.038952
H       -4.182298    -1.688595     5.091139
H       -3.324652    -3.996859     5.390141
H       -1.015564    -4.558987     4.683590
H        0.392282    -2.826287     3.640393
H       -3.023432     3.325366    -3.813276
H       -3.869592     5.644556    -4.012284
H       -2.739800     7.491328    -2.786054
H       -0.703085     7.032934    -1.468550
H       -3.101689     3.172438    -0.726138
H       -4.515603     2.804922     1.095062
H       -4.448788     0.608302     2.462676
H       -2.874879    -1.154109     1.861182
