76
ex_0356 frame0 Isomer 2
C       -2.752690    -1.968925     1.776664
S       -2.102486    -0.315288     1.340295
C       -1.321435     0.294301     2.867114
C       -0.471377    -0.805554     3.458226
P        0.897700    -1.403003     2.433352
C        2.428427    -0.576182     2.559998
C        3.481476    -0.722271     1.661766
C        4.703911    -0.114943     1.966230
C        4.854369     0.667898     3.097032
C        3.771306     0.864338     3.928919
C        2.561477     0.273467     3.643045
C        1.018040    -3.216713     2.462339
C        2.148771    -3.871149     1.966630
C        2.288345    -5.244248     2.137566
C        1.290842    -5.986068     2.736846
C        0.128456    -5.349470     3.146579
C       -0.020491    -3.978035     2.981482
Pt      -0.070325    -0.930221     0.469865
Se      -0.403822    -2.720227    -1.081177
C       -1.668426    -1.960629    -2.301860
C       -2.767196    -1.159846    -1.913075
C       -3.697762    -0.766772    -2.880453
C       -3.476692    -1.125418    -4.208650
C       -2.344066    -1.853803    -4.562210
C       -1.456355    -2.233973    -3.599724
C        1.350417    -2.231145    -1.859760
C        1.309402    -0.763349    -2.337487
P        0.876913     0.451581    -1.025322
C        2.167306     1.346674    -0.329310
C        1.965416     2.100854     0.834494
C        2.994826     2.928153     1.273154
C        4.218098     2.958148     0.621924
C        4.415176     2.144333    -0.486950
C        3.402203     1.309767    -0.934908
C       -0.461600     1.503679    -1.535600
C       -1.308196     2.160070    -0.617668
C       -2.257573     3.049182    -1.129561
C       -2.394894     3.247127    -2.502035
C       -1.590122     2.549044    -3.382380
C       -0.660301     1.669129    -2.881428
H       -2.155867    -2.843585     1.381741
H       -3.726532    -1.983948     1.276557
H       -2.897896    -2.071091     2.828155
H       -0.743465     1.256434     2.659305
H       -2.193205     0.501160     3.527690
H       -1.118728    -1.606929     3.728239
H       -0.017302    -0.417097     4.368132
H        3.434800    -1.304538     0.782663
H        5.552997    -0.250594     1.333823
H        5.800742     1.129798     3.319438
H        3.886293     1.469709     4.805057
H        1.774803     0.446880     4.329246
H        2.957794    -3.358350     1.512473
H        3.187261    -5.739758     1.821769
H        1.444032    -7.046846     2.858012
H       -0.643083    -5.927284     3.611985
H       -0.923527    -3.555186     3.323429
H       -2.982225    -0.883733    -0.918629
H       -4.584290    -0.197334    -2.604225
H       -4.179224    -0.831615    -4.951928
H       -2.145009    -2.150872    -5.580951
H       -0.587387    -2.804305    -3.859331
H        2.226592    -2.456419    -1.178243
H        1.401352    -2.954376    -2.696148
H        2.250538    -0.481399    -2.766579
H        0.478630    -0.770419    -3.048821
H        1.037387     2.140293     1.375271
H        2.862149     3.563157     2.121048
H        5.007761     3.611100     0.975557
H        5.357808     2.168160    -0.997873
H        3.584087     0.719041    -1.797742
H       -1.224626     2.047041     0.452666
H       -2.882937     3.593300    -0.468689
H       -3.130957     3.940013    -2.853592
H       -1.678588     2.691987    -4.447695
H       -0.029944     1.157592    -3.560366
76
ex_0356 frame1 Isomer 1
C        0.361139     3.519582     0.550105
S       -0.448448     1.981484     1.332433
C       -2.035775     1.972372     0.442697
C       -1.932781     2.123755    -1.088241
P       -0.897922     0.828750    -1.846880
C        0.188857     1.458321    -3.087093
C       -0.175437     2.613743    -3.688639
C        0.531585     3.116910    -4.760766
C        1.678932     2.475460    -5.193498
C        2.106493     1.328813    -4.538621
C        1.385542     0.817813    -3.459808
C       -1.711992    -0.616082    -2.339857
C       -1.021484    -1.651266    -2.982603
C       -1.737064    -2.726845    -3.511184
C       -3.107027    -2.807319    -3.333298
C       -3.759285    -1.812095    -2.620640
C       -3.050352    -0.735777    -2.091803
Pt       0.411242     0.425431    -0.071531
Se       2.662183     0.236260    -0.672125
C        3.520453     1.722146     0.079622
C        4.493636     2.145642    -0.699000
C        5.330980     3.148614    -0.318735
C        5.156384     3.801794     0.877462
C        4.098735     3.423005     1.697658
C        3.234643     2.371508     1.308805
C        2.861981    -1.495469     0.041072
C        1.608410    -2.403319     0.021610
P        0.346461    -1.538781     1.003367
C        0.760671    -1.302605     2.697684
C        1.869664    -0.580068     3.149435
C        2.143202    -0.521527     4.528704
C        1.307104    -1.148015     5.435550
C        0.197916    -1.821742     4.966887
C       -0.077056    -1.876165     3.613410
C       -1.292615    -2.221640     0.776911
C       -2.404586    -1.691358     1.460965
C       -3.651096    -2.317621     1.371285
C       -3.804807    -3.427125     0.551465
C       -2.698063    -3.882867    -0.159226
C       -1.460814    -3.255966    -0.059317
H        0.868358     3.948655     1.443839
H       -0.412180     4.228697     0.280200
H        1.106448     3.442930    -0.265220
H       -2.568130     1.006294     0.657025
H       -2.593346     2.796655     0.859725
H       -2.894804     2.005631    -1.566437
H       -1.545848     3.140932    -1.293227
H       -1.073160     3.094909    -3.362514
H        0.175336     4.000199    -5.245341
H        2.250181     2.846179    -6.023276
H        2.995785     0.833120    -4.877026
H        1.757285    -0.073644    -3.011431
H        0.026501    -1.626456    -3.162376
H       -1.229664    -3.494958    -4.063998
H       -3.660037    -3.638533    -3.738521
H       -4.826553    -1.887269    -2.489734
H       -3.593454     0.020968    -1.558347
H        4.678770     1.643768    -1.647162
H        6.138152     3.422536    -0.964338
H        5.848161     4.589824     1.124761
H        3.958203     3.926954     2.627923
H        2.461752     2.132711     1.971149
H        3.516036    -1.868652    -0.742554
H        3.389943    -1.551943     0.987096
H        1.317428    -2.621591    -1.052222
H        1.850395    -3.312754     0.566206
H        2.537226    -0.094667     2.509617
H        3.010943     0.005260     4.893496
H        1.522010    -1.103785     6.490917
H       -0.451203    -2.308739     5.663151
H       -0.945061    -2.427686     3.318468
H       -2.315059    -0.863799     2.110120
H       -4.479674    -1.936960     1.939097
H       -4.752551    -3.941924     0.445222
H       -2.763287    -4.730400    -0.803351
H       -0.616768    -3.635983    -0.611443
76
ex_0356 frame2 Isomer 3
C       -2.094349    -0.267993    -2.555307
S       -0.295588    -0.038992    -2.538092
C        0.489291    -1.607128    -2.885597
C       -0.075540    -2.640317    -1.900516
P        0.123457    -2.298142    -0.101587
C       -1.260348    -2.674885     0.929688
C       -2.460042    -2.955966     0.375030
C       -3.501743    -3.437601     1.184731
C       -3.330700    -3.541254     2.554350
C       -2.126451    -3.155278     3.115775
C       -1.088190    -2.675180     2.301895
C        1.679262    -2.855744     0.504172
C        2.033075    -4.046040     0.073701
C        3.173176    -4.668579     0.535613
C        4.003973    -4.022826     1.423525
C        3.683487    -2.739799     1.855172
C        2.501483    -2.099456     1.385849
Pt       0.114451    -0.095539    -0.284672
Se       2.238949     0.897222     0.087118
C        2.932340     1.215803    -1.627670
C        2.248016     1.902726    -2.627339
C        2.957267     2.149002    -3.837129
C        4.254957     1.680086    -4.000721
C        4.852013     0.963609    -2.989528
C        4.156383     0.719617    -1.808866
C        1.700494     2.399597     1.110880
C        0.360563     2.862200     0.567066
P       -0.953533     1.596984     0.679452
C       -2.378554     2.039441    -0.284174
C       -3.575397     1.368293    -0.078733
C       -4.725103     1.825659    -0.743766
C       -4.656357     2.871250    -1.628541
C       -3.422711     3.474198    -1.868942
C       -2.265603     3.026825    -1.202806
C       -1.258876     1.181983     2.392405
C       -0.323935     0.448609     3.174955
C       -0.638407     0.264798     4.554374
C       -1.824376     0.755269     5.073154
C       -2.704755     1.417821     4.249911
C       -2.410360     1.593952     2.906138
H       -2.612190     0.679682    -2.850413
H       -2.530438    -0.761806    -1.676605
H       -2.249557    -0.941900    -3.396558
H        1.607994    -1.512963    -2.773206
H        0.227678    -1.837722    -3.929281
H        0.423771    -3.554530    -2.064291
H       -1.145849    -2.712497    -2.161085
H       -2.637215    -2.916587    -0.662760
H       -4.437953    -3.741670     0.770483
H       -4.121530    -3.908903     3.182789
H       -1.938491    -3.216489     4.168339
H       -0.170614    -2.402209     2.739961
H        1.409767    -4.595626    -0.596247
H        3.414895    -5.659534     0.199359
H        4.886333    -4.538214     1.755832
H        4.333399    -2.235399     2.551662
H        2.300214    -1.155874     1.747092
H        1.274595     2.272334    -2.521563
H        2.495071     2.706936    -4.625020
H        4.779149     1.878118    -4.921446
H        5.852182     0.606302    -3.123555
H        4.643570     0.171395    -1.036997
H        2.504962     3.136356     1.011392
H        1.633221     2.102537     2.195040
H        0.007184     3.684664     1.200678
H        0.556629     3.220221    -0.450766
H       -3.694647     0.569960     0.599059
H       -5.674549     1.351060    -0.547993
H       -5.563862     3.194924    -2.122470
H       -3.353153     4.281846    -2.548462
H       -1.333981     3.507232    -1.396329
H        0.577602     0.068587     2.831101
H        0.034991    -0.248414     5.212868
H       -2.098063     0.638052     6.111815
H       -3.627494     1.801957     4.648546
H       -3.125044     2.132038     2.319897
76
ex_0356 frame3 Isomer 2_mirror
C       -2.752690    -1.968925    -1.776664
S       -2.102486    -0.315288    -1.340295
C       -1.321435     0.294301    -2.867114
C       -0.471377    -0.805554    -3.458226
P        0.897700    -1.403003    -2.433352
C        2.428427    -0.576182    -2.559998
C        3.481476    -0.722271    -1.661766
C        4.703911    -0.114943    -1.966230
C        4.854369     0.667898    -3.097032
C        3.771306     0.864338    -3.928919
C        2.561477     0.273467    -3.643045
C        1.018040    -3.216713    -2.462339
C        2.148771    -3.871149    -1.966630
C        2.288345    -5.244248    -2.137566
C        1.290842    -5.986068    -2.736846
C        0.128456    -5.349470    -3.146579
C       -0.020491    -3.978035    -2.981482
Pt      -0.070325    -0.930221    -0.469865
Se      -0.403822    -2.720227     1.081177
C       -1.668426    -1.960629     2.301860
C       -2.767196    -1.159846     1.913075
C       -3.697762    -0.766772     2.880453
C       -3.476692    -1.125418     4.208650
C       -2.344066    -1.853803     4.562210
C       -1.456355    -2.233973     3.599724
C        1.350417    -2.231145     1.859760
C        1.309402    -0.763349     2.337487
P        0.876913     0.451581     1.025322
C        2.167306     1.346674     0.329310
C        1.965416     2.100854    -0.834494
C        2.994826     2.928153    -1.273154
C        4.218098     2.958148    -0.621924
C        4.415176     2.144333     0.486950
C        3.402203     1.309767     0.934908
C       -0.461600     1.503679     1.535600
C       -1.308196     2.160070     0.617668
C       -2.257573     3.049182     1.129561
C       -2.394894     3.247127     2.502035
C       -1.590122     2.549044     3.382380
C       -0.660301     1.669129     2.881428
H       -2.155867    -2.843585    -1.381741
H       -3.726532    -1.983948    -1.276557
H       -2.897896    -2.071091    -2.828155
H       -0.743465     1.256434    -2.659305
H       -2.193205     0.501160    -3.527690
H       -1.118728    -1.606929    -3.728239
H       -0.017302    -0.417097    -4.368132
H        3.434800    -1.304538    -0.782663
H        5.552997    -0.250594    -1.333823
H        5.800742     1.129798    -3.319438
H        3.886293     1.469709    -4.805057
H        1.774803     0.446880    -4.329246
H        2.957794    -3.358350    -1.512473
H        3.187261    -5.739758    -1.821769
H        1.444032    -7.046846    -2.858012
H       -0.643083    -5.927284    -3.611985
H       -0.923527    -3.555186    -3.323429
H       -2.982225    -0.883733     0.918629
H       -4.584290    -0.197334     2.604225
H       -4.179224    -0.831615     4.951928
H       -2.145009    -2.150872     5.580951
H       -0.587387    -2.804305     3.859331
H        2.226592    -2.456419     1.178243
H        1.401352    -2.954376     2.696148
H        2.250538    -0.481399     2.766579
H        0.478630    -0.770419     3.048821
H        1.037387     2.140293    -1.375271
H        2.862149     3.563157    -2.121048
H        5.007761     3.611100    -0.975557
H        5.357808     2.168160     0.997873
H        3.584087     0.719041     1.797742
H       -1.224626     2.047041    -0.452666
H       -2.882937     3.593300     0.468689
H       -3.130957     3.940013     2.853592
H       -1.678588     2.691987     4.447695
H       -0.029944     1.157592     3.560366
