37
ex_0254 frame0 OC-6-chelate-1
Mo       0.000000     0.000000     0.000000
F        3.004101     4.372378    -2.615822
C        2.038666     4.224025    -1.674643
F        2.332601     5.179999    -0.689080
F        0.767723     4.457079    -2.189060
C        2.033025     2.933387    -0.950975
C        2.996816     2.042692    -0.929714
C        4.336507     2.112667    -1.532168
F        4.392175     1.455281    -2.771980
F        4.906512     3.333724    -1.670001
F        5.256968     1.423747    -0.672021
Se       2.715498     0.365607     0.000000
Se       0.365607     2.715498     0.000000
Se      -2.717054    -0.000000     0.353865
C       -2.867604     1.042103     1.978565
C       -4.129080     1.834754     1.980699
F       -4.343544     2.405219     0.711201
F       -5.228275     1.066983     2.257955
F       -4.062084     2.936582     2.828262
C       -1.962887     1.034133     2.930370
C       -2.008326     1.752186     4.223704
F       -1.246692     0.974812     5.119463
F       -1.606833     3.037516     4.184465
F       -3.324851     1.662604     4.725498
Se      -0.353865    -0.000000     2.717054
Se      -0.000000    -2.717054    -0.353865
C        1.042103    -2.867604    -1.978565
C        1.834754    -4.129080    -1.980699
F        2.405219    -4.343544    -0.711201
F        1.066983    -5.228275    -2.257955
F        2.936582    -4.062084    -2.828262
C        1.034133    -1.962887    -2.930370
C        1.752186    -2.008326    -4.223704
F        0.974812    -1.246692    -5.119463
F        3.037516    -1.606833    -4.184465
F        1.662604    -3.324851    -4.725498
Se       0.000000    -0.353865    -2.717054
37
ex_0254 frame1 OC-6-chelate-1-conf2
Mo       0.000000     0.000000     0.000000
F        3.004101     4.372378    -2.615822
C        2.038666     4.224025    -1.674643
F        2.332601     5.179999    -0.689080
F        0.767723     4.457079    -2.189060
C        2.033025     2.933387    -0.950975
C        2.996816     2.042692    -0.929714
C        4.336507     2.112667    -1.532168
F        4.392175     1.455281    -2.771980
F        4.906512     3.333724    -1.670001
F        5.256968     1.423747    -0.672021
Se       2.715498     0.365607     0.000000
Se       0.365607     2.715498     0.000000
Se      -2.717054    -0.000000     0.353865
C       -2.867604     1.042103     1.978565
C       -4.129080     1.834754     1.980699
F       -4.343544     2.405219     0.711201
F       -5.228275     1.066983     2.257955
F       -4.062084     2.936582     2.828262
C       -1.962887     1.034133     2.930370
C       -2.008326     1.752186     4.223704
F       -1.246692     0.974812     5.119463
F       -1.606833     3.037516     4.184465
F       -3.324851     1.662604     4.725498
Se      -0.353865    -0.000000     2.717054
Se       0.000000    -0.333041    -2.719684
C       -0.882021    -2.044520    -2.913458
C       -1.489620    -2.150647    -4.278604
F       -0.661266    -1.506290    -5.206051
F       -2.727195    -1.581150    -4.398212
F       -1.468966    -3.481313    -4.728891
C       -0.916705    -3.000431    -2.003588
C       -1.580624    -4.300363    -2.084638
F       -0.734453    -5.329126    -2.441063
F       -2.008389    -4.659669    -0.788037
F       -2.729620    -4.211793    -2.828271
Se      -0.000000    -2.719684    -0.333041
37
ex_0254 frame2 OC-6-chelate-1-conf3
Mo       0.000000     0.000000     0.000000
F        3.004101     4.372378    -2.615822
C        2.038666     4.224025    -1.674643
F        2.332601     5.179999    -0.689080
F        0.767723     4.457079    -2.189060
C        2.033025     2.933387    -0.950975
C        2.996816     2.042692    -0.929714
C        4.336507     2.112667    -1.532168
F        4.392175     1.455281    -2.771980
F        4.906512     3.333724    -1.670001
F        5.256968     1.423747    -0.672021
Se       2.715498     0.365607     0.000000
Se       0.365607     2.715498     0.000000
Se      -2.719684    -0.000000     0.333041
C       -2.913458     0.882021     2.044520
C       -4.278604     1.489620     2.150647
F       -5.206051     0.661266     1.506290
F       -4.398212     2.727195     1.581150
F       -4.728891     1.468966     3.481313
C       -2.003588     0.916705     3.000431
C       -2.084638     1.580624     4.300363
F       -2.441063     0.734453     5.329126
F       -0.788037     2.008389     4.659669
F       -2.828271     2.729620     4.211793
Se      -0.333041    -0.000000     2.719684
Se      -0.000000    -2.717054    -0.353865
C        1.042103    -2.867604    -1.978565
C        1.834754    -4.129080    -1.980699
F        2.405219    -4.343544    -0.711201
F        1.066983    -5.228275    -2.257955
F        2.936582    -4.062084    -2.828262
C        1.034133    -1.962887    -2.930370
C        1.752186    -2.008326    -4.223704
F        0.974812    -1.246692    -5.119463
F        3.037516    -1.606833    -4.184465
F        1.662604    -3.324851    -4.725498
Se       0.000000    -0.353865    -2.717054
37
ex_0254 frame3 OC-6-chelate-1-conf4
Mo       0.000000     0.000000     0.000000
F        1.232974     4.315508    -2.747129
C        2.059423     4.258594    -1.642443
F        1.438411     5.142663    -0.716849
F        3.281026     4.744772    -1.939488
C        1.990386     2.938841    -0.985969
C        2.909294     1.997835    -1.002711
C        4.190510     2.026722    -1.753906
F        4.533501     0.727406    -2.183232
F        4.063013     2.725663    -2.947066
F        5.239896     2.468305    -0.989596
Se       2.717053     0.353869     0.000000
Se       0.353869     2.717053     0.000000
Se      -2.717054    -0.000000     0.353865
C       -2.867604     1.042103     1.978565
C       -4.129080     1.834754     1.980699
F       -4.343544     2.405219     0.711201
F       -5.228275     1.066983     2.257955
F       -4.062084     2.936582     2.828262
C       -1.962887     1.034133     2.930370
C       -2.008326     1.752186     4.223704
F       -1.246692     0.974812     5.119463
F       -1.606833     3.037516     4.184465
F       -3.324851     1.662604     4.725498
Se      -0.353865    -0.000000     2.717054
Se      -0.000000    -2.717054    -0.353865
C        1.042103    -2.867604    -1.978565
C        1.834754    -4.129080    -1.980699
F        2.405219    -4.343544    -0.711201
F        1.066983    -5.228275    -2.257955
F        2.936582    -4.062084    -2.828262
C        1.034133    -1.962887    -2.930370
C        1.752186    -2.008326    -4.223704
F        0.974812    -1.246692    -5.119463
F        3.037516    -1.606833    -4.184465
F        1.662604    -3.324851    -4.725498
Se       0.000000    -0.353865    -2.717054
37
ex_0254 frame4 OC-6-chelate-1-conf5
Mo       0.000000     0.000000     0.000000
F        3.004101     4.372378    -2.615822
C        2.038666     4.224025    -1.674643
F        2.332601     5.179999    -0.689080
F        0.767723     4.457079    -2.189060
C        2.033025     2.933387    -0.950975
C        2.996816     2.042692    -0.929714
C        4.336507     2.112667    -1.532168
F        4.392175     1.455281    -2.771980
F        4.906512     3.333724    -1.670001
F        5.256968     1.423747    -0.672021
Se       2.715498     0.365607     0.000000
Se       0.365607     2.715498     0.000000
Se      -2.717054    -0.000000     0.353865
C       -2.867604     1.042103     1.978565
C       -4.129080     1.834754     1.980699
F       -4.343544     2.405219     0.711201
F       -5.228275     1.066983     2.257955
F       -4.062084     2.936582     2.828262
C       -1.962887     1.034133     2.930370
C       -2.008326     1.752186     4.223704
F       -1.246692     0.974812     5.119463
F       -1.606833     3.037516     4.184465
F       -3.324851     1.662604     4.725498
Se      -0.353865    -0.000000     2.717054
Se       0.000000    -2.725940    -0.277221
C        0.844579    -2.921583    -2.020614
C        1.512365    -4.247166    -2.137738
F        0.557125    -5.223823    -2.361579
F        1.985514    -4.562464    -0.829706
F        2.546159    -4.274782    -3.006740
C        0.827412    -1.994542    -2.966467
C        1.419701    -2.119650    -4.316474
F        2.686716    -1.584498    -4.287392
F        0.736931    -1.232740    -5.201623
F        1.426850    -3.356272    -4.860526
Se       0.000000    -0.277221    -2.725940
37
ex_0254 frame5 OC-6-chelate-1-conf6
Mo       0.000000     0.000000     0.000000
F        3.004101     4.372378    -2.615822
C        2.038666     4.224025    -1.674643
F        2.332601     5.179999    -0.689080
F        0.767723     4.457079    -2.189060
C        2.033025     2.933387    -0.950975
C        2.996816     2.042692    -0.929714
C        4.336507     2.112667    -1.532168
F        4.392175     1.455281    -2.771980
F        4.906512     3.333724    -1.670001
F        5.256968     1.423747    -0.672021
Se       2.715498     0.365607     0.000000
Se       0.365607     2.715498     0.000000
Se      -2.719684    -0.000000     0.333041
C       -2.913458     0.882021     2.044520
C       -4.278604     1.489620     2.150647
F       -5.206051     0.661266     1.506290
F       -4.398212     2.727195     1.581150
F       -4.728891     1.468966     3.481313
C       -2.003588     0.916705     3.000431
C       -2.084638     1.580624     4.300363
F       -2.441063     0.734453     5.329126
F       -0.788037     2.008389     4.659669
F       -2.828271     2.729620     4.211793
Se      -0.333041    -0.000000     2.719684
Se       0.000000    -0.333041    -2.719684
C       -0.882021    -2.044520    -2.913458
C       -1.489620    -2.150647    -4.278604
F       -0.661266    -1.506290    -5.206051
F       -2.727195    -1.581150    -4.398212
F       -1.468966    -3.481313    -4.728891
C       -0.916705    -3.000431    -2.003588
C       -1.580624    -4.300363    -2.084638
F       -0.734453    -5.329126    -2.441063
F       -2.008389    -4.659669    -0.788037
F       -2.729620    -4.211793    -2.828271
Se      -0.000000    -2.719684    -0.333041
37
ex_0254 frame6 OC-6-chelate-1-conf7
Mo       0.000000     0.000000     0.000000
F        3.004101     4.372378    -2.615822
C        2.038666     4.224025    -1.674643
F        2.332601     5.179999    -0.689080
F        0.767723     4.457079    -2.189060
C        2.033025     2.933387    -0.950975
C        2.996816     2.042692    -0.929714
C        4.336507     2.112667    -1.532168
F        4.392175     1.455281    -2.771980
F        4.906512     3.333724    -1.670001
F        5.256968     1.423747    -0.672021
Se       2.715498     0.365607     0.000000
Se       0.365607     2.715498     0.000000
Se      -0.277221    -0.000000     2.725940
C       -2.020614    -0.844579     2.921583
C       -2.137738    -1.512365     4.247166
F       -2.361579    -0.557125     5.223823
F       -0.829706    -1.985514     4.562464
F       -3.006740    -2.546159     4.274782
C       -2.966467    -0.827412     1.994542
C       -4.316474    -1.419701     2.119650
F       -4.287392    -2.686716     1.584498
F       -5.201623    -0.736931     1.232740
F       -4.860526    -1.426850     3.356272
Se      -2.725940     0.000000     0.277221
Se      -0.000000    -2.717054    -0.353865
C        1.042103    -2.867604    -1.978565
C        1.834754    -4.129080    -1.980699
F        2.405219    -4.343544    -0.711201
F        1.066983    -5.228275    -2.257955
F        2.936582    -4.062084    -2.828262
C        1.034133    -1.962887    -2.930370
C        1.752186    -2.008326    -4.223704
F        0.974812    -1.246692    -5.119463
F        3.037516    -1.606833    -4.184465
F        1.662604    -3.324851    -4.725498
Se       0.000000    -0.353865    -2.717054
37
ex_0254 frame7 OC-6-chelate-1-conf8
Mo       0.000000     0.000000     0.000000
F        1.232974     4.315508    -2.747129
C        2.059423     4.258594    -1.642443
F        1.438411     5.142663    -0.716849
F        3.281026     4.744772    -1.939488
C        1.990386     2.938841    -0.985969
C        2.909294     1.997835    -1.002711
C        4.190510     2.026722    -1.753906
F        4.533501     0.727406    -2.183232
F        4.063013     2.725663    -2.947066
F        5.239896     2.468305    -0.989596
Se       2.717053     0.353869     0.000000
Se       0.353869     2.717053     0.000000
Se      -2.717054    -0.000000     0.353865
C       -2.867604     1.042103     1.978565
C       -4.129080     1.834754     1.980699
F       -4.343544     2.405219     0.711201
F       -5.228275     1.066983     2.257955
F       -4.062084     2.936582     2.828262
C       -1.962887     1.034133     2.930370
C       -2.008326     1.752186     4.223704
F       -1.246692     0.974812     5.119463
F       -1.606833     3.037516     4.184465
F       -3.324851     1.662604     4.725498
Se      -0.353865    -0.000000     2.717054
Se       0.000000    -0.333041    -2.719684
C       -0.882021    -2.044520    -2.913458
C       -1.489620    -2.150647    -4.278604
F       -0.661266    -1.506290    -5.206051
F       -2.727195    -1.581150    -4.398212
F       -1.468966    -3.481313    -4.728891
C       -0.916705    -3.000431    -2.003588
C       -1.580624    -4.300363    -2.084638
F       -0.734453    -5.329126    -2.441063
F       -2.008389    -4.659669    -0.788037
F       -2.729620    -4.211793    -2.828271
Se      -0.000000    -2.719684    -0.333041
37
ex_0254 frame8 OC-6-chelate-2
Mo       0.000000     0.000000     0.000000
F        3.004101     4.372378    -2.615822
C        2.038666     4.224025    -1.674643
F        2.332601     5.179999    -0.689080
F        0.767723     4.457079    -2.189060
C        2.033025     2.933387    -0.950975
C        2.996816     2.042692    -0.929714
C        4.336507     2.112667    -1.532168
F        4.392175     1.455281    -2.771980
F        4.906512     3.333724    -1.670001
F        5.256968     1.423747    -0.672021
Se       2.715498     0.365607     0.000000
Se       0.365607     2.715498     0.000000
Se      -2.717054     0.000000    -0.353865
C       -2.867604    -1.042103    -1.978565
C       -4.129080    -1.834754    -1.980699
F       -4.343544    -2.405219    -0.711201
F       -5.228275    -1.066983    -2.257955
F       -4.062084    -2.936582    -2.828262
C       -1.962887    -1.034133    -2.930370
C       -2.008326    -1.752186    -4.223704
F       -1.246692    -0.974812    -5.119463
F       -1.606833    -3.037516    -4.184465
F       -3.324851    -1.662604    -4.725498
Se      -0.353865     0.000000    -2.717054
Se       0.000000    -2.717054     0.353865
C       -1.042103    -2.867604     1.978565
C       -1.834754    -4.129080     1.980699
F       -2.405219    -4.343544     0.711201
F       -1.066983    -5.228275     2.257955
F       -2.936582    -4.062084     2.828262
C       -1.034133    -1.962887     2.930370
C       -1.752186    -2.008326     4.223704
F       -0.974812    -1.246692     5.119463
F       -3.037516    -1.606833     4.184465
F       -1.662604    -3.324851     4.725498
Se      -0.000000    -0.353865     2.717054
37
ex_0254 frame9 OC-6-chelate-2-conf2
Mo       0.000000     0.000000     0.000000
F        3.004101     4.372378    -2.615822
C        2.038666     4.224025    -1.674643
F        2.332601     5.179999    -0.689080
F        0.767723     4.457079    -2.189060
C        2.033025     2.933387    -0.950975
C        2.996816     2.042692    -0.929714
C        4.336507     2.112667    -1.532168
F        4.392175     1.455281    -2.771980
F        4.906512     3.333724    -1.670001
F        5.256968     1.423747    -0.672021
Se       2.715498     0.365607     0.000000
Se       0.365607     2.715498     0.000000
Se      -2.717054     0.000000    -0.353865
C       -2.867604    -1.042103    -1.978565
C       -4.129080    -1.834754    -1.980699
F       -4.343544    -2.405219    -0.711201
F       -5.228275    -1.066983    -2.257955
F       -4.062084    -2.936582    -2.828262
C       -1.962887    -1.034133    -2.930370
C       -2.008326    -1.752186    -4.223704
F       -1.246692    -0.974812    -5.119463
F       -1.606833    -3.037516    -4.184465
F       -3.324851    -1.662604    -4.725498
Se      -0.353865     0.000000    -2.717054
Se      -0.000000    -0.333041     2.719684
C        0.882021    -2.044520     2.913458
C        1.489620    -2.150647     4.278604
F        0.661266    -1.506290     5.206051
F        2.727195    -1.581150     4.398212
F        1.468966    -3.481313     4.728891
C        0.916705    -3.000431     2.003588
C        1.580624    -4.300363     2.084638
F        0.734453    -5.329126     2.441063
F        2.008389    -4.659669     0.788037
F        2.729620    -4.211793     2.828271
Se       0.000000    -2.719684     0.333041
37
ex_0254 frame10 OC-6-chelate-2-conf3
Mo       0.000000     0.000000     0.000000
F        3.004101     4.372378    -2.615822
C        2.038666     4.224025    -1.674643
F        2.332601     5.179999    -0.689080
F        0.767723     4.457079    -2.189060
C        2.033025     2.933387    -0.950975
C        2.996816     2.042692    -0.929714
C        4.336507     2.112667    -1.532168
F        4.392175     1.455281    -2.771980
F        4.906512     3.333724    -1.670001
F        5.256968     1.423747    -0.672021
Se       2.715498     0.365607     0.000000
Se       0.365607     2.715498     0.000000
Se      -2.719684     0.000000    -0.333041
C       -2.913458    -0.882021    -2.044520
C       -4.278604    -1.489620    -2.150647
F       -5.206051    -0.661266    -1.506290
F       -4.398212    -2.727195    -1.581150
F       -4.728891    -1.468966    -3.481313
C       -2.003588    -0.916705    -3.000431
C       -2.084638    -1.580624    -4.300363
F       -2.441063    -0.734453    -5.329126
F       -0.788037    -2.008389    -4.659669
F       -2.828271    -2.729620    -4.211793
Se      -0.333041     0.000000    -2.719684
Se       0.000000    -2.717054     0.353865
C       -1.042103    -2.867604     1.978565
C       -1.834754    -4.129080     1.980699
F       -2.405219    -4.343544     0.711201
F       -1.066983    -5.228275     2.257955
F       -2.936582    -4.062084     2.828262
C       -1.034133    -1.962887     2.930370
C       -1.752186    -2.008326     4.223704
F       -0.974812    -1.246692     5.119463
F       -3.037516    -1.606833     4.184465
F       -1.662604    -3.324851     4.725498
Se      -0.000000    -0.353865     2.717054
37
ex_0254 frame11 OC-6-chelate-2-conf4
Mo       0.000000     0.000000     0.000000
F        1.232974     4.315508    -2.747129
C        2.059423     4.258594    -1.642443
F        1.438411     5.142663    -0.716849
F        3.281026     4.744772    -1.939488
C        1.990386     2.938841    -0.985969
C        2.909294     1.997835    -1.002711
C        4.190510     2.026722    -1.753906
F        4.533501     0.727406    -2.183232
F        4.063013     2.725663    -2.947066
F        5.239896     2.468305    -0.989596
Se       2.717053     0.353869     0.000000
Se       0.353869     2.717053     0.000000
Se      -2.717054     0.000000    -0.353865
C       -2.867604    -1.042103    -1.978565
C       -4.129080    -1.834754    -1.980699
F       -4.343544    -2.405219    -0.711201
F       -5.228275    -1.066983    -2.257955
F       -4.062084    -2.936582    -2.828262
C       -1.962887    -1.034133    -2.930370
C       -2.008326    -1.752186    -4.223704
F       -1.246692    -0.974812    -5.119463
F       -1.606833    -3.037516    -4.184465
F       -3.324851    -1.662604    -4.725498
Se      -0.353865     0.000000    -2.717054
Se       0.000000    -2.717054     0.353865
C       -1.042103    -2.867604     1.978565
C       -1.834754    -4.129080     1.980699
F       -2.405219    -4.343544     0.711201
F       -1.066983    -5.228275     2.257955
F       -2.936582    -4.062084     2.828262
C       -1.034133    -1.962887     2.930370
C       -1.752186    -2.008326     4.223704
F       -0.974812    -1.246692     5.119463
F       -3.037516    -1.606833     4.184465
F       -1.662604    -3.324851     4.725498
Se      -0.000000    -0.353865     2.717054
37
ex_0254 frame12 OC-6-chelate-2-conf5
Mo       0.000000     0.000000     0.000000
F        3.004101     4.372378    -2.615822
C        2.038666     4.224025    -1.674643
F        2.332601     5.179999    -0.689080
F        0.767723     4.457079    -2.189060
C        2.033025     2.933387    -0.950975
C        2.996816     2.042692    -0.929714
C        4.336507     2.112667    -1.532168
F        4.392175     1.455281    -2.771980
F        4.906512     3.333724    -1.670001
F        5.256968     1.423747    -0.672021
Se       2.715498     0.365607     0.000000
Se       0.365607     2.715498     0.000000
Se      -2.717054     0.000000    -0.353865
C       -2.867604    -1.042103    -1.978565
C       -4.129080    -1.834754    -1.980699
F       -4.343544    -2.405219    -0.711201
F       -5.228275    -1.066983    -2.257955
F       -4.062084    -2.936582    -2.828262
C       -1.962887    -1.034133    -2.930370
C       -2.008326    -1.752186    -4.223704
F       -1.246692    -0.974812    -5.119463
F       -1.606833    -3.037516    -4.184465
F       -3.324851    -1.662604    -4.725498
Se      -0.353865     0.000000    -2.717054
Se      -0.000000    -2.725940     0.277221
C       -0.844579    -2.921583     2.020614
C       -1.512365    -4.247166     2.137738
F       -0.557125    -5.223823     2.361579
F       -1.985514    -4.562464     0.829706
F       -2.546159    -4.274782     3.006740
C       -0.827412    -1.994542     2.966467
C       -1.419701    -2.119650     4.316474
F       -2.686716    -1.584498     4.287392
F       -0.736931    -1.232740     5.201623
F       -1.426850    -3.356272     4.860526
Se      -0.000000    -0.277221     2.725940
37
ex_0254 frame13 OC-6-chelate-2-conf6
Mo       0.000000     0.000000     0.000000
F        3.004101     4.372378    -2.615822
C        2.038666     4.224025    -1.674643
F        2.332601     5.179999    -0.689080
F        0.767723     4.457079    -2.189060
C        2.033025     2.933387    -0.950975
C        2.996816     2.042692    -0.929714
C        4.336507     2.112667    -1.532168
F        4.392175     1.455281    -2.771980
F        4.906512     3.333724    -1.670001
F        5.256968     1.423747    -0.672021
Se       2.715498     0.365607     0.000000
Se       0.365607     2.715498     0.000000
Se      -2.719684     0.000000    -0.333041
C       -2.913458    -0.882021    -2.044520
C       -4.278604    -1.489620    -2.150647
F       -5.206051    -0.661266    -1.506290
F       -4.398212    -2.727195    -1.581150
F       -4.728891    -1.468966    -3.481313
C       -2.003588    -0.916705    -3.000431
C       -2.084638    -1.580624    -4.300363
F       -2.441063    -0.734453    -5.329126
F       -0.788037    -2.008389    -4.659669
F       -2.828271    -2.729620    -4.211793
Se      -0.333041     0.000000    -2.719684
Se      -0.000000    -0.333041     2.719684
C        0.882021    -2.044520     2.913458
C        1.489620    -2.150647     4.278604
F        0.661266    -1.506290     5.206051
F        2.727195    -1.581150     4.398212
F        1.468966    -3.481313     4.728891
C        0.916705    -3.000431     2.003588
C        1.580624    -4.300363     2.084638
F        0.734453    -5.329126     2.441063
F        2.008389    -4.659669     0.788037
F        2.729620    -4.211793     2.828271
Se       0.000000    -2.719684     0.333041
37
ex_0254 frame14 OC-6-chelate-2-conf7
Mo       0.000000     0.000000     0.000000
F        3.004101     4.372378    -2.615822
C        2.038666     4.224025    -1.674643
F        2.332601     5.179999    -0.689080
F        0.767723     4.457079    -2.189060
C        2.033025     2.933387    -0.950975
C        2.996816     2.042692    -0.929714
C        4.336507     2.112667    -1.532168
F        4.392175     1.455281    -2.771980
F        4.906512     3.333724    -1.670001
F        5.256968     1.423747    -0.672021
Se       2.715498     0.365607     0.000000
Se       0.365607     2.715498     0.000000
Se      -0.277221     0.000000    -2.725940
C       -2.020614     0.844579    -2.921583
C       -2.137738     1.512365    -4.247166
F       -2.361579     0.557125    -5.223823
F       -0.829706     1.985514    -4.562464
F       -3.006740     2.546159    -4.274782
C       -2.966467     0.827412    -1.994542
C       -4.316474     1.419701    -2.119650
F       -4.287392     2.686716    -1.584498
F       -5.201623     0.736931    -1.232740
F       -4.860526     1.426850    -3.356272
Se      -2.725940    -0.000000    -0.277221
Se       0.000000    -2.717054     0.353865
C       -1.042103    -2.867604     1.978565
C       -1.834754    -4.129080     1.980699
F       -2.405219    -4.343544     0.711201
F       -1.066983    -5.228275     2.257955
F       -2.936582    -4.062084     2.828262
C       -1.034133    -1.962887     2.930370
C       -1.752186    -2.008326     4.223704
F       -0.974812    -1.246692     5.119463
F       -3.037516    -1.606833     4.184465
F       -1.662604    -3.324851     4.725498
Se      -0.000000    -0.353865     2.717054
37
ex_0254 frame15 OC-6-chelate-2-conf8
Mo       0.000000     0.000000     0.000000
F        1.232974     4.315508    -2.747129
C        2.059423     4.258594    -1.642443
F        1.438411     5.142663    -0.716849
F        3.281026     4.744772    -1.939488
C        1.990386     2.938841    -0.985969
C        2.909294     1.997835    -1.002711
C        4.190510     2.026722    -1.753906
F        4.533501     0.727406    -2.183232
F        4.063013     2.725663    -2.947066
F        5.239896     2.468305    -0.989596
Se       2.717053     0.353869     0.000000
Se       0.353869     2.717053     0.000000
Se      -2.717054     0.000000    -0.353865
C       -2.867604    -1.042103    -1.978565
C       -4.129080    -1.834754    -1.980699
F       -4.343544    -2.405219    -0.711201
F       -5.228275    -1.066983    -2.257955
F       -4.062084    -2.936582    -2.828262
C       -1.962887    -1.034133    -2.930370
C       -2.008326    -1.752186    -4.223704
F       -1.246692    -0.974812    -5.119463
F       -1.606833    -3.037516    -4.184465
F       -3.324851    -1.662604    -4.725498
Se      -0.353865     0.000000    -2.717054
Se      -0.000000    -0.333041     2.719684
C        0.882021    -2.044520     2.913458
C        1.489620    -2.150647     4.278604
F        0.661266    -1.506290     5.206051
F        2.727195    -1.581150     4.398212
F        1.468966    -3.481313     4.728891
C        0.916705    -3.000431     2.003588
C        1.580624    -4.300363     2.084638
F        0.734453    -5.329126     2.441063
F        2.008389    -4.659669     0.788037
F        2.729620    -4.211793     2.828271
Se       0.000000    -2.719684     0.333041
