53
ex_0033 frame0 OC-6-chelate-2
Co       0.000000     0.000000     0.000000
C        4.151249    -0.434278    -0.367369
C        2.887805    -0.859485    -0.765667
N        2.083293    -0.142657    -0.087399
N        2.631193     0.818095     0.822761
C        3.873903     0.642466     0.648706
B        1.811314     1.778079     1.740008
N        0.863118     0.867874     2.612716
C        0.706547     0.716571     3.840135
C       -0.357712    -0.304557     4.163101
C       -0.782440    -0.711273     2.906946
N       -0.087399    -0.043260     2.087724
N       -0.142657     2.084677    -0.043260
C       -0.869083     2.896324    -0.708967
C       -0.431132     4.156672    -0.313027
C        0.662583     3.860957     0.685191
N        0.834087     2.622288     0.845814
H        5.078170    -0.793749    -0.708389
H        2.709187    -1.638856    -1.500187
H        4.635038     1.209932     1.182225
H        2.479329     2.439893     2.366388
H        1.280427     1.266818     4.600851
H       -0.696029    -0.629702     5.096633
H       -1.562546    -1.459373     2.741660
H       -1.659847     2.720902    -1.429232
H       -0.785207     5.083341    -0.638550
H        1.241123     4.618609     1.211194
N        0.084789     0.142030    -2.083444
C        0.761770     0.861307    -2.885719
C        0.356565     0.443812    -4.150881
C       -0.660915    -0.630666    -3.873980
N       -0.828199    -0.815773    -2.628715
B       -1.739410    -1.781416    -1.814860
N       -2.608014    -0.870883    -0.870661
C       -3.837988    -0.715108    -0.716911
C       -4.162331     0.302922     0.343599
C       -2.911072     0.704003     0.770529
N       -2.087880     0.040851     0.084789
N       -0.845926    -2.626675    -0.832719
C       -0.686385    -3.854780    -0.657331
C        0.309577    -4.155476     0.437500
C        0.703801    -2.893125     0.869913
N        0.040851    -2.084768     0.142030
H        1.499103     1.637241    -2.707057
H        0.694726     0.807180    -5.074211
H       -1.200380    -1.193343    -4.633644
H       -2.368237    -2.438657    -2.486730
H       -4.595691    -1.266401    -1.297098
H       -5.105530     0.632927     0.681787
H       -2.747296     1.457205     1.558055
H       -1.214043    -4.624493    -1.236264
H        0.632320    -5.080749     0.792765
H        1.423783    -2.715929     1.661481
53
ex_0033 frame1 OC-6-chelate-2-conf3
Co       0.000000     0.000000     0.000000
C       -0.328956     4.158744    -0.354649
C       -0.730870     2.896395    -0.771082
N       -0.053841     2.087833    -0.078442
N        0.860841     2.615975     0.860239
C        0.698474     3.845481     0.700075
B        1.783830     1.768761     1.800705
N        0.826819     0.843442     2.627840
C        0.644863     0.677095     3.864542
C       -0.414395    -0.353071     4.149328
C       -0.819942    -0.759593     2.888962
N       -0.114190    -0.078442     2.085403
N        2.086184    -0.053841    -0.114190
C        2.885365    -0.718021    -0.815117
C        4.153869    -0.322169    -0.407677
C        3.848329     0.696211     0.662683
N        2.622904     0.854210     0.835777
H       -0.665537     5.084923    -0.697865
H       -1.482508     2.727090    -1.543849
H        1.251273     4.609102     1.270176
H        2.436619     2.400680     2.481317
H        1.201845     1.226890     4.629625
H       -0.772231    -0.693678     5.084042
H       -1.590344    -1.512232     2.705749
H        2.716306    -1.463441    -1.596322
H        5.076189    -0.653444    -0.760955
H        4.619554     1.236577     1.224661
N        0.084789     0.142030    -2.083444
C        0.761770     0.861307    -2.885719
C        0.356565     0.443812    -4.150881
C       -0.660915    -0.630666    -3.873980
N       -0.828199    -0.815773    -2.628715
B       -1.739410    -1.781416    -1.814860
N       -2.608014    -0.870883    -0.870661
C       -3.837988    -0.715108    -0.716911
C       -4.162331     0.302922     0.343599
C       -2.911072     0.704003     0.770529
N       -2.087880     0.040851     0.084789
N       -0.845926    -2.626675    -0.832719
C       -0.686385    -3.854780    -0.657331
C        0.309577    -4.155476     0.437500
C        0.703801    -2.893125     0.869913
N        0.040851    -2.084768     0.142030
H        1.499103     1.637241    -2.707057
H        0.694726     0.807180    -5.074211
H       -1.200380    -1.193343    -4.633644
H       -2.368237    -2.438657    -2.486730
H       -4.595691    -1.266401    -1.297098
H       -5.105530     0.632927     0.681787
H       -2.747296     1.457205     1.558055
H       -1.214043    -4.624493    -1.236264
H        0.632320    -5.080749     0.792765
H        1.423783    -2.715929     1.661481
53
ex_0033 frame2 OC-6-chelate-2-conf4
Co       0.000000     0.000000     0.000000
C        4.151249    -0.434278    -0.367369
C        2.887805    -0.859485    -0.765667
N        2.083293    -0.142657    -0.087399
N        2.631193     0.818095     0.822761
C        3.873903     0.642466     0.648706
B        1.811314     1.778079     1.740008
N        0.863118     0.867874     2.612716
C        0.706547     0.716571     3.840135
C       -0.357712    -0.304557     4.163101
C       -0.782440    -0.711273     2.906946
N       -0.087399    -0.043260     2.087724
N       -0.142657     2.084677    -0.043260
C       -0.869083     2.896324    -0.708967
C       -0.431132     4.156672    -0.313027
C        0.662583     3.860957     0.685191
N        0.834087     2.622288     0.845814
H        5.078170    -0.793749    -0.708389
H        2.709187    -1.638856    -1.500187
H        4.635038     1.209932     1.182225
H        2.479329     2.439893     2.366388
H        1.280427     1.266818     4.600851
H       -0.696029    -0.629702     5.096633
H       -1.562546    -1.459373     2.741660
H       -1.659847     2.720902    -1.429232
H       -0.785207     5.083341    -0.638550
H        1.241123     4.618609     1.211194
N        0.072978     0.096115    -2.086513
C        0.752769     0.792611    -2.893914
C        0.345072     0.379315    -4.154450
C       -0.685814    -0.674874    -3.853077
N       -0.848166    -0.843433    -2.624257
B       -1.775267    -1.792155    -1.781856
N       -0.839014    -2.627244    -0.837375
C       -0.670247    -3.858669    -0.663402
C        0.370413    -4.150440     0.384005
C        0.780064    -2.890239     0.791697
N        0.091023    -2.085804     0.096115
N       -2.618668    -0.848618    -0.851932
C       -3.847216    -0.683168    -0.687943
C       -4.154943     0.367473     0.346914
C       -2.891647     0.778780     0.751100
N       -2.086741     0.091023     0.072978
H        1.505977     1.561893    -2.721059
H        0.683893     0.727959    -5.085444
H       -1.238816    -1.237869    -4.620196
H       -2.422988    -2.454758    -2.432925
H       -1.224918    -4.626849    -1.218613
H        0.715343    -5.086025     0.733994
H        1.538189    -2.711274     1.553417
H       -4.614305    -1.246409    -1.242194
H       -5.085014     0.712182     0.687023
H       -2.724562     1.547239     1.507644
53
ex_0033 frame3 OC-6-chelate-2-conf6
Co       0.000000     0.000000     0.000000
C       -0.328956     4.158744    -0.354649
C       -0.730870     2.896395    -0.771082
N       -0.053841     2.087833    -0.078442
N        0.860841     2.615975     0.860239
C        0.698474     3.845481     0.700075
B        1.783830     1.768761     1.800705
N        0.826819     0.843442     2.627840
C        0.644863     0.677095     3.864542
C       -0.414395    -0.353071     4.149328
C       -0.819942    -0.759593     2.888962
N       -0.114190    -0.078442     2.085403
N        2.086184    -0.053841    -0.114190
C        2.885365    -0.718021    -0.815117
C        4.153869    -0.322169    -0.407677
C        3.848329     0.696211     0.662683
N        2.622904     0.854210     0.835777
H       -0.665537     5.084923    -0.697865
H       -1.482508     2.727090    -1.543849
H        1.251273     4.609102     1.270176
H        2.436619     2.400680     2.481317
H        1.201845     1.226890     4.629625
H       -0.772231    -0.693678     5.084042
H       -1.590344    -1.512232     2.705749
H        2.716306    -1.463441    -1.596322
H        5.076189    -0.653444    -0.760955
H        4.619554     1.236577     1.224661
N        0.072978     0.096115    -2.086513
C        0.752769     0.792611    -2.893914
C        0.345072     0.379315    -4.154450
C       -0.685814    -0.674874    -3.853077
N       -0.848166    -0.843433    -2.624257
B       -1.775267    -1.792155    -1.781856
N       -0.839014    -2.627244    -0.837375
C       -0.670247    -3.858669    -0.663402
C        0.370413    -4.150440     0.384005
C        0.780064    -2.890239     0.791697
N        0.091023    -2.085804     0.096115
N       -2.618668    -0.848618    -0.851932
C       -3.847216    -0.683168    -0.687943
C       -4.154943     0.367473     0.346914
C       -2.891647     0.778780     0.751100
N       -2.086741     0.091023     0.072978
H        1.505977     1.561893    -2.721059
H        0.683893     0.727959    -5.085444
H       -1.238816    -1.237869    -4.620196
H       -2.422988    -2.454758    -2.432925
H       -1.224918    -4.626849    -1.218613
H        0.715343    -5.086025     0.733994
H        1.538189    -2.711274     1.553417
H       -4.614305    -1.246409    -1.242194
H       -5.085014     0.712182     0.687023
H       -2.724562     1.547239     1.507644
53
ex_0033 frame4 OC-6-chelate-2-conf8
Co       0.000000     0.000000     0.000000
C       -0.305827    -0.361242     4.161373
C       -0.713751    -0.787593     2.904138
N       -0.044360    -0.088678     2.087647
N        0.865537     0.860166     2.615756
C        0.712578     0.703346     3.843263
B        1.775131     1.805844     1.747233
N        2.620613     0.833671     0.850525
C        3.860162     0.662219     0.690015
C        4.157166    -0.426613    -0.312561
C        2.896281    -0.860939    -0.710332
N        2.084849    -0.139780    -0.044360
N       -0.139780     2.083434    -0.088678
C       -0.851423     2.886362    -0.772235
C       -0.431708     4.151759    -0.372202
C        0.638607     3.872799     0.653801
N        0.815480     2.630490     0.825804
H       -0.633922    -0.704232     5.093478
H       -1.457709    -1.565372     2.739313
H        1.262467     1.278074     4.604478
H        2.435142     2.478103     2.372202
H        4.618018     1.240073     1.221119
H        5.083983    -0.780068    -0.639369
H        2.723145    -1.649865    -1.435811
H       -1.625072     2.707430    -1.512991
H       -0.787151     5.077030    -0.714364
H        1.200450     4.634102     1.191149
N        0.084789     0.142030    -2.083444
C        0.761770     0.861307    -2.885719
C        0.356565     0.443812    -4.150881
C       -0.660915    -0.630666    -3.873980
N       -0.828199    -0.815773    -2.628715
B       -1.739410    -1.781416    -1.814860
N       -2.608014    -0.870883    -0.870661
C       -3.837988    -0.715108    -0.716911
C       -4.162331     0.302922     0.343599
C       -2.911072     0.704003     0.770529
N       -2.087880     0.040851     0.084789
N       -0.845926    -2.626675    -0.832719
C       -0.686385    -3.854780    -0.657331
C        0.309577    -4.155476     0.437500
C        0.703801    -2.893125     0.869913
N        0.040851    -2.084768     0.142030
H        1.499103     1.637241    -2.707057
H        0.694726     0.807180    -5.074211
H       -1.200380    -1.193343    -4.633644
H       -2.368237    -2.438657    -2.486730
H       -4.595691    -1.266401    -1.297098
H       -5.105530     0.632927     0.681787
H       -2.747296     1.457205     1.558055
H       -1.214043    -4.624493    -1.236264
H        0.632320    -5.080749     0.792765
H        1.423783    -2.715929     1.661481
53
ex_0033 frame5 OC-6-chelate-2_mirror
Co       0.000000     0.000000     0.000000
C        4.151249    -0.434278     0.367369
C        2.887805    -0.859485     0.765667
N        2.083293    -0.142657     0.087399
N        2.631193     0.818095    -0.822761
C        3.873903     0.642466    -0.648706
B        1.811314     1.778079    -1.740008
N        0.863118     0.867874    -2.612716
C        0.706547     0.716571    -3.840135
C       -0.357712    -0.304557    -4.163101
C       -0.782440    -0.711273    -2.906946
N       -0.087399    -0.043260    -2.087724
N       -0.142657     2.084677     0.043260
C       -0.869083     2.896324     0.708967
C       -0.431132     4.156672     0.313027
C        0.662583     3.860957    -0.685191
N        0.834087     2.622288    -0.845814
H        5.078170    -0.793749     0.708389
H        2.709187    -1.638856     1.500187
H        4.635038     1.209932    -1.182225
H        2.479329     2.439893    -2.366388
H        1.280427     1.266818    -4.600851
H       -0.696029    -0.629702    -5.096633
H       -1.562546    -1.459373    -2.741660
H       -1.659847     2.720902     1.429232
H       -0.785207     5.083341     0.638550
H        1.241123     4.618609    -1.211194
N        0.084789     0.142030     2.083444
C        0.761770     0.861307     2.885719
C        0.356565     0.443812     4.150881
C       -0.660915    -0.630666     3.873980
N       -0.828199    -0.815773     2.628715
B       -1.739410    -1.781416     1.814860
N       -2.608014    -0.870883     0.870661
C       -3.837988    -0.715108     0.716911
C       -4.162331     0.302922    -0.343599
C       -2.911072     0.704003    -0.770529
N       -2.087880     0.040851    -0.084789
N       -0.845926    -2.626675     0.832719
C       -0.686385    -3.854780     0.657331
C        0.309577    -4.155476    -0.437500
C        0.703801    -2.893125    -0.869913
N        0.040851    -2.084768    -0.142030
H        1.499103     1.637241     2.707057
H        0.694726     0.807180     5.074211
H       -1.200380    -1.193343     4.633644
H       -2.368237    -2.438657     2.486730
H       -4.595691    -1.266401     1.297098
H       -5.105530     0.632927    -0.681787
H       -2.747296     1.457205    -1.558055
H       -1.214043    -4.624493     1.236264
H        0.632320    -5.080749    -0.792765
H        1.423783    -2.715929    -1.661481
