101
ex_0377 frame0 Isomer 1
C       -2.557116    -7.334613     1.745282
C       -1.973743    -5.975161     1.511377
C       -2.782664    -4.959377     0.992438
C       -2.256477    -3.689331     0.764001
C       -0.907430    -3.400003     1.066236
C       -0.358815    -2.032471     0.837003
N       -1.193837    -1.173943     0.323374
N       -1.034553     0.161455     0.053966
C       -1.974971     0.803637    -0.796072
C       -2.220337     0.261548    -2.082197
C       -1.505809    -0.979020    -2.558338
C       -3.141499     0.881152    -2.935405
C       -3.827243     2.030161    -2.531838
C       -4.829888     2.675638    -3.441703
C       -3.573961     2.578853    -1.270047
C       -2.669743     1.967228    -0.387999
C       -2.481897     2.587605     0.965269
Zn       0.737047     1.014054     0.621503
N        0.652700     2.606052     1.904176
C        0.189749     2.682494     3.245611
C        0.185187     3.901583     3.956612
F        0.622011     5.051188     3.383033
C       -0.274805     3.942279     5.277336
F       -0.276590     5.116195     5.957100
C       -0.732288     2.777337     5.898410
F       -1.176121     2.821955     7.179303
C       -0.732060     1.566920     5.199883
F       -1.176986     0.437310     5.804456
C       -0.273750     1.518442     3.878770
F       -0.281143     0.336345     3.214674
N        1.185401     3.678191     1.209733
C        1.627915     3.571742    -0.022033
C        2.121376     4.810401    -0.695716
C        2.031437     4.973205    -2.092755
C        2.496479     6.132021    -2.711157
C        3.081928     7.149409    -1.952870
C        3.595741     8.376924    -2.641362
C        3.177790     7.002700    -0.560970
C        2.691603     5.848702     0.063160
N        1.634420     2.292231    -0.700650
N        2.248422     2.115650    -1.919377
C        2.354126     0.938280    -2.692634
C        1.420248     0.723434    -3.722371
C        0.319232     1.718101    -3.969295
C        1.517225    -0.423503    -4.521545
C        2.557783    -1.339263    -4.325809
C        2.712216    -2.524967    -5.232343
C        3.461331    -1.144813    -3.273879
C        3.377919    -0.006742    -2.456750
C        4.392937     0.153021    -1.358476
N        1.755050    -0.643057     1.258746
C        3.094456    -0.666766     1.759957
C        3.741536     0.522987     2.139907
F        3.119316     1.713535     2.030236
C        5.048783     0.495769     2.641405
F        5.656171     1.650382     3.012735
C        5.731836    -0.715131     2.761418
F        6.999428    -0.737126     3.243764
C        5.110619    -1.903752     2.381333
F        5.777440    -3.080103     2.491676
C        3.803658    -1.887724     1.885482
F        3.243415    -3.071176     1.531988
N        1.023061    -1.811082     1.205229
C       -0.100728    -4.429422     1.586156
C       -0.629201    -5.704905     1.804550
H       -3.359047    -7.264642     2.510072
H       -1.787157    -8.050958     2.100948
H       -2.989588    -7.721723     0.798580
H       -3.823463    -5.150845     0.760814
H       -2.917988    -2.932029     0.361565
H       -0.412991    -0.845409    -2.423765
H       -1.831453    -1.869615    -1.985741
H       -1.695812    -1.178184    -3.633207
H       -3.328211     0.462635    -3.916846
H       -5.824931     2.670982    -2.947962
H       -4.532361     3.722255    -3.657229
H       -4.919381     2.126817    -4.403787
H       -4.112209     3.467350    -0.958507
H       -1.825508     1.973864     1.601965
H       -2.065495     3.612765     0.876420
H       -3.467983     2.642125     1.475554
H        1.569932     4.232004    -2.721060
H        2.400613     6.233777    -3.785791
H        4.075246     9.074649    -1.923498
H        2.754151     8.900857    -3.141264
H        4.347457     8.086486    -3.406032
H        3.625127     7.781242     0.043328
H        2.779031     5.760177     1.138840
H       -0.288161     1.867833    -3.054350
H       -0.353187     1.396342    -4.791556
H        0.776494     2.686153    -4.255163
H        0.817819    -0.570706    -5.335436
H        1.929768    -2.540044    -6.021010
H        3.703025    -2.469222    -5.732869
H        2.650356    -3.467197    -4.650681
H        4.267837    -1.854709    -3.125914
H        5.400065     0.236449    -1.818874
H        4.386182    -0.734272    -0.693537
H        4.217464     1.056970    -0.741729
H        0.936371    -4.253725     1.835104
H        0.010479    -6.477472     2.211820
101
ex_0377 frame1 Isomer 2
C       -3.116803    -4.628152    -7.080529
C       -2.630903    -4.007661    -5.807552
C       -1.362107    -3.422944    -5.772742
C       -0.893004    -2.833900    -4.602036
C       -1.681280    -2.823225    -3.429212
C       -1.162478    -2.191509    -2.182710
N        0.031947    -1.667031    -2.290587
N        0.803083    -1.027468    -1.353934
C        2.122067    -0.607728    -1.708886
C        3.254306    -1.147594    -1.044677
C        3.147044    -2.198948     0.017961
C        4.543326    -0.701460    -1.371441
C        4.740044     0.229010    -2.393728
C        6.122104     0.667944    -2.781534
C        3.634619     0.756166    -3.062040
C        2.331172     0.353343    -2.735621
C        1.212857     0.984144    -3.516848
Zn      -0.053045    -0.707052     0.476810
N        1.224352    -1.034625     2.040766
C        1.433539    -2.187993     2.846286
C        2.244054    -2.148379     3.999598
F        2.859989    -1.002164     4.383487
C        2.424319    -3.303166     4.770843
F        3.201761    -3.261022     5.881476
C        1.805391    -4.500416     4.400793
F        1.983826    -5.616965     5.150037
C        1.002661    -4.547151     3.258803
F        0.402708    -5.709657     2.899949
C        0.816155    -3.397401     2.485036
F        0.032019    -3.463965     1.381581
N        1.712266     0.229602     2.328801
C        1.161693     1.325496     1.846489
C        1.782724     2.650635     2.160290
C        1.046154     3.838663     2.365483
C        1.694340     5.051450     2.595425
C        3.090801     5.112529     2.625290
C        3.790687     6.421567     2.831927
C        3.833172     3.936529     2.459986
C        3.185551     2.713980     2.256128
N       -0.027908     1.265392     1.021013
N       -1.050151     2.161959     1.215819
C       -2.363816     2.210649     0.684809
C       -2.662599     2.066197    -0.691679
C       -1.623162     1.821796    -1.739438
C       -3.999758     2.153460    -1.118647
C       -5.028880     2.424589    -0.209967
C       -6.438089     2.596902    -0.697838
C       -4.732716     2.532855     1.150451
C       -3.414255     2.427962     1.604215
C       -3.165178     2.554035     3.087191
N       -1.837669    -1.679741     0.241273
C       -2.797402    -1.804238     1.288748
C       -2.545978    -1.198215     2.533194
F       -1.408978    -0.497783     2.742099
C       -3.467076    -1.309130     3.579570
F       -3.208701    -0.721139     4.774597
C       -4.651366    -2.023980     3.398315
F       -5.541652    -2.130892     4.416192
C       -4.917768    -2.630359     2.169089
F       -6.069730    -3.325440     1.996768
C       -4.000864    -2.524835     1.115804
F       -4.298132    -3.127509    -0.061697
N       -2.027529    -2.229836    -1.010991
C       -2.954888    -3.419344    -3.471151
C       -3.426008    -4.003243    -4.651447
H       -3.089652    -3.872746    -7.894362
H       -2.455971    -5.478184    -7.351703
H       -4.157000    -5.001601    -6.978911
H       -0.735150    -3.415906    -6.656215
H        0.093614    -2.387276    -4.623533
H        3.571712    -1.836982     0.977620
H        3.725857    -3.088758    -0.309518
H        2.104411    -2.531126     0.159489
H        5.401666    -1.123028    -0.859772
H        6.898657     0.179426    -2.155211
H        6.306276     0.391882    -3.841803
H        6.219328     1.768074    -2.671141
H        3.790676     1.482133    -3.852336
H        0.223016     0.598843    -3.238499
H        1.351876     0.790416    -4.599979
H        1.218540     2.081486    -3.340196
H       -0.026937     3.873168     2.353921
H        1.099850     5.946682     2.733362
H        3.065774     7.252756     2.968943
H        4.438363     6.365214     3.730586
H        4.414598     6.647774     1.941485
H        4.915268     3.968523     2.475383
H        3.787943     1.826260     2.105648
H       -1.837866     0.874059    -2.275455
H       -0.599644     1.785029    -1.327597
H       -1.660811     2.661520    -2.467297
H       -4.234531     2.076712    -2.174919
H       -7.133588     2.827589     0.137951
H       -6.474106     3.443836    -1.416306
H       -6.785789     1.673310    -1.203692
H       -5.524659     2.737270     1.861604
H       -2.101118     2.417301     3.368669
H       -3.751414     1.786523     3.633832
H       -3.481107     3.562523     3.424053
H       -3.591110    -3.436792    -2.597107
H       -4.409482    -4.455265    -4.659701
101
ex_0377 frame2 Isomer 3
C        3.398890     6.992253    -0.953960
C        2.680408     5.829017    -0.331864
C        1.301217     5.885072    -0.100692
C        0.636906     4.803670     0.483159
C        1.332515     3.631222     0.849489
C        0.592724     2.486614     1.483330
N        1.281589     1.442428     1.881286
N        0.814553     0.276196     2.464848
C        1.577705    -0.369581     3.504202
C        2.955223    -0.046203     3.757587
C        3.753320     0.943956     2.946587
C        3.634989    -0.668121     4.815007
C        3.003127    -1.599729     5.630338
C        3.761273    -2.208114     6.772003
C        1.678631    -1.950683     5.372152
C        0.969874    -1.358402     4.314729
C       -0.432781    -1.796158     4.069241
Zn      -0.987288    -0.214331     1.626230
N       -2.145258    -1.891365     1.433990
C       -3.056156    -2.502311     2.335971
C       -3.815128    -1.735369     3.235975
F       -3.694230    -0.385370     3.262113
C       -4.706779    -2.367213     4.116102
F       -5.449057    -1.629793     4.979472
C       -4.834056    -3.761031     4.107586
F       -5.685470    -4.373559     4.967825
C       -4.078582    -4.525371     3.216093
F       -4.194345    -5.876758     3.210557
C       -3.199543    -3.900971     2.329349
F       -2.485207    -4.660590     1.460959
N       -2.058558    -2.321491     0.113145
C       -1.340163    -1.675401    -0.768774
C       -1.491226    -2.051673    -2.198898
C       -1.804772    -3.358883    -2.605233
C       -1.956425    -3.660449    -3.964716
C       -1.778257    -2.663101    -4.937371
C       -1.917648    -2.966960    -6.398390
C       -1.464870    -1.361843    -4.535397
C       -1.314260    -1.064576    -3.183344
N       -0.458430    -0.648024    -0.301088
N        0.579133     0.038106    -0.883025
C        1.288135    -0.216167    -2.077196
C        1.413905     0.885218    -2.943637
C        0.827104     2.235213    -2.592226
C        2.089449     0.745879    -4.153018
C        2.650634    -0.480324    -4.517840
C        3.383717    -0.609517    -5.818370
C        2.524220    -1.585284    -3.662863
C        1.856973    -1.471706    -2.429460
C        1.790802    -2.701393    -1.558287
N       -1.791230     1.666991     1.602413
C       -3.141273     2.008387     1.396781
C       -3.780094     2.789423     2.361400
F       -3.091617     3.209130     3.452975
C       -5.119930     3.138826     2.208467
F       -5.730176     3.885159     3.160721
C       -5.827487     2.720067     1.077743
F       -7.129637     3.068157     0.931927
C       -5.190280     1.948687     0.097137
F       -5.878217     1.557872    -1.005398
C       -3.844645     1.584692     0.255104
F       -3.236527     0.828652    -0.693947
N       -0.838194     2.654118     1.594039
C        2.721386     3.583124     0.601894
C        3.386639     4.672765     0.024131
H        2.692807     7.802681    -1.237075
H        4.134935     7.406642    -0.233427
H        3.932190     6.661633    -1.870002
H        0.735852     6.769618    -0.367034
H       -0.428389     4.896608     0.644876
H        4.813659     1.005507     3.271682
H        3.761897     0.623853     1.882265
H        3.336079     1.963591     3.061698
H        4.670187    -0.417527     5.018947
H        3.127591    -2.904920     7.359205
H        4.111876    -1.399817     7.449485
H        4.641640    -2.762229     6.384880
H        1.195369    -2.689270     6.000260
H       -1.118230    -0.924856     4.111893
H       -0.777219    -2.553433     4.805370
H       -0.444539    -2.274650     3.075757
H       -1.945666    -4.142640    -1.871771
H       -2.211059    -4.670893    -4.256908
H       -2.712862    -2.329210    -6.838980
H       -0.956442    -2.753247    -6.912908
H       -2.179987    -4.031839    -6.569079
H       -1.345445    -0.572314    -5.268178
H       -1.116042    -0.040550    -2.908775
H        0.087089     2.525739    -3.364838
H        0.294227     2.254401    -1.618638
H        1.633857     2.992785    -2.536650
H        2.179400     1.604151    -4.806883
H        2.913999    -1.396929    -6.442794
H        4.441982    -0.876246    -5.617007
H        3.367737     0.345432    -6.387397
H        2.969793    -2.531732    -3.950555
H        1.261593    -3.522536    -2.088690
H        1.289491    -2.521589    -0.590023
H        2.824950    -3.042872    -1.334761
H        3.300833     2.707025     0.841787
H        4.453658     4.612230    -0.156040
101
ex_0377 frame3 square-planar trans-conf26
C        5.630372     5.587673    -4.420611
C        4.764210     4.720324    -3.560624
C        5.165349     3.409892    -3.273292
C        4.362879     2.583758    -2.486005
C        3.138048     3.053656    -1.973852
C        2.269814     2.170802    -1.153166
N        2.680261     0.977364    -0.908887
N        2.038653    -0.003345    -0.197819
C        2.964887    -0.984455     0.235698
C        3.179026    -2.159498    -0.514702
C        2.433687    -2.436792    -1.794175
C        4.113888    -3.104261    -0.061617
C        4.813702    -2.911538     1.135903
C        5.798289    -3.933219     1.627302
C        4.591549    -1.752329     1.882310
C        3.691173    -0.775807     1.432193
C        3.512955     0.485179     2.236177
Zn       0.000000     0.000000     0.000000
N       -2.033687    -0.239101     0.046825
C       -3.011270     0.447642     0.827451
C       -2.652142     1.152503     1.989681
F       -1.363213     1.167206     2.412593
C       -3.624133     1.847894     2.722377
F       -3.269937     2.539241     3.833911
C       -4.960142     1.833634     2.311120
F       -5.896736     2.516841     3.015400
C       -5.331049     1.119577     1.170910
F       -6.629203     1.097405     0.777248
C       -4.366843     0.429043     0.431653
F       -4.757410    -0.258430    -0.671767
N       -2.379690    -1.484123    -0.405358
C       -1.503994    -2.419188    -0.363352
C       -1.919005    -3.802039    -0.749691
C       -1.019716    -4.880861    -0.801195
C       -1.460130    -6.161437    -1.147330
C       -2.804181    -6.386685    -1.470543
C       -3.263082    -7.761690    -1.849274
C       -3.706964    -5.318523    -1.435525
C       -3.270954    -4.043588    -1.078594
N       -0.194540    -2.037617     0.056726
N        0.648016    -2.831153     0.809917
C        0.314612    -3.652948     1.934536
C        1.059680    -4.844989     2.127103
C        2.153881    -5.279680     1.198884
C        0.796534    -5.678768     3.213848
C       -0.228413    -5.383962     4.107318
C       -0.503803    -6.297170     5.263464
C       -0.996354    -4.232333     3.917595
C       -0.714802    -3.337992     2.870328
C       -1.547414    -2.089427     2.825132
N       -0.065272     2.030673    -0.259515
C       -1.133379     2.897044     0.082432
C       -0.999438     3.749634     1.197709
F        0.144626     3.745459     1.929357
C       -2.042352     4.606303     1.561006
F       -1.907223     5.420851     2.638083
C       -3.223261     4.622397     0.814924
F       -4.235414     5.452206     1.170585
C       -3.359656     3.785384    -0.299528
F       -4.503571     3.812110    -1.025881
C       -2.317538     2.922397    -0.666479
F       -2.458744     2.113827    -1.746320
N        1.043176     2.706546    -0.693556
C        2.749826     4.378303    -2.252678
C        3.556040     5.203144    -3.038879
H        5.744323     5.113883    -5.418572
H        5.186089     6.596069    -4.558586
H        6.630181     5.699656    -3.952268
H        6.097116     3.023505    -3.667039
H        4.697477     1.572246    -2.291778
H        1.704135    -1.639492    -2.043165
H        3.163778    -2.512608    -2.625423
H        1.875280    -3.392951    -1.720229
H        4.297950    -3.994979    -0.651195
H        6.806801    -3.477691     1.711569
H        5.858053    -4.805869     0.942725
H        5.482146    -4.299724     2.627629
H        5.156791    -1.593752     2.793944
H        3.827188     1.346389     1.608101
H        2.457178     0.622014     2.545630
H        4.151116     0.486657     3.146474
H        0.023435    -4.752306    -0.585553
H       -0.748850    -6.977496    -1.173381
H       -3.093448    -8.458079    -1.001933
H       -2.690262    -8.111652    -2.733379
H       -4.344355    -7.772774    -2.104869
H       -4.750611    -5.467627    -1.683980
H       -4.002183    -3.244657    -1.063351
H        3.126552    -5.265633     1.734082
H        2.205417    -4.645875     0.306423
H        1.953628    -6.306568     0.832503
H        1.396576    -6.570448     3.355987
H        0.210141    -7.149114     5.285886
H       -0.402265    -5.734256     6.214558
H       -1.532145    -6.704415     5.180123
H       -1.780555    -3.999359     4.629314
H       -2.611566    -2.317702     2.604513
H       -1.484666    -1.585603     3.812853
H       -1.155476    -1.356848     2.114003
H        1.817535     4.779391    -1.875005
H        3.229613     6.214397    -3.247234
101
ex_0377 frame4 Isomer 1
C       -2.557116    -7.334613     1.745282
C       -1.973743    -5.975161     1.511377
C       -2.782664    -4.959377     0.992438
C       -2.256477    -3.689331     0.764001
C       -0.907464    -3.399969     1.066357
C       -0.358826    -2.032461     0.837038
N       -1.193837    -1.173943     0.323374
N       -1.034553     0.161455     0.053966
C       -1.975201     0.803458    -0.795953
C       -2.220416     0.261487    -2.082156
C       -1.505809    -0.979020    -2.558338
C       -3.141499     0.881152    -2.935405
C       -3.827243     2.030161    -2.531838
C       -4.829888     2.675638    -3.441703
C       -3.573961     2.578853    -1.270047
C       -2.669823     1.967166    -0.387960
C       -2.481897     2.587605     0.965269
Zn       0.737047     1.014054     0.621503
N        0.652700     2.606052     1.904176
C        0.189816     2.682480     3.245635
C        0.185225     3.901575     3.956625
F        0.622011     5.051188     3.383033
C       -0.274753     3.942269     5.277354
F       -0.276590     5.116195     5.957100
C       -0.732168     2.777312     5.898453
F       -1.176121     2.821955     7.179303
C       -0.731972     1.566902     5.199914
F       -1.176986     0.437310     5.804456
C       -0.273698     1.518431     3.878788
F       -0.281143     0.336345     3.214674
N        1.185401     3.678191     1.209733
C        1.627749     3.571774    -0.022095
C        2.121331     4.810422    -0.695711
C        2.031437     4.973205    -2.092755
C        2.496479     6.132021    -2.711157
C        3.081928     7.149409    -1.952870
C        3.595741     8.376924    -2.641362
C        3.177790     7.002700    -0.560970
C        2.691603     5.848702     0.063160
N        1.634420     2.292231    -0.700650
N        2.248422     2.115650    -1.919377
C        2.356561     0.940243    -2.695268
C        1.421068     0.724122    -3.723262
C        0.319232     1.718101    -3.969295
C        1.517225    -0.423503    -4.521545
C        2.557783    -1.339263    -4.325809
C        2.712216    -2.524967    -5.232343
C        3.461331    -1.144813    -3.273879
C        3.378771    -0.006044    -2.457637
C        4.392937     0.153021    -1.358476
N        1.755050    -0.643057     1.258746
C        3.094588    -0.666726     1.759606
C        3.741567     0.522996     2.139827
F        3.119316     1.713535     2.030236
C        5.048818     0.495780     2.641316
F        5.656171     1.650382     3.012735
C        5.732257    -0.715001     2.760321
F        6.999428    -0.737126     3.243764
C        5.110938    -1.903650     2.380493
F        5.777440    -3.080103     2.491676
C        3.803807    -1.887678     1.885091
F        3.243415    -3.071176     1.531988
N        1.023061    -1.811082     1.205229
C       -0.100728    -4.429422     1.586156
C       -0.629201    -5.704905     1.804550
H       -3.359047    -7.264642     2.510072
H       -1.787157    -8.050958     2.100948
H       -2.989588    -7.721723     0.798580
H       -3.823463    -5.150845     0.760814
H       -2.917988    -2.932029     0.361565
H       -0.412991    -0.845409    -2.423765
H       -1.831453    -1.869615    -1.985741
H       -1.695812    -1.178184    -3.633207
H       -3.328211     0.462635    -3.916846
H       -5.824931     2.670982    -2.947962
H       -4.532361     3.722255    -3.657229
H       -4.919381     2.126817    -4.403787
H       -4.112209     3.467350    -0.958507
H       -1.825508     1.973864     1.601965
H       -2.065495     3.612765     0.876420
H       -3.467983     2.642125     1.475554
H        1.569932     4.232004    -2.721060
H        2.400613     6.233777    -3.785791
H        4.075246     9.074649    -1.923498
H        2.754151     8.900857    -3.141264
H        4.347457     8.086486    -3.406032
H        3.625127     7.781242     0.043328
H        2.779031     5.760177     1.138840
H       -0.288161     1.867833    -3.054350
H       -0.353187     1.396342    -4.791556
H        0.776494     2.686153    -4.255163
H        0.817819    -0.570706    -5.335436
H        1.929768    -2.540044    -6.021010
H        3.703025    -2.469222    -5.732869
H        2.650356    -3.467197    -4.650681
H        4.267837    -1.854709    -3.125914
H        5.400065     0.236449    -1.818874
H        4.386182    -0.734272    -0.693537
H        4.217464     1.056970    -0.741729
H        0.936371    -4.253725     1.835104
H        0.010479    -6.477472     2.211820
101
ex_0377 frame5 Isomer 2
C       -3.116803    -4.628152    -7.080529
C       -2.630903    -4.007661    -5.807552
C       -1.362107    -3.422944    -5.772742
C       -0.893004    -2.833900    -4.602036
C       -1.681229    -2.823336    -3.429177
C       -1.162463    -2.191541    -2.182700
N        0.031947    -1.667031    -2.290587
N        0.803083    -1.027468    -1.353934
C        2.122152    -0.608992    -1.710055
C        3.254348    -1.148021    -1.045095
C        3.147044    -2.198948     0.017961
C        4.543326    -0.701460    -1.371441
C        4.740044     0.229010    -2.393728
C        6.122104     0.667944    -2.781534
C        3.634619     0.756166    -3.062040
C        2.331207     0.352901    -2.736028
C        1.212857     0.984144    -3.516848
Zn      -0.053045    -0.707052     0.476810
N        1.224352    -1.034625     2.040766
C        1.433167    -2.187880     2.846544
C        2.243753    -2.148287     3.999807
F        2.859989    -1.002164     4.383487
C        2.424105    -3.303101     4.770991
F        3.201761    -3.261022     5.881476
C        1.805319    -4.500394     4.400843
F        1.983826    -5.616965     5.150037
C        1.002534    -4.547112     3.258891
F        0.402708    -5.709657     2.899949
C        0.815990    -3.397351     2.485150
F        0.032019    -3.463965     1.381581
N        1.712266     0.229602     2.328801
C        1.161941     1.325464     1.846134
C        1.782731     2.650659     2.160177
C        1.046154     3.838663     2.365483
C        1.694340     5.051450     2.595425
C        3.090801     5.112529     2.625290
C        3.790687     6.421567     2.831927
C        3.833172     3.936529     2.459986
C        3.185551     2.713980     2.256128
N       -0.027908     1.265392     1.021013
N       -1.050151     2.161959     1.215819
C       -2.363474     2.214384     0.684332
C       -2.662462     2.067494    -0.691847
C       -1.623162     1.821796    -1.739438
C       -3.999758     2.153460    -1.118647
C       -5.028880     2.424589    -0.209967
C       -6.438089     2.596902    -0.697838
C       -4.732716     2.532855     1.150451
C       -3.414107     2.429256     1.604081
C       -3.165178     2.554035     3.087191
N       -1.837669    -1.679741     0.241273
C       -2.796981    -1.805013     1.289041
C       -2.545693    -1.198736     2.533390
F       -1.408978    -0.497783     2.742099
C       -3.466841    -1.309560     3.579731
F       -3.208701    -0.721139     4.774597
C       -4.651000    -2.024650     3.398566
F       -5.541652    -2.130892     4.416192
C       -4.917435    -2.630968     2.169317
F       -6.069730    -3.325440     1.996768
C       -4.000615    -2.525292     1.115975
F       -4.298132    -3.127509    -0.061697
N       -2.027529    -2.229836    -1.010991
C       -2.954888    -3.419344    -3.471151
C       -3.426008    -4.003243    -4.651447
H       -3.089652    -3.872746    -7.894362
H       -2.455971    -5.478184    -7.351703
H       -4.157000    -5.001601    -6.978911
H       -0.735150    -3.415906    -6.656215
H        0.093614    -2.387276    -4.623533
H        3.571712    -1.836982     0.977620
H        3.725857    -3.088758    -0.309518
H        2.104411    -2.531126     0.159489
H        5.401666    -1.123028    -0.859772
H        6.898657     0.179426    -2.155211
H        6.306276     0.391882    -3.841803
H        6.219328     1.768074    -2.671141
H        3.790676     1.482133    -3.852336
H        0.223016     0.598843    -3.238499
H        1.351876     0.790416    -4.599979
H        1.218540     2.081486    -3.340196
H       -0.026937     3.873168     2.353921
H        1.099850     5.946682     2.733362
H        3.065774     7.252756     2.968943
H        4.438363     6.365214     3.730586
H        4.414598     6.647774     1.941485
H        4.915268     3.968523     2.475383
H        3.787943     1.826260     2.105648
H       -1.837866     0.874059    -2.275455
H       -0.599644     1.785029    -1.327597
H       -1.660811     2.661520    -2.467297
H       -4.234531     2.076712    -2.174919
H       -7.133588     2.827589     0.137951
H       -6.474106     3.443836    -1.416306
H       -6.785789     1.673310    -1.203692
H       -5.524659     2.737270     1.861604
H       -2.101118     2.417301     3.368669
H       -3.751414     1.786523     3.633832
H       -3.481107     3.562523     3.424053
H       -3.591110    -3.436792    -2.597107
H       -4.409482    -4.455265    -4.659701
101
ex_0377 frame6 Isomer 3
C        3.398890     6.992253    -0.953960
C        2.680408     5.829017    -0.331864
C        1.301217     5.885072    -0.100692
C        0.636906     4.803670     0.483159
C        1.332633     3.631483     0.850100
C        0.592747     2.486697     1.483508
N        1.281589     1.442428     1.881286
N        0.814553     0.276196     2.464848
C        1.577690    -0.369543     3.504237
C        2.955218    -0.046190     3.757598
C        3.753320     0.943956     2.946587
C        3.634989    -0.668121     4.815007
C        3.003127    -1.599729     5.630338
C        3.761273    -2.208114     6.772003
C        1.678631    -1.950683     5.372152
C        0.969868    -1.358389     4.314740
C       -0.432781    -1.796158     4.069241
Zn      -0.987288    -0.214331     1.626230
N       -2.145258    -1.891365     1.433990
C       -3.055675    -2.502363     2.336421
C       -3.815086    -1.735374     3.236014
F       -3.694230    -0.385370     3.262113
C       -4.706651    -2.367225     4.116223
F       -5.449057    -1.629793     4.979472
C       -4.832462    -3.761182     4.109061
F       -5.685470    -4.373559     4.967825
C       -4.077393    -4.525479     3.217192
F       -4.194345    -5.876758     3.210557
C       -3.198989    -3.901030     2.329856
F       -2.485207    -4.660590     1.460959
N       -2.058558    -2.321491     0.113145
C       -1.340777    -1.674835    -0.768859
C       -1.491454    -2.051622    -2.198888
C       -1.804772    -3.358883    -2.605233
C       -1.956425    -3.660449    -3.964716
C       -1.778257    -2.663101    -4.937371
C       -1.917648    -2.966960    -6.398390
C       -1.464870    -1.361843    -4.535397
C       -1.314260    -1.064576    -3.183344
N       -0.458430    -0.648024    -0.301088
N        0.579133     0.038106    -0.883025
C        1.288863    -0.215946    -2.076810
C        1.414157     0.885293    -2.943505
C        0.827104     2.235213    -2.592226
C        2.089449     0.745879    -4.153018
C        2.650634    -0.480324    -4.517840
C        3.383717    -0.609517    -5.818370
C        2.524220    -1.585284    -3.662863
C        1.857227    -1.471627    -2.429330
C        1.790802    -2.701393    -1.558287
N       -1.791230     1.666991     1.602413
C       -3.141117     2.008842     1.396516
C       -3.780095     2.789420     2.361402
F       -3.091617     3.209130     3.452975
C       -5.119928     3.138833     2.208463
F       -5.730176     3.885159     3.160721
C       -5.826947     2.721703     1.076803
F       -7.129637     3.068157     0.931927
C       -5.189855     1.949943     0.096424
F       -5.878217     1.557872    -1.005398
C       -3.844455     1.585251     0.254780
F       -3.236527     0.828652    -0.693947
N       -0.838194     2.654118     1.594039
C        2.721386     3.583124     0.601894
C        3.386639     4.672765     0.024131
H        2.692807     7.802681    -1.237075
H        4.134935     7.406642    -0.233427
H        3.932190     6.661633    -1.870002
H        0.735852     6.769618    -0.367034
H       -0.428389     4.896608     0.644876
H        4.813659     1.005507     3.271682
H        3.761897     0.623853     1.882265
H        3.336079     1.963591     3.061698
H        4.670187    -0.417527     5.018947
H        3.127591    -2.904920     7.359205
H        4.111876    -1.399817     7.449485
H        4.641640    -2.762229     6.384880
H        1.195369    -2.689270     6.000260
H       -1.118230    -0.924856     4.111893
H       -0.777219    -2.553433     4.805370
H       -0.444539    -2.274650     3.075757
H       -1.945666    -4.142640    -1.871771
H       -2.211059    -4.670893    -4.256908
H       -2.712862    -2.329210    -6.838980
H       -0.956442    -2.753247    -6.912908
H       -2.179987    -4.031839    -6.569079
H       -1.345445    -0.572314    -5.268178
H       -1.116042    -0.040550    -2.908775
H        0.087089     2.525739    -3.364838
H        0.294227     2.254401    -1.618638
H        1.633857     2.992785    -2.536650
H        2.179400     1.604151    -4.806883
H        2.913999    -1.396929    -6.442794
H        4.441982    -0.876246    -5.617007
H        3.367737     0.345432    -6.387397
H        2.969793    -2.531732    -3.950555
H        1.261593    -3.522536    -2.088690
H        1.289491    -2.521589    -0.590023
H        2.824950    -3.042872    -1.334761
H        3.300833     2.707025     0.841787
H        4.453658     4.612230    -0.156040
101
ex_0377 frame7 square-planar trans-conf26
C        5.630372     5.587673    -4.420611
C        4.764210     4.720324    -3.560624
C        5.165349     3.409892    -3.273292
C        4.362879     2.583758    -2.486005
C        3.138222     3.053772    -1.973543
C        2.269864     2.170838    -1.153074
N        2.680261     0.977364    -0.908887
N        2.038653    -0.003345    -0.197819
C        2.967424    -0.982847     0.233888
C        3.179895    -2.158941    -0.515330
C        2.433687    -2.436792    -1.794175
C        4.113888    -3.104261    -0.061617
C        4.813702    -2.911538     1.135903
C        5.798289    -3.933219     1.627302
C        4.591549    -1.752329     1.882310
C        3.692054    -0.775284     1.431570
C        3.512955     0.485179     2.236177
Zn       0.000000     0.000000     0.000000
N       -2.033687    -0.239101     0.046825
C       -3.011047     0.448900     0.826621
C       -2.652016     1.153107     1.989276
F       -1.363213     1.167206     2.412593
C       -3.624008     1.848522     2.721947
F       -3.269937     2.539241     3.833911
C       -4.959814     1.835237     2.310006
F       -5.896736     2.516841     3.015400
C       -5.330806     1.120856     1.170030
F       -6.629203     1.097405     0.777248
C       -4.366687     0.429874     0.431079
F       -4.757410    -0.258430    -0.671767
N       -2.379690    -1.484123    -0.405358
C       -1.504002    -2.419194    -0.363321
C       -1.919007    -3.802041    -0.749681
C       -1.019716    -4.880861    -0.801195
C       -1.460130    -6.161437    -1.147330
C       -2.804181    -6.386685    -1.470543
C       -3.263082    -7.761690    -1.849274
C       -3.706964    -5.318523    -1.435525
C       -3.270954    -4.043588    -1.078594
N       -0.194540    -2.037617     0.056726
N        0.648016    -2.831153     0.809917
C        0.316101    -3.651818     1.935799
C        1.060205    -4.844592     2.127535
C        2.153881    -5.279680     1.198884
C        0.796534    -5.678768     3.213848
C       -0.228413    -5.383962     4.107318
C       -0.503803    -6.297170     5.263464
C       -0.996354    -4.232333     3.917595
C       -0.714274    -3.337623     2.870786
C       -1.547414    -2.089427     2.825132
N       -0.065272     2.030673    -0.259515
C       -1.133280     2.897225     0.082282
C       -0.999473     3.749569     1.197763
F        0.144626     3.745459     1.929357
C       -2.042450     4.606119     1.561157
F       -1.907223     5.420851     2.638083
C       -3.222905     4.623068     0.814376
F       -4.235414     5.452206     1.170585
C       -3.359333     3.785980    -0.300015
F       -4.503571     3.812110    -1.025881
C       -2.317400     2.922653    -0.666689
F       -2.458744     2.113827    -1.746320
N        1.043176     2.706546    -0.693556
C        2.749826     4.378303    -2.252678
C        3.556040     5.203144    -3.038879
H        5.744323     5.113883    -5.418572
H        5.186089     6.596069    -4.558586
H        6.630181     5.699656    -3.952268
H        6.097116     3.023505    -3.667039
H        4.697477     1.572246    -2.291778
H        1.704135    -1.639492    -2.043165
H        3.163778    -2.512608    -2.625423
H        1.875280    -3.392951    -1.720229
H        4.297950    -3.994979    -0.651195
H        6.806801    -3.477691     1.711569
H        5.858053    -4.805869     0.942725
H        5.482146    -4.299724     2.627629
H        5.156791    -1.593752     2.793944
H        3.827188     1.346389     1.608101
H        2.457178     0.622014     2.545630
H        4.151116     0.486657     3.146474
H        0.023435    -4.752306    -0.585553
H       -0.748850    -6.977496    -1.173381
H       -3.093448    -8.458079    -1.001933
H       -2.690262    -8.111652    -2.733379
H       -4.344355    -7.772774    -2.104869
H       -4.750611    -5.467627    -1.683980
H       -4.002183    -3.244657    -1.063351
H        3.126552    -5.265633     1.734082
H        2.205417    -4.645875     0.306423
H        1.953628    -6.306568     0.832503
H        1.396576    -6.570448     3.355987
H        0.210141    -7.149114     5.285886
H       -0.402265    -5.734256     6.214558
H       -1.532145    -6.704415     5.180123
H       -1.780555    -3.999359     4.629314
H       -2.611566    -2.317702     2.604513
H       -1.484666    -1.585603     3.812853
H       -1.155476    -1.356848     2.114003
H        1.817535     4.779391    -1.875005
H        3.229613     6.214397    -3.247234
101
ex_0377 frame8 Isomer 1_mirror
C       -2.557116    -7.334613    -1.745282
C       -1.973743    -5.975161    -1.511377
C       -2.782664    -4.959377    -0.992438
C       -2.256477    -3.689331    -0.764001
C       -0.907464    -3.399969    -1.066357
C       -0.358826    -2.032461    -0.837038
N       -1.193837    -1.173943    -0.323374
N       -1.034553     0.161455    -0.053966
C       -1.975201     0.803458     0.795953
C       -2.220416     0.261487     2.082156
C       -1.505809    -0.979020     2.558338
C       -3.141499     0.881152     2.935405
C       -3.827243     2.030161     2.531838
C       -4.829888     2.675638     3.441703
C       -3.573961     2.578853     1.270047
C       -2.669823     1.967166     0.387960
C       -2.481897     2.587605    -0.965269
Zn       0.737047     1.014054    -0.621503
N        0.652700     2.606052    -1.904176
C        0.189816     2.682480    -3.245635
C        0.185225     3.901575    -3.956625
F        0.622011     5.051188    -3.383033
C       -0.274753     3.942269    -5.277354
F       -0.276590     5.116195    -5.957100
C       -0.732168     2.777312    -5.898453
F       -1.176121     2.821955    -7.179303
C       -0.731972     1.566902    -5.199914
F       -1.176986     0.437310    -5.804456
C       -0.273698     1.518431    -3.878788
F       -0.281143     0.336345    -3.214674
N        1.185401     3.678191    -1.209733
C        1.627749     3.571774     0.022095
C        2.121331     4.810422     0.695711
C        2.031437     4.973205     2.092755
C        2.496479     6.132021     2.711157
C        3.081928     7.149409     1.952870
C        3.595741     8.376924     2.641362
C        3.177790     7.002700     0.560970
C        2.691603     5.848702    -0.063160
N        1.634420     2.292231     0.700650
N        2.248422     2.115650     1.919377
C        2.356561     0.940243     2.695268
C        1.421068     0.724122     3.723262
C        0.319232     1.718101     3.969295
C        1.517225    -0.423503     4.521545
C        2.557783    -1.339263     4.325809
C        2.712216    -2.524967     5.232343
C        3.461331    -1.144813     3.273879
C        3.378771    -0.006044     2.457637
C        4.392937     0.153021     1.358476
N        1.755050    -0.643057    -1.258746
C        3.094588    -0.666726    -1.759606
C        3.741567     0.522996    -2.139827
F        3.119316     1.713535    -2.030236
C        5.048818     0.495780    -2.641316
F        5.656171     1.650382    -3.012735
C        5.732257    -0.715001    -2.760321
F        6.999428    -0.737126    -3.243764
C        5.110938    -1.903650    -2.380493
F        5.777440    -3.080103    -2.491676
C        3.803807    -1.887678    -1.885091
F        3.243415    -3.071176    -1.531988
N        1.023061    -1.811082    -1.205229
C       -0.100728    -4.429422    -1.586156
C       -0.629201    -5.704905    -1.804550
H       -3.359047    -7.264642    -2.510072
H       -1.787157    -8.050958    -2.100948
H       -2.989588    -7.721723    -0.798580
H       -3.823463    -5.150845    -0.760814
H       -2.917988    -2.932029    -0.361565
H       -0.412991    -0.845409     2.423765
H       -1.831453    -1.869615     1.985741
H       -1.695812    -1.178184     3.633207
H       -3.328211     0.462635     3.916846
H       -5.824931     2.670982     2.947962
H       -4.532361     3.722255     3.657229
H       -4.919381     2.126817     4.403787
H       -4.112209     3.467350     0.958507
H       -1.825508     1.973864    -1.601965
H       -2.065495     3.612765    -0.876420
H       -3.467983     2.642125    -1.475554
H        1.569932     4.232004     2.721060
H        2.400613     6.233777     3.785791
H        4.075246     9.074649     1.923498
H        2.754151     8.900857     3.141264
H        4.347457     8.086486     3.406032
H        3.625127     7.781242    -0.043328
H        2.779031     5.760177    -1.138840
H       -0.288161     1.867833     3.054350
H       -0.353187     1.396342     4.791556
H        0.776494     2.686153     4.255163
H        0.817819    -0.570706     5.335436
H        1.929768    -2.540044     6.021010
H        3.703025    -2.469222     5.732869
H        2.650356    -3.467197     4.650681
H        4.267837    -1.854709     3.125914
H        5.400065     0.236449     1.818874
H        4.386182    -0.734272     0.693537
H        4.217464     1.056970     0.741729
H        0.936371    -4.253725    -1.835104
H        0.010479    -6.477472    -2.211820
