67
ex_0129 frame0 OC-6-1
W        0.000000     0.000000     0.000000
C        5.969126     0.000255     0.000121
C        5.419265     1.060686     0.489313
C        4.030572     1.383997     0.638456
As       2.810000     0.000000     0.000000
C        4.104899    -1.468275    -0.677335
C        5.362466    -1.187739    -0.547918
H        7.086445    -0.005895    -0.002710
H        6.121284     1.851358     0.854066
H        3.623213     2.282730     1.053059
H        3.626455    -2.318989    -1.069776
H        6.057498    -1.976646    -0.911844
C       -5.969126    -0.000244     0.000141
C       -5.419265    -1.017704     0.573377
C       -4.030572    -1.327914     0.748144
As      -2.810000     0.000000     0.000000
C       -4.104899     1.408777    -0.793702
C       -5.362466     1.139609    -0.642051
H       -7.086445     0.005657    -0.003177
H       -6.121284    -1.776335     1.000794
H       -3.623213    -2.190228     1.233975
H       -3.626455     2.225018    -1.253566
H       -6.057498     1.896548    -1.068502
C       -0.000281     5.969126    -0.000011
C       -1.166716     5.419265    -0.057058
C       -1.522344     4.030572    -0.074454
As       0.000000     2.810000     0.000000
C        1.615047     4.104899     0.078988
C        1.306467     5.362466     0.063898
H        0.006480     7.086445     0.000326
H       -2.036428     6.121284    -0.099588
H       -2.510918     3.623213    -0.122799
H        2.550798     3.626455     0.124758
H        2.174231     6.057498     0.106345
C        0.000214    -5.969126     0.000183
C        0.895835    -5.419265     0.749642
C        1.168898    -4.030572     0.978137
As       0.000000    -2.810000     0.000000
C       -1.240078    -4.104899    -1.037701
C       -1.003143    -5.362466    -0.839430
H       -0.004981    -7.086445    -0.004157
H        1.563619    -6.121284     1.308453
H        1.927949    -3.623213     1.613320
H       -1.958576    -3.626455    -1.638937
H       -1.669440    -6.057498    -1.396982
C       -0.000281    -0.000019     5.969126
C       -1.166263    -0.065677     5.419265
C       -1.521753    -0.085692     4.030572
As       0.000000     0.000000     2.810000
C        1.614420     0.090910     4.104899
C        1.305960     0.073538     5.362466
H        0.006478     0.000356     7.086445
H       -2.035636    -0.114638     6.121284
H       -2.509943    -0.141342     3.623213
H        2.549808     0.143578     3.626455
H        2.173387     0.122378     6.057498
C       -0.000279    -0.000039    -5.969126
C       -1.155022    -0.174374    -5.419265
C       -1.507085    -0.227529    -4.030572
As       0.000000     0.000000    -2.810000
C        1.598859     0.241385    -4.104899
C        1.293371     0.195266    -5.362466
H        0.006414     0.000977    -7.086445
H       -2.016017    -0.304355    -6.121284
H       -2.485751    -0.375277    -3.623213
H        2.525230     0.381246    -3.626455
H        2.152437     0.324968    -6.057498
67
ex_0129 frame1 OC-6-1-conf2
W        0.000000     0.000000     0.000000
C        5.969126     0.000255     0.000121
C        5.419265     1.060686     0.489313
C        4.030572     1.383997     0.638456
As       2.810000     0.000000     0.000000
C        4.104899    -1.468275    -0.677335
C        5.362466    -1.187739    -0.547918
H        7.086445    -0.005895    -0.002710
H        6.121284     1.851358     0.854066
H        3.623213     2.282730     1.053059
H        3.626455    -2.318989    -1.069776
H        6.057498    -1.976646    -0.911844
C       -5.969126    -0.000244     0.000141
C       -5.419265    -1.017704     0.573377
C       -4.030572    -1.327914     0.748144
As      -2.810000     0.000000     0.000000
C       -4.104899     1.408777    -0.793702
C       -5.362466     1.139609    -0.642051
H       -7.086445     0.005657    -0.003177
H       -6.121284    -1.776335     1.000794
H       -3.623213    -2.190228     1.233975
H       -3.626455     2.225018    -1.253566
H       -6.057498     1.896548    -1.068502
C       -0.000281     5.969126    -0.000011
C       -1.166716     5.419265    -0.057058
C       -1.522344     4.030572    -0.074454
As       0.000000     2.810000     0.000000
C        1.615047     4.104899     0.078988
C        1.306467     5.362466     0.063898
H        0.006480     7.086445     0.000326
H       -2.036428     6.121284    -0.099588
H       -2.510918     3.623213    -0.122799
H        2.550798     3.626455     0.124758
H        2.174231     6.057498     0.106345
C        0.000214    -5.969126     0.000183
C        0.895835    -5.419265     0.749642
C        1.168898    -4.030572     0.978137
As       0.000000    -2.810000     0.000000
C       -1.240078    -4.104899    -1.037701
C       -1.003143    -5.362466    -0.839430
H       -0.004981    -7.086445    -0.004157
H        1.563619    -6.121284     1.308453
H        1.927949    -3.623213     1.613320
H       -1.958576    -3.626455    -1.638937
H       -1.669440    -6.057498    -1.396982
C       -0.000281    -0.000019     5.969126
C       -1.166263    -0.065677     5.419265
C       -1.521753    -0.085692     4.030572
As       0.000000     0.000000     2.810000
C        1.614420     0.090910     4.104899
C        1.305960     0.073538     5.362466
H        0.006478     0.000356     7.086445
H       -2.035636    -0.114638     6.121284
H       -2.509943    -0.141342     3.623213
H        2.549808     0.143578     3.626455
H        2.173387     0.122378     6.057498
C        0.004724     0.000401    -5.935939
C        1.185189     0.101508    -5.413704
C        1.558467     0.133481    -4.034697
As       0.000000     0.000000    -2.810000
C       -1.550061    -0.132761    -4.028091
C       -1.270622    -0.108829    -5.299977
H       -0.019777    -0.001705    -7.057119
H        2.035065     0.174294    -6.135299
H        2.543526     0.217855    -3.618601
H       -2.540466    -0.217593    -3.608715
H       -2.160378    -0.185031    -5.968918
67
ex_0129 frame2 OC-6-1-conf3
W        0.000000     0.000000     0.000000
C        5.969126     0.000255     0.000121
C        5.419265     1.060686     0.489313
C        4.030572     1.383997     0.638456
As       2.810000     0.000000     0.000000
C        4.104899    -1.468275    -0.677335
C        5.362466    -1.187739    -0.547918
H        7.086445    -0.005895    -0.002710
H        6.121284     1.851358     0.854066
H        3.623213     2.282730     1.053059
H        3.626455    -2.318989    -1.069776
H        6.057498    -1.976646    -0.911844
C       -5.969126    -0.000244     0.000141
C       -5.419265    -1.017704     0.573377
C       -4.030572    -1.327914     0.748144
As      -2.810000     0.000000     0.000000
C       -4.104899     1.408777    -0.793702
C       -5.362466     1.139609    -0.642051
H       -7.086445     0.005657    -0.003177
H       -6.121284    -1.776335     1.000794
H       -3.623213    -2.190228     1.233975
H       -3.626455     2.225018    -1.253566
H       -6.057498     1.896548    -1.068502
C       -0.000281     5.969126    -0.000011
C       -1.166716     5.419265    -0.057058
C       -1.522344     4.030572    -0.074454
As       0.000000     2.810000     0.000000
C        1.615047     4.104899     0.078988
C        1.306467     5.362466     0.063898
H        0.006480     7.086445     0.000326
H       -2.036428     6.121284    -0.099588
H       -2.510918     3.623213    -0.122799
H        2.550798     3.626455     0.124758
H        2.174231     6.057498     0.106345
C        0.000214    -5.969126     0.000183
C        0.895835    -5.419265     0.749642
C        1.168898    -4.030572     0.978137
As       0.000000    -2.810000     0.000000
C       -1.240078    -4.104899    -1.037701
C       -1.003143    -5.362466    -0.839430
H       -0.004981    -7.086445    -0.004157
H        1.563619    -6.121284     1.308453
H        1.927949    -3.623213     1.613320
H       -1.958576    -3.626455    -1.638937
H       -1.669440    -6.057498    -1.396982
C        0.004710     0.000534     5.935939
C        1.182051     0.133159     5.413704
C        1.554341     0.175096     4.034697
As       0.000000     0.000000     2.810000
C       -1.545958    -0.174151     4.028091
C       -1.267259    -0.142754     5.299977
H       -0.019727    -0.002211     7.057119
H        2.029677     0.228649     6.135299
H        2.536794     0.285763     3.618601
H       -2.533742    -0.285420     3.608715
H       -2.154659    -0.242724     5.968918
C       -0.000279    -0.000039    -5.969126
C       -1.155022    -0.174374    -5.419265
C       -1.507085    -0.227529    -4.030572
As       0.000000     0.000000    -2.810000
C        1.598859     0.241385    -4.104899
C        1.293371     0.195266    -5.362466
H        0.006414     0.000977    -7.086445
H       -2.016017    -0.304355    -6.121284
H       -2.485751    -0.375277    -3.623213
H        2.525230     0.381246    -3.626455
H        2.152437     0.324968    -6.057498
67
ex_0129 frame3 OC-6-1-conf4
W        0.000000     0.000000     0.000000
C        5.969126     0.000255     0.000121
C        5.419265     1.060686     0.489313
C        4.030572     1.383997     0.638456
As       2.810000     0.000000     0.000000
C        4.104899    -1.468275    -0.677335
C        5.362466    -1.187739    -0.547918
H        7.086445    -0.005895    -0.002710
H        6.121284     1.851358     0.854066
H        3.623213     2.282730     1.053059
H        3.626455    -2.318989    -1.069776
H        6.057498    -1.976646    -0.911844
C       -5.969126    -0.000244     0.000141
C       -5.419265    -1.017704     0.573377
C       -4.030572    -1.327914     0.748144
As      -2.810000     0.000000     0.000000
C       -4.104899     1.408777    -0.793702
C       -5.362466     1.139609    -0.642051
H       -7.086445     0.005657    -0.003177
H       -6.121284    -1.776335     1.000794
H       -3.623213    -2.190228     1.233975
H       -3.626455     2.225018    -1.253566
H       -6.057498     1.896548    -1.068502
C       -0.000281     5.969126    -0.000011
C       -1.166716     5.419265    -0.057058
C       -1.522344     4.030572    -0.074454
As       0.000000     2.810000     0.000000
C        1.615047     4.104899     0.078988
C        1.306467     5.362466     0.063898
H        0.006480     7.086445     0.000326
H       -2.036428     6.121284    -0.099588
H       -2.510918     3.623213    -0.122799
H        2.550798     3.626455     0.124758
H        2.174231     6.057498     0.106345
C       -0.004187    -5.935939     0.002223
C       -1.050147    -5.413704     0.558720
C       -1.380892    -4.034697     0.734693
As       0.000000    -2.810000     0.000000
C        1.373444    -4.028091    -0.730730
C        1.125844    -5.299977    -0.598998
H        0.017519    -7.057119    -0.009334
H       -1.803188    -6.135299     0.959364
H       -2.253709    -3.618601     1.199074
H        2.250998    -3.608715    -1.197631
H        1.914221    -5.968918    -1.018443
C       -0.000281    -0.000019     5.969126
C       -1.166263    -0.065677     5.419265
C       -1.521753    -0.085692     4.030572
As       0.000000     0.000000     2.810000
C        1.614420     0.090910     4.104899
C        1.305960     0.073538     5.362466
H        0.006478     0.000356     7.086445
H       -2.035636    -0.114638     6.121284
H       -2.509943    -0.141342     3.623213
H        2.549808     0.143578     3.626455
H        2.173387     0.122378     6.057498
C       -0.000279    -0.000039    -5.969126
C       -1.155022    -0.174374    -5.419265
C       -1.507085    -0.227529    -4.030572
As       0.000000     0.000000    -2.810000
C        1.598859     0.241385    -4.104899
C        1.293371     0.195266    -5.362466
H        0.006414     0.000977    -7.086445
H       -2.016017    -0.304355    -6.121284
H       -2.485751    -0.375277    -3.623213
H        2.525230     0.381246    -3.626455
H        2.152437     0.324968    -6.057498
67
ex_0129 frame4 OC-6-1-conf5
W        0.000000     0.000000     0.000000
C        5.969126     0.000255     0.000121
C        5.419265     1.060686     0.489313
C        4.030572     1.383997     0.638456
As       2.810000     0.000000     0.000000
C        4.104899    -1.468275    -0.677335
C        5.362466    -1.187739    -0.547918
H        7.086445    -0.005895    -0.002710
H        6.121284     1.851358     0.854066
H        3.623213     2.282730     1.053059
H        3.626455    -2.318989    -1.069776
H        6.057498    -1.976646    -0.911844
C       -5.969126    -0.000244     0.000141
C       -5.419265    -1.017704     0.573377
C       -4.030572    -1.327914     0.748144
As      -2.810000     0.000000     0.000000
C       -4.104899     1.408777    -0.793702
C       -5.362466     1.139609    -0.642051
H       -7.086445     0.005657    -0.003177
H       -6.121284    -1.776335     1.000794
H       -3.623213    -2.190228     1.233975
H       -3.626455     2.225018    -1.253566
H       -6.057498     1.896548    -1.068502
C        0.004740     5.935939    -0.000073
C        1.189401     5.413704    -0.017395
C        1.564005     4.034697    -0.022871
As       0.000000     2.810000     0.000000
C       -1.555570     4.028091     0.022748
C       -1.275137     5.299977     0.018645
H       -0.019848     7.057119     0.000279
H        2.042297     6.135299    -0.029873
H        2.552566     3.618601    -0.037323
H       -2.549495     3.608715     0.037278
H       -2.168056     5.968918     0.031708
C        0.000214    -5.969126     0.000183
C        0.895835    -5.419265     0.749642
C        1.168898    -4.030572     0.978137
As       0.000000    -2.810000     0.000000
C       -1.240078    -4.104899    -1.037701
C       -1.003143    -5.362466    -0.839430
H       -0.004981    -7.086445    -0.004157
H        1.563619    -6.121284     1.308453
H        1.927949    -3.623213     1.613320
H       -1.958576    -3.626455    -1.638937
H       -1.669440    -6.057498    -1.396982
C       -0.000281    -0.000019     5.969126
C       -1.166263    -0.065677     5.419265
C       -1.521753    -0.085692     4.030572
As       0.000000     0.000000     2.810000
C        1.614420     0.090910     4.104899
C        1.305960     0.073538     5.362466
H        0.006478     0.000356     7.086445
H       -2.035636    -0.114638     6.121284
H       -2.509943    -0.141342     3.623213
H        2.549808     0.143578     3.626455
H        2.173387     0.122378     6.057498
C       -0.000279    -0.000039    -5.969126
C       -1.155022    -0.174374    -5.419265
C       -1.507085    -0.227529    -4.030572
As       0.000000     0.000000    -2.810000
C        1.598859     0.241385    -4.104899
C        1.293371     0.195266    -5.362466
H        0.006414     0.000977    -7.086445
H       -2.016017    -0.304355    -6.121284
H       -2.485751    -0.375277    -3.623213
H        2.525230     0.381246    -3.626455
H        2.152437     0.324968    -6.057498
67
ex_0129 frame5 OC-6-1-conf6
W        0.000000     0.000000     0.000000
C        5.969126     0.000255     0.000121
C        5.419265     1.060686     0.489313
C        4.030572     1.383997     0.638456
As       2.810000     0.000000     0.000000
C        4.104899    -1.468275    -0.677335
C        5.362466    -1.187739    -0.547918
H        7.086445    -0.005895    -0.002710
H        6.121284     1.851358     0.854066
H        3.623213     2.282730     1.053059
H        3.626455    -2.318989    -1.069776
H        6.057498    -1.976646    -0.911844
C       -5.935939     0.004126    -0.002334
C       -5.413704     1.035830    -0.584836
C       -4.034697     1.362068    -0.769029
As      -2.810000     0.000000     0.000000
C       -4.028091    -1.354722     0.764881
C       -5.299977    -1.110499     0.626990
H       -7.057119    -0.017291     0.009750
H       -6.135299     1.778602    -1.004213
H       -3.618601     2.222993    -1.255104
H       -3.608715    -2.220318     1.253594
H       -5.968918    -1.888125     1.066046
C       -0.000281     5.969126    -0.000011
C       -1.166716     5.419265    -0.057058
C       -1.522344     4.030572    -0.074454
As       0.000000     2.810000     0.000000
C        1.615047     4.104899     0.078988
C        1.306467     5.362466     0.063898
H        0.006480     7.086445     0.000326
H       -2.036428     6.121284    -0.099588
H       -2.510918     3.623213    -0.122799
H        2.550798     3.626455     0.124758
H        2.174231     6.057498     0.106345
C        0.000214    -5.969126     0.000183
C        0.895835    -5.419265     0.749642
C        1.168898    -4.030572     0.978137
As       0.000000    -2.810000     0.000000
C       -1.240078    -4.104899    -1.037701
C       -1.003143    -5.362466    -0.839430
H       -0.004981    -7.086445    -0.004157
H        1.563619    -6.121284     1.308453
H        1.927949    -3.623213     1.613320
H       -1.958576    -3.626455    -1.638937
H       -1.669440    -6.057498    -1.396982
C       -0.000281    -0.000019     5.969126
C       -1.166263    -0.065677     5.419265
C       -1.521753    -0.085692     4.030572
As       0.000000     0.000000     2.810000
C        1.614420     0.090910     4.104899
C        1.305960     0.073538     5.362466
H        0.006478     0.000356     7.086445
H       -2.035636    -0.114638     6.121284
H       -2.509943    -0.141342     3.623213
H        2.549808     0.143578     3.626455
H        2.173387     0.122378     6.057498
C       -0.000279    -0.000039    -5.969126
C       -1.155022    -0.174374    -5.419265
C       -1.507085    -0.227529    -4.030572
As       0.000000     0.000000    -2.810000
C        1.598859     0.241385    -4.104899
C        1.293371     0.195266    -5.362466
H        0.006414     0.000977    -7.086445
H       -2.016017    -0.304355    -6.121284
H       -2.485751    -0.375277    -3.623213
H        2.525230     0.381246    -3.626455
H        2.152437     0.324968    -6.057498
67
ex_0129 frame6 OC-6-1-conf7
W        0.000000     0.000000     0.000000
C        5.935939    -0.004002    -0.002541
C        5.413704    -1.004675    -0.636871
C        4.034697    -1.321101    -0.837453
As       2.810000     0.000000     0.000000
C        4.028091     1.313976     0.832936
C        5.299977     1.077098     0.682776
H        7.057119     0.016772     0.010618
H        6.135299    -1.725106    -1.093562
H        3.618601    -2.156132    -1.366777
H        3.608715     2.153538     1.365133
H        5.968918     1.831336     1.160896
C       -5.969126    -0.000244     0.000141
C       -5.419265    -1.017704     0.573377
C       -4.030572    -1.327914     0.748144
As      -2.810000     0.000000     0.000000
C       -4.104899     1.408777    -0.793702
C       -5.362466     1.139609    -0.642051
H       -7.086445     0.005657    -0.003177
H       -6.121284    -1.776335     1.000794
H       -3.623213    -2.190228     1.233975
H       -3.626455     2.225018    -1.253566
H       -6.057498     1.896548    -1.068502
C       -0.000281     5.969126    -0.000011
C       -1.166716     5.419265    -0.057058
C       -1.522344     4.030572    -0.074454
As       0.000000     2.810000     0.000000
C        1.615047     4.104899     0.078988
C        1.306467     5.362466     0.063898
H        0.006480     7.086445     0.000326
H       -2.036428     6.121284    -0.099588
H       -2.510918     3.623213    -0.122799
H        2.550798     3.626455     0.124758
H        2.174231     6.057498     0.106345
C        0.000214    -5.969126     0.000183
C        0.895835    -5.419265     0.749642
C        1.168898    -4.030572     0.978137
As       0.000000    -2.810000     0.000000
C       -1.240078    -4.104899    -1.037701
C       -1.003143    -5.362466    -0.839430
H       -0.004981    -7.086445    -0.004157
H        1.563619    -6.121284     1.308453
H        1.927949    -3.623213     1.613320
H       -1.958576    -3.626455    -1.638937
H       -1.669440    -6.057498    -1.396982
C       -0.000281    -0.000019     5.969126
C       -1.166263    -0.065677     5.419265
C       -1.521753    -0.085692     4.030572
As       0.000000     0.000000     2.810000
C        1.614420     0.090910     4.104899
C        1.305960     0.073538     5.362466
H        0.006478     0.000356     7.086445
H       -2.035636    -0.114638     6.121284
H       -2.509943    -0.141342     3.623213
H        2.549808     0.143578     3.626455
H        2.173387     0.122378     6.057498
C       -0.000279    -0.000039    -5.969126
C       -1.155022    -0.174374    -5.419265
C       -1.507085    -0.227529    -4.030572
As       0.000000     0.000000    -2.810000
C        1.598859     0.241385    -4.104899
C        1.293371     0.195266    -5.362466
H        0.006414     0.000977    -7.086445
H       -2.016017    -0.304355    -6.121284
H       -2.485751    -0.375277    -3.623213
H        2.525230     0.381246    -3.626455
H        2.152437     0.324968    -6.057498
67
ex_0129 frame7 OC-6-1-conf8
W        0.000000     0.000000     0.000000
C        5.969126     0.000255     0.000121
C        5.419265     1.060686     0.489313
C        4.030572     1.383997     0.638456
As       2.810000     0.000000     0.000000
C        4.104899    -1.468275    -0.677335
C        5.362466    -1.187739    -0.547918
H        7.086445    -0.005895    -0.002710
H        6.121284     1.851358     0.854066
H        3.623213     2.282730     1.053059
H        3.626455    -2.318989    -1.069776
H        6.057498    -1.976646    -0.911844
C       -5.969126    -0.000244     0.000141
C       -5.419265    -1.017704     0.573377
C       -4.030572    -1.327914     0.748144
As      -2.810000     0.000000     0.000000
C       -4.104899     1.408777    -0.793702
C       -5.362466     1.139609    -0.642051
H       -7.086445     0.005657    -0.003177
H       -6.121284    -1.776335     1.000794
H       -3.623213    -2.190228     1.233975
H       -3.626455     2.225018    -1.253566
H       -6.057498     1.896548    -1.068502
C       -0.000281     5.969126    -0.000011
C       -1.166716     5.419265    -0.057058
C       -1.522344     4.030572    -0.074454
As       0.000000     2.810000     0.000000
C        1.615047     4.104899     0.078988
C        1.306467     5.362466     0.063898
H        0.006480     7.086445     0.000326
H       -2.036428     6.121284    -0.099588
H       -2.510918     3.623213    -0.122799
H        2.550798     3.626455     0.124758
H        2.174231     6.057498     0.106345
C        0.000214    -5.969126     0.000183
C        0.895835    -5.419265     0.749642
C        1.168898    -4.030572     0.978137
As       0.000000    -2.810000     0.000000
C       -1.240078    -4.104899    -1.037701
C       -1.003143    -5.362466    -0.839430
H       -0.004981    -7.086445    -0.004157
H        1.563619    -6.121284     1.308453
H        1.927949    -3.623213     1.613320
H       -1.958576    -3.626455    -1.638937
H       -1.669440    -6.057498    -1.396982
C        0.004710     0.000534     5.935939
C        1.182051     0.133159     5.413704
C        1.554341     0.175096     4.034697
As       0.000000     0.000000     2.810000
C       -1.545958    -0.174151     4.028091
C       -1.267259    -0.142754     5.299977
H       -0.019727    -0.002211     7.057119
H        2.029677     0.228649     6.135299
H        2.536794     0.285763     3.618601
H       -2.533742    -0.285420     3.608715
H       -2.154659    -0.242724     5.968918
C        0.004724     0.000401    -5.935939
C        1.185189     0.101508    -5.413704
C        1.558467     0.133481    -4.034697
As       0.000000     0.000000    -2.810000
C       -1.550061    -0.132761    -4.028091
C       -1.270622    -0.108829    -5.299977
H       -0.019777    -0.001705    -7.057119
H        2.035065     0.174294    -6.135299
H        2.543526     0.217855    -3.618601
H       -2.540466    -0.217593    -3.608715
H       -2.160378    -0.185031    -5.968918
67
ex_0129 frame8 OC-6-1-conf9
W        0.000000     0.000000     0.000000
C        5.969126     0.000255     0.000121
C        5.419265     1.060686     0.489313
C        4.030572     1.383997     0.638456
As       2.810000     0.000000     0.000000
C        4.104899    -1.468275    -0.677335
C        5.362466    -1.187739    -0.547918
H        7.086445    -0.005895    -0.002710
H        6.121284     1.851358     0.854066
H        3.623213     2.282730     1.053059
H        3.626455    -2.318989    -1.069776
H        6.057498    -1.976646    -0.911844
C       -5.969126    -0.000244     0.000141
C       -5.419265    -1.017704     0.573377
C       -4.030572    -1.327914     0.748144
As      -2.810000     0.000000     0.000000
C       -4.104899     1.408777    -0.793702
C       -5.362466     1.139609    -0.642051
H       -7.086445     0.005657    -0.003177
H       -6.121284    -1.776335     1.000794
H       -3.623213    -2.190228     1.233975
H       -3.626455     2.225018    -1.253566
H       -6.057498     1.896548    -1.068502
C       -0.000281     5.969126    -0.000011
C       -1.166716     5.419265    -0.057058
C       -1.522344     4.030572    -0.074454
As       0.000000     2.810000     0.000000
C        1.615047     4.104899     0.078988
C        1.306467     5.362466     0.063898
H        0.006480     7.086445     0.000326
H       -2.036428     6.121284    -0.099588
H       -2.510918     3.623213    -0.122799
H        2.550798     3.626455     0.124758
H        2.174231     6.057498     0.106345
C       -0.004187    -5.935939     0.002223
C       -1.050147    -5.413704     0.558720
C       -1.380892    -4.034697     0.734693
As       0.000000    -2.810000     0.000000
C        1.373444    -4.028091    -0.730730
C        1.125844    -5.299977    -0.598998
H        0.017519    -7.057119    -0.009334
H       -1.803188    -6.135299     0.959364
H       -2.253709    -3.618601     1.199074
H        2.250998    -3.608715    -1.197631
H        1.914221    -5.968918    -1.018443
C       -0.000281    -0.000019     5.969126
C       -1.166263    -0.065677     5.419265
C       -1.521753    -0.085692     4.030572
As       0.000000     0.000000     2.810000
C        1.614420     0.090910     4.104899
C        1.305960     0.073538     5.362466
H        0.006478     0.000356     7.086445
H       -2.035636    -0.114638     6.121284
H       -2.509943    -0.141342     3.623213
H        2.549808     0.143578     3.626455
H        2.173387     0.122378     6.057498
C        0.004724     0.000401    -5.935939
C        1.185189     0.101508    -5.413704
C        1.558467     0.133481    -4.034697
As       0.000000     0.000000    -2.810000
C       -1.550061    -0.132761    -4.028091
C       -1.270622    -0.108829    -5.299977
H       -0.019777    -0.001705    -7.057119
H        2.035065     0.174294    -6.135299
H        2.543526     0.217855    -3.618601
H       -2.540466    -0.217593    -3.608715
H       -2.160378    -0.185031    -5.968918
67
ex_0129 frame9 OC-6-1-conf10
W        0.000000     0.000000     0.000000
C        5.969126     0.000255     0.000121
C        5.419265     1.060686     0.489313
C        4.030572     1.383997     0.638456
As       2.810000     0.000000     0.000000
C        4.104899    -1.468275    -0.677335
C        5.362466    -1.187739    -0.547918
H        7.086445    -0.005895    -0.002710
H        6.121284     1.851358     0.854066
H        3.623213     2.282730     1.053059
H        3.626455    -2.318989    -1.069776
H        6.057498    -1.976646    -0.911844
C       -5.969126    -0.000244     0.000141
C       -5.419265    -1.017704     0.573377
C       -4.030572    -1.327914     0.748144
As      -2.810000     0.000000     0.000000
C       -4.104899     1.408777    -0.793702
C       -5.362466     1.139609    -0.642051
H       -7.086445     0.005657    -0.003177
H       -6.121284    -1.776335     1.000794
H       -3.623213    -2.190228     1.233975
H       -3.626455     2.225018    -1.253566
H       -6.057498     1.896548    -1.068502
C       -0.000281     5.969126    -0.000011
C       -1.166716     5.419265    -0.057058
C       -1.522344     4.030572    -0.074454
As       0.000000     2.810000     0.000000
C        1.615047     4.104899     0.078988
C        1.306467     5.362466     0.063898
H        0.006480     7.086445     0.000326
H       -2.036428     6.121284    -0.099588
H       -2.510918     3.623213    -0.122799
H        2.550798     3.626455     0.124758
H        2.174231     6.057498     0.106345
C       -0.004187    -5.935939     0.002223
C       -1.050147    -5.413704     0.558720
C       -1.380892    -4.034697     0.734693
As       0.000000    -2.810000     0.000000
C        1.373444    -4.028091    -0.730730
C        1.125844    -5.299977    -0.598998
H        0.017519    -7.057119    -0.009334
H       -1.803188    -6.135299     0.959364
H       -2.253709    -3.618601     1.199074
H        2.250998    -3.608715    -1.197631
H        1.914221    -5.968918    -1.018443
C        0.004710     0.000534     5.935939
C        1.182051     0.133159     5.413704
C        1.554341     0.175096     4.034697
As       0.000000     0.000000     2.810000
C       -1.545958    -0.174151     4.028091
C       -1.267259    -0.142754     5.299977
H       -0.019727    -0.002211     7.057119
H        2.029677     0.228649     6.135299
H        2.536794     0.285763     3.618601
H       -2.533742    -0.285420     3.608715
H       -2.154659    -0.242724     5.968918
C       -0.000279    -0.000039    -5.969126
C       -1.155022    -0.174374    -5.419265
C       -1.507085    -0.227529    -4.030572
As       0.000000     0.000000    -2.810000
C        1.598859     0.241385    -4.104899
C        1.293371     0.195266    -5.362466
H        0.006414     0.000977    -7.086445
H       -2.016017    -0.304355    -6.121284
H       -2.485751    -0.375277    -3.623213
H        2.525230     0.381246    -3.626455
H        2.152437     0.324968    -6.057498
67
ex_0129 frame10 OC-6-1-reembed1
W        0.000000     0.000000     0.000000
C        5.977626    -0.013813     0.052816
C        5.492414     0.292826    -1.119746
C        4.116942     0.393907    -1.506266
As       2.810000     0.000000     0.000000
C        4.022330    -0.393907     1.506266
C        5.299223    -0.331333     1.266989
H        7.093515    -0.026791     0.102434
H        6.228186     0.505010    -1.931111
H        3.699627     0.640030    -2.447444
H        3.601345    -0.645616     2.468768
H        5.945091    -0.561907     2.148603
C       -5.977626     0.046763    -0.028170
C       -5.492414    -0.991423     0.597209
C       -4.116942    -1.333647     0.803358
As      -2.810000     0.000000     0.000000
C       -4.022330     1.333647    -0.803358
C       -5.299223     1.121792    -0.675741
H       -7.093515     0.090694    -0.054636
H       -6.228186    -1.709805     1.029948
H       -3.699627    -2.166967     1.305324
H       -3.601345     2.185845    -1.316706
H       -5.945091     1.902366    -1.145966
C        0.054153     5.977626     0.006916
C       -1.148075     5.492414    -0.146637
C       -1.544374     4.116942    -0.197253
As       0.000000     2.810000     0.000000
C        1.544374     4.022330     0.197253
C        1.299043     5.299223     0.165919
H        0.105027     7.093515     0.013411
H       -1.979968     6.228186    -0.252889
H       -2.509361     3.699627    -0.320512
H        2.531228     3.601345     0.323295
H        2.202970     5.945091     0.281351
C        0.012197    -5.977626    -0.053213
C       -0.258566    -5.492414     1.128150
C       -0.347820    -4.116942     1.517570
As       0.000000    -2.810000     0.000000
C        0.347820    -4.022330    -1.517570
C        0.292567    -5.299223    -1.276498
H        0.023657    -7.093515    -0.103203
H       -0.445924    -6.228186     1.945605
H       -0.565146    -3.699627     2.465812
H        0.570080    -3.601345    -2.487296
H        0.496167    -5.945091    -2.164729
C        0.032104     0.044156     5.977626
C       -0.680632    -0.936118     5.492414
C       -0.915575    -1.259254     4.116942
As       0.000000     0.000000     2.810000
C        0.915575     1.259254     4.022330
C        0.770132     1.059216     5.299223
H        0.062262     0.085639     7.093515
H       -1.173815    -1.614430     6.228186
H       -1.487670    -2.046084     3.699627
H        1.500625     2.063918     3.601345
H        1.306003     1.796271     5.945091
C        0.046276     0.028963    -5.977626
C       -0.981082    -0.614049    -5.492414
C       -1.319738    -0.826009    -4.116942
As       0.000000     0.000000    -2.810000
C        1.319738     0.826009    -4.022330
C        1.110092     0.694794    -5.299223
H        0.089752     0.056171    -7.093515
H       -1.691973    -1.058986    -6.228186
H       -2.144361    -1.342138    -3.699627
H        2.163051     1.353825    -3.601345
H        1.882547     1.178240    -5.945091
67
ex_0129 frame11 OC-6-1-reembed2
W        0.000000     0.000000     0.000000
C        5.977626     0.052647    -0.014446
C        5.492414    -1.116141     0.306278
C        4.116942    -1.501418     0.411999
As       2.810000     0.000000     0.000000
C        4.022330     1.501418    -0.411999
C        5.299223     1.262911    -0.346552
H        7.093515     0.102106    -0.028015
H        6.228186    -1.924896     0.528205
H        3.699627    -2.439563     0.669440
H        3.601345     2.460823    -0.675264
H        5.945091     2.141698    -0.587676
C       -5.977626     0.046763    -0.028170
C       -5.492414    -0.991423     0.597209
C       -4.116942    -1.333647     0.803358
As      -2.810000     0.000000     0.000000
C       -4.022330     1.333647    -0.803358
C       -5.299223     1.121792    -0.675741
H       -7.093515     0.090694    -0.054636
H       -6.228186    -1.709805     1.029948
H       -3.699627    -2.166967     1.305324
H       -3.601345     2.185845    -1.316706
H       -5.945091     1.902366    -1.145966
C        0.054153     5.977626     0.006916
C       -1.148075     5.492414    -0.146637
C       -1.544374     4.116942    -0.197253
As       0.000000     2.810000     0.000000
C        1.544374     4.022330     0.197253
C        1.299043     5.299223     0.165919
H        0.105027     7.093515     0.013411
H       -1.979968     6.228186    -0.252889
H       -2.509361     3.699627    -0.320512
H        2.531228     3.601345     0.323295
H        2.202970     5.945091     0.281351
C        0.012197    -5.977626    -0.053213
C       -0.258566    -5.492414     1.128150
C       -0.347820    -4.116942     1.517570
As       0.000000    -2.810000     0.000000
C        0.347820    -4.022330    -1.517570
C        0.292567    -5.299223    -1.276498
H        0.023657    -7.093515    -0.103203
H       -0.445924    -6.228186     1.945605
H       -0.565146    -3.699627     2.465812
H        0.570080    -3.601345    -2.487296
H        0.496167    -5.945091    -2.164729
C        0.032104     0.044156     5.977626
C       -0.680632    -0.936118     5.492414
C       -0.915575    -1.259254     4.116942
As       0.000000     0.000000     2.810000
C        0.915575     1.259254     4.022330
C        0.770132     1.059216     5.299223
H        0.062262     0.085639     7.093515
H       -1.173815    -1.614430     6.228186
H       -1.487670    -2.046084     3.699627
H        1.500625     2.063918     3.601345
H        1.306003     1.796271     5.945091
C        0.046276     0.028963    -5.977626
C       -0.981082    -0.614049    -5.492414
C       -1.319738    -0.826009    -4.116942
As       0.000000     0.000000    -2.810000
C        1.319738     0.826009    -4.022330
C        1.110092     0.694794    -5.299223
H        0.089752     0.056171    -7.093515
H       -1.691973    -1.058986    -6.228186
H       -2.144361    -1.342138    -3.699627
H        2.163051     1.353825    -3.601345
H        1.882547     1.178240    -5.945091
67
ex_0129 frame12 OC-6-1-reembed3
W        0.000000     0.000000     0.000000
C        5.977626    -0.038834    -0.038370
C        5.492414     0.823315     0.813468
C        4.116942     1.107511     1.094266
As       2.810000     0.000000     0.000000
C        4.022330    -1.107511    -1.094266
C        5.299223    -0.931578    -0.920437
H        7.093515    -0.075315    -0.074419
H        6.228186     1.419887     1.402907
H        3.699627     1.799533     1.778004
H        3.601345    -1.815208    -1.793504
H        5.945091    -1.579791    -1.560927
C       -5.977626     0.046763    -0.028170
C       -5.492414    -0.991423     0.597209
C       -4.116942    -1.333647     0.803358
As      -2.810000     0.000000     0.000000
C       -4.022330     1.333647    -0.803358
C       -5.299223     1.121792    -0.675741
H       -7.093515     0.090694    -0.054636
H       -6.228186    -1.709805     1.029948
H       -3.699627    -2.166967     1.305324
H       -3.601345     2.185845    -1.316706
H       -5.945091     1.902366    -1.145966
C        0.054153     5.977626     0.006916
C       -1.148075     5.492414    -0.146637
C       -1.544374     4.116942    -0.197253
As       0.000000     2.810000     0.000000
C        1.544374     4.022330     0.197253
C        1.299043     5.299223     0.165919
H        0.105027     7.093515     0.013411
H       -1.979968     6.228186    -0.252889
H       -2.509361     3.699627    -0.320512
H        2.531228     3.601345     0.323295
H        2.202970     5.945091     0.281351
C        0.012197    -5.977626    -0.053213
C       -0.258566    -5.492414     1.128150
C       -0.347820    -4.116942     1.517570
As       0.000000    -2.810000     0.000000
C        0.347820    -4.022330    -1.517570
C        0.292567    -5.299223    -1.276498
H        0.023657    -7.093515    -0.103203
H       -0.445924    -6.228186     1.945605
H       -0.565146    -3.699627     2.465812
H        0.570080    -3.601345    -2.487296
H        0.496167    -5.945091    -2.164729
C        0.032104     0.044156     5.977626
C       -0.680632    -0.936118     5.492414
C       -0.915575    -1.259254     4.116942
As       0.000000     0.000000     2.810000
C        0.915575     1.259254     4.022330
C        0.770132     1.059216     5.299223
H        0.062262     0.085639     7.093515
H       -1.173815    -1.614430     6.228186
H       -1.487670    -2.046084     3.699627
H        1.500625     2.063918     3.601345
H        1.306003     1.796271     5.945091
C        0.046276     0.028963    -5.977626
C       -0.981082    -0.614049    -5.492414
C       -1.319738    -0.826009    -4.116942
As       0.000000     0.000000    -2.810000
C        1.319738     0.826009    -4.022330
C        1.110092     0.694794    -5.299223
H        0.089752     0.056171    -7.093515
H       -1.691973    -1.058986    -6.228186
H       -2.144361    -1.342138    -3.699627
H        2.163051     1.353825    -3.601345
H        1.882547     1.178240    -5.945091
67
ex_0129 frame13 OC-6-1-reembed4
W        0.000000     0.000000     0.000000
C        5.977626    -0.013813     0.052816
C        5.492414     0.292826    -1.119746
C        4.116942     0.393907    -1.506266
As       2.810000     0.000000     0.000000
C        4.022330    -0.393907     1.506266
C        5.299223    -0.331333     1.266989
H        7.093515    -0.026791     0.102434
H        6.228186     0.505010    -1.931111
H        3.699627     0.640030    -2.447444
H        3.601345    -0.645616     2.468768
H        5.945091    -0.561907     2.148603
C       -5.977626     0.001014     0.054583
C       -5.492414    -0.021487    -1.157202
C       -4.116942    -0.028905    -1.556651
As      -2.810000     0.000000     0.000000
C       -4.022330     0.028905     1.556651
C       -5.299223     0.024313     1.309371
H       -7.093515     0.001969     0.105861
H       -6.228186    -0.037058    -1.995709
H       -3.699627    -0.046960    -2.529311
H       -3.601345     0.047378     2.551350
H       -5.945091     0.041252     2.220480
C        0.054153     5.977626     0.006916
C       -1.148075     5.492414    -0.146637
C       -1.544374     4.116942    -0.197253
As       0.000000     2.810000     0.000000
C        1.544374     4.022330     0.197253
C        1.299043     5.299223     0.165919
H        0.105027     7.093515     0.013411
H       -1.979968     6.228186    -0.252889
H       -2.509361     3.699627    -0.320512
H        2.531228     3.601345     0.323295
H        2.202970     5.945091     0.281351
C        0.012197    -5.977626    -0.053213
C       -0.258566    -5.492414     1.128150
C       -0.347820    -4.116942     1.517570
As       0.000000    -2.810000     0.000000
C        0.347820    -4.022330    -1.517570
C        0.292567    -5.299223    -1.276498
H        0.023657    -7.093515    -0.103203
H       -0.445924    -6.228186     1.945605
H       -0.565146    -3.699627     2.465812
H        0.570080    -3.601345    -2.487296
H        0.496167    -5.945091    -2.164729
C        0.032104     0.044156     5.977626
C       -0.680632    -0.936118     5.492414
C       -0.915575    -1.259254     4.116942
As       0.000000     0.000000     2.810000
C        0.915575     1.259254     4.022330
C        0.770132     1.059216     5.299223
H        0.062262     0.085639     7.093515
H       -1.173815    -1.614430     6.228186
H       -1.487670    -2.046084     3.699627
H        1.500625     2.063918     3.601345
H        1.306003     1.796271     5.945091
C        0.046276     0.028963    -5.977626
C       -0.981082    -0.614049    -5.492414
C       -1.319738    -0.826009    -4.116942
As       0.000000     0.000000    -2.810000
C        1.319738     0.826009    -4.022330
C        1.110092     0.694794    -5.299223
H        0.089752     0.056171    -7.093515
H       -1.691973    -1.058986    -6.228186
H       -2.144361    -1.342138    -3.699627
H        2.163051     1.353825    -3.601345
H        1.882547     1.178240    -5.945091
67
ex_0129 frame14 OC-6-1-reembed5
W        0.000000     0.000000     0.000000
C        5.977626    -0.013813     0.052816
C        5.492414     0.292826    -1.119746
C        4.116942     0.393907    -1.506266
As       2.810000     0.000000     0.000000
C        4.022330    -0.393907     1.506266
C        5.299223    -0.331333     1.266989
H        7.093515    -0.026791     0.102434
H        6.228186     0.505010    -1.931111
H        3.699627     0.640030    -2.447444
H        3.601345    -0.645616     2.468768
H        5.945091    -0.561907     2.148603
C       -5.977626    -0.047778    -0.026413
C       -5.492414     1.012910     0.559993
C       -4.116942     1.362552     0.753293
As      -2.810000     0.000000     0.000000
C       -4.022330    -1.362552    -0.753293
C       -5.299223    -1.146105    -0.633629
H       -7.093515    -0.092663    -0.051225
H       -6.228186     1.746863     0.965761
H       -3.699627     2.213928     1.223987
H       -3.601345    -2.233224    -1.234644
H       -5.945091    -1.943618    -1.074515
C        0.054153     5.977626     0.006916
C       -1.148075     5.492414    -0.146637
C       -1.544374     4.116942    -0.197253
As       0.000000     2.810000     0.000000
C        1.544374     4.022330     0.197253
C        1.299043     5.299223     0.165919
H        0.105027     7.093515     0.013411
H       -1.979968     6.228186    -0.252889
H       -2.509361     3.699627    -0.320512
H        2.531228     3.601345     0.323295
H        2.202970     5.945091     0.281351
C        0.012197    -5.977626    -0.053213
C       -0.258566    -5.492414     1.128150
C       -0.347820    -4.116942     1.517570
As       0.000000    -2.810000     0.000000
C        0.347820    -4.022330    -1.517570
C        0.292567    -5.299223    -1.276498
H        0.023657    -7.093515    -0.103203
H       -0.445924    -6.228186     1.945605
H       -0.565146    -3.699627     2.465812
H        0.570080    -3.601345    -2.487296
H        0.496167    -5.945091    -2.164729
C        0.032104     0.044156     5.977626
C       -0.680632    -0.936118     5.492414
C       -0.915575    -1.259254     4.116942
As       0.000000     0.000000     2.810000
C        0.915575     1.259254     4.022330
C        0.770132     1.059216     5.299223
H        0.062262     0.085639     7.093515
H       -1.173815    -1.614430     6.228186
H       -1.487670    -2.046084     3.699627
H        1.500625     2.063918     3.601345
H        1.306003     1.796271     5.945091
C        0.046276     0.028963    -5.977626
C       -0.981082    -0.614049    -5.492414
C       -1.319738    -0.826009    -4.116942
As       0.000000     0.000000    -2.810000
C        1.319738     0.826009    -4.022330
C        1.110092     0.694794    -5.299223
H        0.089752     0.056171    -7.093515
H       -1.691973    -1.058986    -6.228186
H       -2.144361    -1.342138    -3.699627
H        2.163051     1.353825    -3.601345
H        1.882547     1.178240    -5.945091
67
ex_0129 frame15 OC-6-1-reembed6
W        0.000000     0.000000     0.000000
C        5.977626    -0.013813     0.052816
C        5.492414     0.292826    -1.119746
C        4.116942     0.393907    -1.506266
As       2.810000     0.000000     0.000000
C        4.022330    -0.393907     1.506266
C        5.299223    -0.331333     1.266989
H        7.093515    -0.026791     0.102434
H        6.228186     0.505010    -1.931111
H        3.699627     0.640030    -2.447444
H        3.601345    -0.645616     2.468768
H        5.945091    -0.561907     2.148603
C       -5.977626     0.046763    -0.028170
C       -5.492414    -0.991423     0.597209
C       -4.116942    -1.333647     0.803358
As      -2.810000     0.000000     0.000000
C       -4.022330     1.333647    -0.803358
C       -5.299223     1.121792    -0.675741
H       -7.093515     0.090694    -0.054636
H       -6.228186    -1.709805     1.029948
H       -3.699627    -2.166967     1.305324
H       -3.601345     2.185845    -1.316706
H       -5.945091     1.902366    -1.145966
C       -0.033066     5.977626     0.043440
C        0.701029     5.492414    -0.920943
C        0.943013     4.116942    -1.238840
As       0.000000     2.810000     0.000000
C       -0.943013     4.022330     1.238840
C       -0.793212     5.299223     1.042045
H       -0.064128     7.093515     0.084251
H        1.208992     6.228186    -1.588258
H        1.532252     3.699627    -2.012914
H       -1.545596     3.601345     2.030460
H       -1.345142     5.945091     1.767152
C        0.012197    -5.977626    -0.053213
C       -0.258566    -5.492414     1.128150
C       -0.347820    -4.116942     1.517570
As       0.000000    -2.810000     0.000000
C        0.347820    -4.022330    -1.517570
C        0.292567    -5.299223    -1.276498
H        0.023657    -7.093515    -0.103203
H       -0.445924    -6.228186     1.945605
H       -0.565146    -3.699627     2.465812
H        0.570080    -3.601345    -2.487296
H        0.496167    -5.945091    -2.164729
C        0.032104     0.044156     5.977626
C       -0.680632    -0.936118     5.492414
C       -0.915575    -1.259254     4.116942
As       0.000000     0.000000     2.810000
C        0.915575     1.259254     4.022330
C        0.770132     1.059216     5.299223
H        0.062262     0.085639     7.093515
H       -1.173815    -1.614430     6.228186
H       -1.487670    -2.046084     3.699627
H        1.500625     2.063918     3.601345
H        1.306003     1.796271     5.945091
C        0.046276     0.028963    -5.977626
C       -0.981082    -0.614049    -5.492414
C       -1.319738    -0.826009    -4.116942
As       0.000000     0.000000    -2.810000
C        1.319738     0.826009    -4.022330
C        1.110092     0.694794    -5.299223
H        0.089752     0.056171    -7.093515
H       -1.691973    -1.058986    -6.228186
H       -2.144361    -1.342138    -3.699627
H        2.163051     1.353825    -3.601345
H        1.882547     1.178240    -5.945091
67
ex_0129 frame16 OC-6-1-reembed7
W        0.000000     0.000000     0.000000
C        5.977626    -0.013813     0.052816
C        5.492414     0.292826    -1.119746
C        4.116942     0.393907    -1.506266
As       2.810000     0.000000     0.000000
C        4.022330    -0.393907     1.506266
C        5.299223    -0.331333     1.266989
H        7.093515    -0.026791     0.102434
H        6.228186     0.505010    -1.931111
H        3.699627     0.640030    -2.447444
H        3.601345    -0.645616     2.468768
H        5.945091    -0.561907     2.148603
C       -5.977626     0.046763    -0.028170
C       -5.492414    -0.991423     0.597209
C       -4.116942    -1.333647     0.803358
As      -2.810000     0.000000     0.000000
C       -4.022330     1.333647    -0.803358
C       -5.299223     1.121792    -0.675741
H       -7.093515     0.090694    -0.054636
H       -6.228186    -1.709805     1.029948
H       -3.699627    -2.166967     1.305324
H       -3.601345     2.185845    -1.316706
H       -5.945091     1.902366    -1.145966
C       -0.021087     5.977626    -0.050356
C        0.447045     5.492414     1.067580
C        0.601360     4.116942     1.436093
As       0.000000     2.810000     0.000000
C       -0.601360     4.022330    -1.436093
C       -0.505832     5.299223    -1.207964
H       -0.040899     7.093515    -0.097662
H        0.770976     6.228186     1.841147
H        0.977109     3.699627     2.333426
H       -0.985632     3.601345    -2.353755
H       -0.857827     5.945091    -2.048503
C        0.012197    -5.977626    -0.053213
C       -0.258566    -5.492414     1.128150
C       -0.347820    -4.116942     1.517570
As       0.000000    -2.810000     0.000000
C        0.347820    -4.022330    -1.517570
C        0.292567    -5.299223    -1.276498
H        0.023657    -7.093515    -0.103203
H       -0.445924    -6.228186     1.945605
H       -0.565146    -3.699627     2.465812
H        0.570080    -3.601345    -2.487296
H        0.496167    -5.945091    -2.164729
C        0.032104     0.044156     5.977626
C       -0.680632    -0.936118     5.492414
C       -0.915575    -1.259254     4.116942
As       0.000000     0.000000     2.810000
C        0.915575     1.259254     4.022330
C        0.770132     1.059216     5.299223
H        0.062262     0.085639     7.093515
H       -1.173815    -1.614430     6.228186
H       -1.487670    -2.046084     3.699627
H        1.500625     2.063918     3.601345
H        1.306003     1.796271     5.945091
C        0.046276     0.028963    -5.977626
C       -0.981082    -0.614049    -5.492414
C       -1.319738    -0.826009    -4.116942
As       0.000000     0.000000    -2.810000
C        1.319738     0.826009    -4.022330
C        1.110092     0.694794    -5.299223
H        0.089752     0.056171    -7.093515
H       -1.691973    -1.058986    -6.228186
H       -2.144361    -1.342138    -3.699627
H        2.163051     1.353825    -3.601345
H        1.882547     1.178240    -5.945091
67
ex_0129 frame17 OC-6-1-reembed8
W        0.000000     0.000000     0.000000
C        5.977626    -0.013813     0.052816
C        5.492414     0.292826    -1.119746
C        4.116942     0.393907    -1.506266
As       2.810000     0.000000     0.000000
C        4.022330    -0.393907     1.506266
C        5.299223    -0.331333     1.266989
H        7.093515    -0.026791     0.102434
H        6.228186     0.505010    -1.931111
H        3.699627     0.640030    -2.447444
H        3.601345    -0.645616     2.468768
H        5.945091    -0.561907     2.148603
C       -5.977626     0.046763    -0.028170
C       -5.492414    -0.991423     0.597209
C       -4.116942    -1.333647     0.803358
As      -2.810000     0.000000     0.000000
C       -4.022330     1.333647    -0.803358
C       -5.299223     1.121792    -0.675741
H       -7.093515     0.090694    -0.054636
H       -6.228186    -1.709805     1.029948
H       -3.699627    -2.166967     1.305324
H       -3.601345     2.185845    -1.316706
H       -5.945091     1.902366    -1.145966
C        0.054153     5.977626     0.006916
C       -1.148075     5.492414    -0.146637
C       -1.544374     4.116942    -0.197253
As       0.000000     2.810000     0.000000
C        1.544374     4.022330     0.197253
C        1.299043     5.299223     0.165919
H        0.105027     7.093515     0.013411
H       -1.979968     6.228186    -0.252889
H       -2.509361     3.699627    -0.320512
H        2.531228     3.601345     0.323295
H        2.202970     5.945091     0.281351
C       -0.052182    -5.977626     0.016044
C        1.106289    -5.492414    -0.340150
C        1.488164    -4.116942    -0.457564
As       0.000000    -2.810000     0.000000
C       -1.488164    -4.022330     0.457564
C       -1.251763    -5.299223     0.384878
H       -0.101205    -7.093515     0.031114
H        1.907905    -6.228186    -0.586621
H        2.418029    -3.699627    -0.743475
H       -2.439102    -3.601345     0.749945
H       -2.122794    -5.945091     0.652672
C        0.032104     0.044156     5.977626
C       -0.680632    -0.936118     5.492414
C       -0.915575    -1.259254     4.116942
As       0.000000     0.000000     2.810000
C        0.915575     1.259254     4.022330
C        0.770132     1.059216     5.299223
H        0.062262     0.085639     7.093515
H       -1.173815    -1.614430     6.228186
H       -1.487670    -2.046084     3.699627
H        1.500625     2.063918     3.601345
H        1.306003     1.796271     5.945091
C        0.046276     0.028963    -5.977626
C       -0.981082    -0.614049    -5.492414
C       -1.319738    -0.826009    -4.116942
As       0.000000     0.000000    -2.810000
C        1.319738     0.826009    -4.022330
C        1.110092     0.694794    -5.299223
H        0.089752     0.056171    -7.093515
H       -1.691973    -1.058986    -6.228186
H       -2.144361    -1.342138    -3.699627
H        2.163051     1.353825    -3.601345
H        1.882547     1.178240    -5.945091
67
ex_0129 frame18 TPR-6-1
W        0.000000     0.000000     0.000000
C        4.889937    -0.000021     3.423299
C        3.771218    -0.076842     4.062625
C        2.429816    -0.100260     3.557320
As       2.302042     0.000000     1.611429
C        4.288132     0.106365     1.032195
C        5.141584     0.086040     2.005915
H        5.809154     0.000418     4.058505
H        3.848074    -0.134126     5.177008
H        1.529736    -0.165371     4.132799
H        4.432271     0.167989    -0.008026
H        6.208122     0.143185     1.694280
C       -2.445303     4.234833     3.423031
C       -3.274048     3.369629     2.942640
C       -3.026558     2.239540     2.095947
As      -1.151021     1.993627     1.611429
C       -0.222096     3.570137     2.582558
C       -1.016044     4.336664     3.260059
H       -2.896864     5.030294     4.064733
H       -4.347465     3.513456     3.222148
H       -3.752961     1.547878     1.722448
H        0.819416     3.611823     2.440614
H       -0.516638     5.183211     3.781439
C       -2.444869    -4.235138     3.422964
C       -1.479861    -4.631630     2.662881
C       -0.685487    -3.886210     1.730915
As      -1.151021    -1.993627     1.611429
C       -2.705726    -1.823193     2.969819
C       -3.025137    -2.923502     3.573327
H       -2.906825    -5.023288     4.066286
H       -1.215828    -5.716197     2.733847
H        0.108350    -4.263859     1.120372
H       -3.103217    -0.852709     3.052252
H       -3.860182    -2.831418     4.302783
C        4.864519    -0.003822    -3.401740
C        4.839034    -0.958529    -2.527478
C        3.836535    -1.260419    -1.554915
As       2.302042     0.000000    -1.611429
C        2.771624     1.253621    -3.064698
C        3.908835     1.027622    -3.658016
H        5.774671     0.015989    -4.056630
H        5.719854    -1.645874    -2.527476
H        3.831402    -2.057088    -0.836662
H        2.090489     2.054614    -3.306441
H        4.153594     1.747219    -4.474856
C       -2.445300     4.234824    -3.423044
C       -3.258690     3.318575    -3.016773
C       -3.006517     2.172918    -2.192685
As      -1.151021     1.993627    -1.611429
C       -0.243357     3.640816    -2.479930
C       -1.033244     4.393841    -3.177036
H       -2.896953     5.030588    -4.064307
H       -4.320660     3.424347    -3.351539
H       -3.719907     1.437999    -1.881997
H        0.785835     3.723457    -2.278517
H       -0.545263     5.278369    -3.643265
C       -2.445128    -4.235090    -3.422838
C       -2.535749    -4.435794    -2.150959
C       -2.063214    -3.630683    -1.062957
As      -1.151021    -1.993627    -1.611429
C       -1.244102    -2.094281    -3.678452
C       -1.842783    -3.142793    -4.146563
H       -2.900974    -5.024373    -4.069123
H       -3.058816    -5.374378    -1.840318
H       -2.164048    -3.842397    -0.018654
H       -0.794741    -1.280862    -4.171461
H       -1.892506    -3.196363    -5.256763
