58
ex_0480 frame0 cis
C       -4.501962    -3.604628    -2.176614
C       -3.401839    -2.626843    -2.629367
N       -3.447761    -1.484930    -1.725298
C       -2.788252    -1.320086    -0.522707
Se      -1.689540    -2.600267     0.258881
Cu       0.660923    -2.239785    -0.065736
Br       1.952521    -3.542658     1.481047
Se       1.524200    -0.021958    -0.375568
C        3.026606     0.552061     0.652469
N        4.319166     0.141488     0.403835
C        4.741898    -0.856065    -0.554414
C        5.166849    -0.041456    -1.787807
C        5.112002     0.910600     1.281329
C        6.617292     0.883786     1.312617
C        4.320616     1.701512     2.028454
C        4.787438     2.699054     3.054655
N        2.980622     1.490479     1.658877
C        1.788643     2.108992     2.198964
C        1.692853     3.429810     1.404121
N       -3.065392    -0.102596     0.047165
C       -2.493537     0.475183     1.243345
C       -3.421799     0.025044     2.385093
C       -4.033025     0.476924    -0.799721
C       -4.698519     1.803646    -0.550093
C       -4.279781    -0.349395    -1.831661
C       -5.280733    -0.109403    -2.928199
H       -4.205834    -4.104688    -1.222928
H       -4.634851    -4.404055    -2.943125
H       -5.480679    -3.098409    -2.021479
H       -2.441142    -3.177085    -2.586783
H       -3.563338    -2.315682    -3.681430
H        5.536152    -1.570226    -0.246688
H        3.867548    -1.459397    -0.872915
H        4.523031     0.863134    -1.911598
H        6.237409     0.267003    -1.735328
H        5.036867    -0.668776    -2.705611
H        7.034447     1.600510     2.051593
H        6.940298    -0.136011     1.613713
H        7.033250     1.116122     0.313367
H        3.932767     3.136291     3.611394
H        5.440964     2.192396     3.798451
H        5.355533     3.515385     2.563330
H        0.892215     1.524978     1.942301
H        1.732078     2.290926     3.292140
H        2.385548     3.454067     0.533960
H        1.881778     4.309946     2.057739
H        0.659478     3.548285     0.999385
H       -2.410157     1.579563     1.218504
H       -1.501505     0.049202     1.485071
H       -4.475526     0.330639     2.222939
H       -3.071759     0.472663     3.343512
H       -3.384529    -1.081440     2.508906
H       -3.913575     2.587618    -0.602387
H       -5.464326     2.041446    -1.316898
H       -5.165925     1.828212     0.453461
H       -6.286551     0.151982    -2.542195
H       -4.885406     0.734267    -3.538272
H       -5.373238    -0.985680    -3.601381
58
ex_0480 frame1 trans
C       -2.717495    -0.227401    -1.192421
C       -2.517667     0.275237    -2.612765
N       -1.308645    -0.218561    -3.239699
C       -0.053679     0.346657    -3.189601
Se       0.346367     1.958753    -2.271732
Cu       1.981978     1.798268    -0.522726
Br       4.204096     2.362159    -1.233085
Se       1.796524     0.025715     1.084651
C        0.455474     0.007789     2.410197
N       -0.132384    -1.147982     2.871253
C        0.016655    -2.500995     2.374622
C        1.155237    -3.106350     3.218542
C       -0.947622    -0.730166     3.943240
C       -1.750932    -1.666976     4.811529
C       -0.870018     0.603139     4.072727
C       -1.543893     1.445044     5.126862
N       -0.015263     1.114217     3.072928
C        0.292095     2.501352     2.810623
C       -0.618880     3.146332     1.795106
N        0.848373    -0.404627    -3.915388
C        2.263154    -0.164792    -4.029347
C        3.149547    -0.790634    -2.969166
C        0.095224    -1.442469    -4.493002
C        0.654638    -2.505716    -5.402178
C       -1.193844    -1.317778    -4.125448
C       -2.332837    -2.194263    -4.574169
H       -3.732452    -0.667716    -1.100313
H       -1.983418    -1.029970    -0.960089
H       -2.590617     0.599512    -0.465880
H       -2.500209     1.390259    -2.656793
H       -3.394839     0.000040    -3.227686
H        0.339097    -2.546563     1.314711
H       -0.904741    -3.107443     2.487285
H        0.971141    -3.018405     4.309278
H        2.123068    -2.607222     2.986646
H        1.269972    -4.185636     2.973720
H       -2.529379    -2.097852     4.142755
H       -2.289269    -1.173983     5.639173
H       -1.141172    -2.494050     5.218834
H       -0.907174     2.266330     5.508680
H       -1.923628     0.879539     5.995949
H       -2.417518     1.897376     4.606178
H        1.355163     2.524139     2.479313
H        0.251112     3.077774     3.758866
H       -0.243746     4.154744     1.532126
H       -0.673219     2.513369     0.886802
H       -1.632806     3.223603     2.243510
H        2.349320     0.942961    -4.011895
H        2.605879    -0.486194    -5.039044
H        4.122729    -0.258042    -2.920249
H        2.653523    -0.740458    -1.977832
H        3.323565    -1.858158    -3.226715
H        1.063178    -2.068251    -6.333019
H       -0.094567    -3.287053    -5.642893
H        1.476277    -3.011692    -4.847361
H       -2.244431    -2.513006    -5.629714
H       -3.320049    -1.712198    -4.457070
H       -2.324322    -3.084294    -3.906772
58
ex_0480 frame2 trans-conf5
C        4.337811    -2.347108    -2.301888
C        4.610390    -2.417633    -0.789308
N        5.056175    -1.116788    -0.314912
C        4.264209    -0.031013     0.044243
Se       2.400000     0.000000     0.000000
Cu       0.000000     0.000000     0.000000
Br      -1.203171     2.077543     0.021292
Se      -1.200026    -2.078446     0.000000
C       -2.151199    -3.707211    -0.027572
N       -1.587364    -4.964397    -0.293757
C       -0.206975    -5.241691    -0.650721
C        0.574833    -5.497149     0.646038
C       -2.633572    -5.904233    -0.156350
C       -2.475993    -7.390588    -0.328234
C       -3.779427    -5.265526     0.160991
C       -5.110446    -5.922293     0.409037
N       -3.518245    -3.868407     0.241109
C       -4.486221    -2.822247     0.542986
C       -5.041005    -2.164285    -0.708694
N        5.071756     1.040596     0.417034
C        4.640877     2.338295     0.895610
C        4.259625     2.419476     2.359130
C        6.400449     0.608795     0.241772
C        7.606365     1.469352     0.514683
C        6.393212    -0.661486    -0.222799
C        7.586201    -1.496215    -0.594857
H        5.186901    -1.889954    -2.851612
H        3.416814    -1.759725    -2.514274
H        4.178324    -3.374407    -2.700120
H        5.389378    -3.178166    -0.592708
H        3.675926    -2.746428    -0.288627
H       -0.123275    -6.114445    -1.329664
H        0.266913    -4.373057    -1.150304
H        0.565278    -4.590193     1.290490
H        1.636728    -5.724995     0.401356
H        0.155058    -6.349302     1.217871
H       -1.732005    -7.785906     0.388039
H       -3.436144    -7.929944    -0.198005
H       -2.121705    -7.577729    -1.365739
H       -5.440205    -6.363101    -0.556560
H       -5.903953    -5.216055     0.710886
H       -5.040977    -6.713069     1.179008
H       -4.043260    -2.074714     1.242669
H       -5.329790    -3.261421     1.101318
H       -5.247445    -2.946166    -1.472073
H       -5.996146    -1.653052    -0.466713
H       -4.318639    -1.429063    -1.117293
H        3.803916     2.664226     0.233688
H        5.468610     3.058752     0.726560
H        3.353720     1.812938     2.558098
H        4.072276     3.476868     2.640169
H        5.108027     2.034509     2.964398
H        8.571983     0.977251     0.318724
H        7.553429     2.397414    -0.088006
H        7.583776     1.745402     1.592799
H        7.549010    -1.775787    -1.664677
H        8.554002    -1.016876    -0.373551
H        7.541953    -2.420831     0.022189
58
ex_0480 frame3 trans-conf4
C        4.682539    -2.896659     1.192611
C        4.582794    -1.519412     2.113305
N        4.992110    -0.495575     1.180030
C        4.258273     0.247943     0.296201
Se       2.400000     0.000000     0.000000
Cu       0.000000     0.000000     0.000000
Br      -1.200533     2.082890    -0.003768
Se      -1.200026    -2.078446     0.000000
C       -1.800055    -3.859951    -0.071382
N       -2.272722    -4.432079    -1.221439
C       -2.253606    -3.914035    -2.571105
C       -3.640826    -3.260504    -2.707200
C       -2.800100    -5.665545    -0.785611
C       -3.554574    -6.637844    -1.657010
C       -2.582841    -5.810881     0.523334
C       -3.035523    -6.970113     1.373917
N       -1.909013    -4.682582     1.018830
C       -1.448994    -4.467148     2.371437
C       -2.665264    -3.784285     3.026862
N        4.981297     1.160768    -0.397973
C        4.519390     2.198961    -1.284116
C        4.600382     1.673528    -2.616887
C        6.310784     0.845945    -0.059389
C        7.527354     1.518605    -0.647118
C        6.325651    -0.134239     0.849818
C        7.565017    -0.758455     1.433391
H        5.685511    -3.029044     0.735849
H        4.476792    -3.777086     1.839567
H        3.924980    -2.891821     0.377951
H        5.215558    -1.675573     2.929170
H        3.527269    -1.502553     2.345576
H       -2.102196    -4.676285    -3.361157
H       -1.502640    -3.111619    -2.721304
H       -4.465468    -3.977639    -2.514751
H       -3.741397    -2.411755    -1.994894
H       -3.766232    -2.853977    -3.734488
H       -3.007902    -7.606270    -1.671528
H       -4.577326    -6.803491    -1.262194
H       -3.628262    -6.284621    -2.703419
H       -3.665561    -6.605859     2.208294
H       -2.146487    -7.487064     1.794287
H       -3.612944    -7.717924     0.793038
H       -0.581217    -3.784961     2.475177
H       -1.220058    -5.406419     2.916437
H       -2.497682    -3.691198     4.122947
H       -3.605650    -4.352704     2.873958
H       -2.805972    -2.758840     2.621956
H        5.113699     3.208698    -1.140217
H        3.453103     2.526670    -1.025833
H        3.964361     0.764707    -2.693586
H        5.631963     1.397124    -2.907242
H        4.226276     2.411910    -3.358868
H        7.504412     1.525180    -1.726823
H        7.548050     2.596610    -0.277085
H        8.471870     1.062310    -0.292262
H        7.325885    -1.677784     2.029016
H        8.186842    -0.121238     1.865274
H        8.158885    -1.285761     0.481380
58
ex_0480 frame4 trans-conf6
C        4.453826     0.171969    -3.365659
C        4.588253     1.181839    -2.231392
N        5.059737     0.538259    -1.017222
C        4.226786     0.000102    -0.000004
Se       2.400000     0.000000     0.000000
Cu       0.000000     0.000000     0.000000
Br      -1.203845     2.076330     0.018168
Se      -1.200026    -2.078446     0.000000
C       -2.144138    -3.701433    -0.001203
N       -3.010889    -4.151363     1.009736
C       -3.338734    -3.420945     2.238131
C       -4.503546    -2.481533     1.957695
C       -3.485530    -5.412720     0.595523
C       -4.430113    -6.286464     1.375769
C       -2.944263    -5.715899    -0.608535
C       -3.196321    -6.971687    -1.396557
N       -2.099772    -4.673554    -1.013946
C       -1.318381    -4.608337    -2.257277
C        0.108029    -5.065733    -1.986153
N        5.062540    -0.537016     1.010252
C        4.593771    -1.180381     2.220974
C        4.351249    -2.655355     1.935221
C        6.407064    -0.317693     0.594927
C        7.629665    -0.722142     1.367167
C        6.404672     0.315021    -0.609480
C        7.621521     0.717782    -1.391751
H        3.914739     0.642688    -4.216450
H        5.451074    -0.168794    -3.708510
H        3.859917    -0.705434    -3.026153
H        5.212174     2.055085    -2.508724
H        3.570580     1.583833    -2.040747
H       -3.599834    -4.119531     3.057700
H       -2.464271    -2.842733     2.588305
H       -4.226325    -1.735470     1.181931
H       -4.776664    -1.940504     2.888943
H       -5.383307    -3.060429     1.607875
H       -4.725568    -5.817274     2.334721
H       -5.350446    -6.409020     0.767151
H       -3.974203    -7.269990     1.584933
H       -3.952440    -6.761685    -2.180758
H       -2.248464    -7.284671    -1.882687
H       -3.524589    -7.799584    -0.741697
H       -1.771487    -5.300098    -3.000800
H       -1.337412    -3.595937    -2.711399
H        0.686181    -4.287432    -1.443855
H        0.617228    -5.274606    -2.951975
H        0.108410    -6.002357    -1.387025
H        3.623905    -0.724112     2.518896
H        5.278285    -1.023308     3.078016
H        3.859375    -3.132525     2.808022
H        3.685959    -2.766845     1.050820
H        5.315965    -3.162198     1.728864
H        8.237184    -1.419986     0.756727
H        8.229697     0.178322     1.614350
H        7.360767    -1.230726     2.312866
H        7.972029    -0.142259    -1.998098
H        8.428644     1.055306    -0.709683
H        7.385417     1.562159    -2.068632
58
ex_0480 frame5 trans-2
C        4.658522    -3.020293     0.363616
C        4.495564    -2.301198    -1.197468
N        4.946882    -0.984968    -0.850030
C        4.251055     0.088017    -0.400240
Se       2.400000     0.000000     0.000000
Cu       0.000000     0.000000     0.000000
Br      -1.199388     2.078476     0.014728
Se      -1.200026    -2.078446     0.000000
C       -2.107069    -3.757748     0.121691
N       -1.686976    -4.900430    -0.525156
C       -0.468062    -5.151652    -1.253661
C        0.786965    -5.439777    -0.456340
C       -2.748413    -5.802820    -0.323640
C       -2.838846    -7.162450    -0.979210
C       -3.680646    -5.249051     0.454813
C       -4.970521    -5.897694     0.881248
N       -3.295304    -3.935222     0.758012
C       -3.991742    -2.970919     1.564290
C       -4.999906    -2.458095     0.520323
N        4.982311     1.200640    -0.215742
C        4.531500     2.534678     0.095366
C        4.698904     2.714855     1.507226
C        6.303858     0.741515    -0.386081
C        7.537974     1.589580    -0.187644
C        6.290185    -0.548803    -0.741582
C        7.511780    -1.396534    -0.985918
H        5.260867    -3.950191     0.283707
H        5.137541    -2.349848     1.110634
H        3.662087    -3.305572     0.769824
H        3.422193    -2.391674    -1.290635
H        5.044128    -2.920309    -1.796228
H       -0.335957    -4.251555    -1.893201
H       -0.642787    -6.010585    -1.937810
H        0.624165    -6.355460     0.151682
H        1.021783    -4.584483     0.208906
H        1.634406    -5.612485    -1.151909
H       -2.781567    -7.058471    -2.082083
H       -3.773033    -7.700859    -0.721948
H       -1.984526    -7.784313    -0.632036
H       -5.479421    -5.315984     1.678201
H       -4.791930    -6.920795     1.280342
H       -5.636959    -5.962440    -0.007859
H       -3.359058    -2.110241     1.863087
H       -4.525578    -3.327441     2.467036
H       -5.592280    -1.620881     0.949133
H       -4.472960    -2.077571    -0.381864
H       -5.708477    -3.252629     0.205942
H        3.444597     2.669021    -0.218749
H        5.062162     3.374471    -0.552445
H        4.220257     3.660473     1.843827
H        4.209241     1.871541     2.042624
H        5.759135     2.757280     1.817491
H        7.593303     2.391223    -0.927728
H        8.468495     0.984604    -0.241848
H        7.523194     2.035708     0.839597
H        8.193631    -1.013149    -1.620254
H        7.245201    -2.460796    -1.165679
H        8.052639    -1.489080     0.120700
58
ex_0480 frame6 trans-conf2
C        4.573620    -2.072933     2.338818
C        4.509301    -0.569791     2.439276
N        4.977899    -0.052707     1.196099
C        4.181371     0.224271     0.078612
Se       2.400000     0.000000     0.000000
Cu       0.000000     0.000000     0.000000
Br      -1.201903     2.077581    -0.000859
Se      -1.200026    -2.078446     0.000000
C       -2.012129    -3.647900    -0.211516
N       -3.311572    -3.831959    -0.703693
C       -4.229317    -2.797096    -1.119649
C       -5.091580    -2.358938     0.043342
C       -3.535958    -5.216476    -0.716349
C       -4.774632    -5.859553    -1.171025
C       -2.449723    -5.852312    -0.254228
C       -2.303833    -7.316278    -0.113251
N       -1.464943    -4.908722     0.076642
C       -0.154035    -5.170809     0.605798
C       -0.190100    -5.202510     2.131694
N        5.013246     0.699766    -0.949237
C        4.588221     1.092220    -2.273576
C        4.611552    -0.091846    -3.231947
C        6.320522     0.711557    -0.423846
C        7.510985     1.143816    -1.180893
C        6.291399     0.267146     0.859906
C        7.435537     0.124366     1.796876
H        5.625050    -2.441362     2.404788
H        3.914909    -2.547780     3.092507
H        4.178172    -2.343647     1.341672
H        5.097135    -0.165707     3.299386
H        3.435493    -0.298660     2.528997
H       -3.686217    -1.904035    -1.473225
H       -4.830417    -3.160852    -1.971844
H       -5.671849    -3.187249     0.493509
H       -4.431978    -1.944730     0.836781
H       -5.798476    -1.591504    -0.342131
H       -4.523858    -6.374933    -2.099208
H       -5.106773    -6.616015    -0.432390
H       -5.566202    -5.111897    -1.404057
H       -3.033573    -7.720973     0.622889
H       -2.466244    -7.736190    -1.115469
H       -1.292285    -7.599229     0.216718
H        0.540333    -4.374409     0.270137
H        0.199111    -6.137959     0.206287
H        0.549063    -4.479994     2.528621
H       -1.180456    -4.900276     2.536124
H        0.081639    -6.211861     2.502499
H        5.200667     1.920602    -2.664782
H        3.541911     1.456700    -2.204034
H        4.471057    -1.053255    -2.696922
H        5.566410    -0.137314    -3.784259
H        3.810443     0.021767    -3.987093
H        7.845688     0.350537    -1.877303
H        8.308346     1.402301    -0.484919
H        7.257101     2.050438    -1.762719
H        7.783084    -0.929896     1.845915
H        7.151622     0.458514     2.819700
H        8.253144     0.760312     1.489848
58
ex_0480 frame7 T-shaped Br-Se-ax/Se-eq-conf6
C        4.431859     0.152682    -3.370299
C        4.591419     1.150921    -2.235861
N        5.059789     0.525951    -1.017389
C        4.226771    -0.000501    -0.000376
Se       2.400000     0.000000     0.000000
Cu       0.000000     0.000000     0.000000
Br      -2.380476    -0.306668     0.001673
Se       0.000000     2.400000     0.000000
C        0.000151     4.215702     0.001029
N       -1.140033     5.046820     0.089263
C       -2.509507     4.590156     0.194271
C       -2.846057     4.388548     1.664289
C       -0.672358     6.384949     0.056743
C       -1.540198     7.601335     0.118982
C        0.679839     6.377900    -0.043447
C        1.570788     7.575203    -0.107169
N        1.139246     5.040872    -0.079812
C        2.512607     4.598058    -0.180516
C        2.874690     4.360880    -1.642447
N        5.050242    -0.529214     1.010106
C        4.563429    -1.160175     2.215635
C        4.326577    -2.631037     1.915005
C        6.393567    -0.315417     0.602168
C        7.601665    -0.715501     1.378266
C        6.397344     0.312408    -0.606521
C        7.601215     0.718159    -1.387892
H        3.793293     0.614348    -4.154934
H        5.416915    -0.107107    -3.803355
H        3.921629    -0.766956    -3.005603
H        5.200019     2.033451    -2.519091
H        3.575084     1.512875    -2.027565
H       -3.211054     5.311326    -0.259986
H       -2.644477     3.637918    -0.364861
H       -2.210495     3.595284     2.116124
H       -3.911339     4.093309     1.754714
H       -2.680522     5.340118     2.211248
H       -2.613453     7.337642     0.142687
H       -1.306376     8.151440     1.053098
H       -1.357318     8.232793    -0.770878
H        1.923861     7.809198     0.916568
H        2.449287     7.335629    -0.744258
H        1.053136     8.434604    -0.573795
H        3.168701     5.382330     0.238671
H        2.688834     3.675389     0.419040
H        2.523853     3.366566    -1.966074
H        3.977557     4.431550    -1.759001
H        2.388630     5.105832    -2.306300
H        3.578524    -0.712738     2.477559
H        5.215701    -0.981397     3.092303
H        3.768614    -3.100696     2.750208
H        3.721111    -2.737276     0.986084
H        5.300358    -3.139555     1.771577
H        8.202717    -1.413632     0.761100
H        8.187405     0.191560     1.628867
H        7.314279    -1.229888     2.315239
H        7.908696    -0.117942    -2.046154
H        8.411867     1.032619    -0.702267
H        7.354075     1.596804    -2.017069
58
ex_0480 frame8 T-shaped Br-Se-ax/Se-eq-conf4
C        4.612175    -3.062329     1.116948
C        4.589032    -1.728964     1.875095
N        5.030648    -0.641597     1.020821
C        4.219617     0.157330     0.198238
Se       2.400000     0.000000     0.000000
Cu       0.000000     0.000000     0.000000
Br      -2.375631    -0.343246    -0.000237
Se       0.000000     2.400000     0.000000
C       -0.247900     4.181866     0.009036
N       -0.377238     4.974734    -1.139007
C       -0.350127     4.512066    -2.513653
C        1.085463     4.561441    -3.034672
C       -0.544962     6.305433    -0.688740
C       -0.710075     7.485620    -1.582731
C       -0.519716     6.317796     0.669071
C       -0.653011     7.511249     1.549289
N       -0.334912     5.005092     1.139680
C       -0.251181     4.589703     2.535140
C        1.214155     4.560773     2.989211
N        5.018520     1.101999    -0.459206
C        4.550962     2.149023    -1.360489
C        4.521090     1.636521    -2.805692
C        6.347445     0.844810    -0.057763
C        7.540207     1.606118    -0.535278
C        6.356950    -0.194767     0.807805
C        7.572214    -0.796059     1.453054
H        5.418527    -3.081654     0.354234
H        4.775446    -3.896117     1.832118
H        3.637836    -3.234409     0.605062
H        5.242094    -1.770610     2.763658
H        3.559759    -1.563519     2.261963
H       -1.031779     5.131590    -3.123947
H       -0.717143     3.464518    -2.605277
H        1.587750     5.494936    -2.707525
H        1.662528     3.692940    -2.644148
H        1.086916     4.516238    -4.143599
H       -1.780436     7.780437    -1.531036
H       -0.045572     8.314023    -1.279452
H       -0.474959     7.220357    -2.631919
H        0.235961     7.563207     2.211515
H       -1.561784     7.368613     2.173050
H       -0.749321     8.445825     0.970614
H       -0.732153     3.605573     2.726822
H       -0.791855     5.329865     3.152245
H        1.265204     4.789471     4.077026
H        1.823806     5.317313     2.451164
H        1.660212     3.554743     2.830257
H        5.174397     3.058963    -1.276249
H        3.507312     2.427427    -1.105552
H        3.845854     0.756493    -2.903337
H        5.533503     1.358233    -3.159355
H        4.121651     2.439878    -3.464993
H        7.537632     1.668432    -1.639378
H        7.456487     2.631438    -0.109676
H        8.487129     1.150878    -0.186637
H        7.308765    -1.612745     2.151138
H        8.059348     0.006705     2.050437
H        8.272210    -1.195488     0.698353
58
ex_0480 frame9 trans-conf3
C        4.451196    -0.407521    -3.261211
C        4.577498     0.813121    -2.353619
N        5.006601     0.376026    -1.055114
C        4.199875     0.009222     0.001705
Se       2.400000     0.000000     0.000000
Cu       0.000000     0.000000     0.000000
Br      -1.200481     2.079156    -0.000163
Se      -1.200026    -2.078446     0.000000
C       -2.276052    -3.488261     0.080383
N       -2.360864    -4.325614     1.164852
C       -1.630511    -4.241549     2.395116
C       -0.349553    -5.053859     2.236958
C       -3.297335    -5.276187     0.836197
C       -3.719596    -6.390271     1.713430
C       -3.772460    -5.042572    -0.403276
C       -4.798579    -5.836104    -1.140646
N       -3.149282    -3.931054    -0.898307
C       -3.368006    -3.347513    -2.185285
C       -2.399686    -3.979216    -3.175737
N        4.990329    -0.348638     1.053598
C        4.510136    -0.794592     2.338164
C        4.321153     0.350346     3.309382
C        6.298614    -0.197507     0.641650
C        7.492387    -0.481769     1.491283
C        6.298635     0.244954    -0.648021
C        7.487908     0.549764    -1.513412
H        4.673642    -0.157651    -4.315579
H        5.161997    -1.187608    -2.918404
H        3.434869    -0.848733    -3.185660
H        5.286147     1.511343    -2.820631
H        3.570175     1.255443    -2.296084
H       -2.211000    -4.747118     3.179594
H       -1.357150    -3.205758     2.644652
H       -0.577547    -6.137215     2.285202
H        0.150970    -4.867199     1.270186
H        0.319660    -4.837640     3.108177
H       -3.913606    -7.323981     1.142639
H       -4.683564    -6.056710     2.160988
H       -2.975650    -6.556502     2.512073
H       -4.260745    -6.508047    -1.827704
H       -5.490696    -5.168892    -1.720208
H       -5.353574    -6.430331    -0.389861
H       -4.389966    -3.626406    -2.528415
H       -3.215968    -2.253064    -2.186032
H       -2.611925    -5.059544    -3.260618
H       -1.362916    -3.792272    -2.831289
H       -2.571984    -3.519727    -4.181335
H        5.176227    -1.578353     2.739375
H        3.508564    -1.243858     2.189387
H        5.236298     0.404067     3.953192
H        3.499062     0.135592     4.021786
H        4.087993     1.300809     2.814469
H        7.671051     0.339916     2.232172
H        7.463043    -1.484373     1.953079
H        8.375818    -0.473555     0.824647
H        8.381082     0.716534    -0.887062
H        7.723967    -0.287040    -2.195200
H        7.318307     1.475360    -2.099617
58
ex_0480 frame10 T-shaped Br-Se-ax/Se-eq
C        4.569957    -3.152532     0.543533
C        4.537621    -2.406780    -0.798870
N        5.027145    -1.054078    -0.589349
C        4.242732     0.044408    -0.239997
Se       2.400000     0.000000     0.000000
Cu       0.000000     0.000000     0.000000
Br      -2.382083    -0.293771     0.002029
Se       0.000000     2.400000     0.000000
C        0.015870     4.241544     0.002951
N       -0.847257     5.054630     0.742810
C       -1.905632     4.628054     1.637536
C       -1.377889     4.409329     3.047764
C       -0.490649     6.389920     0.456849
C       -1.180443     7.584358     1.031034
C        0.550311     6.412438    -0.431108
C        1.224929     7.608727    -0.988748
N        0.874264     5.071669    -0.750917
C        1.887251     4.599192    -1.671546
C        1.260395     4.546078    -3.058193
N        5.064243     1.173934    -0.106075
C        4.624809     2.521413     0.209324
C        4.620088     2.776013     1.721584
C        6.381275     0.735598    -0.361330
C        7.583495     1.618007    -0.300028
C        6.362252    -0.591338    -0.653070
C        7.543970    -1.441614    -0.988711
H        5.170649    -4.080287     0.450156
H        4.987025    -2.524881     1.358413
H        3.534319    -3.440731     0.843133
H        3.480313    -2.390378    -1.141370
H        5.075667    -2.949525    -1.597024
H       -2.392022     3.700759     1.257761
H       -2.694952     5.410127     1.666296
H       -0.760285     5.278308     3.358033
H       -0.757455     3.489341     3.096752
H       -2.233641     4.311810     3.750798
H       -2.219585     7.614629     0.649661
H       -0.664844     8.535541     0.801349
H       -1.198238     7.455592     2.134349
H        2.302923     7.372505    -1.147519
H        1.205913     8.464002    -0.299790
H        0.776086     7.844008    -1.977639
H        2.165523     3.562783    -1.426015
H        2.825300     5.200011    -1.666921
H        1.917947     3.949272    -3.732092
H        0.271275     4.037351    -3.011057
H        1.140389     5.565382    -3.474245
H        3.571136     2.589676    -0.102469
H        5.180095     3.303193    -0.349462
H        3.756957     3.436971     1.978025
H        4.495876     1.831957     2.298639
H        5.550653     3.289784     2.034677
H        7.496493     2.292634    -1.185002
H        8.529360     1.050425    -0.369106
H        7.569774     2.237642     0.615171
H        8.221947    -0.869213    -1.655068
H        7.204129    -2.319044    -1.576348
H        8.053313    -1.798081    -0.076150
58
ex_0480 frame11 T-shaped Br-Se-ax/Se-eq-conf2
C        4.574937    -2.072681     2.339124
C        4.509353    -0.568009     2.440081
N        4.976427    -0.051574     1.194732
C        4.182358     0.224963     0.078546
Se       2.400000     0.000000     0.000000
Cu       0.000000     0.000000     0.000000
Br      -2.400163    -0.036451    -0.000189
Se       0.000000     2.400000     0.000000
C       -0.096965     4.165462     0.204963
N       -1.164370     4.972708    -0.204819
C       -2.369503     4.538114    -0.868249
C       -2.193848     4.588183    -2.370934
C       -0.830764     6.281614     0.162924
C       -1.678748     7.460362    -0.070049
C        0.371533     6.289997     0.757237
C        1.064644     7.487328     1.281517
N        0.871724     4.982895     0.805810
C        2.126561     4.556263     1.359339
C        3.222743     4.600112     0.297709
N        5.012198     0.699825    -0.947929
C        4.586914     1.092477    -2.271257
C        4.611446    -0.091319    -3.230501
C        6.315224     0.711200    -0.424400
C        7.507003     1.143396    -1.180562
C        6.286261     0.266480     0.859294
C        7.432436     0.122341     1.797625
H        5.625227    -2.441448     2.404826
H        3.912712    -2.547790     3.090841
H        4.179136    -2.341065     1.340813
H        5.100031    -0.165490     3.297834
H        3.435662    -0.299043     2.526419
H       -2.612161     3.492369    -0.610529
H       -3.222016     5.152835    -0.528423
H       -1.927681     5.595015    -2.746331
H       -1.367186     3.900805    -2.652696
H       -3.160309     4.278294    -2.826081
H       -2.024596     7.781961     0.916876
H       -1.080486     8.283351    -0.507223
H       -2.577709     7.208879    -0.672995
H        1.301657     8.203154     0.465170
H        0.384075     7.931764     2.024344
H        2.002777     7.225642     1.794115
H        2.025203     3.517794     1.737769
H        2.381162     5.219507     2.205668
H        3.703208     3.605039     0.225493
H        2.822320     4.833717    -0.712246
H        4.003126     5.338569     0.578800
H        5.202299     1.919447    -2.664242
H        3.542784     1.456740    -2.204646
H        4.473287    -1.052662    -2.697493
H        5.564408    -0.136923    -3.786179
H        3.809681     0.020851    -3.986499
H        7.846879     0.350434    -1.877231
H        8.306738     1.402198    -0.482663
H        7.256153     2.049105    -1.763276
H        7.783863    -0.928767     1.845888
H        7.151017     0.457866     2.821057
H        8.252013     0.761183     1.488874
58
ex_0480 frame12 T-shaped Se-Se-ax/Br-eq-conf6
C        4.594213     0.190279    -3.382186
C        4.609326     1.188191    -2.233882
N        5.064895     0.527603    -1.025871
C        4.226669    -0.014498    -0.007874
Se       2.400000     0.000000     0.000000
Cu       0.000000     0.000000     0.000000
Br       0.019926     2.366012    -0.412083
Se      -2.400000     0.000000     0.000000
C       -4.215692    -0.001361    -0.006666
N       -5.060841     1.126797    -0.254843
C       -4.614358     2.475523    -0.550460
C       -4.386083     2.583646    -2.052229
C       -6.410490     0.670878    -0.157600
C       -7.640907     1.527719    -0.317418
C       -6.415498    -0.656202     0.108997
C       -7.642697    -1.519627     0.261116
N       -5.077336    -1.123088     0.226753
C       -4.673872    -2.482574     0.527225
C       -4.215860    -2.567925     1.975433
N        5.079711    -0.567029     0.997342
C        4.642677    -1.214977     2.219092
C        4.389591    -2.694528     1.963612
C        6.421252    -0.355407     0.563242
C        7.654307    -0.780827     1.301652
C        6.411570     0.291524    -0.626014
C        7.633551     0.696983    -1.402575
H        4.197490     0.678866    -4.297944
H        5.612783    -0.198329    -3.583352
H        3.924773    -0.660632    -3.122641
H        5.224971     2.084223    -2.458203
H        3.566107     1.546839    -2.098442
H       -5.358126     3.233350    -0.231839
H       -3.679948     2.710249    -0.001930
H       -3.614593     1.853810    -2.376905
H       -4.042705     3.607927    -2.305670
H       -5.333207     2.377590    -2.595174
H       -7.400462     2.585431    -0.523505
H       -8.237558     1.143139    -1.167292
H       -8.254070     1.487466     0.608745
H       -7.650913    -2.300240    -0.519361
H       -7.616415    -2.002193     1.265660
H       -8.576416    -0.931188     0.187688
H       -5.537648    -3.175496     0.420352
H       -3.883553    -2.824781    -0.177870
H       -3.340126    -1.915397     2.160185
H       -3.947786    -3.617347     2.224597
H       -5.049202    -2.253148     2.645259
H        3.700855    -0.735381     2.571908
H        5.381468    -1.079975     3.027063
H        4.021754    -3.176142     2.892964
H        3.625707    -2.822775     1.166573
H        5.331803    -3.189552     1.647544
H        8.260135    -1.469083     0.673234
H        8.268698     0.112145     1.553434
H        7.421328    -1.311339     2.252092
H        8.207968    -0.205511    -1.690389
H        8.274554     1.353093    -0.773008
H        7.368104     1.253277    -2.323634
58
ex_0480 frame13 T-shaped Br-Se-ax/Se-eq-conf3
C        4.451158    -0.407421    -3.261288
C        4.577822     0.813424    -2.353311
N        5.006684     0.375971    -1.054460
C        4.200254     0.009234     0.001880
Se       2.400000     0.000000     0.000000
Cu       0.000000     0.000000     0.000000
Br      -2.400801    -0.004503    -0.000028
Se       0.000000     2.400000     0.000000
C        0.180268     4.159115    -0.159762
N        0.961432     4.926017     0.667890
C        1.751638     4.488427     1.780648
C        0.878134     4.551462     3.029626
C        0.836710     6.217103     0.215375
C        1.511061     7.393792     0.807946
C        0.008579     6.252964    -0.847875
C       -0.397875     7.453425    -1.635456
N       -0.416003     4.979123    -1.101433
C       -1.308436     4.582900    -2.146422
C       -2.734765     4.646034    -1.616651
N        4.990306    -0.348321     1.052966
C        4.510106    -0.794406     2.338155
C        4.320916     0.350437     3.309043
C        6.298028    -0.197524     0.641756
C        7.492023    -0.481942     1.491506
C        6.297991     0.245114    -0.648346
C        7.487686     0.549800    -1.513603
H        4.673767    -0.157718    -4.315526
H        5.161881    -1.187608    -2.918238
H        3.434853    -0.848684    -3.185735
H        5.286065     1.511253    -2.820720
H        3.570169     1.255237    -2.295996
H        2.558280     5.216900     1.942589
H        2.105846     3.454875     1.656130
H        0.753749     5.603687     3.354379
H       -0.132145     4.139795     2.858658
H        1.411890     4.029607     3.864534
H        0.867211     8.299605     0.792387
H        2.388274     7.586953     0.148661
H        1.857177     7.165726     1.831163
H       -1.387256     7.766473    -1.267091
H       -0.452561     7.221563    -2.732472
H        0.347967     8.245499    -1.431807
H       -1.247453     5.335884    -2.964805
H       -1.108151     3.559242    -2.510309
H       -2.981717     5.687620    -1.346431
H       -2.823322     3.965648    -0.746365
H       -3.430605     4.334170    -2.435896
H        5.176321    -1.578237     2.739272
H        3.508573    -1.243805     2.189398
H        5.236283     0.403867     3.953371
H        3.499030     0.135696     4.021747
H        4.088059     1.300749     2.814547
H        7.671208     0.340058     2.232131
H        7.463104    -1.484330     1.953073
H        8.375737    -0.473500     0.824469
H        8.381028     0.716495    -0.886983
H        7.724078    -0.287011    -2.195131
H        7.318221     1.475323    -2.099690
58
ex_0480 frame14 T-shaped Se-Se-ax/Br-eq-conf5
C        4.408109    -2.315467    -2.179058
C        4.619165    -2.464986    -0.664296
N        5.062260    -1.156986    -0.228265
C        4.309274    -0.055917     0.111362
Se       2.400000     0.000000     0.000000
Cu       0.000000     0.000000     0.000000
Br       0.010630     2.256275     0.818305
Se      -2.400000     0.000000     0.000000
C       -4.318319     0.071962    -0.095109
N       -5.071422    -0.811885    -0.834808
C       -4.614680    -1.809758    -1.771767
C       -4.538705    -3.080209    -0.910049
C       -6.405594    -0.531344    -0.469233
C       -7.608079    -1.314071    -0.939949
C       -6.433862     0.492427     0.388698
C       -7.684366     1.044724     1.039733
N       -5.112551     0.942648     0.629311
C       -4.704224     2.060238     1.448713
C       -4.316869     3.347330     0.753112
N        5.094825     1.001238     0.490211
C        4.673103     2.275775     1.009505
C        4.203982     2.389846     2.443555
C        6.413436     0.579034     0.246558
C        7.627829     1.461482     0.439462
C        6.397281    -0.683715    -0.215426
C        7.593820    -1.494037    -0.657474
H        5.328353    -1.983645    -2.701129
H        3.599843    -1.581778    -2.388106
H        4.097307    -3.292477    -2.609520
H        5.354831    -3.270763    -0.460122
H        3.647888    -2.762767    -0.220474
H       -5.278999    -1.967260    -2.646282
H       -3.588936    -1.611297    -2.143644
H       -3.824490    -2.933865    -0.070626
H       -4.175391    -3.930150    -1.526215
H       -5.519344    -3.363057    -0.482081
H       -7.499643    -2.384835    -0.690948
H       -8.549886    -0.951733    -0.479035
H       -7.711297    -1.204069    -2.039987
H       -8.390482     1.381379     0.250196
H       -7.510140     1.921233     1.686594
H       -8.173452     0.255875     1.647354
H       -3.862073     1.665288     2.058387
H       -5.511888     2.290274     2.166793
H       -5.171759     3.693471     0.133758
H       -4.083870     4.122159     1.512914
H       -3.430702     3.178101     0.109292
H        3.865599     2.575152     0.305209
H        5.506029     2.995694     0.864323
H        3.333127     1.725700     2.613828
H        3.913281     3.441412     2.650149
H        5.036638     2.103840     3.120001
H        8.586246     0.998954     0.150061
H        7.501216     2.382154    -0.164339
H        7.718489     1.746846     1.510196
H        7.453373    -1.798594    -1.712197
H        8.557522    -0.960524    -0.587929
H        7.685006    -2.404593    -0.028846
58
ex_0480 frame15 T-shaped Br-Se-ax/Se-eq-conf5
C        4.258249    -2.352539    -2.356409
C        4.442027    -2.354987    -0.845120
N        4.943773    -1.072650    -0.375143
C        4.145984    -0.007789     0.006020
Se       2.400000     0.000000     0.000000
Cu       0.000000     0.000000     0.000000
Br      -2.383633    -0.279963     0.001913
Se       0.000000     2.400000     0.000000
C        0.000983     4.185841    -0.008742
N       -1.056975     4.998671     0.376162
C       -2.337841     4.569670     0.843118
C       -2.358008     4.417830     2.346055
C       -0.630029     6.317456     0.223167
C       -1.467933     7.495289     0.535737
C        0.630382     6.329623    -0.239023
C        1.435511     7.535308    -0.529955
N        1.069206     5.014170    -0.404893
C        2.350150     4.598610    -0.882597
C        2.372268     4.400409    -2.378084
N        4.962584     1.054523     0.390850
C        4.508461     2.328879     0.850896
C        4.261453     2.398015     2.339607
C        6.280858     0.621434     0.239752
C        7.452289     1.479742     0.554303
C        6.272326    -0.667947    -0.227379
C        7.444736    -1.536711    -0.541107
H        4.861337    -1.546849    -2.827452
H        3.198142    -2.166579    -2.629534
H        4.510565    -3.356267    -2.748703
H        5.094701    -3.171586    -0.491394
H        3.446325    -2.551458    -0.395895
H       -3.068387     5.342577     0.560326
H       -2.607789     3.594688     0.396833
H       -1.723624     3.566682     2.680732
H       -3.406468     4.210735     2.609289
H       -2.058775     5.355233     2.855707
H       -1.673953     7.504427     1.624092
H       -0.929090     8.401121     0.245398
H       -2.440952     7.438555    -0.000704
H        1.137958     7.969020    -1.503854
H        2.509985     7.299694    -0.486920
H        1.232910     8.256388     0.272825
H        2.529937     3.665406    -0.457755
H        3.119241     5.298685    -0.534101
H        1.486158     4.884831    -2.826565
H        3.285321     4.878089    -2.782195
H        2.396546     3.312573    -2.625547
H        3.544171     2.413055     0.437467
H        5.138029     3.154251     0.487290
H        3.198006     2.173252     2.587268
H        4.427580     3.443737     2.644532
H        4.959756     1.752277     2.899955
H        8.380683     0.925222     0.426042
H        7.421030     2.404613    -0.067270
H        7.389769     1.805558     1.608027
H        7.543765    -1.680128    -1.638246
H        8.359939    -1.118546    -0.122493
H        7.301298    -2.535574    -0.074282
58
ex_0480 frame16 T-shaped Se-Se-ax/Br-eq-conf3
C        4.567637    -0.313370    -3.179458
C        4.646939     0.978221    -2.351200
N        5.070672     0.541347    -1.038894
C        4.316669     0.140377     0.035372
Se       2.400000     0.000000     0.000000
Cu       0.000000     0.000000     0.000000
Br      -0.000208     2.393124     0.183867
Se      -2.400000     0.000000     0.000000
C       -4.251562    -0.366078     0.211553
N       -4.971248    -1.046473    -0.716364
C       -4.498065    -1.759093    -1.872339
C       -4.706368    -0.681029    -2.948987
C       -6.297850    -0.873421    -0.289550
C       -7.514896    -1.334476    -1.051676
C       -6.314879    -0.181730     0.849675
C       -7.554949     0.263125     1.588743
N       -4.999941     0.133800     1.231822
C       -4.568727     0.820851     2.420241
C       -4.722718     2.285061     1.972908
N        5.078936    -0.206720     1.103150
C        4.615024    -0.576247     2.401574
C        4.342025     0.427892     3.500811
C        6.395777    -0.145192     0.645113
C        7.597811    -0.523854     1.483201
C        6.396721     0.246273    -0.638335
C        7.609615     0.362570    -1.537718
H        4.243730    -0.077140    -4.215150
H        5.536957    -0.843070    -3.238203
H        3.823443    -1.008192    -2.733635
H        5.333935     1.708970    -2.826976
H        3.627772     1.415610    -2.335562
H       -5.028254    -2.693601    -2.146401
H       -3.411714    -1.981012    -1.834700
H       -5.776301    -0.413485    -3.068769
H       -4.145876     0.242302    -2.684673
H       -4.329199    -1.044978    -3.928174
H       -8.085387    -0.435223    -1.364505
H       -8.167241    -1.977363    -0.422369
H       -7.245910    -1.917056    -1.954053
H       -7.566750     1.364222     1.665467
H       -7.587742    -0.169507     2.610506
H       -8.484557    -0.039283     1.064729
H       -5.153802     0.630014     3.343406
H       -3.494110     0.666948     2.649907
H       -5.767209     2.552060     1.730713
H       -4.103541     2.482474     1.071456
H       -4.383459     2.964905     2.782700
H        5.363995    -1.305913     2.774414
H        3.704220    -1.166253     2.169063
H        5.290676     0.940607     3.768001
H        3.952210    -0.101515     4.395252
H        3.597539     1.173783     3.156263
H        7.726905     0.163420     2.346139
H        7.429580    -1.550305     1.865416
H        8.553409    -0.538939     0.932841
H        8.566600     0.107542    -1.051677
H        7.494280    -0.314689    -2.402130
H        7.712334     1.403741    -1.909652
58
ex_0480 frame17 T-shaped Se-Se-ax/Br-eq-conf4
C        4.694940    -2.830733     1.239447
C        4.562508    -1.472947     2.154914
N        4.969895    -0.456295     1.216806
C        4.263661     0.280440     0.324420
Se       2.400000     0.000000     0.000000
Cu       0.000000     0.000000     0.000000
Br       0.004156     2.308284    -0.607190
Se      -2.400000     0.000000     0.000000
C       -4.248655    -0.403798    -0.138939
N       -4.959684    -0.141691    -1.267005
C       -4.500899     0.240008    -2.577846
C       -4.659746     1.767913    -2.506334
C       -6.287183    -0.320565    -0.837483
C       -7.507903     0.000637    -1.664892
C       -6.302584    -0.742718     0.424998
C       -7.539036    -0.996327     1.254551
N       -4.991209    -0.857336     0.904399
C       -4.567595    -1.340338     2.190285
C       -4.612818    -0.030012     2.995445
N        4.962135     1.194031    -0.367980
C        4.500774     2.237623    -1.238301
C        4.591626     1.714188    -2.550011
C        6.288607     0.862902    -0.040045
C        7.508873     1.521880    -0.643138
C        6.302198    -0.113029     0.868333
C        7.541439    -0.748765     1.433407
H        5.730295    -2.987467     0.873514
H        4.406945    -3.712280     1.850386
H        4.020847    -2.785291     0.356613
H        5.168405    -1.617241     2.999952
H        3.494799    -1.451373     2.366180
H       -5.068225    -0.173932    -3.436155
H       -3.424414     0.028588    -2.741917
H       -5.711635     2.071715    -2.328221
H       -4.036909     2.181464    -1.683164
H       -4.322483     2.228800    -3.458826
H       -8.169835    -0.888107    -1.750329
H       -8.066992     0.822429    -1.171145
H       -7.244851     0.316195    -2.692782
H       -7.504317    -0.371090     2.165626
H       -7.604229    -2.063333     1.554553
H       -8.470013    -0.743036     0.707178
H       -3.526043    -1.719291     2.226749
H       -5.232120    -2.097350     2.657418
H       -4.351090    -0.229562     4.056439
H       -5.611920     0.446728     2.975640
H       -3.879277     0.699531     2.591249
H        5.095412     3.262045    -1.079235
H        3.435658     2.576128    -0.967186
H        3.970349     0.794878    -2.612761
H        5.623214     1.441662    -2.835101
H        4.217520     2.439377    -3.302334
H        7.466720     1.483527    -1.737397
H        7.574129     2.590644    -0.320367
H        8.448013     1.026464    -0.325622
H        7.303282    -1.683774     2.013369
H        8.225806    -0.168351     1.801870
H        8.060104    -1.322640     0.419217
58
ex_0480 frame18 T-shaped Se-Se-ax/Br-eq-conf2
C        4.631046    -1.818323     2.350733
C        4.468253    -0.108338     2.607043
N        4.926567     0.287432     1.312606
C        4.245888     0.442727     0.154218
Se       2.400000     0.000000     0.000000
Cu       0.000000     0.000000     0.000000
Br      -0.013965     2.264495    -0.777925
Se      -2.400000     0.000000     0.000000
C       -4.233035    -0.334928    -0.316928
N       -4.948376     0.386828    -1.209799
C       -4.511364     1.309947    -2.222719
C       -4.706914     2.642037    -1.480193
C       -6.263937     0.019568    -0.878792
C       -7.500898     0.668986    -1.446727
C       -6.254202    -0.916700     0.061475
C       -7.480722    -1.515587     0.697640
N       -4.936441    -1.211378     0.424912
C       -4.466129    -2.197725     1.352343
C       -4.715530    -1.422189     2.657302
N        4.975446     0.881167    -0.880353
C        4.531150     1.301372    -2.182574
C        4.705074     0.147079    -3.027805
C        6.292828     0.816264    -0.387196
C        7.519283     1.119597    -1.223443
C        6.274635     0.447154     0.903815
C        7.479883     0.232310     1.791217
H        5.682612    -2.126817     2.217481
H        4.236988    -2.359797     3.235664
H        4.067042    -2.153745     1.454548
H        5.026843     0.035516     3.452416
H        3.394896    -0.104544     2.716218
H       -3.429797     1.218148    -2.454250
H       -5.070424     1.308185    -3.180945
H       -5.768836     2.824578    -1.219273
H       -4.116961     2.646966    -0.538013
H       -4.358651     3.484793    -2.113376
H       -8.194722    -0.080310    -1.883126
H       -8.014878     1.193384    -0.613960
H       -7.263979     1.403681    -2.240248
H       -7.989742    -0.697612     1.249622
H       -8.183275    -1.934863    -0.053233
H       -7.228364    -2.327737     1.406539
H       -3.371970    -2.365561     1.274432
H       -4.961495    -3.189289     1.384538
H       -4.270012    -1.968058     3.515044
H       -4.250246    -0.413821     2.605099
H       -5.796621    -1.290477     2.863154
H        5.077086     2.264321    -2.580132
H        3.444139     1.640494    -2.163394
H        4.151396    -0.711705    -2.590727
H        5.759725    -0.154439    -3.140644
H        4.308710     0.337293    -4.046682
H        7.515038     0.422218    -2.111050
H        8.477040     0.897506    -0.720223
H        7.540414     2.141461    -1.579476
H        7.463305    -0.966131     2.056249
H        7.482548     0.724627     2.662536
H        8.455312     0.248531     1.252654
58
ex_0480 frame19 T-shaped Se-Se-ax/Br-eq
C        4.664574    -3.015808     0.355188
C        4.498235    -2.297995    -1.204604
N        4.945992    -0.981603    -0.856470
C        4.252269     0.090166    -0.405261
Se       2.400000     0.000000     0.000000
Cu       0.000000     0.000000     0.000000
Br      -0.075386     2.389508     0.208998
Se      -2.400000     0.000000     0.000000
C       -4.309049     0.005435     0.144101
N       -5.086005    -1.120785     0.008045
C       -4.697389    -2.506397    -0.085972
C       -4.317856    -3.230665     1.188163
C       -6.399229    -0.610479    -0.035141
C       -7.619078    -1.444438    -0.341983
C       -6.382042     0.710936     0.151146
C       -7.587706     1.611713     0.155539
N       -5.054062     1.138095     0.273867
C       -4.565698     2.469502     0.488957
C       -4.624899     2.981602    -0.960919
N        4.981929     1.204820    -0.220997
C        4.530807     2.537754     0.088791
C        4.692985     2.717428     1.499283
C        6.303348     0.744001    -0.390921
C        7.537177     1.591777    -0.191379
C        6.290701    -0.545172    -0.746417
C        7.509798    -1.393020    -0.989643
H        5.252446    -3.954579     0.271171
H        5.161861    -2.351588     1.095416
H        3.668628    -3.283872     0.773066
H        3.425065    -2.392816    -1.300970
H        5.051210    -2.912892    -1.803827
H       -3.852189    -2.503233    -0.809302
H       -5.528419    -3.067692    -0.563443
H       -5.190915    -3.232669     1.874981
H       -3.459226    -2.725329     1.674219
H       -4.044311    -4.279150     0.947348
H       -7.491527    -1.947783    -1.321611
H       -8.549778    -0.842531    -0.372977
H       -7.743131    -2.217646     0.447088
H       -7.336505     2.631296     0.507580
H       -8.386322     1.220009     0.822054
H       -7.974545     1.670236    -0.882915
H       -3.504999     2.504740     0.809748
H       -5.143069     3.141247     1.155574
H       -4.196566     4.005522    -1.017487
H       -4.032445     2.323506    -1.633405
H       -5.666732     3.025154    -1.340687
H        3.445342     2.675013    -0.231097
H        5.065130     3.377693    -0.559124
H        4.218033     3.664070     1.834829
H        4.198035     1.876791     2.032652
H        5.750573     2.754894     1.814290
H        7.594029     2.395337    -0.926323
H        8.467546     0.985781    -0.243718
H        7.521515     2.033609     0.839139
H        8.196400    -1.013692    -1.615807
H        7.243167    -2.458608    -1.162444
H        8.044804    -1.485278     0.124777
58
ex_0480 frame20 trans
C        5.455483    -1.367423    -2.808877
C        4.765760    -0.635000    -1.631064
N        3.865647    -1.563896    -0.957872
C        2.527991    -1.788859    -1.248074
Se       1.537633    -0.983262    -2.574458
Cu       0.413881     1.079139    -2.080816
Br       0.855576     2.946827    -3.519728
Se      -0.757822     1.276711     0.004389
C       -2.610758     1.638096     0.112076
N       -3.580983     0.694334     0.384481
C       -3.357239    -0.711469     0.617028
C       -3.212021    -0.802746     2.147761
C       -4.800720     1.390733     0.394366
C       -6.140638     0.795594     0.647360
C       -4.562363     2.695307     0.152514
C       -5.584177     3.770953     0.119201
N       -3.177405     2.885065    -0.052778
C       -2.492593     4.121598    -0.368961
C       -2.183317     4.824370     0.969533
N        2.022761    -2.746472    -0.395347
C        0.673796    -3.282655    -0.392152
C        0.671014    -4.457466    -1.383672
C        3.077010    -3.130360     0.444753
C        2.965284    -4.160035     1.520680
C        4.184953    -2.440930     0.102246
C        5.536380    -2.581250     0.741531
H        5.245369    -2.458406    -2.811160
H        6.554993    -1.215615    -2.767789
H        5.097134    -0.956637    -3.782259
H        4.211307     0.224936    -2.061839
H        5.508808    -0.217810    -0.935154
H       -2.394963    -1.054124     0.188042
H       -4.136286    -1.412787     0.264349
H       -2.500267    -0.037038     2.526983
H       -4.188775    -0.674853     2.657618
H       -2.802669    -1.802656     2.429425
H       -6.504754     1.086698     1.656887
H       -6.848453     1.164554    -0.129370
H       -6.112642    -0.307913     0.564559
H       -6.181324     3.809764     1.055088
H       -5.129268     4.761061    -0.077442
H       -6.250830     3.538185    -0.744876
H       -3.025105     4.789483    -1.068265
H       -1.509769     3.893923    -0.836082
H       -1.138980     5.221868     0.953784
H       -2.244386     4.126295     1.832804
H       -2.869686     5.678657     1.138531
H        0.373412    -3.624472     0.609742
H       -0.088935    -2.553212    -0.739322
H       -0.220257    -5.095400    -1.194465
H        1.583562    -5.079592    -1.281573
H        0.608673    -4.086418    -2.432712
H        2.058307    -3.935146     2.124615
H        2.843917    -5.165401     1.064826
H        3.832376    -4.135032     2.211245
H        5.825194    -3.641420     0.826685
H        6.312128    -2.034931     0.166443
H        5.469363    -2.118907     1.752603
58
ex_0480 frame21 cis-1
C       -2.423599    -1.897810    -3.053968
C       -1.219981    -2.654311    -3.609390
N       -0.009811    -1.874332    -3.509596
C        0.836919    -1.860733    -2.404446
Se       0.620929    -2.793353    -0.892120
Cu      -1.116608    -2.132271     0.625753
Br      -2.639226    -3.900176     1.186980
Se      -1.921074     0.122181     0.799773
C       -1.231285     1.216087     2.071922
N       -0.924824     2.562272     1.881981
C       -1.103058     3.293256     0.659103
C        0.144275     3.225459    -0.203247
C       -0.418973     3.043982     3.103830
C        0.036344     4.436410     3.338601
C       -0.423443     2.033914     4.001150
C        0.009721     2.087467     5.403145
N       -0.918189     0.878321     3.388005
C       -1.080304    -0.414584     3.980753
C        0.209540    -1.200256     3.807091
N        1.895700    -1.001331    -2.654815
C        2.970518    -0.741712    -1.730428
C        4.097961    -1.734304    -1.926530
C        1.699638    -0.469537    -3.944706
C        2.621727     0.506643    -4.589889
C        0.552418    -1.003220    -4.461234
C       -0.044060    -0.743889    -5.790777
H       -2.975308    -2.523077    -2.321723
H       -2.116182    -0.969902    -2.531021
H       -3.137508    -1.675839    -3.878339
H       -1.429278    -2.949442    -4.641529
H       -1.077097    -3.586220    -3.013854
H       -1.382162     4.325896     0.902500
H       -1.925058     2.834098     0.079510
H        0.099356     2.364480    -0.914038
H        1.034144     3.114539     0.435071
H        0.247672     4.175627    -0.762801
H        1.139453     4.450251     3.370598
H       -0.328399     5.112188     2.538277
H       -0.368309     4.808623     4.288256
H        0.867218     2.770502     5.518770
H        0.242070     1.056188     5.764123
H       -0.870681     2.424015     5.972124
H       -1.304411    -0.318091     5.062387
H       -1.905374    -0.941399     3.456713
H        0.895805    -0.732006     3.076148
H        0.009765    -2.238924     3.486766
H        0.749769    -1.242571     4.764219
H        3.344886     0.285180    -1.819339
H        2.600939    -0.874188    -0.689269
H        4.996588    -1.299251    -1.461172
H        3.905234    -2.702454    -1.424395
H        4.286141    -1.931266    -2.997980
H        3.623635     0.423460    -4.100350
H        2.745698     0.279991    -5.658333
H        2.233249     1.535795    -4.459456
H       -0.553916     0.236408    -5.814998
H        0.742437    -0.775912    -6.544425
H       -0.740543    -1.569889    -6.054109
58
ex_0480 frame22 trans-conf2
C        4.620257     3.132677     0.881992
C        4.624003     1.854027     1.739135
N        5.071453     0.700622     0.971533
C        4.250460    -0.162993     0.228510
Se       2.400000     0.000000     0.000000
Cu       0.000000     0.000000     0.000000
Br      -1.199703     2.078785     0.000048
Se      -1.200026    -2.078446     0.000000
C       -2.296541    -3.607615     0.201418
N       -3.481302    -3.817107    -0.480502
C       -4.117425    -2.898383    -1.405439
C       -3.617467    -3.312512    -2.803792
C       -3.925261    -5.099953    -0.091946
C       -5.168706    -5.772118    -0.618286
C       -3.055465    -5.615084     0.804597
C       -3.136067    -6.970639     1.460446
N       -2.019265    -4.676658     1.041639
C       -0.904533    -4.805301     1.966366
C        0.231006    -5.542916     1.239335
N        5.030346    -1.171343    -0.341967
C        4.553746    -2.265753    -1.172009
C        4.519227    -1.796694    -2.635128
C        6.362157    -0.890493     0.023287
C        7.538857    -1.714121    -0.409323
C        6.393725     0.220916     0.792836
C        7.618284     0.860197     1.374059
H        3.792093     3.801195     1.217710
H        4.436359     2.906587    -0.191081
H        5.570609     3.694840     0.983509
H        3.567235     1.676823     2.019977
H        5.180252     1.988032     2.689064
H       -3.758062    -1.861969    -1.252449
H       -5.225417    -2.886750    -1.372532
H       -3.944658    -2.551941    -3.549383
H       -4.012040    -4.295548    -3.129498
H       -2.506085    -3.344332    -2.834765
H       -5.258001    -5.639270    -1.711975
H       -6.042063    -5.284354    -0.132149
H       -5.215137    -6.855822    -0.406395
H       -4.116334    -7.461343     1.311002
H       -3.070687    -6.793525     2.556762
H       -2.318183    -7.649633     1.156793
H       -1.170927    -5.317196     2.912284
H       -0.503571    -3.804118     2.220255
H       -0.015469    -6.606469     1.047459
H        0.468967    -5.044070     0.273422
H        1.151767    -5.504234     1.865224
H        5.206981    -3.153087    -1.069223
H        3.521609    -2.570730    -0.900809
H        5.499481    -1.393550    -2.960564
H        3.741819    -1.013727    -2.782270
H        4.256016    -2.655970    -3.292224
H        7.581961    -1.769468    -1.514584
H        8.496691    -1.326490    -0.014949
H        7.386567    -2.740923    -0.006805
H        7.931481     0.206732     2.220706
H        8.445457     0.943607     0.644062
H        7.394541     1.863256     1.786824
58
ex_0480 frame23 trans-2
C        4.746474     1.781948    -2.557093
C        4.635400     2.294706    -1.104494
N        5.033382     1.176316    -0.267362
C        4.252238     0.201022     0.281057
Se       2.400000     0.000000     0.000000
Cu       0.000000     0.000000     0.000000
Br      -1.208349     2.073397    -0.036504
Se      -1.200026    -2.078446     0.000000
C       -2.119974    -3.705707    -0.324017
N       -1.507484    -4.921249    -0.375862
C       -0.093280    -5.181364    -0.284746
C        0.009454    -5.493853     1.219146
C       -2.557922    -5.839927    -0.506408
C       -2.402556    -7.339596    -0.549943
C       -3.717505    -5.174784    -0.554756
C       -5.075453    -5.815432    -0.642860
N       -3.474688    -3.790713    -0.486497
C       -4.416141    -2.698666    -0.566501
C       -4.968450    -2.657443     0.869483
N        4.990145    -0.670861     1.036452
C        4.527770    -1.816897     1.789690
C        4.569245    -2.930619     0.725773
C        6.328987    -0.247782     0.900154
C        7.522617    -0.928035     1.513203
C        6.353446     0.818257     0.097714
C        7.601239     1.538561    -0.355907
H        5.490086     0.964849    -2.672599
H        5.029542     2.613665    -3.239392
H        3.759784     1.400656    -2.906125
H        3.590628     2.634806    -0.949695
H        5.288268     3.176076    -0.955434
H        0.530856    -4.283206    -0.468830
H        0.330952    -6.013053    -0.882282
H       -0.409873    -4.659088     1.822884
H       -0.526440    -6.428168     1.485988
H        1.077536    -5.613878     1.506174
H       -2.855883    -7.753256     0.374966
H       -2.914161    -7.781911    -1.431249
H       -1.337888    -7.644992    -0.596030
H       -5.219824    -6.454917     0.252147
H       -5.881564    -5.058599    -0.687107
H       -5.162319    -6.451052    -1.552431
H       -5.237991    -2.746410    -1.306771
H       -3.884852    -1.738353    -0.720547
H       -5.423401    -1.658987     1.059075
H       -4.157180    -2.800516     1.616069
H       -5.752265    -3.424247     1.034734
H        5.182048    -2.107781     2.637095
H        3.489233    -1.744173     2.169658
H        4.319278    -3.905797     1.201969
H        5.571167    -3.028889     0.258618
H        3.818860    -2.748731    -0.072995
H        7.424631    -0.939647     2.618301
H        7.575840    -1.971913     1.144482
H        8.471862    -0.409301     1.267610
H        8.290901     0.834293    -0.862205
H        7.377441     2.373355    -1.047121
H        8.114060     1.972853     0.531629
58
ex_0480 frame24 cis-2
C       -2.754642     4.122084    -1.243256
C       -1.332334     3.710967    -0.958036
N       -1.179351     2.360897    -1.427702
C       -1.428376     1.216127    -0.659501
Se      -1.968583     1.213717     1.002496
Cu      -0.712448     0.827220     3.010665
Br      -2.635875    -0.071671     4.130055
Se       0.724212    -0.860075     3.932101
C        1.352022    -2.215345     2.960916
N        1.074646    -3.600551     3.196221
C        0.248417    -4.147655     4.260627
C       -1.220846    -4.198632     3.840913
C        1.764599    -4.339668     2.175956
C        1.732562    -5.794405     2.033692
C        2.436911    -3.487094     1.377189
C        3.274356    -3.867055     0.233901
N        2.201502    -2.129618     1.823889
C        2.718512    -0.903093     1.243765
C        4.083748    -0.502505     1.847858
N       -1.171680     0.075748    -1.463751
C       -1.310719    -1.312536    -1.078608
C       -2.713389    -1.799240    -1.409722
C       -0.755047     0.557321    -2.734335
C       -0.383522    -0.309489    -3.861390
C       -0.763423     1.911399    -2.720937
C       -0.407106     2.800849    -3.840809
H       -2.844774     4.349178    -2.317601
H       -3.439094     3.275364    -1.013449
H       -3.049113     5.017047    -0.642312
H       -0.599459     4.370892    -1.436069
H       -1.141400     3.736216     0.149882
H        0.597174    -5.125728     4.536404
H        0.378080    -3.469709     5.141337
H       -1.831939    -3.920575     4.705869
H       -1.448645    -3.536296     2.983561
H       -1.468563    -5.249718     3.574660
H        1.714353    -6.318615     3.038887
H        0.833134    -6.038736     1.480814
H        2.606189    -6.129875     1.453961
H        2.646830    -4.414128    -0.450579
H        3.672337    -2.956728    -0.293137
H        4.094359    -4.469818     0.631112
H        2.767391    -1.027745     0.162039
H        2.000081    -0.099480     1.441108
H        4.551624    -1.319840     2.441492
H        3.941733     0.369316     2.504068
H        4.736142    -0.191239     1.026896
H       -0.565895    -1.900276    -1.642468
H       -1.101360    -1.426262    -0.002984
H       -3.273437    -1.014154    -1.956839
H       -2.652181    -2.692633    -2.043059
H       -3.246681    -2.049811    -0.463926
H        0.132804     0.263151    -4.616184
H        0.306154    -1.076720    -3.464837
H       -1.295683    -0.833338    -4.236099
H        0.691127     2.781147    -3.946278
H       -0.881813     2.419124    -4.728194
H       -0.768663     3.850788    -3.657547
58
ex_0480 frame25 trans-conf6
C        4.439818     1.068159     3.194550
C        4.595621    -0.263399     2.479024
N        5.059756    -0.121857     1.121609
C        4.267647    -0.001688    -0.000180
Se       2.400000     0.000000     0.000000
Cu       0.000000     0.000000     0.000000
Br      -1.203782     2.076432     0.006436
Se      -1.200026    -2.078446     0.000000
C       -2.097895    -3.630122     0.000474
N       -2.967896    -4.073541     0.998495
C       -3.289165    -3.359596     2.194203
C       -4.477210    -2.464574     1.936828
C       -3.450551    -5.334259     0.593963
C       -4.408350    -6.167981     1.364953
C       -2.897541    -5.642670    -0.597884
C       -3.125000    -6.880524    -1.398411
N       -2.046914    -4.591955    -0.989898
C       -1.270234    -4.514670    -2.180064
C        0.127528    -5.061786    -1.959662
N        5.062886     0.116939    -1.126661
C        4.581603     0.263350    -2.478279
C        4.456435     1.745837    -2.736330
C        6.376122     0.065151    -0.671485
C        7.556270     0.153794    -1.524139
C        6.371506    -0.076105     0.672979
C        7.545620    -0.169624     1.551247
H        5.186547     1.807411     2.845389
H        4.625069     0.896036     4.271807
H        3.397504     1.437897     3.081540
H        5.331833    -0.861480     3.031297
H        3.616459    -0.772746     2.467571
H       -3.563449    -4.080497     2.958396
H       -2.401158    -2.805978     2.573317
H       -4.273321    -1.680174     1.175716
H       -4.763999    -2.013463     2.904554
H       -5.299881    -3.101570     1.559936
H       -4.627581    -5.747639     2.358407
H       -5.367053    -6.246136     0.818760
H       -3.941141    -7.149491     1.526744
H       -3.949507    -6.719657    -2.115466
H       -2.206464    -7.121943    -1.980981
H       -3.361188    -7.739671    -0.761009
H       -1.786678    -5.125944    -2.917037
H       -1.206573    -3.465185    -2.542818
H        0.849461    -4.250115    -1.722007
H        0.446431    -5.489107    -2.926627
H        0.129839    -5.857768    -1.178968
H        3.561167    -0.192879    -2.554785
H        5.272003    -0.216519    -3.204790
H        5.462120     2.207246    -2.727895
H        3.883271     2.188478    -1.899319
H        3.938689     1.956890    -3.696830
H        7.999051     1.151265    -1.359195
H        8.261144    -0.657144    -1.263564
H        7.270560     0.047527    -2.584316
H        7.315346    -0.794041     2.429755
H        7.848755     0.826206     1.924650
H        8.341862    -0.694080     1.012848
58
ex_0480 frame26 trans-conf5
C        4.317309     2.480160     2.242082
C        4.542949     2.368633     0.742444
N        5.026991     1.079139     0.343753
C        4.214048    -0.002130     0.004830
Se       2.400000     0.000000     0.000000
Cu       0.000000     0.000000     0.000000
Br      -1.201480     2.077521     0.016891
Se      -1.200026    -2.078446     0.000000
C       -1.976140    -3.625023    -0.205224
N       -1.417842    -4.848616     0.162159
C       -0.128655    -5.023651     0.761966
C       -0.293794    -4.947704     2.275232
C       -2.355163    -5.830737    -0.172897
C       -2.171641    -7.278297     0.034122
C       -3.437569    -5.239155    -0.710910
C       -4.659333    -5.917813    -1.189570
N       -3.235999    -3.852733    -0.755054
C       -4.149705    -2.861953    -1.266937
C       -5.120264    -2.338845    -0.230208
N        5.034877    -1.086755    -0.333328
C        4.583143    -2.390877    -0.750131
C        4.427575    -2.421063    -2.259331
C        6.368236    -0.654758    -0.191419
C        7.550234    -1.521542    -0.454386
C        6.367243     0.644873     0.211267
C        7.552040     1.492764     0.475815
H        3.668945     3.364824     2.401929
H        3.799460     1.580560     2.637866
H        5.266455     2.630287     2.794724
H        5.228805     3.137510     0.388570
H        3.538942     2.515048     0.270877
H        0.520358    -4.181476     0.417955
H        0.325467    -5.974888     0.430883
H       -0.446473    -5.960379     2.695912
H        0.587974    -4.465522     2.737851
H       -1.186258    -4.342180     2.544893
H       -2.143260    -7.732714    -0.968970
H       -3.004168    -7.689240     0.657404
H       -1.193429    -7.476395     0.507343
H       -5.460573    -5.893693    -0.417662
H       -5.015903    -5.410263    -2.104915
H       -4.394962    -6.949703    -1.469882
H       -3.612378    -2.000927    -1.695081
H       -4.740455    -3.341434    -2.051686
H       -5.885655    -1.793148    -0.798030
H       -4.631529    -1.608216     0.448510
H       -5.646679    -3.147147     0.318507
H        3.595536    -2.611304    -0.292236
H        5.290290    -3.163724    -0.403299
H        3.410556    -2.072354    -2.536966
H        5.148664    -1.714396    -2.712424
H        4.583989    -3.456071    -2.645675
H        7.786200    -1.543450    -1.537306
H        8.401408    -1.201928     0.156386
H        7.323822    -2.569190    -0.159217
H        7.240963     2.510950     0.793984
H        8.205085     1.036542     1.237618
H        8.113520     1.582470    -0.456412
58
ex_0480 frame27 trans-conf4
C        4.604219     2.553318    -2.013320
C        4.577292     1.067941    -2.314403
N        5.011030     0.321280    -1.165795
C        4.203697    -0.182271    -0.135297
Se       2.400000     0.000000     0.000000
Cu       0.000000     0.000000     0.000000
Br      -1.199500     2.077747    -0.003171
Se      -1.200026    -2.078446     0.000000
C       -2.274840    -3.536410     0.119883
N       -2.214341    -4.477351     1.137708
C       -1.290547    -4.408136     2.241301
C        0.027330    -5.090762     1.941809
C       -3.196040    -5.442911     0.861900
C       -3.462017    -6.634701     1.708311
C       -3.838840    -5.091505    -0.288107
C       -4.946799    -5.815427    -0.955897
N       -3.286513    -3.902429    -0.771469
C       -3.674556    -3.183988    -1.955485
C       -2.927181    -3.641093    -3.205399
N        5.029859    -0.854861     0.777390
C        4.609546    -1.531942     1.972427
C        4.604892    -0.707887     3.246705
C        6.330917    -0.739542     0.299968
C        7.517221    -1.301030     0.978565
C        6.321182    -0.049583    -0.859674
C        7.503521     0.267150    -1.680513
H        4.698719     2.774867    -0.929488
H        5.465382     3.027239    -2.517328
H        3.678135     2.999760    -2.410602
H        5.257529     0.855701    -3.154489
H        3.567401     0.745492    -2.645370
H       -1.717257    -4.809971     3.160901
H       -1.059117    -3.331728     2.406096
H        0.761450    -4.721268     2.679773
H       -0.087098    -6.181813     2.097594
H        0.435112    -4.824855     0.941863
H       -2.484114    -7.050994     2.008894
H       -3.999216    -7.402004     1.143140
H       -4.034909    -6.390304     2.624521
H       -5.255763    -6.628926    -0.320776
H       -5.837148    -5.158245    -1.089848
H       -4.625316    -6.242921    -1.931258
H       -4.763079    -3.290196    -2.101008
H       -3.449530    -2.114749    -1.795550
H       -2.398571    -2.785680    -3.678899
H       -2.180851    -4.426052    -2.976811
H       -3.656680    -4.004737    -3.957397
H        5.237094    -2.412856     2.155809
H        3.593421    -1.887748     1.786601
H        4.191311     0.314127     3.138751
H        3.929475    -1.250452     3.930440
H        5.597168    -0.738918     3.740174
H        8.397438    -0.872977     0.517489
H        7.566009    -1.028081     2.058384
H        7.550502    -2.398744     0.822336
H        8.317438     0.595454    -1.015237
H        7.286982     1.016191    -2.472681
H        7.805629    -0.676249    -2.154712
58
ex_0480 frame28 trans-conf3
C        4.511291     3.038254     0.925081
C        4.498044     2.473839    -0.487826
N        4.968056     1.123521    -0.441264
C        4.159978    -0.000419    -0.238678
Se       2.400000     0.000000     0.000000
Cu       0.000000     0.000000     0.000000
Br      -1.198696     2.079603     0.000084
Se      -1.200026    -2.078446     0.000000
C       -2.085431    -3.621405    -0.003060
N       -2.172540    -4.502297    -1.075550
C       -1.574426    -4.325849    -2.371141
C       -2.560212    -3.574950    -3.242015
C       -2.955526    -5.589366    -0.648069
C       -3.299760    -6.769285    -1.475078
C       -3.335953    -5.373329     0.628055
C       -4.175344    -6.264518     1.458929
N       -2.808819    -4.149599     1.065052
C       -2.962074    -3.536065     2.342373
C       -1.871814    -3.991368     3.300487
N        4.955486    -1.130122    -0.252596
C        4.488920    -2.486310    -0.075265
C        4.503101    -2.897259     1.397007
C        6.271549    -0.698566    -0.467041
C        7.420371    -1.619024    -0.544859
C        6.284585     0.656724    -0.584061
C        7.470405     1.527488    -0.822448
H        4.353693     2.242423     1.680332
H        5.480569     3.517241     1.139741
H        3.698649     3.773122     1.057442
H        5.101137     3.059538    -1.191647
H        3.443735     2.469274    -0.859832
H       -1.390748    -5.309479    -2.840672
H       -0.617754    -3.759194    -2.258813
H       -2.107896    -3.301219    -4.212874
H       -3.414270    -4.241480    -3.446180
H       -2.944776    -2.671807    -2.718546
H       -3.796496    -7.514446    -0.842805
H       -2.378377    -7.245823    -1.866349
H       -3.944742    -6.441149    -2.319419
H       -4.081253    -6.057853     2.549607
H       -3.839805    -7.286488     1.281222
H       -5.227258    -6.180798     1.144375
H       -2.877350    -2.444493     2.217590
H       -3.977339    -3.751365     2.715419
H       -2.368717    -4.368994     4.211061
H       -1.247712    -3.134412     3.618952
H       -1.171946    -4.727972     2.844916
H        3.440975    -2.573067    -0.420519
H        5.078035    -3.165841    -0.713381
H        5.203060    -2.275093     1.984691
H        4.803479    -3.964357     1.474852
H        3.495121    -2.770833     1.855969
H        8.357626    -1.076215    -0.403584
H        7.427525    -2.084577    -1.546869
H        7.267014    -2.444143     0.197301
H        7.169035     2.504985    -1.248719
H        7.998785     1.723032     0.132238
H        8.112609     1.056981    -1.580498
58
ex_0480 frame29 T-shaped Br-Se-ax/Se-eq
C        4.733837     1.716838    -2.742631
C        4.678813     2.144277    -1.281077
N        5.087118     1.094712    -0.379753
C        4.228473     0.132544     0.200678
Se       2.400000     0.000000     0.000000
Cu       0.000000     0.000000     0.000000
Br      -2.359550    -0.438326     0.001963
Se       0.000000     2.400000     0.000000
C       -0.113754     4.275720    -0.236211
N       -1.216891     5.060761     0.061857
C       -2.467367     4.572906     0.602519
C       -2.282267     4.712248     2.120468
C       -0.857152     6.383755    -0.256736
C       -1.727688     7.587781    -0.106630
C        0.407918     6.398713    -0.707112
C        1.179651     7.610257    -1.119158
N        0.908937     5.086668    -0.721406
C        2.213590     4.654253    -1.148646
C        3.136024     4.823361     0.084754
N        5.012094    -0.734362     0.965723
C        4.529492    -1.896082     1.684290
C        4.528332    -3.053236     0.688536
C        6.343848    -0.276254     0.887121
C        7.493567    -0.914551     1.579702
C        6.389223     0.809485     0.077221
C        7.611469     1.590496    -0.284283
H        5.173646     0.707848    -2.853647
H        5.310265     2.462824    -3.327202
H        3.700024     1.696319    -3.164666
H        3.621831     2.306889    -1.083500
H        5.235533     3.086298    -1.091976
H       -2.613272     3.496108     0.392413
H       -3.382900     5.099522     0.267431
H       -1.316418     4.263451     2.441146
H       -2.312739     5.774868     2.435698
H       -3.097926     4.163508     2.646075
H       -1.369971     8.189711     0.749620
H       -1.676665     8.183240    -1.043848
H       -2.784060     7.294850     0.047748
H        1.217819     8.355651    -0.305600
H        2.210049     7.344311    -1.429725
H        0.666451     8.031971    -2.012511
H        2.616180     5.169358    -2.043190
H        2.128399     3.602389    -1.444582
H        3.758861     3.936802     0.288058
H        2.560049     4.936868     1.023965
H        3.830001     5.676338    -0.057727
H        5.186798    -2.125241     2.540236
H        3.501907    -1.762436     2.092535
H        4.472498    -4.012146     1.245442
H        5.456138    -3.045053     0.079546
H        3.651635    -2.984501     0.007561
H        7.226928    -1.088350     2.642301
H        7.670905    -1.892295     1.085972
H        8.398574    -0.282355     1.538711
H        8.404205     0.908155    -0.641115
H        7.391187     2.330451    -1.079965
H        7.948926     2.143483     0.618854
58
ex_0480 frame30 T-shaped Br-Se-ax/Se-eq-conf3
C        4.541521     3.045785     0.923052
C        4.508433     2.488765    -0.507988
N        4.995096     1.117024    -0.461635
C        4.208952    -0.018028    -0.267677
Se       2.400000     0.000000     0.000000
Cu       0.000000     0.000000     0.000000
Br      -2.331857    -0.572827    -0.000574
Se       0.000000     2.400000     0.000000
C       -0.008127     4.230871    -0.003448
N       -0.316629     5.057653    -1.101467
C       -0.676640     4.583332    -2.428437
C        0.600289     4.401320    -3.236507
C       -0.206739     6.398140    -0.679671
C       -0.442101     7.582858    -1.511754
C        0.171884     6.394184     0.667964
C        0.400930     7.589951     1.496246
N        0.301258     5.049301     1.097716
C        0.677203     4.583308     2.409193
C       -0.526661     4.394830     3.328582
N        4.993363    -1.153405    -0.285594
C        4.533149    -2.520616    -0.112481
C        4.539793    -2.895735     1.381262
C        6.314643    -0.702207    -0.468086
C        7.496775    -1.611336    -0.511957
C        6.322968     0.646596    -0.581077
C        7.525309     1.513882    -0.796610
H        4.241008     2.266338     1.660419
H        5.549505     3.427847     1.179692
H        3.805570     3.881961     1.011214
H        5.012723     3.152446    -1.237328
H        3.440998     2.477415    -0.800823
H       -1.374006     5.277882    -2.937686
H       -1.194091     3.601884    -2.355435
H        0.361508     3.938569    -4.218128
H        1.076868     5.388296    -3.400578
H        1.310604     3.736658    -2.695992
H       -0.355359     8.519673    -0.938558
H       -1.471640     7.504116    -1.925106
H        0.289339     7.579096    -2.346630
H        0.469217     7.302322     2.562550
H       -0.445868     8.297052     1.386318
H        1.356562     8.053272     1.175757
H        1.201851     3.603020     2.306533
H        1.444159     5.259029     2.840641
H       -0.384160     4.983858     4.255744
H       -0.652471     3.321010     3.587355
H       -1.462780     4.731467     2.830639
H        3.490756    -2.664912    -0.474253
H        5.176155    -3.197024    -0.701994
H        5.334114    -2.362254     1.944095
H        4.693549    -3.993042     1.489229
H        3.556164    -2.652149     1.851467
H        8.455159    -1.068014    -0.433378
H        7.435545    -2.117589    -1.507918
H        7.420915    -2.391049     0.268768
H        7.203920     2.513174    -1.159189
H        8.108596     1.636685     0.131417
H        8.141685     1.066001    -1.609039
58
ex_0480 frame31 T-shaped Br-Se-ax/Se-eq-conf6
C        4.439906     1.067195     3.195594
C        4.597988    -0.262550     2.480485
N        5.061549    -0.122299     1.123626
C        4.267644    -0.003474    -0.000354
Se       2.400000     0.000000     0.000000
Cu       0.000000     0.000000     0.000000
Br      -2.391275    -0.206182     0.001126
Se       0.000000     2.400000     0.000000
C        0.000136     4.215698     0.001752
N       -1.126481     5.024761     0.092589
C       -2.478314     4.557165     0.199952
C       -2.829374     4.374375     1.658256
C       -0.673231     6.352330     0.058724
C       -1.543989     7.551439     0.130831
C        0.675020     6.344396    -0.048454
C        1.577443     7.526493    -0.117548
N        1.117695     5.016040    -0.085800
C        2.463062     4.551063    -0.193513
C        2.841898     4.358494    -1.638182
N        5.067956     0.111935    -1.127202
C        4.590260     0.253144    -2.483811
C        4.487295     1.721969    -2.755940
C        6.382656     0.063264    -0.670206
C        7.564866     0.153850    -1.526675
C        6.377164    -0.076375     0.675268
C        7.554563    -0.168059     1.553401
H        5.188949     1.807320     2.846786
H        4.619894     0.896693     4.274094
H        3.399621     1.442330     3.076227
H        5.329791    -0.865040     3.032632
H        3.616479    -0.778180     2.474018
H       -3.138117     5.313407    -0.219813
H       -2.630176     3.630023    -0.400129
H       -2.215377     3.590688     2.155578
H       -3.905269     4.123564     1.711663
H       -2.641195     5.336857     2.172145
H       -2.615736     7.293730     0.106115
H       -1.354245     8.095531     1.073533
H       -1.337793     8.166549    -0.756191
H        1.917396     7.794216     0.897950
H        2.471730     7.273449    -0.727812
H        1.076814     8.386309    -0.579638
H        3.088047     5.335166     0.230120
H        2.611283     3.607586     0.381422
H        2.566724     3.356127    -1.953177
H        3.932220     4.522681    -1.716038
H        2.293036     5.026355    -2.322185
H        3.563988    -0.191882    -2.558001
H        5.266748    -0.221147    -3.209152
H        5.471503     2.206701    -2.734344
H        3.991842     2.083480    -1.872778
H        3.937517     1.956486    -3.695129
H        8.004480     1.151298    -1.358317
H        8.262069    -0.658296    -1.266478
H        7.275244     0.050664    -2.584983
H        7.318682    -0.795596     2.429697
H        7.849875     0.827220     1.923260
H        8.347697    -0.693914     1.013348
58
ex_0480 frame32 T-shaped Br-Se-ax/Se-eq-conf2
C        4.561759     3.164861     0.865570
C        4.578282     1.891568     1.709947
N        5.002081     0.739958     0.950442
C        4.176033    -0.111021     0.207856
Se       2.400000     0.000000     0.000000
Cu       0.000000     0.000000     0.000000
Br      -2.389338    -0.226704     0.000639
Se       0.000000     2.400000     0.000000
C       -0.221226     4.188835    -0.057941
N       -0.639141     5.006736     1.000004
C       -0.971833     4.590336     2.319235
C        0.252169     4.631466     3.207300
C       -0.670573     6.309369     0.518355
C       -1.065011     7.487377     1.332545
C       -0.293717     6.309542    -0.773715
C       -0.188288     7.490063    -1.668380
N       -0.007689     5.007803    -1.169731
C        0.422108     4.598967    -2.469927
C        1.932859     4.641761    -2.583567
N        4.958085    -1.091669    -0.366986
C        4.481410    -2.146915    -1.195603
C        4.471660    -1.756700    -2.664399
C        6.271981    -0.860001     0.007881
C        7.407782    -1.722754    -0.427600
C        6.311907     0.236790     0.800066
C        7.517493     0.822683     1.413213
H        3.618334     3.725442     1.032778
H        4.700617     2.937152    -0.208770
H        5.373961     3.858779     1.171662
H        3.569904     1.712501     2.160402
H        5.321841     2.042083     2.503249
H       -1.338840     3.554432     2.281684
H       -1.793767     5.222256     2.698791
H        0.022687     4.003667     4.091178
H        0.483843     5.650161     3.572961
H        1.126248     4.258336     2.626205
H       -0.702493     7.395546     2.386780
H       -2.168530     7.581493     1.274564
H       -0.629442     8.396977     0.905756
H       -0.743028     8.308363    -1.218943
H       -0.675321     7.304253    -2.653889
H        0.866745     7.823985    -1.783415
H        0.029507     5.310106    -3.213444
H       -0.001953     3.610860    -2.707982
H        2.272828     5.673426    -2.832856
H        2.415585     4.240054    -1.671490
H        2.244208     4.016219    -3.432330
H        5.097011    -3.030215    -0.992936
H        3.437750    -2.382040    -0.920811
H        5.397785    -1.231144    -2.970113
H        3.566048    -1.155347    -2.902331
H        4.397651    -2.680401    -3.260352
H        7.435686    -1.805444    -1.542418
H        8.338084    -1.338213    -0.018456
H        7.273964    -2.757160    -0.052607
H        7.706593     0.273312     2.353037
H        8.371685     0.711913     0.716021
H        7.356034     1.884398     1.673955
58
ex_0480 frame33 T-shaped Se-Se-ax/Br-eq-conf6
C        4.414407     1.072022     3.171203
C        4.718887    -0.270292     2.518538
N        5.129561    -0.125781     1.136079
C        4.267636    -0.004094    -0.000413
Se       2.400000     0.000000     0.000000
Cu       0.000000     0.000000     0.000000
Br      -0.002186     2.336681    -0.530877
Se      -2.400000     0.000000     0.000000
C       -4.215678    -0.001883    -0.009067
N       -5.059714     1.128381    -0.256042
C       -4.613485     2.476686    -0.549102
C       -4.376835     2.586566    -2.049852
C       -6.409504     0.673963    -0.156642
C       -7.638745     1.531013    -0.319875
C       -6.416856    -0.652699     0.108995
C       -7.642744    -1.514001     0.260642
N       -5.078966    -1.123390     0.225668
C       -4.674841    -2.482718     0.525669
C       -4.195606    -2.565008     1.970973
N        5.106681     0.115633    -1.149945
C        4.653804     0.283999    -2.515134
C        4.561786     1.781733    -2.777036
C        6.455091     0.039953    -0.695827
C        7.677029     0.083952    -1.575094
C        6.466287    -0.069383     0.653529
C        7.694842    -0.124009     1.522145
H        5.324221     1.710748     3.156643
H        4.115926     0.910435     4.228931
H        3.593473     1.592546     2.637104
H        5.532435    -0.754673     3.097532
H        3.836079    -0.943199     2.562315
H       -5.356539     3.233903    -0.232593
H       -3.678812     2.710136     0.003918
H       -3.604162     1.857578    -2.372667
H       -4.032776     3.611734    -2.300697
H       -5.321945     2.381054    -2.596657
H       -7.398065     2.589043    -0.527079
H       -8.237424     1.147101    -1.171823
H       -8.252069     1.491132     0.604888
H       -7.646239    -2.303992    -0.517966
H       -7.626470    -1.989356     1.263794
H       -8.580092    -0.928616     0.170121
H       -5.540256    -3.172096     0.434311
H       -3.894446    -2.825394    -0.186561
H       -3.318596    -1.910045     2.142212
H       -3.921160    -3.612714     2.214681
H       -5.019513    -2.251667     2.649713
H        3.650438    -0.169603    -2.660926
H        5.326253    -0.205807    -3.247941
H        5.559361     2.254365    -2.660521
H        3.851462     2.248154    -2.060817
H        4.194221     1.958649    -3.809438
H        8.275805     0.978031    -1.302866
H        8.293032    -0.828116    -1.430138
H        7.418851     0.160709    -2.647519
H        7.690368    -1.053991     2.125982
H        7.694205     0.753598     2.202022
H        8.629098    -0.102262     0.925646
58
ex_0480 frame34 T-shaped Br-Se-ax/Se-eq-conf5
C        4.325667     2.468584     2.250960
C        4.603421     2.335868     0.765767
N        5.060751     1.063496     0.356015
C        4.236246    -0.010520     0.010395
Se       2.400000     0.000000     0.000000
Cu       0.000000     0.000000     0.000000
Br      -2.293616    -0.702373    -0.001753
Se       0.000000     2.400000     0.000000
C       -0.007503     4.152119     0.228931
N        1.119937     4.946872     0.376137
C        2.459393     4.466335     0.359191
C        2.977230     4.448075    -1.084761
C        0.701107     6.247865     0.540263
C        1.598091     7.404166     0.745334
C       -0.643627     6.274847     0.484729
C       -1.492625     7.470044     0.602528
N       -1.127244     4.970385     0.296348
C       -2.506051     4.556886     0.192930
C       -3.041952     4.584232    -1.223597
N        5.037227    -1.093100    -0.330969
C        4.579353    -2.396336    -0.751628
C        4.427048    -2.421307    -2.262585
C        6.360381    -0.667735    -0.193179
C        7.558704    -1.522358    -0.457758
C        6.375895     0.631167     0.212216
C        7.565675     1.490364     0.472457
H        3.691386     3.356953     2.432165
H        3.794125     1.578003     2.638397
H        5.271654     2.620435     2.797665
H        5.235492     3.147203     0.380347
H        3.686760     2.340661     0.224560
H        2.292579     3.485597     0.806136
H        3.131114     5.013061     1.046769
H        3.504424     5.395082    -1.293617
H        3.669797     3.619799    -1.313531
H        2.138162     4.342957    -1.793893
H        1.382356     7.784171     1.754534
H        1.409048     8.159097    -0.043422
H        2.655740     7.084529     0.723863
H       -1.786352     7.832548    -0.404548
H       -2.392032     7.208354     1.181654
H       -0.943386     8.232281     1.173320
H       -2.653466     3.536722     0.603577
H       -3.099259     5.257723     0.787355
H       -4.134914     4.487875    -1.130822
H       -2.673770     3.715561    -1.810977
H       -2.837809     5.549995    -1.736032
H        3.598760    -2.625554    -0.291289
H        5.292352    -3.165195    -0.404478
H        3.412852    -2.064141    -2.538627
H        5.160750    -1.727913    -2.722276
H        4.573334    -3.454903    -2.644750
H        7.786977    -1.541119    -1.536988
H        8.414056    -1.194684     0.155889
H        7.332271    -2.564657    -0.153199
H        7.253562     2.506167     0.798408
H        8.206104     1.035024     1.244570
H        8.123224     1.585668    -0.468340
58
ex_0480 frame35 T-shaped Se-Se-ax/Br-eq-conf4
C        4.721652     2.288105    -2.074135
C        4.512848     0.854552    -2.437444
N        4.954332     0.121629    -1.269077
C        4.294437    -0.349153    -0.223834
Se       2.400000     0.000000     0.000000
Cu       0.000000     0.000000     0.000000
Br      -0.000829     2.386043    -0.258183
Se      -2.400000     0.000000     0.000000
C       -4.251623     0.382916    -0.112578
N       -4.943585     0.866819     0.944250
C       -4.475042     1.379029     2.205065
C       -4.541675     0.101877     3.058954
C       -6.272847     0.716759     0.505597
C       -7.478146     0.971361     1.389745
C       -6.287965     0.297996    -0.768039
C       -7.518509    -0.004250    -1.597340
N       -4.966388     0.152151    -1.239577
C       -4.518717    -0.160533    -2.574393
C       -4.710320    -1.685440    -2.596458
N        4.974553    -1.029840     0.685071
C        4.552773    -1.780865     1.849760
C        4.685155    -0.908680     2.979460
C        6.300939    -0.835369     0.239417
C        7.534506    -1.332233     0.953801
C        6.291672    -0.145898    -0.899319
C        7.512618     0.280987    -1.670670
H        4.186469     2.518785    -1.127596
H        5.792518     2.535411    -1.930329
H        4.323717     2.950106    -2.871472
H        5.042814     0.579281    -3.406564
H        3.424489     0.671306    -2.632520
H       -5.063717     2.199701     2.664646
H       -3.409359     1.689067     2.181099
H       -4.137802     0.302338     4.072863
H       -5.569232    -0.281621     3.180496
H       -3.934336    -0.704459     2.594492
H       -7.402712     0.328354     2.282435
H       -8.446097     0.726647     0.923408
H       -7.532643     2.029815     1.717689
H       -8.472209     0.111352    -1.057729
H       -7.577659     0.635238    -2.501800
H       -7.482426    -1.062421    -1.899982
H       -5.030066     0.316268    -3.435234
H       -3.428708     0.019852    -2.682033
H       -4.188392    -2.119778    -3.473700
H       -4.293426    -2.146091    -1.674500
H       -5.768881    -1.978274    -2.686051
H        5.131360    -2.803083     1.970203
H        3.475185    -2.144943     1.721670
H        4.091956     0.013279     2.797858
H        4.308168    -1.392107     3.904666
H        5.728729    -0.607777     3.171913
H        8.467667    -0.838628     0.548900
H        7.521529    -0.768169     2.045680
H        7.610981    -2.308389     1.110664
H        8.028817     1.138059    -0.926795
H        7.264499     0.911398    -2.545100
H        8.217602    -0.417590    -1.831087
58
ex_0480 frame36 T-shaped Se-Se-ax/Br-eq-conf2
C        4.721160     2.893568     1.016563
C        4.523856     1.718981     1.919070
N        4.951646     0.583516     1.128440
C        4.282726    -0.243497     0.351389
Se       2.400000     0.000000     0.000000
Cu       0.000000     0.000000     0.000000
Br       0.001161     2.389494     0.226391
Se      -2.400000     0.000000     0.000000
C       -4.263163     0.077859     0.383111
N       -4.973751     1.229564     0.278293
C       -4.509432     2.575805     0.075603
C       -4.629098     2.672131    -1.455236
C       -6.302905     0.779242     0.393009
C       -7.515233     1.673472     0.212222
C       -6.311280    -0.535373     0.652671
C       -7.538219    -1.411572     0.809732
N       -4.986397    -1.016421     0.743773
C       -4.552311    -2.337676     1.125572
C       -4.684782    -3.094196    -0.205834
N        4.943221    -1.231266    -0.221239
C        4.503817    -2.363916    -1.003003
C        4.584200    -1.871990    -2.375347
C        6.276055    -0.907976     0.112532
C        7.494481    -1.667454    -0.352865
C        6.280329     0.168565     0.893608
C        7.509755     0.839805     1.441698
H        4.331028     3.816146     1.495548
H        4.169359     2.735000     0.064669
H        5.788700     3.061740     0.770381
H        3.437497     1.632564     2.183577
H        5.066910     1.845120     2.909774
H       -3.435430     2.708674     0.321131
H       -5.081314     3.387515     0.570804
H       -4.238667     3.649595    -1.806155
H       -5.669295     2.586202    -1.813126
H       -4.040936     1.863831    -1.940225
H       -7.468312     2.153902    -0.778448
H       -7.556048     2.465375     0.988359
H       -8.480686     1.142924     0.241965
H       -8.497222    -0.886754     0.670605
H       -7.572272    -1.883420     1.813216
H       -7.516151    -2.202322     0.041991
H       -5.132383    -2.839587     1.927218
H       -3.477847    -2.367618     1.402475
H       -5.726521    -3.161349    -0.561399
H       -4.088026    -2.590471    -0.996372
H       -4.309871    -4.132096    -0.089545
H        5.104931    -3.335088    -0.826102
H        3.436808    -2.665124    -0.748518
H        5.612084    -1.592199    -2.668174
H        3.945652    -0.969618    -2.487157
H        4.227491    -2.641692    -3.090899
H        7.458145    -1.626795    -1.558258
H        8.437936    -1.070634    -0.180111
H        7.565169    -2.631931    -0.068379
H        8.208997     0.282471     1.850111
H        8.034828     1.328705     0.384977
H        7.276998     1.802188     1.951543
58
ex_0480 frame37 T-shaped Se-Se-ax/Br-eq
C        4.769262     1.854578    -2.397160
C        4.604108     2.368218    -0.992457
N        4.988677     1.244890    -0.166129
C        4.278618     0.254027     0.343125
Se       2.400000     0.000000     0.000000
Cu       0.000000     0.000000     0.000000
Br       0.001372     2.240322    -0.861063
Se      -2.400000     0.000000     0.000000
C       -4.255630    -0.058507    -0.387912
N       -4.966815    -1.201327    -0.315100
C       -4.503905    -2.542255    -0.118928
C       -4.744574    -2.604686     1.399046
C       -6.280389    -0.742437    -0.444877
C       -7.506249    -1.608602    -0.313720
C       -6.278705     0.564052    -0.662480
C       -7.515629     1.409653    -0.813709
N       -4.964503     1.046217    -0.703715
C       -4.513224     2.374210    -1.005793
C       -4.772745     3.009622     0.370648
N        4.932504    -0.613736     1.099411
C        4.471030    -1.721674     1.890540
C        4.552794    -2.792016     0.817102
C        6.274865    -0.209011     0.953738
C        7.474112    -0.898940     1.554314
C        6.297218     0.878017     0.195797
C        7.540222     1.614691    -0.218849
H        5.787676     1.453428    -2.578697
H        4.580163     2.666034    -3.130693
H        4.040776     1.036332    -2.585349
H        3.537812     2.673441    -0.835317
H        5.224137     3.292836    -0.809168
H       -3.415438    -2.671020    -0.291165
H       -5.031057    -3.372541    -0.631870
H       -4.204498    -1.777761     1.909264
H       -5.820640    -2.516043     1.652331
H       -4.375283    -3.568543     1.806477
H       -8.020607    -1.254649     0.604145
H       -8.203259    -1.522438    -1.174042
H       -7.256080    -2.680750    -0.193252
H       -8.025940     1.364579     0.171770
H       -7.277317     2.464540    -1.048981
H       -8.212820     1.043401    -1.596298
H       -5.021969     2.950770    -1.805110
H       -3.420015     2.423048    -1.189640
H       -4.368017     4.042943     0.393812
H       -4.274410     2.419246     1.169732
H       -5.853330     3.064302     0.610261
H        5.086286    -2.011271     2.780477
H        3.414303    -1.633465     2.241764
H        4.214848    -3.767060     1.226418
H        5.583043    -2.926442     0.435664
H        3.906532    -2.534156    -0.046965
H        7.528195    -0.896207     2.592615
H        7.424405    -2.008536     1.181038
H        8.429132    -0.536815     1.084956
H        8.087426     0.718616    -1.026502
H        7.336515     2.353333    -1.052514
H        8.227169     1.819766     0.402290
58
ex_0480 frame38 T-shaped Se-Se-ax/Br-eq-conf5
C        4.229828     2.545658     2.440674
C        4.593343     2.266244     1.014582
N        5.031619     0.979279     0.545396
C        4.329553    -0.071528     0.131532
Se       2.400000     0.000000     0.000000
Cu       0.000000     0.000000     0.000000
Br       0.004774     2.396607     0.130488
Se      -2.400000     0.000000     0.000000
C       -4.244667    -0.367621    -0.171912
N       -4.919374    -1.023559     0.789806
C       -4.417071    -1.711169     1.942195
C       -4.605342    -0.568291     2.954171
C       -6.247223    -0.840246     0.392608
C       -7.445442    -1.279935     1.193201
C       -6.281717    -0.199133    -0.772201
C       -7.537692     0.232818    -1.491895
N       -4.974735     0.045489    -1.237923
C       -4.579393     0.589859    -2.513471
C       -4.693865     2.097759    -2.237974
N        5.034360    -1.142286    -0.211418
C        4.612190    -2.470215    -0.595384
C        4.542664    -2.434186    -2.055201
C        6.361213    -0.672167    -0.124337
C        7.583330    -1.481684    -0.477340
C        6.368421     0.584902     0.309689
C        7.601089     1.432209     0.510968
H        3.853276     3.586209     2.533716
H        3.443071     1.839254     2.775222
H        5.133901     2.429624     3.074896
H        5.347087     3.014631     0.670335
H        3.714150     2.444310     0.337625
H       -3.331334    -1.934031     1.890729
H       -4.936327    -2.628978     2.284914
H       -5.675315    -0.312855     3.095199
H       -4.186607    -0.858101     3.940336
H       -4.077387     0.346739     2.607240
H       -8.150264    -1.906793     0.606605
H       -7.962135    -0.350649     1.512277
H       -7.159690    -1.856574     2.094252
H       -7.526175     1.332340    -1.588053
H       -7.621055    -0.221294    -2.500912
H       -8.454096    -0.029211    -0.925228
H       -3.514891     0.390661    -2.756477
H       -5.198025     0.299705    -3.387902
H       -4.372557     2.670066    -3.133394
H       -4.039494     2.384892    -1.386893
H       -5.723329     2.413418    -1.995675
H        3.594843    -2.725420    -0.158371
H        5.298054    -3.306251    -0.189754
H        3.819661    -1.651573    -2.371040
H        5.516496    -2.201707    -2.521325
H        4.200544    -3.410544    -2.456736
H        7.444873    -1.704814    -1.705496
H        8.499781    -0.822155    -0.578096
H        7.722664    -2.343189    -0.041312
H        7.391236     2.444232     0.884361
H        8.381054     0.976365     1.025276
H        7.987039     1.637472    -0.611034
58
ex_0480 frame39 T-shaped Se-Se-ax/Br-eq-conf3
C        4.614735     2.952760     0.567381
C        4.440720     2.457935    -0.834948
N        4.889381     1.090597    -0.718573
C        4.278926    -0.024913    -0.460587
Se       2.400000     0.000000     0.000000
Cu       0.000000     0.000000     0.000000
Br      -0.025527     2.395968    -0.006836
Se      -2.400000     0.000000     0.000000
C       -4.308747    -0.146429     0.028108
N       -5.014239    -0.500928    -1.078760
C       -4.554416    -0.996796    -2.348759
C       -4.477164     0.317863    -3.141056
C       -6.336872    -0.229847    -0.682653
C       -7.534597    -0.308377    -1.602768
C       -6.367214     0.131793     0.597160
C       -7.618956     0.509245     1.356628
N       -5.063342     0.132385     1.126549
C       -4.656801     0.369910     2.485987
C       -4.228279    -0.737190     3.429616
N        4.922763    -1.152775    -0.462620
C        4.511663    -2.535556    -0.369838
C        4.568115    -2.844512     1.014723
C        6.241829    -0.673958    -0.573250
C        7.477587    -1.537451    -0.539057
C        6.226602     0.646407    -0.706214
C        7.438889     1.528888    -0.824790
H        4.053253     2.299701     1.270064
H        5.677919     2.952003     0.881339
H        4.228054     3.987820     0.664734
H        4.986747     3.105384    -1.588291
H        3.358325     2.511250    -1.120583
H       -5.205470    -1.734539    -2.862042
H       -3.525094    -1.409446    -2.309425
H       -4.075712     0.125874    -4.157205
H       -5.459994     0.805391    -3.259168
H       -3.804694     1.037294    -2.626247
H       -8.467537     0.013492    -1.097101
H       -7.698302    -1.334415    -1.991767
H       -7.383806     0.379712    -2.451291
H       -7.463273     0.696612     2.432422
H       -8.407138    -0.270379     1.287265
H       -7.995412     1.443109     0.889307
H       -3.822956     1.088104     2.331728
H       -5.459878     0.944632     2.979967
H       -3.947369    -0.289533     4.407573
H       -3.355758    -1.280341     3.014333
H       -5.073254    -1.439634     3.587568
H        3.452031    -2.683763    -0.804243
H        5.136801    -3.259799    -1.065478
H        5.584723    -2.742516     1.431701
H        4.226249    -3.881487     1.211091
H        3.905966    -2.146557     1.570343
H        8.404746    -0.907677    -0.333982
H        7.590746    -2.250901    -1.198949
H        7.427918    -2.067752     0.587133
H        7.183337     2.605538    -0.839290
H        7.914465     1.454405     0.339483
H        8.178338     1.247800    -1.439471
58
ex_0480 frame40 T-shaped Br-Se-ax/Se-eq-conf4
C        4.667990     2.439986    -2.088828
C        4.592427     1.002929    -2.345529
N        5.021385     0.287729    -1.179189
C        4.198908    -0.198025    -0.137638
Se       2.400000     0.000000     0.000000
Cu       0.000000     0.000000     0.000000
Br      -2.371006    -0.379302     0.002181
Se       0.000000     2.400000     0.000000
C       -0.143069     4.176693    -0.185209
N        0.724566     4.972106    -0.929763
C        1.838694     4.480616    -1.661967
C        2.971114     4.557299    -0.702990
C        0.281854     6.330886    -0.815655
C        0.948913     7.490581    -1.460031
C       -0.832303     6.347300    -0.030894
C       -1.636948     7.531530     0.359211
N       -1.128352     5.020700     0.376653
C       -2.223594     4.593570     1.207482
C       -1.879214     4.618264     2.697685
N        5.029041    -0.873467     0.786463
C        4.598894    -1.548348     1.978791
C        4.602004    -0.713121     3.254780
C        6.363540    -0.754514     0.301505
C        7.537205    -1.302795     0.973948
C        6.341642    -0.070532    -0.863710
C        7.511742     0.253236    -1.681211
H        4.847562     2.577259    -0.961719
H        5.503995     3.005715    -2.543422
H        3.750178     2.813567    -2.608221
H        5.250287     0.830314    -3.176255
H        3.556526     0.727043    -2.632101
H        2.042474     5.033329    -2.588294
H        1.609620     3.422538    -1.942706
H        3.715827     4.135718    -1.162365
H        3.557140     5.459345    -0.753225
H        2.914405     3.965662     0.222125
H        2.038662     7.355530    -1.331612
H        0.659686     8.414073    -0.972441
H        0.719816     7.543061    -2.543252
H       -1.275797     8.378446    -0.167169
H       -2.701495     7.381029     0.068357
H       -1.554300     7.711352     1.450608
H       -3.095185     5.225343     1.000115
H       -2.475912     3.558390     0.925322
H       -2.030812     3.610916     3.141359
H       -0.832776     4.924617     2.876748
H       -2.576892     5.299967     3.217218
H        5.233413    -2.420659     2.145504
H        3.574478    -1.868953     1.784778
H        4.188975     0.317652     3.132323
H        3.935583    -1.247948     3.935130
H        5.602231    -0.723200     3.730010
H        8.411946    -0.886619     0.522342
H        7.560820    -1.026240     2.057214
H        7.544235    -2.398335     0.830136
H        8.319618     0.614348    -1.024857
H        7.291956     1.016683    -2.472793
H        7.813466    -0.676564    -2.156461
