35
ex_0543 frame0 trigonal-prismatic top-ClSeSe/bot-ClSeSe-conf2
C        2.678894    -1.394722    -2.462258
Se       1.753942     0.028235    -1.496431
C        3.361848     0.758969    -0.652129
C        2.870975     1.367360     0.637952
Se       1.746693     0.011669     1.505196
C        3.130372    -0.800927     2.593517
Ni       0.000000     0.000000     0.000000
Cl      -0.569869     1.752827     1.296181
Cl      -0.893113     1.402407    -1.518795
Se      -0.938490    -1.457569     1.519508
C       -2.446129    -0.435074     2.134953
C       -2.060989    -2.831259     0.662475
C       -2.514085    -2.262358    -0.658883
Se      -0.915194    -1.509803    -1.483055
C       -0.672554    -2.912864    -2.801208
H        2.312406    -2.381014    -2.108734
H        2.481343    -1.268884    -3.546060
H        3.776081    -1.356367    -2.307149
H        4.081463    -0.045891    -0.389037
H        3.862291     1.522055    -1.288117
H        2.225394     2.240914     0.397233
H        3.692476     1.758106     1.276171
H        3.986066    -0.113795     2.742591
H        3.462978    -1.743930     2.115273
H        2.692911    -1.007754     3.592450
H       -2.115411     0.059017     3.071487
H       -2.716848     0.302055     1.353879
H       -3.311692    -1.077988     2.358486
H       -1.444509    -3.737506     0.472604
H       -2.916399    -3.157547     1.293278
H       -3.036403    -3.019806    -1.282906
H       -3.235525    -1.434940    -0.488597
H       -0.069356    -2.484705    -3.628525
H       -0.128341    -3.767540    -2.351396
H       -1.643187    -3.223142    -3.236634
