85
ex_0318 frame0 Isomer 2
C       -4.625244     2.461131    -0.756503
C       -3.861802     2.402287     0.566085
C       -2.355282     2.275748     0.323500
C       -1.562103     2.269280     1.646781
N       -0.112366     2.172537     1.373704
C        0.428947     3.494129     0.961789
C        1.110292     4.120923     2.193438
C        0.871540     3.109102     3.305691
C        0.727114     1.799116     2.540606
C        2.141950     1.235275     2.088052
N        2.022766     0.082241     1.152615
C        1.665879    -1.197656     1.825020
C        2.816109    -2.178407     1.904453
C        2.868087    -3.247111     0.990512
C        3.946500    -4.130749     0.999504
C        4.962812    -3.980823     1.944761
C        4.901020    -2.943861     2.882042
C        3.828208    -2.044366     2.867361
C        3.130226    -0.051977     0.168349
C        3.495145     1.209848    -0.606637
C        4.806813     1.699288    -0.441332
C        5.242726     2.836527    -1.116655
Cl       6.878980     3.421268    -0.873984
C        4.380448     3.505384    -1.981153
C        3.070954     3.052199    -2.156997
Cl       2.007990     3.928393    -3.248371
C        2.609603     1.916008    -1.470255
O        1.327364     1.540040    -1.663897
Zr       0.292038     0.593234    -0.102379
N       -0.646318    -1.288525    -0.750401
Si      -1.937930    -2.068726     0.241068
C       -1.384913    -3.849196     0.385767
C       -3.643429    -1.797991    -0.497818
C       -2.102998    -1.478371     2.000126
Si      -0.753393    -1.472485    -2.546294
C       -1.482626    -3.124507    -3.079993
C       -1.718128    -0.048640    -3.277225
C        0.961600    -1.470209    -3.287206
H       -5.713425     2.551925    -0.556177
H       -4.302212     3.343968    -1.350035
H       -4.446484     1.540954    -1.351677
H       -4.219062     1.532766     1.157933
H       -4.070650     3.335147     1.134190
H       -2.039056     3.130442    -0.309481
H       -2.147956     1.338858    -0.236867
H       -1.798902     3.188709     2.227690
H       -1.883216     1.420243     2.264744
H       -0.320557     4.184421     0.521616
H        1.199946     3.348799     0.184172
H        2.198911     4.198589     1.982122
H        0.739681     5.134294     2.460828
H       -0.120513     3.331672     3.752626
H        1.621912     3.129100     4.124373
H        0.243121     1.016512     3.161838
H        2.677780     2.057672     1.582927
H        2.769379     0.968212     2.965216
H        1.189742    -1.052401     2.817786
H        0.888901    -1.660051     1.196510
H        2.098533    -3.365066     0.236328
H        3.996947    -4.924148     0.264914
H        5.800263    -4.665769     1.945583
H        5.691681    -2.831485     3.611816
H        3.798759    -1.235941     3.586390
H        2.850702    -0.822577    -0.583827
H        4.041228    -0.410056     0.691206
H        5.503226     1.194778     0.218236
H        4.722665     4.391168    -2.500561
H       -1.122550    -4.266614    -0.600602
H       -2.175753    -4.464539     0.855145
H       -0.473730    -3.874649     1.021374
H       -3.676201    -1.941089    -1.589107
H       -4.364793    -2.488810    -0.017636
H       -3.951473    -0.752890    -0.293871
H       -2.757721    -2.181227     2.554123
H       -1.123490    -1.418638     2.508422
H       -2.610999    -0.504930     1.992137
H       -0.788054    -3.939714    -2.799079
H       -2.468113    -3.335111    -2.632814
H       -1.596817    -3.129572    -4.182271
H       -2.702240     0.050193    -2.778609
H       -1.140194     0.888919    -3.140314
H       -1.866257    -0.226947    -4.362576
H        0.888352    -1.638134    -4.381630
H        1.555126    -2.288953    -2.830343
H        1.465937    -0.504994    -3.101161
85
ex_0318 frame1 Isomer 1
C        2.704926     2.393262     4.452244
C        3.380112     1.748488     3.230870
C        2.380329     1.295815     2.132985
C        1.398897     0.263508     2.680015
N        0.318033    -0.280893     1.783775
C       -0.235910    -1.457027     2.483505
C       -1.149269    -0.853174     3.592296
C       -1.569823     0.539431     3.040721
C       -0.955292     0.481262     1.656117
C       -0.931058     1.633370     0.615680
N       -0.709173     1.042714    -0.750676
C       -1.864722     0.295934    -1.336328
C       -3.137139     1.109444    -1.356754
C       -3.993571     1.106304    -0.242061
C       -5.142117     1.895563    -0.232015
C       -5.459981     2.678990    -1.342710
C       -4.633554     2.663264    -2.470329
C       -3.479152     1.875059    -2.483017
C       -0.181584     1.998341    -1.745341
C        1.113636     2.712455    -1.395711
C        1.069025     4.118581    -1.374240
C        2.214495     4.870129    -1.126217
Cl       2.123521     6.621611    -1.127860
C        3.426544     4.230909    -0.878078
C        3.495304     2.836299    -0.860623
Cl       5.043315     2.066125    -0.541626
C        2.345857     2.061648    -1.093522
O        2.468647     0.718097    -1.018073
Zr       0.856290    -0.444754    -0.343355
N        0.797712    -2.451027    -1.243511
Si       1.536294    -2.447860    -2.890695
C        3.370910    -2.056957    -2.842952
C        0.799044    -1.173065    -4.037114
C        1.131262    -4.098691    -3.673489
Si       1.656480    -3.580066    -0.109827
C        2.611604    -4.999835    -0.881286
C        0.390472    -4.437549     0.966787
C        2.896336    -2.605323     0.895513
H        3.470205     2.815327     5.134894
H        2.017571     3.203282     4.130365
H        2.138912     1.647344     5.049283
H        3.994096     0.889122     3.584710
H        4.068126     2.494557     2.780542
H        1.857190     2.189426     1.754412
H        2.974332     0.832001     1.324221
H        0.944720     0.690401     3.580452
H        2.047650    -0.573112     3.029032
H        0.511144    -2.188540     2.862844
H       -0.883851    -2.011022     1.777469
H       -0.556484    -0.677446     4.516489
H       -1.986909    -1.536625     3.842770
H       -1.102568     1.357389     3.627613
H       -2.669787     0.697377     3.017283
H       -1.702830    -0.169373     1.164888
H       -1.861456     2.230874     0.639316
H       -0.124300     2.330677     0.897343
H       -1.620933    -0.043947    -2.367355
H       -2.037656    -0.674146    -0.829087
H       -3.763683     0.513254     0.631078
H       -5.778788     1.903568     0.642821
H       -6.346663     3.297499    -1.327931
H       -4.882065     3.269542    -3.330909
H       -2.840531     1.881475    -3.358107
H       -0.970951     2.740961    -1.985874
H        0.035140     1.462060    -2.689308
H        0.143852     4.641486    -1.586493
H        4.314796     4.819437    -0.689706
H        3.842251    -2.471742    -1.934515
H        3.869906    -2.477533    -3.737900
H        3.512575    -0.957962    -2.822102
H        1.215145    -1.335939    -5.054211
H        1.107532    -0.165837    -3.704075
H       -0.304185    -1.258166    -4.074945
H        1.962547    -4.814995    -3.544239
H        0.206064    -4.496185    -3.203885
H        0.947516    -3.962082    -4.757814
H        3.388316    -4.628130    -1.576134
H        3.110366    -5.581685    -0.082048
H        1.913302    -5.665478    -1.425522
H        0.208316    -5.453127     0.561025
H        0.770317    -4.532647     2.004580
H       -0.577528    -3.913024     0.934445
H        3.891489    -2.658454     0.410230
H        2.974933    -3.031412     1.915868
H        2.595899    -1.547265     0.949394
85
ex_0318 frame2 Isomer 2
C       -4.625244     2.461131    -0.756503
C       -3.861802     2.402287     0.566085
C       -2.355282     2.275748     0.323500
C       -1.562103     2.269280     1.646781
N       -0.112366     2.172537     1.373704
C        0.428947     3.494129     0.961789
C        1.110292     4.120923     2.193438
C        0.871540     3.109102     3.305691
C        0.727114     1.799116     2.540606
C        2.141950     1.235275     2.088052
N        2.022766     0.082241     1.152615
C        1.665879    -1.197656     1.825020
C        2.816109    -2.178407     1.904453
C        2.868087    -3.247111     0.990512
C        3.946500    -4.130749     0.999504
C        4.962812    -3.980823     1.944761
C        4.901020    -2.943861     2.882042
C        3.828208    -2.044366     2.867361
C        3.130226    -0.051977     0.168349
C        3.494815     1.210453    -0.605805
C        4.806813     1.699288    -0.441332
C        5.242726     2.836527    -1.116655
Cl       6.878980     3.421268    -0.873984
C        4.380448     3.505384    -1.981153
C        3.070620     3.052841    -2.156157
Cl       2.007990     3.928393    -3.248371
C        2.609399     1.916422    -1.469708
O        1.327364     1.540040    -1.663897
Zr       0.292038     0.593234    -0.102379
N       -0.646318    -1.288525    -0.750401
Si      -1.937930    -2.068726     0.241068
C       -1.384913    -3.849196     0.385767
C       -3.643429    -1.797991    -0.497818
C       -2.102998    -1.478371     2.000126
Si      -0.753393    -1.472485    -2.546294
C       -1.482626    -3.124507    -3.079993
C       -1.718128    -0.048640    -3.277225
C        0.961600    -1.470209    -3.287206
H       -5.713425     2.551925    -0.556177
H       -4.302212     3.343968    -1.350035
H       -4.446484     1.540954    -1.351677
H       -4.219062     1.532766     1.157933
H       -4.070650     3.335147     1.134190
H       -2.039056     3.130442    -0.309481
H       -2.147956     1.338858    -0.236867
H       -1.798902     3.188709     2.227690
H       -1.883216     1.420243     2.264744
H       -0.320557     4.184421     0.521616
H        1.199946     3.348799     0.184172
H        2.198911     4.198589     1.982122
H        0.739681     5.134294     2.460828
H       -0.120513     3.331672     3.752626
H        1.621912     3.129100     4.124373
H        0.243121     1.016512     3.161838
H        2.677780     2.057672     1.582927
H        2.769379     0.968212     2.965216
H        1.189742    -1.052401     2.817786
H        0.888901    -1.660051     1.196510
H        2.098533    -3.365066     0.236328
H        3.996947    -4.924148     0.264914
H        5.800263    -4.665769     1.945583
H        5.691681    -2.831485     3.611816
H        3.798759    -1.235941     3.586390
H        2.850702    -0.822577    -0.583827
H        4.041228    -0.410056     0.691206
H        5.503226     1.194778     0.218236
H        4.722665     4.391168    -2.500561
H       -1.122550    -4.266614    -0.600602
H       -2.175753    -4.464539     0.855145
H       -0.473730    -3.874649     1.021374
H       -3.676201    -1.941089    -1.589107
H       -4.364793    -2.488810    -0.017636
H       -3.951473    -0.752890    -0.293871
H       -2.757721    -2.181227     2.554123
H       -1.123490    -1.418638     2.508422
H       -2.610999    -0.504930     1.992137
H       -0.788054    -3.939714    -2.799079
H       -2.468113    -3.335111    -2.632814
H       -1.596817    -3.129572    -4.182271
H       -2.702240     0.050193    -2.778609
H       -1.140194     0.888919    -3.140314
H       -1.866257    -0.226947    -4.362576
H        0.888352    -1.638134    -4.381630
H        1.555126    -2.288953    -2.830343
H        1.465937    -0.504994    -3.101161
85
ex_0318 frame3 Isomer 2_mirror
C       -4.625244     2.461131     0.756503
C       -3.861802     2.402287    -0.566085
C       -2.355282     2.275748    -0.323500
C       -1.562103     2.269280    -1.646781
N       -0.112366     2.172537    -1.373704
C        0.428947     3.494129    -0.961789
C        1.110292     4.120923    -2.193438
C        0.871540     3.109102    -3.305691
C        0.727114     1.799116    -2.540606
C        2.141950     1.235275    -2.088052
N        2.022766     0.082241    -1.152615
C        1.665879    -1.197656    -1.825020
C        2.816109    -2.178407    -1.904453
C        2.868087    -3.247111    -0.990512
C        3.946500    -4.130749    -0.999504
C        4.962812    -3.980823    -1.944761
C        4.901020    -2.943861    -2.882042
C        3.828208    -2.044366    -2.867361
C        3.130226    -0.051977    -0.168349
C        3.494815     1.210453     0.605805
C        4.806813     1.699288     0.441332
C        5.242726     2.836527     1.116655
Cl       6.878980     3.421268     0.873984
C        4.380448     3.505384     1.981153
C        3.070620     3.052841     2.156157
Cl       2.007990     3.928393     3.248371
C        2.609399     1.916422     1.469708
O        1.327364     1.540040     1.663897
Zr       0.292038     0.593234     0.102379
N       -0.646318    -1.288525     0.750401
Si      -1.937930    -2.068726    -0.241068
C       -1.384913    -3.849196    -0.385767
C       -3.643429    -1.797991     0.497818
C       -2.102998    -1.478371    -2.000126
Si      -0.753393    -1.472485     2.546294
C       -1.482626    -3.124507     3.079993
C       -1.718128    -0.048640     3.277225
C        0.961600    -1.470209     3.287206
H       -5.713425     2.551925     0.556177
H       -4.302212     3.343968     1.350035
H       -4.446484     1.540954     1.351677
H       -4.219062     1.532766    -1.157933
H       -4.070650     3.335147    -1.134190
H       -2.039056     3.130442     0.309481
H       -2.147956     1.338858     0.236867
H       -1.798902     3.188709    -2.227690
H       -1.883216     1.420243    -2.264744
H       -0.320557     4.184421    -0.521616
H        1.199946     3.348799    -0.184172
H        2.198911     4.198589    -1.982122
H        0.739681     5.134294    -2.460828
H       -0.120513     3.331672    -3.752626
H        1.621912     3.129100    -4.124373
H        0.243121     1.016512    -3.161838
H        2.677780     2.057672    -1.582927
H        2.769379     0.968212    -2.965216
H        1.189742    -1.052401    -2.817786
H        0.888901    -1.660051    -1.196510
H        2.098533    -3.365066    -0.236328
H        3.996947    -4.924148    -0.264914
H        5.800263    -4.665769    -1.945583
H        5.691681    -2.831485    -3.611816
H        3.798759    -1.235941    -3.586390
H        2.850702    -0.822577     0.583827
H        4.041228    -0.410056    -0.691206
H        5.503226     1.194778    -0.218236
H        4.722665     4.391168     2.500561
H       -1.122550    -4.266614     0.600602
H       -2.175753    -4.464539    -0.855145
H       -0.473730    -3.874649    -1.021374
H       -3.676201    -1.941089     1.589107
H       -4.364793    -2.488810     0.017636
H       -3.951473    -0.752890     0.293871
H       -2.757721    -2.181227    -2.554123
H       -1.123490    -1.418638    -2.508422
H       -2.610999    -0.504930    -1.992137
H       -0.788054    -3.939714     2.799079
H       -2.468113    -3.335111     2.632814
H       -1.596817    -3.129572     4.182271
H       -2.702240     0.050193     2.778609
H       -1.140194     0.888919     3.140314
H       -1.866257    -0.226947     4.362576
H        0.888352    -1.638134     4.381630
H        1.555126    -2.288953     2.830343
H        1.465937    -0.504994     3.101161
