39
ex_0207 frame0 TBP-5-chelate-1
W        0.000000     0.000000     0.000000
C        1.661075    -1.007768     3.870483
C        1.543816    -0.488977     2.491767
C        2.554456    -0.491633     1.636490
C        3.874128    -0.983361     2.091421
S        2.669628     0.000000    -0.044542
S       -0.044542     0.000000     2.669628
H        2.038026    -0.170881     4.477749
H        0.640016    -1.291404     4.227341
H        2.302183    -1.907051     3.881669
H        4.544421    -0.860379     1.198369
H        4.329543    -0.362435     2.886863
H        3.842364    -2.039920     2.423488
S       -0.104597     0.181167    -2.661792
C       -1.718043     0.871151    -2.524730
C       -2.685075     0.686316    -3.642233
C       -2.166786     1.653867    -1.526161
C       -3.552094     2.117642    -1.384404
S       -1.330896     2.305180    -0.209193
H       -3.083977     1.637863    -3.988167
H       -3.474085    -0.017195    -3.282033
H       -2.102618     0.231381    -4.487710
H       -4.244340     1.269395    -1.113810
H       -3.875868     2.603155    -2.328608
H       -3.586793     2.836653    -0.541230
Se      -1.410000    -2.442192     0.000000
C       -2.386060    -4.132777    -0.000000
C       -3.138050    -4.287696    -1.316587
C       -3.360786    -4.212223     1.144697
C       -1.423838    -5.300807     0.158523
H       -4.220252    -4.385595    -1.158664
H       -2.844766    -3.475341    -2.005080
H       -2.816574    -5.236600    -1.819439
H       -4.278156    -3.623513     0.989989
H       -3.663958    -5.280890     1.247825
H       -2.870190    -3.831674     2.073883
H       -1.522637    -5.797069     1.137176
H       -1.642246    -6.066936    -0.635515
H       -0.379615    -4.994536    -0.014093
39
ex_0207 frame1 TBP-5-chelate-1-conf2
W        0.000000     0.000000     0.000000
C        1.661075    -1.007768     3.870483
C        1.543816    -0.488977     2.491767
C        2.554456    -0.491633     1.636490
C        3.874128    -0.983361     2.091421
S        2.669628     0.000000    -0.044542
S       -0.044542     0.000000     2.669628
H        2.038026    -0.170881     4.477749
H        0.640016    -1.291404     4.227341
H        2.302183    -1.907051     3.881669
H        4.544421    -0.860379     1.198369
H        4.329543    -0.362435     2.886863
H        3.842364    -2.039920     2.423488
S       -0.104597     0.181167    -2.661792
C       -1.718043     0.871151    -2.524730
C       -2.685075     0.686316    -3.642233
C       -2.166786     1.653867    -1.526161
C       -3.552094     2.117642    -1.384404
S       -1.330896     2.305180    -0.209193
H       -3.083977     1.637863    -3.988167
H       -3.474085    -0.017195    -3.282033
H       -2.102618     0.231381    -4.487710
H       -4.244340     1.269395    -1.113810
H       -3.875868     2.603155    -2.328608
H       -3.586793     2.836653    -0.541230
Se      -1.410000    -2.442192     0.000000
C       -2.385769    -4.132273    -0.000000
C       -1.533113    -5.132071    -0.718957
C       -3.714352    -3.998463    -0.712523
C       -2.554861    -4.518049     1.452211
H       -1.716545    -6.172956    -0.388728
H       -1.743414    -5.126025    -1.809064
H       -0.458609    -4.862693    -0.569774
H       -3.728343    -3.014064    -1.245082
H       -4.568573    -4.074188    -0.031304
H       -3.831297    -4.777417    -1.481556
H       -3.143243    -3.773374     1.993558
H       -2.947331    -5.541182     1.581645
H       -1.526781    -4.526219     1.886260
39
ex_0207 frame2 TBP-5-chelate-1-conf3
W        0.000000     0.000000     0.000000
C        1.661075    -1.007768     3.870483
C        1.543816    -0.488977     2.491767
C        2.554456    -0.491633     1.636490
C        3.874128    -0.983361     2.091421
S        2.669628     0.000000    -0.044542
S       -0.044542     0.000000     2.669628
H        2.038026    -0.170881     4.477749
H        0.640016    -1.291404     4.227341
H        2.302183    -1.907051     3.881669
H        4.544421    -0.860379     1.198369
H        4.329543    -0.362435     2.886863
H        3.842364    -2.039920     2.423488
S       -1.323964     2.293173    -0.342607
C       -2.346495     1.287972    -1.373763
C       -3.809050     1.445059    -1.187547
C       -1.921039     0.450764    -2.324143
C       -2.839875    -0.378054    -3.145620
S       -0.171304     0.296707    -2.647928
H       -4.378616     0.488954    -1.221652
H       -4.045089     1.935482    -0.211015
H       -4.216111     2.180925    -1.941296
H       -2.255255    -1.228299    -3.569932
H       -3.658792    -0.859968    -2.571768
H       -3.195165     0.197879    -4.024318
Se      -1.410000    -2.442192     0.000000
C       -2.386060    -4.132777    -0.000000
C       -3.138050    -4.287696    -1.316587
C       -3.360786    -4.212223     1.144697
C       -1.423838    -5.300807     0.158523
H       -4.220252    -4.385595    -1.158664
H       -2.844766    -3.475341    -2.005080
H       -2.816574    -5.236600    -1.819439
H       -4.278156    -3.623513     0.989989
H       -3.663958    -5.280890     1.247825
H       -2.870190    -3.831674     2.073883
H       -1.522637    -5.797069     1.137176
H       -1.642246    -6.066936    -0.635515
H       -0.379615    -4.994536    -0.014093
39
ex_0207 frame3 TBP-5-chelate-1-conf4
W        0.000000     0.000000     0.000000
C        3.080181     2.542241     1.056211
C        2.302019     1.372900     1.430476
C        1.442823     1.329087     2.456441
C        1.499781     2.485562     3.390135
S        0.357870     0.000000     2.645908
S        2.645908     0.000000     0.357870
H        3.788893     2.217328     0.242702
H        3.621713     2.823884     1.970606
H        2.480056     3.406182     0.692778
H        2.515702     2.548385     3.828466
H        0.773092     2.243941     4.216122
H        1.133763     3.423936     2.937484
S       -0.104597     0.181167    -2.661792
C       -1.718043     0.871151    -2.524730
C       -2.685075     0.686316    -3.642233
C       -2.166786     1.653867    -1.526161
C       -3.552094     2.117642    -1.384404
S       -1.330896     2.305180    -0.209193
H       -3.083977     1.637863    -3.988167
H       -3.474085    -0.017195    -3.282033
H       -2.102618     0.231381    -4.487710
H       -4.244340     1.269395    -1.113810
H       -3.875868     2.603155    -2.328608
H       -3.586793     2.836653    -0.541230
Se      -1.410000    -2.442192     0.000000
C       -2.386060    -4.132777    -0.000000
C       -3.138050    -4.287696    -1.316587
C       -3.360786    -4.212223     1.144697
C       -1.423838    -5.300807     0.158523
H       -4.220252    -4.385595    -1.158664
H       -2.844766    -3.475341    -2.005080
H       -2.816574    -5.236600    -1.819439
H       -4.278156    -3.623513     0.989989
H       -3.663958    -5.280890     1.247825
H       -2.870190    -3.831674     2.073883
H       -1.522637    -5.797069     1.137176
H       -1.642246    -6.066936    -0.635515
H       -0.379615    -4.994536    -0.014093
39
ex_0207 frame4 TBP-5-chelate-1-conf5
W        0.000000     0.000000     0.000000
C        1.661075    -1.007768     3.870483
C        1.543816    -0.488977     2.491767
C        2.554456    -0.491633     1.636490
C        3.874128    -0.983361     2.091421
S        2.669628     0.000000    -0.044542
S       -0.044542     0.000000     2.669628
H        2.038026    -0.170881     4.477749
H        0.640016    -1.291404     4.227341
H        2.302183    -1.907051     3.881669
H        4.544421    -0.860379     1.198369
H        4.329543    -0.362435     2.886863
H        3.842364    -2.039920     2.423488
S       -1.323964     2.293173    -0.342607
C       -2.346495     1.287972    -1.373763
C       -3.809050     1.445059    -1.187547
C       -1.921039     0.450764    -2.324143
C       -2.839875    -0.378054    -3.145620
S       -0.171304     0.296707    -2.647928
H       -4.378616     0.488954    -1.221652
H       -4.045089     1.935482    -0.211015
H       -4.216111     2.180925    -1.941296
H       -2.255255    -1.228299    -3.569932
H       -3.658792    -0.859968    -2.571768
H       -3.195165     0.197879    -4.024318
Se      -1.410000    -2.442192     0.000000
C       -2.385769    -4.132273    -0.000000
C       -1.533113    -5.132071    -0.718957
C       -3.714352    -3.998463    -0.712523
C       -2.554861    -4.518049     1.452211
H       -1.716545    -6.172956    -0.388728
H       -1.743414    -5.126025    -1.809064
H       -0.458609    -4.862693    -0.569774
H       -3.728343    -3.014064    -1.245082
H       -4.568573    -4.074188    -0.031304
H       -3.831297    -4.777417    -1.481556
H       -3.143243    -3.773374     1.993558
H       -2.947331    -5.541182     1.581645
H       -1.526781    -4.526219     1.886260
39
ex_0207 frame5 TBP-5-chelate-1-conf6
W        0.000000     0.000000     0.000000
C        3.080181     2.542241     1.056211
C        2.302019     1.372900     1.430476
C        1.442823     1.329087     2.456441
C        1.499781     2.485562     3.390135
S        0.357870     0.000000     2.645908
S        2.645908     0.000000     0.357870
H        3.788893     2.217328     0.242702
H        3.621713     2.823884     1.970606
H        2.480056     3.406182     0.692778
H        2.515702     2.548385     3.828466
H        0.773092     2.243941     4.216122
H        1.133763     3.423936     2.937484
S       -0.104597     0.181167    -2.661792
C       -1.718043     0.871151    -2.524730
C       -2.685075     0.686316    -3.642233
C       -2.166786     1.653867    -1.526161
C       -3.552094     2.117642    -1.384404
S       -1.330896     2.305180    -0.209193
H       -3.083977     1.637863    -3.988167
H       -3.474085    -0.017195    -3.282033
H       -2.102618     0.231381    -4.487710
H       -4.244340     1.269395    -1.113810
H       -3.875868     2.603155    -2.328608
H       -3.586793     2.836653    -0.541230
Se      -1.410000    -2.442192     0.000000
C       -2.385769    -4.132273    -0.000000
C       -1.533113    -5.132071    -0.718957
C       -3.714352    -3.998463    -0.712523
C       -2.554861    -4.518049     1.452211
H       -1.716545    -6.172956    -0.388728
H       -1.743414    -5.126025    -1.809064
H       -0.458609    -4.862693    -0.569774
H       -3.728343    -3.014064    -1.245082
H       -4.568573    -4.074188    -0.031304
H       -3.831297    -4.777417    -1.481556
H       -3.143243    -3.773374     1.993558
H       -2.947331    -5.541182     1.581645
H       -1.526781    -4.526219     1.886260
39
ex_0207 frame6 TBP-5-chelate-1-conf7
W        0.000000     0.000000     0.000000
C        3.080181     2.542241     1.056211
C        2.302019     1.372900     1.430476
C        1.442823     1.329087     2.456441
C        1.499781     2.485562     3.390135
S        0.357870     0.000000     2.645908
S        2.645908     0.000000     0.357870
H        3.788893     2.217328     0.242702
H        3.621713     2.823884     1.970606
H        2.480056     3.406182     0.692778
H        2.515702     2.548385     3.828466
H        0.773092     2.243941     4.216122
H        1.133763     3.423936     2.937484
S       -1.323964     2.293173    -0.342607
C       -2.346495     1.287972    -1.373763
C       -3.809050     1.445059    -1.187547
C       -1.921039     0.450764    -2.324143
C       -2.839875    -0.378054    -3.145620
S       -0.171304     0.296707    -2.647928
H       -4.378616     0.488954    -1.221652
H       -4.045089     1.935482    -0.211015
H       -4.216111     2.180925    -1.941296
H       -2.255255    -1.228299    -3.569932
H       -3.658792    -0.859968    -2.571768
H       -3.195165     0.197879    -4.024318
Se      -1.410000    -2.442192     0.000000
C       -2.386060    -4.132777    -0.000000
C       -3.138050    -4.287696    -1.316587
C       -3.360786    -4.212223     1.144697
C       -1.423838    -5.300807     0.158523
H       -4.220252    -4.385595    -1.158664
H       -2.844766    -3.475341    -2.005080
H       -2.816574    -5.236600    -1.819439
H       -4.278156    -3.623513     0.989989
H       -3.663958    -5.280890     1.247825
H       -2.870190    -3.831674     2.073883
H       -1.522637    -5.797069     1.137176
H       -1.642246    -6.066936    -0.635515
H       -0.379615    -4.994536    -0.014093
39
ex_0207 frame7 TBP-5-chelate-1-conf8
W        0.000000     0.000000     0.000000
C        1.661075    -1.007768     3.870483
C        1.543816    -0.488977     2.491767
C        2.554456    -0.491633     1.636490
C        3.874128    -0.983361     2.091421
S        2.669628     0.000000    -0.044542
S       -0.044542     0.000000     2.669628
H        2.038026    -0.170881     4.477749
H        0.640016    -1.291404     4.227341
H        2.302183    -1.907051     3.881669
H        4.544421    -0.860379     1.198369
H        4.329543    -0.362435     2.886863
H        3.842364    -2.039920     2.423488
S       -0.104597     0.181167    -2.661792
C       -1.718043     0.871151    -2.524730
C       -2.685075     0.686316    -3.642233
C       -2.166786     1.653867    -1.526161
C       -3.552094     2.117642    -1.384404
S       -1.330896     2.305180    -0.209193
H       -3.083977     1.637863    -3.988167
H       -3.474085    -0.017195    -3.282033
H       -2.102618     0.231381    -4.487710
H       -4.244340     1.269395    -1.113810
H       -3.875868     2.603155    -2.328608
H       -3.586793     2.836653    -0.541230
Se      -1.410000    -2.442192     0.000000
C       -2.386734    -4.133944     0.000000
C       -3.495584    -3.988672    -1.034974
C       -1.422636    -5.222472    -0.376574
C       -3.043419    -4.331393     1.333525
H       -3.099116    -3.506978    -1.936371
H       -4.009097    -4.949316    -1.236457
H       -4.250318    -3.311120    -0.562843
H       -0.384351    -5.035294    -0.007876
H       -1.770877    -6.237366    -0.127467
H       -1.333491    -5.196073    -1.492839
H       -2.388058    -4.815881     2.086614
H       -4.004310    -4.902417     1.270968
H       -3.346486    -3.318068     1.701612
39
ex_0207 frame8 TBP-5-chelate-1-reembed1
W        0.000000     0.000000     0.000000
C        2.525281     0.714961     3.681614
C        1.663042     0.617495     2.468390
C        2.120871     1.096170     1.311768
C        2.534859     2.512292     1.212091
S        2.652009    -0.000000    -0.026923
S       -0.026923     0.000000     2.652009
H        2.851420     1.764080     3.840284
H        1.957730     0.421422     4.578804
H        3.445178     0.119051     3.521765
H        1.761458     3.156943     0.735489
H        2.764284     2.970332     2.202942
H        3.467243     2.600924     0.618447
S       -0.100729     0.174468    -2.669527
C        0.526554     1.729069    -2.021511
C        1.903724     2.208100    -2.242239
C       -0.391130     2.630613    -1.682809
C       -0.628586     3.754448    -2.606306
S       -1.334764     2.311879    -0.201458
H        2.175042     2.886532    -1.405831
H        1.903939     2.754660    -3.216041
H        2.572247     1.331586    -2.273420
H       -1.094986     4.585347    -2.040334
H        0.349219     4.031118    -3.056900
H       -1.286570     3.475669    -3.452370
Se      -1.410000    -2.442192     0.000000
C       -2.385892    -4.132487     0.000000
C       -3.562036    -3.999257     0.923372
C       -1.487851    -5.214717     0.564899
C       -2.754628    -4.484550    -1.410894
H       -3.827691    -4.952532     1.435726
H       -4.472647    -3.605941     0.441713
H       -3.290808    -3.266008     1.721283
H       -0.463777    -5.009151     0.220719
H       -1.543390    -5.208732     1.681576
H       -1.860416    -6.223041     0.262367
H       -2.147233    -3.874263    -2.126255
H       -2.480459    -5.545191    -1.639217
H       -3.825077    -4.386753    -1.631144
39
ex_0207 frame9 TBP-5-chelate-2
W        0.000000     0.000000     0.000000
C        1.661075    -1.007768     3.870483
C        1.543816    -0.488977     2.491767
C        2.554456    -0.491633     1.636490
C        3.874128    -0.983361     2.091421
S        2.669628     0.000000    -0.044542
S       -0.044542     0.000000     2.669628
H        2.038026    -0.170881     4.477749
H        0.640016    -1.291404     4.227341
H        2.302183    -1.907051     3.881669
H        4.544421    -0.860379     1.198369
H        4.329543    -0.362435     2.886863
H        3.842364    -2.039920     2.423488
S       -0.104597    -0.181167    -2.661792
C        0.104583    -1.923444    -2.524730
C        0.748171    -2.668501    -3.642233
C       -0.348898    -2.703425    -1.526160
C       -0.057885    -4.135025    -1.384404
S       -1.330896    -2.305180    -0.209193
H        0.123557    -3.489733    -3.988167
H        1.751934    -3.000047    -3.282033
H        0.850927    -1.936611    -4.487711
H        1.022842    -4.310404    -1.113810
H       -0.316464    -4.658177    -2.328608
H       -0.663217    -4.524581    -0.541230
Se      -1.410000     2.442192     0.000000
C       -2.386060     4.132777    -0.000000
C       -1.813166     5.052619     1.071716
C       -3.855946     3.926342     0.252096
C       -2.262762     4.816454    -1.353765
H       -2.571991     5.337219     1.812575
H       -0.901563     4.597250     1.497835
H       -1.475482     6.010880     0.598082
H       -4.102932     3.724679     1.305857
H       -4.377203     4.869098    -0.037905
H       -4.214547     3.055509    -0.349522
H       -3.213378     4.820919    -1.910638
H       -1.954229     5.886812    -1.197911
H       -1.461283     4.370035    -1.963961
39
ex_0207 frame10 TBP-5-chelate-2-conf2
W        0.000000     0.000000     0.000000
C        1.661075    -1.007768     3.870483
C        1.543816    -0.488977     2.491767
C        2.554456    -0.491633     1.636490
C        3.874128    -0.983361     2.091421
S        2.669628     0.000000    -0.044542
S       -0.044542     0.000000     2.669628
H        2.038026    -0.170881     4.477749
H        0.640016    -1.291404     4.227341
H        2.302183    -1.907051     3.881669
H        4.544421    -0.860379     1.198369
H        4.329543    -0.362435     2.886863
H        3.842364    -2.039920     2.423488
S       -0.104597    -0.181167    -2.661792
C        0.104583    -1.923444    -2.524730
C        0.748171    -2.668501    -3.642233
C       -0.348898    -2.703425    -1.526160
C       -0.057885    -4.135025    -1.384404
S       -1.330896    -2.305180    -0.209193
H        0.123557    -3.489733    -3.988167
H        1.751934    -3.000047    -3.282033
H        0.850927    -1.936611    -4.487711
H        1.022842    -4.310404    -1.113810
H       -0.316464    -4.658177    -2.328608
H       -0.663217    -4.524581    -0.541230
Se      -1.410000     2.442192     0.000000
C       -2.385769     4.132273    -0.000000
C       -1.655404     5.061466    -0.920155
C       -2.438104     4.735306     1.387206
C       -3.764160     3.819860    -0.537371
H       -2.314478     5.827739    -1.372468
H       -0.872038     5.629114    -0.375445
H       -1.157327     4.459288    -1.719329
H       -1.730080     4.167762     2.042532
H       -3.445916     4.722354     1.815731
H       -2.093452     5.780762     1.377608
H       -4.289337     3.111676     0.107963
H       -4.360181     4.725473    -0.742825
H       -3.600859     3.328750    -1.526086
39
ex_0207 frame11 TBP-5-chelate-2-conf3
W        0.000000     0.000000     0.000000
C        1.661075    -1.007768     3.870483
C        1.543816    -0.488977     2.491767
C        2.554456    -0.491633     1.636490
C        3.874128    -0.983361     2.091421
S        2.669628     0.000000    -0.044542
S       -0.044542     0.000000     2.669628
H        2.038026    -0.170881     4.477749
H        0.640016    -1.291404     4.227341
H        2.302183    -1.907051     3.881669
H        4.544421    -0.860379     1.198369
H        4.329543    -0.362435     2.886863
H        3.842364    -2.039920     2.423488
S       -1.323964    -2.293173    -0.342607
C        0.057831    -2.676110    -1.373763
C        0.653067    -4.021264    -1.187547
C        0.570147    -1.889051    -2.324143
C        1.747342    -2.270377    -3.145620
S       -0.171304    -0.296707    -2.647928
H        1.765862    -4.036470    -1.221652
H        0.346368    -4.470891    -0.211015
H        0.219319    -4.741722    -1.941296
H        2.191366    -1.338958    -3.569932
H        2.574151    -2.738623    -2.571768
H        1.426215    -2.866033    -4.024318
Se      -1.410000     2.442192     0.000000
C       -2.386060     4.132777    -0.000000
C       -1.813166     5.052619     1.071716
C       -3.855946     3.926342     0.252096
C       -2.262762     4.816454    -1.353765
H       -2.571991     5.337219     1.812575
H       -0.901563     4.597250     1.497835
H       -1.475482     6.010880     0.598082
H       -4.102932     3.724679     1.305857
H       -4.377203     4.869098    -0.037905
H       -4.214547     3.055509    -0.349522
H       -3.213378     4.820919    -1.910638
H       -1.954229     5.886812    -1.197911
H       -1.461283     4.370035    -1.963961
39
ex_0207 frame12 TBP-5-chelate-2-conf4
W        0.000000     0.000000     0.000000
C        3.080181     2.542241     1.056211
C        2.302019     1.372900     1.430476
C        1.442823     1.329087     2.456441
C        1.499781     2.485562     3.390135
S        0.357870     0.000000     2.645908
S        2.645908     0.000000     0.357870
H        3.788893     2.217328     0.242702
H        3.621713     2.823884     1.970606
H        2.480056     3.406182     0.692778
H        2.515702     2.548385     3.828466
H        0.773092     2.243941     4.216122
H        1.133763     3.423936     2.937484
S       -0.104597    -0.181167    -2.661792
C        0.104583    -1.923444    -2.524730
C        0.748171    -2.668501    -3.642233
C       -0.348898    -2.703425    -1.526160
C       -0.057885    -4.135025    -1.384404
S       -1.330896    -2.305180    -0.209193
H        0.123557    -3.489733    -3.988167
H        1.751934    -3.000047    -3.282033
H        0.850927    -1.936611    -4.487711
H        1.022842    -4.310404    -1.113810
H       -0.316464    -4.658177    -2.328608
H       -0.663217    -4.524581    -0.541230
Se      -1.410000     2.442192     0.000000
C       -2.386060     4.132777    -0.000000
C       -1.813166     5.052619     1.071716
C       -3.855946     3.926342     0.252096
C       -2.262762     4.816454    -1.353765
H       -2.571991     5.337219     1.812575
H       -0.901563     4.597250     1.497835
H       -1.475482     6.010880     0.598082
H       -4.102932     3.724679     1.305857
H       -4.377203     4.869098    -0.037905
H       -4.214547     3.055509    -0.349522
H       -3.213378     4.820919    -1.910638
H       -1.954229     5.886812    -1.197911
H       -1.461283     4.370035    -1.963961
39
ex_0207 frame13 TBP-5-chelate-2-conf5
W        0.000000     0.000000     0.000000
C        1.661075    -1.007768     3.870483
C        1.543816    -0.488977     2.491767
C        2.554456    -0.491633     1.636490
C        3.874128    -0.983361     2.091421
S        2.669628     0.000000    -0.044542
S       -0.044542     0.000000     2.669628
H        2.038026    -0.170881     4.477749
H        0.640016    -1.291404     4.227341
H        2.302183    -1.907051     3.881669
H        4.544421    -0.860379     1.198369
H        4.329543    -0.362435     2.886863
H        3.842364    -2.039920     2.423488
S       -1.323964    -2.293173    -0.342607
C        0.057831    -2.676110    -1.373763
C        0.653067    -4.021264    -1.187547
C        0.570147    -1.889051    -2.324143
C        1.747342    -2.270377    -3.145620
S       -0.171304    -0.296707    -2.647928
H        1.765862    -4.036470    -1.221652
H        0.346368    -4.470891    -0.211015
H        0.219319    -4.741722    -1.941296
H        2.191366    -1.338958    -3.569932
H        2.574151    -2.738623    -2.571768
H        1.426215    -2.866033    -4.024318
Se      -1.410000     2.442192     0.000000
C       -2.385769     4.132273    -0.000000
C       -1.655404     5.061466    -0.920155
C       -2.438104     4.735306     1.387206
C       -3.764160     3.819860    -0.537371
H       -2.314478     5.827739    -1.372468
H       -0.872038     5.629114    -0.375445
H       -1.157327     4.459288    -1.719329
H       -1.730080     4.167762     2.042532
H       -3.445916     4.722354     1.815731
H       -2.093452     5.780762     1.377608
H       -4.289337     3.111676     0.107963
H       -4.360181     4.725473    -0.742825
H       -3.600859     3.328750    -1.526086
39
ex_0207 frame14 TBP-5-chelate-2-conf6
W        0.000000     0.000000     0.000000
C        3.080181     2.542241     1.056211
C        2.302019     1.372900     1.430476
C        1.442823     1.329087     2.456441
C        1.499781     2.485562     3.390135
S        0.357870     0.000000     2.645908
S        2.645908     0.000000     0.357870
H        3.788893     2.217328     0.242702
H        3.621713     2.823884     1.970606
H        2.480056     3.406182     0.692778
H        2.515702     2.548385     3.828466
H        0.773092     2.243941     4.216122
H        1.133763     3.423936     2.937484
S       -0.104597    -0.181167    -2.661792
C        0.104583    -1.923444    -2.524730
C        0.748171    -2.668501    -3.642233
C       -0.348898    -2.703425    -1.526160
C       -0.057885    -4.135025    -1.384404
S       -1.330896    -2.305180    -0.209193
H        0.123557    -3.489733    -3.988167
H        1.751934    -3.000047    -3.282033
H        0.850927    -1.936611    -4.487711
H        1.022842    -4.310404    -1.113810
H       -0.316464    -4.658177    -2.328608
H       -0.663217    -4.524581    -0.541230
Se      -1.410000     2.442192     0.000000
C       -2.385769     4.132273    -0.000000
C       -1.655404     5.061466    -0.920155
C       -2.438104     4.735306     1.387206
C       -3.764160     3.819860    -0.537371
H       -2.314478     5.827739    -1.372468
H       -0.872038     5.629114    -0.375445
H       -1.157327     4.459288    -1.719329
H       -1.730080     4.167762     2.042532
H       -3.445916     4.722354     1.815731
H       -2.093452     5.780762     1.377608
H       -4.289337     3.111676     0.107963
H       -4.360181     4.725473    -0.742825
H       -3.600859     3.328750    -1.526086
39
ex_0207 frame15 TBP-5-chelate-2-conf7
W        0.000000     0.000000     0.000000
C        3.080181     2.542241     1.056211
C        2.302019     1.372900     1.430476
C        1.442823     1.329087     2.456441
C        1.499781     2.485562     3.390135
S        0.357870     0.000000     2.645908
S        2.645908     0.000000     0.357870
H        3.788893     2.217328     0.242702
H        3.621713     2.823884     1.970606
H        2.480056     3.406182     0.692778
H        2.515702     2.548385     3.828466
H        0.773092     2.243941     4.216122
H        1.133763     3.423936     2.937484
S       -1.323964    -2.293173    -0.342607
C        0.057831    -2.676110    -1.373763
C        0.653067    -4.021264    -1.187547
C        0.570147    -1.889051    -2.324143
C        1.747342    -2.270377    -3.145620
S       -0.171304    -0.296707    -2.647928
H        1.765862    -4.036470    -1.221652
H        0.346368    -4.470891    -0.211015
H        0.219319    -4.741722    -1.941296
H        2.191366    -1.338958    -3.569932
H        2.574151    -2.738623    -2.571768
H        1.426215    -2.866033    -4.024318
Se      -1.410000     2.442192     0.000000
C       -2.386060     4.132777    -0.000000
C       -1.813166     5.052619     1.071716
C       -3.855946     3.926342     0.252096
C       -2.262762     4.816454    -1.353765
H       -2.571991     5.337219     1.812575
H       -0.901563     4.597250     1.497835
H       -1.475482     6.010880     0.598082
H       -4.102932     3.724679     1.305857
H       -4.377203     4.869098    -0.037905
H       -4.214547     3.055509    -0.349522
H       -3.213378     4.820919    -1.910638
H       -1.954229     5.886812    -1.197911
H       -1.461283     4.370035    -1.963961
39
ex_0207 frame16 TBP-5-chelate-2-conf8
W        0.000000     0.000000     0.000000
C        1.661075    -1.007768     3.870483
C        1.543816    -0.488977     2.491767
C        2.554456    -0.491633     1.636490
C        3.874128    -0.983361     2.091421
S        2.669628     0.000000    -0.044542
S       -0.044542     0.000000     2.669628
H        2.038026    -0.170881     4.477749
H        0.640016    -1.291404     4.227341
H        2.302183    -1.907051     3.881669
H        4.544421    -0.860379     1.198369
H        4.329543    -0.362435     2.886863
H        3.842364    -2.039920     2.423488
S       -0.104597    -0.181167    -2.661792
C        0.104583    -1.923444    -2.524730
C        0.748171    -2.668501    -3.642233
C       -0.348898    -2.703425    -1.526160
C       -0.057885    -4.135025    -1.384404
S       -1.330896    -2.305180    -0.209193
H        0.123557    -3.489733    -3.988167
H        1.751934    -3.000047    -3.282033
H        0.850927    -1.936611    -4.487711
H        1.022842    -4.310404    -1.113810
H       -0.316464    -4.658177    -2.328608
H       -0.663217    -4.524581    -0.541230
Se      -1.410000     2.442192     0.000000
C       -2.386734     4.133944     0.000000
C       -2.201530     4.735795     1.387552
C       -1.789572     5.010621    -1.063495
C       -3.851099     3.865079    -0.178486
H       -1.156392     4.628610     1.700492
H       -2.576110     5.776651     1.446157
H       -2.847923     4.120793     2.062501
H       -1.421183     4.436679    -1.948870
H       -2.428869     5.857474    -1.359258
H       -0.867090     5.465350    -0.619717
H       -4.165128     3.789889    -1.240137
H       -4.502631     4.614711     0.338089
H       -4.071883     2.899260     0.343637
39
ex_0207 frame17 TBP-5-chelate-2-reembed1
W        0.000000     0.000000     0.000000
C        2.525281     0.714961     3.681614
C        1.663042     0.617495     2.468390
C        2.120871     1.096170     1.311768
C        2.534859     2.512292     1.212091
S        2.652009    -0.000000    -0.026923
S       -0.026923     0.000000     2.652009
H        2.851420     1.764080     3.840284
H        1.957730     0.421422     4.578804
H        3.445178     0.119051     3.521765
H        1.761458     3.156943     0.735489
H        2.764284     2.970332     2.202942
H        3.467243     2.600924     0.618447
S       -0.100729    -0.174468    -2.669527
C       -1.782048    -0.598578    -2.196777
C       -2.965963     0.176519    -2.611941
C       -1.976367    -1.854344    -1.803159
C       -2.603623    -2.787299    -2.756249
S       -1.334764    -2.311879    -0.201458
H       -3.839494    -0.181106    -2.026699
H       -3.110987    -0.013758    -3.702712
H       -2.766396     1.242756    -2.413239
H       -3.043446    -3.631213    -2.188259
H       -3.358503    -2.215498    -3.338387
H       -1.882737    -3.183734    -3.497631
Se      -1.410000     2.442192     0.000000
C       -2.385892     4.132487     0.000000
C       -2.690602     4.502379     1.422678
C       -3.710414     3.931519    -0.708564
C       -1.582437     5.161314    -0.739263
H       -3.652300     5.053794     1.536220
H       -1.899667     5.091451     1.915954
H       -2.786563     3.557134     2.010200
H       -3.538740     3.233821    -1.541144
H       -4.465061     3.521905     0.007544
H       -4.126610     4.914654    -1.036095
H       -0.788676     4.658626    -1.347843
H       -2.217867     5.696798    -1.488759
H       -1.144596     5.934329    -0.095308
