67
ex_0185 frame0 OC-6-1
Ni       0.000000     0.000000     0.000000
N        6.892545     1.142796     0.216571
C        6.219397    -0.015780    -0.067246
O        6.828984    -1.031035    -0.376969
C        4.738035     0.021290    -0.025618
C        4.035783    -0.962431    -0.722540
C        2.663848    -0.923817    -0.699945
N        1.950000     0.000000     0.000000
C        2.654554     0.937446     0.688131
C        4.037186     0.983058     0.702339
H        7.894192     1.118792     0.054855
H        6.446367     2.047623     0.182189
H        4.552417    -1.734289    -1.283926
H        2.100872    -1.627992    -1.250227
H        2.055792     1.647336     1.233546
H        4.535232     1.740710     1.293906
N       -6.892545    -0.883212     0.756849
C       -6.219397    -0.019799    -0.066174
O       -6.828984     0.706425    -0.840300
C       -4.738035    -0.031220    -0.011616
C       -4.035783     0.474859    -1.105824
C       -2.654898     0.475155    -1.074464
N       -1.950000     0.000000     0.000000
C       -2.654554    -0.470325     1.063544
C       -4.037186    -0.502805     1.098576
H       -7.894192    -0.942919     0.604654
H       -6.446367    -1.685013     1.177576
H       -4.552417     0.864693    -1.977000
H       -2.060027     0.844801    -1.879741
H       -2.055792    -0.814372     1.890013
H       -4.535232    -0.865292     1.988852
N       -0.391202     6.892545     1.095377
C        0.068883     6.219398    -0.005156
O        0.532329     6.828985    -0.960085
C        0.022008     4.738035     0.025008
C       -0.846314     4.037186     0.862227
C       -0.825205     2.654553     0.819370
N        0.000000     1.950000     0.000000
C        0.833677     2.654897    -0.827784
C        0.863073     4.035783    -0.838715
H       -0.497579     6.446367     1.994587
H       -0.227719     7.894192     1.096746
H       -1.548236     4.535231     1.518958
H       -1.474125     2.055791     1.436073
H        1.453656     2.060027    -1.460822
H        1.537382     4.552417    -1.514159
N        1.162443    -6.892545     0.040133
C       -0.025830    -6.219397    -0.064061
O       -1.076395    -6.828984    -0.215671
C        0.017144    -4.738035    -0.028560
C       -1.061180    -4.035783    -0.567658
C       -1.041839    -2.654898    -0.542970
N        0.000000    -1.950000     0.000000
C        1.014213    -2.664140     0.552290
C        1.078492    -4.037186     0.544553
H        1.114108    -7.894192    -0.116046
H        2.051499    -6.446367    -0.131548
H       -1.909481    -4.552417    -1.005041
H       -1.833238    -2.060027    -0.941463
H        1.797969    -2.076759     0.998068
H        1.917346    -4.535232     1.013927
N        0.000000     0.000000     1.950000
C       -0.000000     0.000000     3.411305
S        0.000001     0.000004     5.209651
N        0.000000     0.000000    -1.950000
C       -0.000000     0.000000    -3.411305
S        0.000001     0.000004    -5.209651
67
ex_0185 frame1 OC-6-1-conf1
Ni       0.000000     0.000000     0.000000
N        6.892545     1.047803     0.504969
C        6.218554     0.001626    -0.069246
O        6.828984    -0.898337    -0.630976
C        4.741931     0.026221    -0.020646
C        4.035783    -0.742630    -0.947016
C        2.666935    -0.710158    -0.924909
N        1.950000     0.000000     0.000000
C        2.691808     0.653252     0.925411
C        4.037186     0.767782     0.932841
H        7.895036     1.067008     0.342758
H        6.446367     1.930699     0.705945
H        4.552417    -1.342890    -1.689044
H        2.125493    -1.218702    -1.646546
H        2.127041     1.127130     1.734578
H        4.535232     1.346509     1.700346
N       -6.892545    -0.883212     0.756849
C       -6.218554    -0.019334    -0.066512
O       -6.828984     0.706425    -0.840300
C       -4.738035    -0.031220    -0.011616
C       -4.035783     0.474859    -1.105824
C       -2.654899     0.480283    -1.086060
N       -1.950000     0.000000     0.000000
C       -2.654552    -0.475453     1.075140
C       -4.037186    -0.502805     1.098576
H       -7.895036    -0.943384     0.604992
H       -6.446367    -1.685013     1.177576
H       -4.552417     0.864693    -1.977000
H       -2.060027     0.844801    -1.879741
H       -2.055792    -0.814372     1.890013
H       -4.535232    -0.865292     1.988852
N       -1.134441     6.892545    -0.256765
C        0.041819     6.218554    -0.055216
O        1.095856     6.828984     0.065117
C       -0.013645     4.746067    -0.030977
C        1.170642     4.035783    -0.279169
C        1.090831     2.693033    -0.310742
N        0.000000     1.950000     0.000000
C       -1.157824     2.654260     0.263396
C       -1.181510     4.037186     0.252421
H       -1.048531     7.895036    -0.395692
H       -1.950621     6.446367    -0.648869
H        2.102276     4.552417    -0.486475
H        1.944328     2.170544    -0.630439
H       -2.002449     2.055792     0.474918
H       -2.112143     4.535232     0.493069
N        1.162443    -6.892545     0.040133
C       -0.026404    -6.218554    -0.064035
O       -1.076395    -6.828984    -0.215671
C        0.016300    -4.739790    -0.029052
C       -1.061180    -4.035783    -0.567658
C       -1.055184    -2.654838    -0.550079
N        0.000000    -1.950000     0.000000
C        1.010735    -2.669376     0.564933
C        1.078492    -4.037186     0.544553
H        1.114682    -7.895036    -0.116072
H        2.051499    -6.446367    -0.131548
H       -1.909481    -4.552417    -1.005041
H       -1.833238    -2.060027    -0.941463
H        1.787779    -2.088565     1.014955
H        1.917346    -4.535232     1.013927
N        0.000000     0.000000     1.950000
C       -0.000000     0.000000     3.411305
S        0.000001     0.000004     5.209651
N        0.000000     0.000000    -1.950000
C       -0.000000     0.000000    -3.411305
S        0.000001     0.000004    -5.209651
67
ex_0185 frame2 OC-6-1-conf2
Ni       0.000000     0.000000     0.000000
N        6.892545     0.383842     1.097975
C        6.221506     0.050928    -0.045975
O        6.828984    -0.189053    -1.081387
C        4.737896     0.032821     0.005705
C        4.035783     0.144522    -1.194760
C        2.654895     0.125997    -1.144851
N        1.950000     0.000000     0.000000
C        2.654624    -0.125949     1.144412
C        4.037186    -0.116714     1.202523
H        7.892083     0.511309     0.995015
H        6.446367     0.866032     1.864388
H        4.552417     0.244768    -2.143901
H        2.060027     0.213141    -2.049802
H        2.055792    -0.244614     2.043407
H        4.535232    -0.250200     2.154452
N       -6.892545     0.386460    -1.097057
C       -6.221506     0.050818     0.046097
O       -6.828984    -0.191632     1.080933
C       -4.737896     0.032834    -0.005626
C       -4.035783     0.141672     1.195101
C       -2.654895     0.123266     1.145149
N       -1.950000     0.000000     0.000000
C       -2.654624    -0.123219    -1.144709
C       -4.037186    -0.113846    -1.202798
H       -7.892083     0.513681    -0.993793
H       -6.446367     0.870476    -1.862317
H       -4.552417     0.239654     2.144479
H       -2.060027     0.208251     2.050304
H       -2.055792    -0.239740    -2.043985
H       -4.535232    -0.245061    -2.155043
N       -1.110837     6.892545     0.344855
C        0.006646     6.221506    -0.068287
O        0.981597     6.828984    -0.491535
C       -0.024115     4.737896    -0.022983
C        0.874221     4.035783    -0.827088
C        0.845134     2.654895    -0.782502
N        0.000000     1.950000     0.000000
C       -0.844809     2.654624     0.782202
C       -0.897007     4.037186     0.809358
H       -1.103938     7.892083     0.181145
H       -2.013722     6.446367     0.413374
H        1.577388     4.552417    -1.472437
H        1.520580     2.060027    -1.391026
H       -1.496713     2.055792     1.412515
H       -1.582635     4.535232     1.483082
N       -1.161848    -6.892546    -0.054684
C        0.029538    -6.221506    -0.061924
O        1.090387    -6.828983    -0.127272
C       -0.014830    -4.737896    -0.029830
C        1.103892    -4.035783    -0.479333
C        1.061342    -2.654895    -0.447340
N        0.000000    -1.950000     0.000000
C       -1.060935    -2.654624     0.447168
C       -1.119265    -4.037186     0.454894
H       -1.099526    -7.892084    -0.206225
H       -2.033965    -6.446370    -0.298219
H        1.985002    -4.552416    -0.846163
H        1.903834    -2.060027    -0.789007
H       -1.888727    -2.055791     0.817349
H       -1.993565    -4.535232     0.854379
N        0.000000     0.000000     1.950000
C       -0.000000     0.000000     3.411305
S        0.000001     0.000004     5.209651
N        0.000000     0.000000    -1.950000
C       -0.000000     0.000000    -3.411305
S        0.000001     0.000004    -5.209651
67
ex_0185 frame3 OC-6-1-conf3
Ni       0.000000     0.000000     0.000000
N        6.892545    -0.654940    -0.961217
C        6.221051    -0.037098     0.057831
O        6.828984     0.462495     0.995609
C        4.737926    -0.033177     0.003001
C        4.035783     0.169629     1.191455
C        2.656829     0.171084     1.140552
N        1.950000     0.000000     0.000000
C        2.658362    -0.175583    -1.134673
C        4.037186    -0.198498    -1.191756
H        7.892539    -0.751610    -0.829016
H        6.446367    -1.319062    -1.576715
H        4.552417     0.318455     2.134200
H        2.068849     0.312223     2.035140
H        2.099223    -0.276513    -2.013798
H        4.535232    -0.315938    -2.145797
N       -6.892545    -0.657231     0.959652
C       -6.221051    -0.036960    -0.057920
O       -6.828984     0.464868    -0.994504
C       -4.737926    -0.033170    -0.003080
C       -4.035783     0.172470    -1.191047
C       -2.657116     0.174458    -1.139176
N       -1.950000     0.000000     0.000000
C       -2.654609    -0.177637     1.140066
C       -4.037186    -0.201340     1.191279
H       -7.892539    -0.753585     0.827221
H       -6.446367    -1.322818     1.573565
H       -4.552417     0.323544    -2.133434
H       -2.064783     0.314485    -2.037619
H       -2.055792    -0.297451     2.036387
H       -4.535232    -0.321055     2.145038
N        0.977806     6.892546    -0.629902
C       -0.056854     6.221051    -0.038577
O       -1.007217     6.828983     0.436641
C       -0.002143     4.737926    -0.033244
C       -1.195437     4.035783     0.138812
C       -1.147524     2.654895     0.145784
N        0.000000     1.950000     0.000000
C        1.143723     2.654726    -0.145209
C        1.196483     4.037186    -0.167665
H        0.848144     7.892540    -0.729952
H        1.610241     6.446370    -1.277916
H       -2.141710     4.552416     0.263250
H       -2.037386     2.070333     0.270936
H        2.042158     2.069604    -0.221050
H        2.153239     4.535232    -0.260435
N        1.162443    -6.892545     0.040133
C       -0.024705    -6.221051    -0.064112
O       -1.076395    -6.828984    -0.215671
C        0.017196    -4.737926    -0.028531
C       -1.061180    -4.035783    -0.567658
C       -1.025797    -2.654895    -0.534609
N        0.000000    -1.950000     0.000000
C        1.019522    -2.656680     0.536462
C        1.078492    -4.037186     0.544553
H        1.112983    -7.892539    -0.115994
H        2.051499    -6.446367    -0.131548
H       -1.909481    -4.552417    -1.005041
H       -1.833238    -2.060027    -0.941463
H        1.812006    -2.060321     0.974871
H        1.917346    -4.535232     1.013927
N        0.000000     0.000000     1.950000
C       -0.000000     0.000000     3.411305
S        0.000001     0.000004     5.209651
N        0.000000     0.000000    -1.950000
C       -0.000000     0.000000    -3.411305
S        0.000001     0.000004    -5.209651
67
ex_0185 frame4 OC-6-1-conf4
Ni       0.000000     0.000000     0.000000
N        6.892545     1.047803     0.504969
C        6.218554     0.001626    -0.069246
O        6.828984    -0.898337    -0.630976
C        4.741931     0.026221    -0.020646
C        4.035783    -0.742630    -0.947016
C        2.666935    -0.710158    -0.924909
N        1.950000     0.000000     0.000000
C        2.691808     0.653252     0.925411
C        4.037186     0.767782     0.932841
H        7.895036     1.067008     0.342758
H        6.446367     1.930699     0.705945
H        4.552417    -1.342890    -1.689044
H        2.125493    -1.218702    -1.646546
H        2.127041     1.127130     1.734578
H        4.535232     1.346509     1.700346
N       -6.892546     0.046286    -1.162213
C       -6.218554    -0.064172     0.026067
O       -6.828983    -0.221359     1.075240
C       -4.738035    -0.028469    -0.017295
C       -4.035783    -0.573264     1.058162
C       -2.654899    -0.554393     1.050165
N       -1.950000     0.000000     0.000000
C       -2.654552     0.548820    -1.039605
C       -4.037186     0.550251    -1.075596
H       -7.895037    -0.110170    -1.115278
H       -6.446370    -0.120695    -2.052164
H       -4.552416    -1.015128     1.904137
H       -2.060027    -0.951148     1.828232
H       -2.055791     0.978073    -1.810724
H       -4.535232     1.024056    -1.911955
N       -1.134441     6.892545    -0.256765
C        0.041819     6.218554    -0.055216
O        1.095856     6.828984     0.065117
C       -0.013645     4.746067    -0.030977
C        1.170642     4.035783    -0.279169
C        1.090831     2.693033    -0.310742
N        0.000000     1.950000     0.000000
C       -1.157824     2.654260     0.263396
C       -1.181510     4.037186     0.252421
H       -1.048531     7.895036    -0.395692
H       -1.950621     6.446367    -0.648869
H        2.102276     4.552417    -0.486475
H        1.944328     2.170544    -0.630439
H       -2.002449     2.055792     0.474918
H       -2.112143     4.535232     0.493069
N        1.162443    -6.892545     0.040133
C       -0.026404    -6.218554    -0.064035
O       -1.076395    -6.828984    -0.215671
C        0.016300    -4.739790    -0.029052
C       -1.061180    -4.035783    -0.567658
C       -1.055184    -2.654838    -0.550079
N        0.000000    -1.950000     0.000000
C        1.010735    -2.669376     0.564933
C        1.078492    -4.037186     0.544553
H        1.114682    -7.895036    -0.116072
H        2.051499    -6.446367    -0.131548
H       -1.909481    -4.552417    -1.005041
H       -1.833238    -2.060027    -0.941463
H        1.787779    -2.088565     1.014955
H        1.917346    -4.535232     1.013927
N        0.000000     0.000000     1.950000
C       -0.000000     0.000000     3.411305
S        0.000001     0.000004     5.209651
N        0.000000     0.000000    -1.950000
C       -0.000000     0.000000    -3.411305
S        0.000001     0.000004    -5.209651
67
ex_0185 frame5 OC-6-1-conf5
Ni       0.000000     0.000000     0.000000
N        6.892546    -0.114378    -1.157497
C        6.220747     0.065563     0.020764
O        6.828983     0.284048     1.060405
C        4.737946     0.027379    -0.018976
C        4.035783     0.634345     1.022714
C        2.658094     0.599384     0.985319
N        1.950000     0.000000     0.000000
C        2.665377    -0.592987    -0.973119
C        4.037186    -0.612394    -1.041468
H        7.892843     0.044589    -1.118326
H        6.446370     0.000114    -2.055711
H        4.552416     1.125071     1.841314
H        2.094145     1.085942     1.737043
H        2.083415    -1.096909    -1.723343
H        4.535232    -1.134442    -1.848595
N       -6.892545    -0.883212     0.756849
C       -6.220747    -0.020543    -0.065634
O       -6.828984     0.706425    -0.840300
C       -4.737946    -0.031238    -0.011570
C       -4.035783     0.474859    -1.105824
C       -2.654896     0.469182    -1.060958
N       -1.950000     0.000000     0.000000
C       -2.654599    -0.467329     1.056768
C       -4.037186    -0.502805     1.098576
H       -7.892843    -0.942175     0.604114
H       -6.446367    -1.685013     1.177576
H       -4.552417     0.864693    -1.977000
H       -2.060027     0.844801    -1.879741
H       -2.055792    -0.814372     1.890013
H       -4.535232    -0.865292     1.988852
N       -1.134441     6.892545    -0.256765
C        0.040393     6.220747    -0.055662
O        1.095856     6.828984     0.065117
C       -0.009366     4.737946    -0.031968
C        1.170642     4.035783    -0.279169
C        1.112353     2.667970    -0.245507
N        0.000000     1.950000     0.000000
C       -1.126791     2.654599     0.255925
C       -1.181510     4.037186     0.252421
H       -1.047105     7.892843    -0.395247
H       -1.950621     6.446367    -0.648869
H        2.102276     4.552417    -0.486475
H        1.968364     2.133644    -0.433952
H       -2.002449     2.055792     0.474918
H       -2.112143     4.535232     0.493069
N        1.162443    -6.892545     0.040133
C       -0.024912    -6.220747    -0.064103
O       -1.076395    -6.828984    -0.215671
C        0.017186    -4.737946    -0.028536
C       -1.061180    -4.035783    -0.567658
C       -1.028743    -2.654896    -0.536145
N        0.000000    -1.950000     0.000000
C        1.011648    -2.664508     0.527515
C        1.078492    -4.037186     0.544553
H        1.113190    -7.892843    -0.116004
H        2.051499    -6.446367    -0.131548
H       -1.909481    -4.552417    -1.005041
H       -1.833238    -2.060027    -0.941463
H        1.789088    -2.089969     0.974038
H        1.917346    -4.535232     1.013927
N        0.000000     0.000000     1.950000
C       -0.000000     0.000000     3.411305
S        0.000001     0.000004     5.209651
N        0.000000     0.000000    -1.950000
C       -0.000000     0.000000    -3.411305
S        0.000001     0.000004    -5.209651
67
ex_0185 frame6 OC-6-1-conf6
Ni       0.000000     0.000000     0.000000
N        6.892545     0.383842     1.097975
C        6.221506     0.050928    -0.045975
O        6.828984    -0.189053    -1.081387
C        4.737896     0.032821     0.005705
C        4.035783     0.144522    -1.194760
C        2.654895     0.125997    -1.144851
N        1.950000     0.000000     0.000000
C        2.654624    -0.125949     1.144412
C        4.037186    -0.116714     1.202523
H        7.892083     0.511309     0.995015
H        6.446367     0.866032     1.864388
H        4.552417     0.244768    -2.143901
H        2.060027     0.213141    -2.049802
H        2.055792    -0.244614     2.043407
H        4.535232    -0.250200     2.154452
N       -6.892545    -0.386460     1.097057
C       -6.221506    -0.050818    -0.046097
O       -6.828984     0.191632    -1.080933
C       -4.737896    -0.032834     0.005626
C       -4.035783    -0.141672    -1.195101
C       -2.654895    -0.123266    -1.145149
N       -1.950000     0.000000     0.000000
C       -2.654624     0.123219     1.144709
C       -4.037186     0.113846     1.202798
H       -7.892083    -0.513681     0.993793
H       -6.446367    -0.870476     1.862317
H       -4.552417    -0.239654    -2.144479
H       -2.060027    -0.208251    -2.050304
H       -2.055792     0.239740     2.043985
H       -4.535232     0.245061     2.155043
N        1.136821     6.892546     0.246006
C       -0.012617     6.221506    -0.067439
O       -1.020962     6.828983    -0.403458
C        0.022004     4.737896    -0.025012
C       -0.943457     4.035783    -0.747147
C       -0.910567     2.654895    -0.705285
N        0.000000     1.950000     0.000000
C        0.910218     2.654624     0.705015
C        0.964598     4.037186     0.727484
H        1.115575     7.892084     0.083533
H        2.042236     6.446370     0.234989
H       -1.700564     4.552416    -1.328272
H       -1.636829     2.060027    -1.252162
H        1.614939     2.055791     1.275664
H        1.706725     4.535232     1.338415
N       -1.161848    -6.892546    -0.054684
C        0.029538    -6.221506    -0.061924
O        1.090387    -6.828983    -0.127272
C       -0.014830    -4.737896    -0.029830
C        1.103892    -4.035783    -0.479333
C        1.061342    -2.654895    -0.447340
N        0.000000    -1.950000     0.000000
C       -1.060935    -2.654624     0.447168
C       -1.119265    -4.037186     0.454894
H       -1.099526    -7.892084    -0.206225
H       -2.033965    -6.446370    -0.298219
H        1.985002    -4.552416    -0.846163
H        1.903834    -2.060027    -0.789007
H       -1.888727    -2.055791     0.817349
H       -1.993565    -4.535232     0.854379
N        0.000000     0.000000     1.950000
C       -0.000000     0.000000     3.411305
S        0.000001     0.000004     5.209651
N        0.000000     0.000000    -1.950000
C       -0.000000     0.000000    -3.411305
S        0.000001     0.000004    -5.209651
67
ex_0185 frame7 OC-6-1-conf7
Ni       0.000000     0.000000     0.000000
N        6.892545     0.383842     1.097975
C        6.221506     0.050928    -0.045975
O        6.828984    -0.189053    -1.081387
C        4.737896     0.032821     0.005705
C        4.035783     0.144522    -1.194760
C        2.654895     0.125997    -1.144851
N        1.950000     0.000000     0.000000
C        2.654624    -0.125949     1.144412
C        4.037186    -0.116714     1.202523
H        7.892083     0.511309     0.995015
H        6.446367     0.866032     1.864388
H        4.552417     0.244768    -2.143901
H        2.060027     0.213141    -2.049802
H        2.055792    -0.244614     2.043407
H        4.535232    -0.250200     2.154452
N       -6.892546     0.541022     1.029649
C       -6.221506     0.043616    -0.052960
O       -6.828983    -0.345918    -1.041865
C       -4.737896     0.033303     0.000820
C       -4.035783    -0.032620    -1.203027
C       -2.654895    -0.043610    -1.150938
N       -1.950000     0.000000     0.000000
C       -2.654624     0.043593     1.150496
C       -4.037186     0.061267     1.206619
H       -7.892084     0.651974     0.909074
H       -6.446370     1.130607     1.716879
H       -4.552416    -0.072942    -2.156595
H       -2.060027    -0.090397    -2.058870
H       -2.055791     0.058326     2.057169
H       -4.535232     0.069119     2.167830
N       -1.110837     6.892545     0.344855
C        0.006646     6.221506    -0.068287
O        0.981597     6.828984    -0.491535
C       -0.024115     4.737896    -0.022983
C        0.874221     4.035783    -0.827088
C        0.845134     2.654895    -0.782502
N        0.000000     1.950000     0.000000
C       -0.844809     2.654624     0.782202
C       -0.897007     4.037186     0.809358
H       -1.103938     7.892083     0.181145
H       -2.013722     6.446367     0.413374
H        1.577388     4.552417    -1.472437
H        1.520580     2.060027    -1.391026
H       -1.496713     2.055792     1.412515
H       -1.582635     4.535232     1.483082
N       -1.161848    -6.892546    -0.054684
C        0.029538    -6.221506    -0.061924
O        1.090387    -6.828983    -0.127272
C       -0.014830    -4.737896    -0.029830
C        1.103892    -4.035783    -0.479333
C        1.061342    -2.654895    -0.447340
N        0.000000    -1.950000     0.000000
C       -1.060935    -2.654624     0.447168
C       -1.119265    -4.037186     0.454894
H       -1.099526    -7.892084    -0.206225
H       -2.033965    -6.446370    -0.298219
H        1.985002    -4.552416    -0.846163
H        1.903834    -2.060027    -0.789007
H       -1.888727    -2.055791     0.817349
H       -1.993565    -4.535232     0.854379
N        0.000000     0.000000     1.950000
C       -0.000000     0.000000     3.411305
S        0.000001     0.000004     5.209651
N        0.000000     0.000000    -1.950000
C       -0.000000     0.000000    -3.411305
S        0.000001     0.000004    -5.209651
67
ex_0185 frame8 OC-6-1-conf8
Ni       0.000000     0.000000     0.000000
N        6.892545     0.654940     0.961217
C        6.220747     0.036968    -0.057992
O        6.828984    -0.462495    -0.995609
C        4.737946     0.033176    -0.003012
C        4.035783    -0.169629    -1.191455
C        2.658118    -0.168736    -1.141952
N        1.950000     0.000000     0.000000
C        2.660853     0.176278     1.132445
C        4.037186     0.198498     1.191756
H        7.892843     0.751740     0.829177
H        6.446367     1.319062     1.576715
H        4.552417    -0.318455    -2.134200
H        2.074731    -0.303939    -2.035152
H        2.128177     0.265793     1.998270
H        4.535232     0.315938     2.145797
N       -6.892546     0.541022     1.029649
C       -6.220747     0.043340    -0.053397
O       -6.828983    -0.345918    -1.041865
C       -4.737946     0.033303     0.000792
C       -4.035783    -0.032620    -1.203027
C       -2.654896    -0.043925    -1.159239
N       -1.950000     0.000000     0.000000
C       -2.654599     0.043751     1.154660
C       -4.037186     0.061267     1.206619
H       -7.892843     0.652250     0.909511
H       -6.446370     1.130607     1.716879
H       -4.552416    -0.072942    -2.156595
H       -2.060027    -0.090397    -2.058870
H       -2.055791     0.058326     2.057169
H       -4.535232     0.069119     2.167830
N        1.136821     6.892546     0.246006
C       -0.013129     6.220747    -0.067507
O       -1.020962     6.828983    -0.403458
C        0.021983     4.737946    -0.025029
C       -0.943457     4.035783    -0.747147
C       -0.917134     2.654896    -0.710372
N        0.000000     1.950000     0.000000
C        0.912208     2.654794     0.706750
C        0.964598     4.037186     0.727484
H        1.116088     7.892843     0.083602
H        2.042236     6.446370     0.234989
H       -1.700564     4.552416    -1.328272
H       -1.636829     2.060027    -1.252162
H        1.590590     2.078813     1.295754
H        1.706725     4.535232     1.338415
N        1.162443    -6.892545     0.040133
C       -0.024912    -6.220747    -0.064103
O       -1.076395    -6.828984    -0.215671
C        0.017186    -4.737946    -0.028536
C       -1.061180    -4.035783    -0.567658
C       -1.028743    -2.654896    -0.536145
N        0.000000    -1.950000     0.000000
C        1.018547    -2.658050     0.539369
C        1.078492    -4.037186     0.544553
H        1.113190    -7.892843    -0.116004
H        2.051499    -6.446367    -0.131548
H       -1.909481    -4.552417    -1.005041
H       -1.833238    -2.060027    -0.941463
H        1.809428    -2.063340     0.979132
H        1.917346    -4.535232     1.013927
N        0.000000     0.000000     1.950000
C       -0.000000     0.000000     3.411305
S        0.000001     0.000004     5.209651
N        0.000000     0.000000    -1.950000
C       -0.000000     0.000000    -3.411305
S        0.000001     0.000004    -5.209651
67
ex_0185 frame9 OC-6-1-conf9
Ni       0.000000     0.000000     0.000000
N        6.892546     0.737596    -0.899352
C        6.221051     0.031821     0.060893
O        6.828983    -0.548967     0.950672
C        4.737926     0.032780     0.005931
C        4.035783    -0.274618     1.171718
C        2.656814    -0.273688     1.119726
N        1.950000     0.000000     0.000000
C        2.655655     0.272755    -1.119976
C        4.037186     0.303401    -1.169457
H        7.892540     0.822161    -0.759098
H        6.446370     1.453687    -1.453526
H        4.552416    -0.506460     2.097551
H        2.080498    -0.477776     1.997017
H        2.055791     0.472089    -2.003118
H        4.535232     0.504982    -2.109326
N       -6.892545     0.386460    -1.097057
C       -6.221051     0.050692     0.046380
O       -6.828984    -0.191632     1.080933
C       -4.737926     0.032837    -0.005610
C       -4.035783     0.141672     1.195101
C       -2.654895     0.123799     1.150104
N       -1.950000     0.000000     0.000000
C       -2.656931    -0.127919    -1.144579
C       -4.037186    -0.113846    -1.202798
H       -7.892539     0.513807    -0.994077
H       -6.446367     0.870476    -1.862317
H       -4.552417     0.239654     2.144479
H       -2.060027     0.208251     2.050304
H       -2.055994    -0.241694    -2.044359
H       -4.535232    -0.245061    -2.155043
N       -1.110837     6.892545     0.344855
C        0.006949     6.221051    -0.068355
O        0.981597     6.828984    -0.491535
C       -0.024103     4.737926    -0.022995
C        0.874221     4.035783    -0.827088
C        0.842397     2.662740    -0.774276
N        0.000000     1.950000     0.000000
C       -0.846644     2.654609     0.783900
C       -0.897007     4.037186     0.809358
H       -1.104241     7.892539     0.181213
H       -2.013722     6.446367     0.413374
H        1.577388     4.552417    -1.472437
H        1.500838     2.104197    -1.372407
H       -1.496713     2.055792     1.412515
H       -1.582635     4.535232     1.483082
N       -1.161848    -6.892546    -0.054684
C        0.029846    -6.221051    -0.061885
O        1.090387    -6.828983    -0.127272
C       -0.014815    -4.737926    -0.029837
C        1.103892    -4.035783    -0.479333
C        1.065935    -2.654895    -0.449276
N        0.000000    -1.950000     0.000000
C       -1.063239    -2.654609     0.448140
C       -1.119265    -4.037186     0.454894
H       -1.099834    -7.892540    -0.206264
H       -2.033965    -6.446370    -0.298219
H        1.985002    -4.552416    -0.846163
H        1.900711    -2.064500    -0.794770
H       -1.885150    -2.063759     0.815630
H       -1.993565    -4.535232     0.854379
N        0.000000     0.000000     1.950000
C       -0.000000     0.000000     3.411305
S        0.000001     0.000004     5.209651
N        0.000000     0.000000    -1.950000
C       -0.000000     0.000000    -3.411305
S        0.000001     0.000004    -5.209651
67
ex_0185 frame10 OC-6-1-conf10
Ni       0.000000     0.000000     0.000000
N        6.892546    -0.114378    -1.157497
C        6.220747     0.065563     0.020764
O        6.828983     0.284048     1.060405
C        4.737946     0.027379    -0.018976
C        4.035783     0.634345     1.022714
C        2.658094     0.599384     0.985319
N        1.950000     0.000000     0.000000
C        2.665377    -0.592987    -0.973119
C        4.037186    -0.612394    -1.041468
H        7.892843     0.044589    -1.118326
H        6.446370     0.000114    -2.055711
H        4.552416     1.125071     1.841314
H        2.094145     1.085942     1.737043
H        2.083415    -1.096909    -1.723343
H        4.535232    -1.134442    -1.848595
N       -6.892546     0.046286    -1.162213
C       -6.220747    -0.064232     0.024574
O       -6.828983    -0.221359     1.075240
C       -4.737946    -0.028445    -0.017337
C       -4.035783    -0.573264     1.058162
C       -2.654896    -0.541579     1.025892
N       -1.950000     0.000000     0.000000
C       -2.654599     0.539441    -1.021841
C       -4.037186     0.550251    -1.075596
H       -7.892843    -0.110110    -1.113785
H       -6.446370    -0.120695    -2.052164
H       -4.552416    -1.015128     1.904137
H       -2.060027    -0.951148     1.828232
H       -2.055791     0.978073    -1.810724
H       -4.535232     1.024056    -1.911955
N       -1.134441     6.892545    -0.256765
C        0.040393     6.220747    -0.055662
O        1.095856     6.828984     0.065117
C       -0.009366     4.737946    -0.031968
C        1.170642     4.035783    -0.279169
C        1.112353     2.667970    -0.245507
N        0.000000     1.950000     0.000000
C       -1.126791     2.654599     0.255925
C       -1.181510     4.037186     0.252421
H       -1.047105     7.892843    -0.395247
H       -1.950621     6.446367    -0.648869
H        2.102276     4.552417    -0.486475
H        1.968364     2.133644    -0.433952
H       -2.002449     2.055792     0.474918
H       -2.112143     4.535232     0.493069
N        1.162443    -6.892545     0.040133
C       -0.024912    -6.220747    -0.064103
O       -1.076395    -6.828984    -0.215671
C        0.017186    -4.737946    -0.028536
C       -1.061180    -4.035783    -0.567658
C       -1.028743    -2.654896    -0.536145
N        0.000000    -1.950000     0.000000
C        1.011648    -2.664508     0.527515
C        1.078492    -4.037186     0.544553
H        1.113190    -7.892843    -0.116004
H        2.051499    -6.446367    -0.131548
H       -1.909481    -4.552417    -1.005041
H       -1.833238    -2.060027    -0.941463
H        1.789088    -2.089969     0.974038
H        1.917346    -4.535232     1.013927
N        0.000000     0.000000     1.950000
C       -0.000000     0.000000     3.411305
S        0.000001     0.000004     5.209651
N        0.000000     0.000000    -1.950000
C       -0.000000     0.000000    -3.411305
S        0.000001     0.000004    -5.209651
67
ex_0185 frame11 OC-6-2
Ni       0.000000     0.000000     0.000000
N        6.892545     0.383842     1.097975
C        6.219397     0.050346    -0.047289
O        6.828984    -0.189053    -1.081387
C        4.738035     0.032831     0.005629
C        4.035783     0.144522    -1.194760
C        2.654898     0.128521    -1.167787
N        1.950000     0.000000     0.000000
C        2.654554    -0.127216     1.155918
C        4.037186    -0.116714     1.202523
H        7.894192     0.511890     0.996329
H        6.446367     0.866032     1.864388
H        4.552417     0.244768    -2.143901
H        2.060027     0.213141    -2.049802
H        2.055792    -0.244614     2.043407
H        4.535232    -0.250200     2.154452
N       -6.892545    -0.386460     1.097057
C       -6.219397    -0.050233    -0.047409
O       -6.828984     0.191632    -1.080933
C       -4.738035    -0.032845     0.005550
C       -4.035783    -0.141672    -1.195101
C       -2.654898    -0.125736    -1.168090
N       -1.950000     0.000000     0.000000
C       -2.654554     0.124459     1.156218
C       -4.037186     0.113846     1.202798
H       -7.894192    -0.514265     0.995106
H       -6.446367    -0.870476     1.862317
H       -4.552417    -0.239654    -2.144479
H       -2.060027    -0.208251    -2.050304
H       -2.097022     0.236290     2.024463
H       -4.535232     0.245061     2.155043
N        1.051170     6.892545    -0.497927
C       -0.052353     6.219398    -0.045061
O       -1.055296     6.828985     0.302469
C        0.002122     4.738035    -0.033245
C        1.208121     4.037186    -0.011252
C        1.162890     2.654553     0.004126
N        0.000000     1.950000     0.000000
C       -1.174831     2.654897    -0.004167
C       -1.203346     4.035783    -0.017223
H        1.762228     6.446367    -1.058544
H        0.936539     7.894192    -0.614495
H        2.168833     4.535231     0.020703
H        2.057820     2.055791     0.026907
H       -2.060847     2.060027     0.005067
H       -2.157766     4.552417    -0.016421
N        0.000000    -1.950000     0.000000
C       -0.000000    -3.411305     0.000000
S        0.000004    -5.209651     0.000000
N        0.144439    -1.154131     6.892546
C        0.059160     0.035649     6.219398
O        0.042502     1.096967     6.828983
C        0.030915    -0.012405     4.738035
C        0.392461     1.137679     4.035783
C        0.371146     1.114672     2.654897
N        0.000000     0.000000     1.950000
C       -0.352412    -1.101940     2.660788
C       -0.366906    -1.151114     4.037186
H        0.290994    -1.081674     7.894193
H        0.454741    -2.004784     6.446370
H        0.689998     2.044536     4.552416
H        0.639296     1.959188     2.060027
H       -0.668722    -1.946319     2.055791
H       -0.697527    -2.053709     4.535232
N        0.000000     0.000000    -1.950000
C       -0.000000     0.000000    -3.411305
S        0.000001     0.000004    -5.209651
67
ex_0185 frame12 OC-6-2-conf1
Ni       0.000000     0.000000     0.000000
N        6.892545     1.047803     0.504969
C        6.219397     0.002162    -0.069039
O        6.828984    -0.898337    -0.630976
C        4.738035     0.027195    -0.019235
C        4.035783    -0.742630    -0.947016
C        2.654898    -0.734872    -0.916628
N        1.950000     0.000000     0.000000
C        2.677281     0.681779     0.909688
C        4.037186     0.767782     0.932841
H        7.894192     1.066472     0.342550
H        6.446367     1.930699     0.705945
H        4.552417    -1.342890    -1.689044
H        2.060027    -1.298715    -1.600142
H        2.099240     1.179595     1.695443
H        4.535232     1.346509     1.700346
N       -6.892545    -0.883212     0.756849
C       -6.219397    -0.019799    -0.066174
O       -6.828984     0.706425    -0.840300
C       -4.738035    -0.031220    -0.011616
C       -4.035783     0.474859    -1.105824
C       -2.654898     0.475155    -1.074464
N       -1.950000     0.000000     0.000000
C       -2.654554    -0.470325     1.063544
C       -4.037186    -0.502805     1.098576
H       -7.894192    -0.942919     0.604654
H       -6.446367    -1.685013     1.177576
H       -4.552417     0.864693    -1.977000
H       -2.060027     0.844801    -1.879741
H       -2.055792    -0.814372     1.890013
H       -4.535232    -0.865292     1.988852
N       -1.134441     6.892545    -0.256765
C        0.041271     6.219397    -0.055388
O        1.095856     6.828984     0.065117
C       -0.009318     4.738035    -0.031981
C        1.170642     4.035783    -0.279169
C        1.098173     2.682037    -0.288963
N        0.000000     1.950000     0.000000
C       -1.134015     2.654554     0.257567
C       -1.181510     4.037186     0.252421
H       -1.047982     7.894192    -0.395521
H       -1.950621     6.446367    -0.648869
H        2.102276     4.552417    -0.486475
H        1.972269     2.126364    -0.563421
H       -2.002449     2.055792     0.474918
H       -2.112143     4.535232     0.493069
N        0.000000    -1.950000     0.000000
C       -0.000000    -3.411305     0.000000
S        0.000004    -5.209651     0.000000
N       -0.408841    -1.088914     6.892545
C       -0.049252     0.048428     6.219397
O        0.213724     1.076783     6.828984
C       -0.032951    -0.004877     4.738035
C       -0.117173     1.197752     4.035783
C       -0.101792     1.170420     2.654898
N        0.000000     0.000000     1.950000
C        0.100759    -1.158524     2.654554
C        0.089195    -1.204876     4.037186
H       -0.534532    -0.984367     7.894192
H       -0.908425    -1.844104     6.446367
H       -0.195695     2.148936     4.552417
H       -0.166227     2.054138     2.060027
H        0.197839    -2.048465     2.055792
H        0.200885    -2.159608     4.535232
N        0.000000     0.000000    -1.950000
C       -0.000000     0.000000    -3.411305
S        0.000001     0.000004    -5.209651
67
ex_0185 frame13 OC-6-2-conf2
Ni       0.000000     0.000000     0.000000
N        6.892545     0.383842     1.097975
C        6.219397     0.050346    -0.047289
O        6.828984    -0.189053    -1.081387
C        4.738035     0.032831     0.005629
C        4.035783     0.144522    -1.194760
C        2.654898     0.128521    -1.167787
N        1.950000     0.000000     0.000000
C        2.677281    -0.161156     1.125337
C        4.037186    -0.116714     1.202523
H        7.894192     0.511890     0.996329
H        6.446367     0.866032     1.864388
H        4.552417     0.244768    -2.143901
H        2.060027     0.213141    -2.049802
H        2.099240    -0.364760     2.032959
H        4.535232    -0.250200     2.154452
N       -6.892545     0.386460    -1.097057
C       -6.219397     0.050233     0.047409
O       -6.828984    -0.191632     1.080933
C       -4.738035     0.032845    -0.005550
C       -4.035783     0.141672     1.195101
C       -2.654898     0.125736     1.168090
N       -1.950000     0.000000     0.000000
C       -2.654554    -0.124459    -1.156218
C       -4.037186    -0.113846    -1.202798
H       -7.894192     0.514265    -0.995106
H       -6.446367     0.870476    -1.862317
H       -4.552417     0.239654     2.144479
H       -2.060027     0.208251     2.050304
H       -2.097022    -0.236290    -2.024463
H       -4.535232    -0.245061    -2.155043
N        1.029330     6.892545     0.541631
C       -0.054200     6.219397     0.042819
O       -1.041662     6.828984    -0.346527
C        0.000723     4.738035     0.033303
C       -1.203008     4.035783    -0.033328
C       -1.135543     2.682037    -0.005111
N        0.000000     1.950000     0.000000
C        1.162037     2.654554     0.044714
C        1.206583     4.037186     0.061977
H        0.909905     7.894192     0.653282
H        1.716216     6.446367     1.131617
H       -2.156552     4.552417    -0.074211
H       -2.050889     2.126364     0.033762
H        2.057135     2.055792     0.059537
H        2.167789     4.535232     0.070395
N        0.000000    -1.950000     0.000000
C       -0.000000    -3.411305     0.000000
S        0.000004    -5.209651     0.000000
N        0.144439    -1.154131     6.892546
C        0.059160     0.035649     6.219398
O        0.042502     1.096967     6.828983
C        0.030915    -0.012405     4.738035
C        0.392461     1.137679     4.035783
C        0.371146     1.114672     2.654897
N        0.000000     0.000000     1.950000
C       -0.352412    -1.101940     2.660788
C       -0.366906    -1.151114     4.037186
H        0.290994    -1.081674     7.894193
H        0.454741    -2.004784     6.446370
H        0.689998     2.044536     4.552416
H        0.639296     1.959188     2.060027
H       -0.668722    -1.946319     2.055791
H       -0.697527    -2.053709     4.535232
N        0.000000     0.000000    -1.950000
C       -0.000000     0.000000    -3.411305
S        0.000001     0.000004    -5.209651
67
ex_0185 frame14 OC-6-2-conf3
Ni       0.000000     0.000000     0.000000
N        6.892545     0.654940     0.961217
C        6.220747     0.036968    -0.057992
O        6.828984    -0.462495    -0.995609
C        4.737946     0.033176    -0.003012
C        4.035783    -0.169629    -1.191455
C        2.654896    -0.175865    -1.146663
N        1.950000     0.000000     0.000000
C        2.660853     0.176278     1.132445
C        4.037186     0.198498     1.191756
H        7.892843     0.751740     0.829177
H        6.446367     1.319062     1.576715
H        4.552417    -0.318455    -2.134200
H        2.060027    -0.324650    -2.035121
H        2.128177     0.265793     1.998270
H        4.535232     0.315938     2.145797
N       -6.892545    -0.386460     1.097057
C       -6.220747    -0.050607    -0.046569
O       -6.828984     0.191632    -1.080933
C       -4.737946    -0.032838     0.005599
C       -4.035783    -0.141672    -1.195101
C       -2.658596    -0.128368    -1.145755
N       -1.950000     0.000000     0.000000
C       -2.654599     0.123665     1.148852
C       -4.037186     0.113846     1.202798
H       -7.892843    -0.513891     0.994266
H       -6.446367    -0.870476     1.862317
H       -4.552417    -0.239654    -2.144479
H       -2.067954    -0.233842    -2.049103
H       -2.055792     0.239740     2.043985
H       -4.535232     0.245061     2.155043
N        0.977806     6.892546    -0.629902
C       -0.057018     6.220747    -0.038451
O       -1.007217     6.828983     0.436641
C       -0.002154     4.737946    -0.033242
C       -1.195437     4.035783     0.138812
C       -1.150821     2.654896     0.146203
N        0.000000     1.950000     0.000000
C        1.143665     2.656351    -0.149823
C        1.196483     4.037186    -0.167665
H        0.848308     7.892843    -0.730078
H        1.610241     6.446370    -1.277916
H       -2.141710     4.552416     0.263250
H       -2.033760     2.077204     0.270226
H        2.040953     2.078813    -0.208480
H        2.153239     4.535232    -0.260435
N        0.000000    -1.950000     0.000000
C       -0.000000    -3.411305     0.000000
S        0.000004    -5.209651     0.000000
N        0.408841     1.088914     6.892545
C        0.049643    -0.047596     6.220747
O       -0.213724    -1.076783     6.828984
C        0.032946     0.004925     4.737946
C        0.117173    -1.197752     4.035783
C        0.100513    -1.155708     2.654896
N        0.000000     0.000000     1.950000
C       -0.100116     1.151144     2.654599
C       -0.089195     1.204876     4.037186
H        0.534141     0.983535     7.892843
H        0.908425     1.844104     6.446367
H        0.195695    -2.148936     4.552417
H        0.166227    -2.054138     2.060027
H       -0.209534     2.042067     2.070049
H       -0.200885     2.159608     4.535232
N        0.000000     0.000000    -1.950000
C       -0.000000     0.000000    -3.411305
S        0.000001     0.000004    -5.209651
67
ex_0185 frame15 OC-6-2-conf4
Ni       0.000000     0.000000     0.000000
N        6.892545     1.047803     0.504969
C        6.219397     0.002162    -0.069039
O        6.828984    -0.898337    -0.630976
C        4.738035     0.027195    -0.019235
C        4.035783    -0.742630    -0.947016
C        2.654898    -0.734872    -0.916628
N        1.950000     0.000000     0.000000
C        2.677281     0.681779     0.909688
C        4.037186     0.767782     0.932841
H        7.894192     1.066472     0.342550
H        6.446367     1.930699     0.705945
H        4.552417    -1.342890    -1.689044
H        2.060027    -1.298715    -1.600142
H        2.099240     1.179595     1.695443
H        4.535232     1.346509     1.700346
N       -6.892546     0.046286    -1.162213
C       -6.219398    -0.064195     0.025492
O       -6.828983    -0.221359     1.075240
C       -4.738035    -0.028469    -0.017295
C       -4.035783    -0.573264     1.058162
C       -2.654897    -0.548474     1.038952
N       -1.950000     0.000000     0.000000
C       -2.654554     0.542900    -1.028392
C       -4.037186     0.550251    -1.075596
H       -7.894193    -0.110147    -1.114704
H       -6.446370    -0.120695    -2.052164
H       -4.552416    -1.015128     1.904137
H       -2.060027    -0.951148     1.828232
H       -2.055791     0.978073    -1.810724
H       -4.535232     1.024056    -1.911955
N       -1.134441     6.892545    -0.256765
C        0.041271     6.219397    -0.055388
O        1.095856     6.828984     0.065117
C       -0.009318     4.738035    -0.031981
C        1.170642     4.035783    -0.279169
C        1.098173     2.682037    -0.288963
N        0.000000     1.950000     0.000000
C       -1.134015     2.654554     0.257567
C       -1.181510     4.037186     0.252421
H       -1.047982     7.894192    -0.395521
H       -1.950621     6.446367    -0.648869
H        2.102276     4.552417    -0.486475
H        1.972269     2.126364    -0.563421
H       -2.002449     2.055792     0.474918
H       -2.112143     4.535232     0.493069
N        0.000000    -1.950000     0.000000
C       -0.000000    -3.411305     0.000000
S        0.000004    -5.209651     0.000000
N       -0.480884     1.059073     6.892545
C        0.069070     0.000583     6.219397
O        0.610275    -0.912526     6.828984
C        0.019852     0.026749     4.738035
C        0.929792    -0.764085     4.035783
C        0.899590    -0.755634     2.654898
N        0.000000     0.000000     1.950000
C       -0.890447     0.747953     2.654554
C       -0.915046     0.788906     4.037186
H       -0.318082     1.074024     7.894192
H       -0.661625     1.946332     6.446367
H        1.657905    -1.381150     4.552417
H        1.570036    -1.334955     2.060027
H       -1.588377     1.308591     2.055792
H       -1.669121     1.385027     4.535232
N        0.000000     0.000000    -1.950000
C       -0.000000     0.000000    -3.411305
S        0.000001     0.000004    -5.209651
67
ex_0185 frame16 OC-6-2-conf5
Ni       0.000000     0.000000     0.000000
N        6.892546     0.189101    -1.147660
C        6.220747     0.057955     0.037025
O        6.828983    -0.000084     1.097790
C        4.737946     0.031358    -0.011243
C        4.035783     0.348033     1.152047
C        2.658094     0.323942     1.106877
N        1.950000     0.000000     0.000000
C        2.654599    -0.322232    -1.109649
C        4.037186    -0.321976    -1.164480
H        7.892843     0.332514    -1.068679
H        6.446370     0.532167    -1.985635
H        4.552416     0.610168     2.069763
H        2.094145     0.599360     1.958917
H        2.055791    -0.592718    -1.970795
H        4.535232    -0.617335    -2.079221
N       -6.892545    -0.883212     0.756849
C       -6.220747    -0.020543    -0.065634
O       -6.828984     0.706425    -0.840300
C       -4.737946    -0.031238    -0.011570
C       -4.035783     0.474859    -1.105824
C       -2.654896     0.469182    -1.060958
N       -1.950000     0.000000     0.000000
C       -2.654599    -0.467329     1.056768
C       -4.037186    -0.502805     1.098576
H       -7.892843    -0.942175     0.604114
H       -6.446367    -1.685013     1.177576
H       -4.552417     0.864693    -1.977000
H       -2.060027     0.844801    -1.879741
H       -2.055792    -0.814372     1.890013
H       -4.535232    -0.865292     1.988852
N        1.134441     6.892545     0.256765
C       -0.040393     6.220747     0.055662
O       -1.095856     6.828984    -0.065117
C        0.009366     4.737946     0.031968
C       -1.170642     4.035783     0.279169
C       -1.112353     2.667970     0.245507
N        0.000000     1.950000     0.000000
C        1.126791     2.654599    -0.255925
C        1.181510     4.037186    -0.252421
H        1.047105     7.892843     0.395247
H        1.950621     6.446367     0.648869
H       -2.102276     4.552417     0.486475
H       -1.968364     2.133644     0.433952
H        2.002449     2.055792    -0.474918
H        2.112143     4.535232    -0.493069
N        0.000000    -1.950000     0.000000
C       -0.000000    -3.411305     0.000000
S        0.000004    -5.209651     0.000000
N       -0.408841    -1.088914     6.892545
C       -0.049643     0.047596     6.220747
O        0.213724     1.076783     6.828984
C       -0.032946    -0.004925     4.737946
C       -0.117173     1.197752     4.035783
C       -0.100513     1.155708     2.654896
N        0.000000     0.000000     1.950000
C        0.100116    -1.151144     2.654599
C        0.089195    -1.204876     4.037186
H       -0.534141    -0.983535     7.892843
H       -0.908425    -1.844104     6.446367
H       -0.195695     2.148936     4.552417
H       -0.166227     2.054138     2.060027
H        0.197839    -2.048465     2.055792
H        0.200885    -2.159608     4.535232
N        0.000000     0.000000    -1.950000
C       -0.000000     0.000000    -3.411305
S        0.000001     0.000004    -5.209651
67
ex_0185 frame17 OC-6-2-conf6
Ni       0.000000     0.000000     0.000000
N        6.892545     1.047803     0.504969
C        6.219397     0.002162    -0.069039
O        6.828984    -0.898337    -0.630976
C        4.738035     0.027195    -0.019235
C        4.035783    -0.742630    -0.947016
C        2.654898    -0.734872    -0.916628
N        1.950000     0.000000     0.000000
C        2.677281     0.681779     0.909688
C        4.037186     0.767782     0.932841
H        7.894192     1.066472     0.342550
H        6.446367     1.930699     0.705945
H        4.552417    -1.342890    -1.689044
H        2.060027    -1.298715    -1.600142
H        2.099240     1.179595     1.695443
H        4.535232     1.346509     1.700346
N       -6.892545    -0.883212     0.756849
C       -6.219397    -0.019799    -0.066174
O       -6.828984     0.706425    -0.840300
C       -4.738035    -0.031220    -0.011616
C       -4.035783     0.474859    -1.105824
C       -2.654898     0.475155    -1.074464
N       -1.950000     0.000000     0.000000
C       -2.654554    -0.470325     1.063544
C       -4.037186    -0.502805     1.098576
H       -7.894192    -0.942919     0.604654
H       -6.446367    -1.685013     1.177576
H       -4.552417     0.864693    -1.977000
H       -2.060027     0.844801    -1.879741
H       -2.055792    -0.814372     1.890013
H       -4.535232    -0.865292     1.988852
N       -1.134441     6.892545    -0.256765
C        0.041271     6.219397    -0.055388
O        1.095856     6.828984     0.065117
C       -0.009318     4.738035    -0.031981
C        1.170642     4.035783    -0.279169
C        1.098173     2.682037    -0.288963
N        0.000000     1.950000     0.000000
C       -1.134015     2.654554     0.257567
C       -1.181510     4.037186     0.252421
H       -1.047982     7.894192    -0.395521
H       -1.950621     6.446367    -0.648869
H        2.102276     4.552417    -0.486475
H        1.972269     2.126364    -0.563421
H       -2.002449     2.055792     0.474918
H       -2.112143     4.535232     0.493069
N        0.000000    -1.950000     0.000000
C       -0.000000    -3.411305     0.000000
S        0.000004    -5.209651     0.000000
N       -0.474074     1.062138     6.892544
C       -0.046227    -0.051324     6.219397
O        0.278582    -1.061854     6.828983
C       -0.033187     0.002871     4.738035
C       -0.044378    -1.202651     4.035782
C       -0.030682    -1.174437     2.654897
N        0.000000     0.000000     1.950000
C        0.030371     1.162501     2.654553
C        0.016019     1.208067     4.037186
H       -1.018504     1.785665     6.446368
H       -0.593198     0.950168     7.894192
H       -0.065117    -2.156846     4.552416
H       -0.041447    -2.060436     2.060027
H        0.073345     2.056688     2.055791
H        0.069651     2.167813     4.535231
N        0.000000     0.000000    -1.950000
C       -0.000000     0.000000    -3.411305
S        0.000001     0.000004    -5.209651
67
ex_0185 frame18 OC-6-2-conf7
Ni       0.000000     0.000000     0.000000
N        6.892545     0.383842     1.097975
C        6.221233     0.050852    -0.046146
O        6.828984    -0.189053    -1.081387
C        4.737914     0.032822     0.005695
C        4.035783     0.144522    -1.194760
C        2.654895     0.126324    -1.147824
N        1.950000     0.000000     0.000000
C        2.656867    -0.124825     1.142637
C        4.037186    -0.116714     1.202523
H        7.892357     0.511384     0.995186
H        6.446367     0.866032     1.864388
H        4.552417     0.244768    -2.143901
H        2.060027     0.213141    -2.049802
H        2.081850    -0.250316     2.027411
H        4.535232    -0.250200     2.154452
N       -6.892545    -0.386460     1.097057
C       -6.221233    -0.050742    -0.046267
O       -6.828984     0.191632    -1.080933
C       -4.737914    -0.032836     0.005617
C       -4.035783    -0.141672    -1.195101
C       -2.656227    -0.125103    -1.145367
N       -1.950000     0.000000     0.000000
C       -2.654615     0.123379     1.146201
C       -4.037186     0.113846     1.202798
H       -7.892357    -0.513756     0.993963
H       -6.446367    -0.870476     1.862317
H       -4.552417    -0.239654    -2.144479
H       -2.062881    -0.217464    -2.049872
H       -2.061135     0.239293     2.041455
H       -4.535232     0.245061     2.155043
N        0.977806     6.892546    -0.629902
C       -0.056755     6.221233    -0.038652
O       -1.007217     6.828983     0.436641
C       -0.002137     4.737914    -0.033244
C       -1.195437     4.035783     0.138812
C       -1.145547     2.654895     0.145533
N        0.000000     1.950000     0.000000
C        1.140527     2.656781    -0.148638
C        1.196483     4.037186    -0.167665
H        0.848045     7.892358    -0.729877
H        1.610241     6.446370    -1.277916
H       -2.141710     4.552416     0.263250
H       -2.039561     2.066211     0.271362
H        2.044312     2.060570    -0.242426
H        2.153239     4.535232    -0.260435
N        0.000000    -1.950000     0.000000
C       -0.000000    -3.411305     0.000000
S        0.000004    -5.209651     0.000000
N        0.144439    -1.154131     6.892546
C        0.059415     0.034425     6.221233
O        0.042502     1.096967     6.828983
C        0.030892    -0.012468     4.737914
C        0.392461     1.137679     4.035783
C        0.364802     1.095617     2.654895
N        0.000000     0.000000     1.950000
C       -0.362252    -1.093602     2.655423
C       -0.366906    -1.151114     4.037186
H        0.290740    -1.080450     7.892358
H        0.454741    -2.004784     6.446370
H        0.689998     2.044536     4.552416
H        0.631240     1.954332     2.073407
H       -0.668722    -1.946319     2.055791
H       -0.697527    -2.053709     4.535232
N        0.000000     0.000000    -1.950000
C       -0.000000     0.000000    -3.411305
S        0.000001     0.000004    -5.209651
67
ex_0185 frame19 OC-6-2-conf8
Ni       0.000000     0.000000     0.000000
N        6.892545     0.383842     1.097975
C        6.219397     0.050346    -0.047289
O        6.828984    -0.189053    -1.081387
C        4.738035     0.032831     0.005629
C        4.035783     0.144522    -1.194760
C        2.654898     0.128521    -1.167787
N        1.950000     0.000000     0.000000
C        2.671926    -0.117276     1.130719
C        4.037186    -0.116714     1.202523
H        7.894192     0.511890     0.996329
H        6.446367     0.866032     1.864388
H        4.552417     0.244768    -2.143901
H        2.060027     0.213141    -2.049802
H        2.256861    -0.288615     1.919977
H        4.535232    -0.250200     2.154452
N       -6.892546    -0.541022    -1.029649
C       -6.219398    -0.042848     0.054174
O       -6.828983     0.345918     1.041865
C       -4.738035    -0.033302    -0.000743
C       -4.035783     0.032620     1.203027
C       -2.654897     0.044484     1.173996
N       -1.950000     0.000000     0.000000
C       -2.654554    -0.044031    -1.162063
C       -4.037186    -0.061267    -1.206619
H       -7.894193    -0.652742    -0.910288
H       -6.446370    -1.130607    -1.716879
H       -4.552416     0.072942     2.156595
H       -2.060027     0.090397     2.058870
H       -2.055791    -0.058326    -2.057169
H       -4.535232    -0.069119    -2.167830
N        1.161756     6.892546    -0.056608
C       -0.031066     6.219398    -0.061691
O       -1.090596     6.828983    -0.125466
C        0.014711     4.738035    -0.029886
C       -1.104685     4.035783    -0.477504
C       -1.083359     2.654897    -0.454508
N        0.000000     1.950000     0.000000
C        1.071898     2.659420     0.436164
C        1.120017     4.037186     0.453040
H        1.100608     7.894193    -0.208230
H        2.033468     6.446370    -0.301587
H       -1.986400     4.552416    -0.842874
H       -1.905138     2.060027    -0.785853
H        1.839189     2.119739     0.885630
H        1.994977     4.535232     0.851076
N        0.000000    -1.950000     0.000000
C       -0.000000    -3.411305     0.000000
S        0.000004    -5.209651     0.000000
N        0.408841     1.088914     6.892545
C        0.049252    -0.048428     6.219397
O       -0.213724    -1.076783     6.828984
C        0.032951     0.004877     4.738035
C        0.117173    -1.197752     4.035783
C        0.101792    -1.170420     2.654898
N        0.000000     0.000000     1.950000
C       -0.100759     1.158524     2.654554
C       -0.089195     1.204876     4.037186
H        0.534532     0.984367     7.894192
H        0.908425     1.844104     6.446367
H        0.195695    -2.148936     4.552417
H        0.166227    -2.054138     2.060027
H       -0.230325     2.030694     2.095394
H       -0.200885     2.159608     4.535232
N        0.000000     0.000000    -1.950000
C       -0.000000     0.000000    -3.411305
S        0.000001     0.000004    -5.209651
67
ex_0185 frame20 OC-6-2-conf9
Ni       0.000000     0.000000     0.000000
N        6.892545     1.047803     0.504969
C        6.219397     0.002162    -0.069039
O        6.828984    -0.898337    -0.630976
C        4.738035     0.027195    -0.019235
C        4.035783    -0.742630    -0.947016
C        2.654898    -0.734872    -0.916628
N        1.950000     0.000000     0.000000
C        2.677281     0.681779     0.909688
C        4.037186     0.767782     0.932841
H        7.894192     1.066472     0.342550
H        6.446367     1.930699     0.705945
H        4.552417    -1.342890    -1.689044
H        2.060027    -1.298715    -1.600142
H        2.099240     1.179595     1.695443
H        4.535232     1.346509     1.700346
N       -6.892544    -0.140724    -1.154591
C       -6.219397    -0.059277     0.035458
O       -6.828983    -0.046038     1.096824
C       -4.738035    -0.030875    -0.012504
C       -4.035782    -0.396123     1.136409
C       -2.654897    -0.374735     1.113471
N       -1.950000     0.000000     0.000000
C       -2.654553     0.370927    -1.102154
C       -4.037186     0.370612    -1.149926
H       -6.446368    -0.448281    -2.006239
H       -7.894192    -0.287511    -1.082608
H       -4.552416    -0.696581     2.042303
H       -2.060027    -0.645603     1.957118
H       -2.055791     0.674987    -1.944155
H       -4.535231     0.704139    -2.051451
N       -1.134441     6.892545    -0.256765
C        0.041271     6.219397    -0.055388
O        1.095856     6.828984     0.065117
C       -0.009318     4.738035    -0.031981
C        1.170642     4.035783    -0.279169
C        1.098173     2.682037    -0.288963
N        0.000000     1.950000     0.000000
C       -1.134015     2.654554     0.257567
C       -1.181510     4.037186     0.252421
H       -1.047982     7.894192    -0.395521
H       -1.950621     6.446367    -0.648869
H        2.102276     4.552417    -0.486475
H        1.972269     2.126364    -0.563421
H       -2.002449     2.055792     0.474918
H       -2.112143     4.535232     0.493069
N        0.000000    -1.950000     0.000000
C       -0.000000    -3.411305     0.000000
S        0.000004    -5.209651     0.000000
N       -0.408841    -1.088914     6.892545
C       -0.049252     0.048428     6.219397
O        0.213724     1.076783     6.828984
C       -0.032951    -0.004877     4.738035
C       -0.117173     1.197752     4.035783
C       -0.101792     1.170420     2.654898
N        0.000000     0.000000     1.950000
C        0.100759    -1.158524     2.654554
C        0.089195    -1.204876     4.037186
H       -0.534532    -0.984367     7.894192
H       -0.908425    -1.844104     6.446367
H       -0.195695     2.148936     4.552417
H       -0.166227     2.054138     2.060027
H        0.197839    -2.048465     2.055792
H        0.200885    -2.159608     4.535232
N        0.000000     0.000000    -1.950000
C       -0.000000     0.000000    -3.411305
S        0.000001     0.000004    -5.209651
67
ex_0185 frame21 OC-6-2-conf10
Ni       0.000000     0.000000     0.000000
N        6.892545     1.142796     0.216571
C        6.219397    -0.015780    -0.067246
O        6.828984    -1.031035    -0.376969
C        4.738035     0.021290    -0.025618
C        4.035783    -0.962431    -0.722540
C        2.654898    -0.947073    -0.695196
N        1.950000     0.000000     0.000000
C        2.654554     0.937446     0.688131
C        4.037186     0.983058     0.702339
H        7.894192     1.118792     0.054855
H        6.446367     2.047623     0.182189
H        4.552417    -1.734289    -1.283926
H        2.060027    -1.668610    -1.209486
H        2.072900     1.630452     1.251678
H        4.535232     1.740710     1.293906
N       -6.892546     0.621192    -0.983363
C       -6.219398    -0.068340    -0.010020
O       -6.828983    -0.729323     0.820506
C       -4.738035    -0.016008    -0.029212
C       -4.035783    -1.025542     0.629763
C       -2.654897    -0.994468     0.625522
N       -1.950000     0.000000     0.000000
C       -2.654554     0.984361    -0.619163
C       -4.037186     1.014329    -0.656368
H       -7.894193     0.461962    -1.020435
H       -6.446370     0.921557    -1.837574
H       -4.552416    -1.831195     1.141467
H       -2.060027    -1.737835     1.107721
H       -2.055791     1.752398    -1.079096
H       -4.535232     1.842836    -1.143774
N       -0.596450     6.892544     0.998565
C        0.068571     6.219397     0.008313
O        0.708617     6.828983    -0.838453
C        0.016732     4.738035     0.028803
C        1.009503     4.035782    -0.655166
C        0.960381     2.660704    -0.654708
N        0.000000     1.950000     0.000000
C       -0.979089     2.665491     0.615864
C       -0.997629     4.037186     0.681483
H       -0.875401     6.446368     1.860006
H       -0.436346     7.894192     1.031651
H        1.802133     4.552416    -1.186820
H        1.709643     2.060027    -1.150755
H       -1.724916     2.055791     1.122502
H       -1.813712     4.535231     1.189417
N        0.000000    -1.950000     0.000000
C       -0.000000    -3.411305     0.000000
S        0.000004    -5.209651     0.000000
N        0.676742     0.945994     6.892545
C        0.035040    -0.059525     6.219397
O       -0.485133    -0.984777     6.828984
C        0.033091    -0.003818     4.738035
C       -0.196821    -1.187266     4.035783
C       -0.204603    -1.156885     2.654898
N        0.000000     0.000000     1.950000
C        0.202522     1.145127     2.654554
C        0.225689     1.186907     4.037186
H        0.771091     0.812479     7.894192
H        1.354760     1.546150     6.446367
H       -0.367159    -2.126363     4.552417
H       -0.371087    -2.027168     2.060027
H        0.370321     1.987603     2.132421
H        0.364908     2.138014     4.535232
N        0.000000     0.000000    -1.950000
C       -0.000000     0.000000    -3.411305
S        0.000001     0.000004    -5.209651
