91
ex_0422 frame0 fac-1
C       -3.843243    -0.452858     2.514846
C       -3.995616    -0.437508     0.985470
N       -3.143207     0.058321     0.299523
C       -3.504511    -0.060200    -1.046774
C       -4.628642    -0.677925    -1.227564
N       -4.978533    -0.911752     0.227451
C       -2.611458     0.502881    -2.067645
N       -1.449210     1.031444    -1.543130
C       -0.549724     1.718218    -2.318902
C        0.116159     0.886957    -3.383925
C       -0.702619     0.282812    -4.483295
C       -1.075406    -1.066790    -4.492339
C       -1.776253    -1.575679    -5.593364
C       -2.128230    -0.754325    -6.644889
C       -1.770250     0.583267    -6.569159
N       -1.088779     1.069470    -5.491939
Fe      -1.372103     1.008253     0.497189
N       -0.347301    -0.757825     0.436972
C       -0.186465    -1.445984    -0.730853
C        1.246675    -1.735498    -1.092841
C        1.939926    -2.630848    -0.148673
C        1.714321    -3.986557    -0.241688
C        2.360168    -4.882301     0.596182
C        3.223472    -4.402162     1.544924
C        3.416471    -3.025162     1.627749
N        2.783936    -2.150625     0.796564
C       -0.079239    -1.312727     1.662103
C       -0.471918    -0.455972     2.769432
C       -0.321853    -0.660175     4.058169
N       -0.945406     0.602223     4.551828
C       -1.344867     1.327969     3.516723
C       -2.028495     2.692905     3.504711
N       -1.086173     0.738524     2.477200
N        0.412937     1.988889     0.422871
C        1.627533     1.359330     0.369814
C        2.422438     1.973597     1.443492
C        3.792408     1.444692     1.406211
C        4.747494     2.071930     0.605794
C        6.049828     1.599272     0.548155
C        6.387686     0.498214     1.294315
C        5.415972    -0.112508     2.087081
N        4.130791     0.358442     2.140047
C        0.301985     3.371596     0.386771
C       -1.057111     3.837121     0.489889
C       -1.491088     5.060722     0.523196
N       -2.945196     4.797281     0.605175
C       -3.147574     3.479525     0.601923
C       -4.454008     2.708758     0.637229
N       -2.018687     2.906882     0.562400
H       -4.778885    -0.971366     2.794419
H       -3.982807     0.514997     3.016990
H       -3.099731    -1.143602     2.934664
H       -5.182734    -0.876426    -2.062730
H       -5.762455    -1.331281     0.589392
H       -2.678611     0.604633    -3.057571
H        0.128064     2.337346    -1.766571
H       -1.166158     2.446654    -2.787839
H        0.691342     1.701066    -3.902893
H        0.879717     0.183377    -3.094967
H       -0.823561    -1.745093    -3.725974
H       -2.035659    -2.622035    -5.617076
H       -2.667412    -1.150776    -7.496987
H       -2.024486     1.245074    -7.362050
H       -0.690881    -1.031648    -1.563568
H       -0.724883    -2.321957    -0.465971
H        1.156470    -2.346773    -2.031985
H        1.895580    -0.921050    -1.386265
H        1.046871    -4.363280    -0.975782
H        2.198760    -5.945043     0.517494
H        3.759372    -5.055087     2.231357
H        4.074419    -2.658673     2.352712
H        0.321938    -2.217488     1.595463
H        0.075965    -1.450663     4.571644
H       -1.062286     0.880268     5.463935
H       -2.043060     2.916974     4.591210
H       -3.100123     2.702412     3.263706
H       -1.381135     3.480382     3.124509
H        1.555889     0.307738     0.598761
H        2.043227     1.548700    -0.609052
H        1.912850     1.905604     2.428241
H        2.559040     3.059681     1.287202
H        4.468717     2.929336     0.029265
H        6.773008     2.101395    -0.078245
H        7.395559     0.122818     1.257566
H        5.718342    -0.961839     2.650656
H        1.165149     3.838549     0.285617
H       -0.986300     5.969857     0.528799
H       -3.672147     5.432195     0.665608
H       -4.666467     2.215063    -0.305662
H       -5.188264     3.539166     0.622489
H       -4.694996     2.212583     1.585412
91
ex_0422 frame1 mer-1
C        0.227863     2.844481     2.922213
C       -0.378068     1.430984     2.593778
N        0.026597     0.808279     1.532115
C       -0.657437    -0.323040     1.423959
C       -1.473841    -0.541617     2.419127
N       -1.244360     0.742953     3.214002
C       -0.493721    -1.173175     0.336286
N        0.579425    -0.560003    -0.660506
C        0.886707    -1.117631    -1.775323
C        0.235374    -2.376192    -2.056674
C        0.342666    -3.613728    -1.175795
C       -0.411155    -4.631750    -1.572951
C       -0.390055    -5.824750    -0.862531
C        0.401272    -5.954909     0.246737
C        1.169684    -4.869555     0.646292
N        1.158670    -3.672396    -0.053766
Fe       1.169881     1.286535    -0.080843
N       -0.398016     2.200175    -0.983847
C       -1.682774     2.268288    -0.438991
C       -2.146030     3.659442    -0.078630
C       -3.494361     3.434019     0.423063
C       -4.223509     4.531962     0.839473
C       -5.505346     4.372847     1.303167
C       -6.069643     3.091290     1.360003
C       -5.328818     1.979277     0.948002
N       -4.083644     2.166255     0.503239
C       -0.270256     2.282584    -2.467612
C        1.100534     1.910476    -2.847415
C        1.583534     1.946284    -4.015587
N        2.991455     1.379211    -3.732311
C        3.063386     1.155897    -2.525398
C        4.236015     0.552030    -1.618595
N        1.946854     1.494703    -1.929105
N        2.721605     0.416039     0.876682
C        2.855607    -0.948356     1.159723
C        4.269528    -1.264152     1.475399
C        4.345456    -2.710502     1.559559
C        4.132827    -3.324926     2.800650
C        4.256799    -4.723146     2.890385
C        4.562284    -5.457478     1.765788
C        4.738081    -4.809826     0.549482
N        4.615924    -3.440812     0.459491
C        3.509534     1.419788     1.626507
C        3.074767     2.786501     1.293431
C        3.648543     3.804988     1.733309
N        2.746506     4.870165     1.056455
C        1.921910     4.300114     0.392303
C        0.794203     4.886054    -0.526128
N        2.085525     2.910808     0.535245
H        1.244561     2.789065     3.294832
H       -0.039399     3.692310     2.257563
H       -0.373891     3.055132     3.821389
H       -2.115103    -1.322745     2.677364
H       -1.630386     1.027754     4.026175
H       -0.872405    -2.002519     0.011535
H        0.529613    -0.404018    -2.492935
H        1.995661    -1.236108    -1.802497
H        0.467017    -2.670176    -3.042887
H       -0.878238    -2.182557    -2.066389
H       -1.032874    -4.545416    -2.423718
H       -0.988013    -6.652224    -1.177205
H        0.433346    -6.870498     0.806374
H        1.775353    -4.950225     1.497726
H       -2.356062     1.897102    -1.141714
H       -1.765054     1.645115     0.392442
H       -2.259973     4.305018    -0.945456
H       -1.649563     4.223577     0.718765
H       -3.737938     5.515045     0.775870
H       -6.079877     5.226322     1.621999
H       -7.065039     3.011060     1.723903
H       -5.763406     0.974794     0.989595
H       -1.100147     2.643215    -2.923480
H        1.225250     2.263352    -4.933501
H        3.698824     1.245301    -4.316699
H        4.647664     1.210207    -0.868223
H        5.008796     0.529666    -2.407640
H        4.149337    -0.511142    -1.338362
H        2.252807    -1.231664     1.974727
H        2.488929    -1.486797     0.297114
H        4.493421    -0.863136     2.483336
H        5.063839    -0.865900     0.807906
H        3.899637    -2.762769     3.664730
H        4.116012    -5.227603     3.839900
H        4.666133    -6.541790     1.805580
H        4.971189    -5.399645    -0.312337
H        4.255367     1.065338     2.186097
H        4.448630     4.014894     2.341336
H        2.822215     5.794026     1.114089
H        1.435965     5.650215    -0.978897
H        0.163344     5.523696     0.126670
H        0.327403     4.437915    -1.378350
91
ex_0422 frame2 fac-1
C        2.985447     1.977811    -1.575775
C        1.580881     2.527563    -1.419479
N        0.673249     1.954007    -0.737357
C       -0.461870     2.738428    -0.790562
C       -0.306466     3.777026    -1.516298
N        1.079972     3.661829    -1.950745
C       -1.597572     2.267955    -0.040858
N       -1.313221     1.186498     0.765364
C       -2.329501     0.534306     1.420951
C       -2.506112     1.274187     2.695512
C       -2.755697     2.719896     2.494367
C       -4.069141     3.187960     2.329301
C       -4.321299     4.543297     2.166862
C       -3.233606     5.402499     2.161496
C       -1.937259     4.894069     2.311861
N       -1.715271     3.576654     2.471515
Fe       0.551267     0.404380     0.465403
N        0.128667    -1.118089     1.761292
C       -0.394427    -2.307742     1.338925
C        0.192611    -3.355655     2.182822
C        1.675253    -3.412834     2.017113
C        2.171401    -4.227663     1.035310
C        3.539364    -4.369118     0.849349
C        4.424407    -3.666850     1.646629
C        3.888203    -2.824540     2.621867
N        2.536845    -2.697517     2.792276
C        0.376689    -0.821364     3.090126
C        0.931558     0.475645     3.291029
C        1.352720     1.047119     4.357908
N        1.797222     2.341079     3.861857
C        1.574041     2.367647     2.525574
C        1.884678     3.494564     1.566070
N        1.070751     1.333196     2.163149
N       -0.169121    -0.721224    -1.077445
C       -1.478641    -0.651275    -1.525916
C       -2.271781    -1.917448    -1.403784
C       -1.736945    -3.055187    -2.189311
C       -2.025635    -3.108305    -3.532471
C       -1.578457    -4.159134    -4.305972
C       -0.824976    -5.157116    -3.743173
C       -0.526737    -5.081455    -2.387641
N       -0.977940    -4.036039    -1.625595
C        0.764944    -1.447843    -1.755033
C        2.086765    -1.333853    -1.187891
C        3.207609    -1.857954    -1.526146
N        4.133989    -1.294739    -0.542444
C        3.405771    -0.499562     0.284947
C        3.890043     0.320445     1.482882
N        2.200954    -0.513358    -0.069154
H        3.384725     2.634688    -2.370783
H        2.986968     1.019808    -2.094031
H        3.706479     2.152452    -0.764956
H       -1.006958     4.554629    -1.766946
H        1.593063     4.246834    -2.526066
H       -2.557128     2.573899     0.045968
H       -2.130527    -0.509734     1.530653
H       -3.201398     0.670412     0.811550
H       -1.680416     1.162979     3.422884
H       -3.427760     0.873648     3.132970
H       -4.862411     2.466295     2.340656
H       -5.340155     4.906298     2.052444
H       -3.377788     6.459080     2.041657
H       -1.103405     5.552079     2.307467
H       -0.131182    -2.466461     0.299420
H       -1.447779    -2.345761     1.460983
H       -0.100059    -3.335145     3.250292
H       -0.223981    -4.274566     1.750634
H        1.501369    -4.777014     0.412660
H        3.910131    -5.033577     0.080406
H        5.500285    -3.775172     1.506525
H        4.544361    -2.269637     3.249732
H        0.167928    -1.534910     3.736424
H        1.378103     0.694705     5.376397
H        2.180896     3.090036     4.346064
H        2.812184     3.403337     0.981384
H        2.137728     4.310288     2.268789
H        0.988148     3.889344     1.089464
H       -1.290103    -0.349844    -2.547022
H       -2.020544     0.151717    -1.109731
H       -2.605211    -2.242926    -0.424788
H       -3.244141    -1.670068    -1.916528
H       -2.613283    -2.337485    -3.985077
H       -1.819482    -4.200014    -5.351105
H       -0.488536    -5.967451    -4.371150
H        0.061961    -5.868480    -1.964873
H        0.400737    -1.934001    -2.542647
H        3.434236    -2.546005    -2.329829
H        5.085684    -1.435560    -0.433736
H        3.994236     1.406925     1.343628
H        3.497864     0.006664     2.465136
H        4.938398    -0.008428     1.555457
91
ex_0422 frame3 mer-1
C       -0.022527    -0.500645    -4.355202
C        1.156234    -0.893808    -3.440884
N        1.061649    -0.904046    -2.145383
C        2.312777    -1.156751    -1.662251
C        3.146117    -1.444799    -2.541094
N        2.367066    -1.258675    -3.779115
C        2.454595    -1.048608    -0.235788
N        1.199254    -0.634422     0.399721
C        1.122678    -0.434400     1.711438
C        2.268108    -1.009270     2.468047
C        1.993985    -0.814430     3.866705
C        1.291409    -1.776023     4.572991
C        1.052894    -1.575243     5.913444
C        1.507016    -0.413892     6.540579
C        2.202750     0.538543     5.801064
N        2.430814     0.318687     4.482130
Fe      -0.304421    -0.230304    -0.872212
N        0.380764     1.658284    -0.977765
C        1.272483     2.064947    -1.968974
C        2.116476     3.123135    -1.423659
C        2.982196     2.722238    -0.257081
C        4.232461     2.207850    -0.527055
C        5.088426     1.856973     0.498545
C        4.683958     2.004948     1.805693
C        3.409066     2.508022     2.050081
N        2.572151     2.851292     1.031440
C       -0.171041     2.561325    -0.031197
C       -1.079552     1.888501     0.896489
C       -1.681186     2.317920     1.891496
N       -2.394017     1.099455     2.350863
C       -2.097775     0.129016     1.539430
C       -2.556417    -1.361169     1.558081
N       -1.320467     0.535421     0.631430
N       -1.808282     0.283738    -2.123579
C       -2.113143     1.516174    -2.627697
C       -3.277889     2.127877    -1.942159
C       -4.560008     1.367006    -2.027642
C       -4.976171     0.506961    -0.996772
C       -6.198830    -0.157986    -1.093437
C       -6.980642     0.022863    -2.212062
C       -6.517648     0.865847    -3.219559
N       -5.324753     1.510946    -3.110836
C       -2.685549    -0.801432    -2.424998
C       -2.290259    -2.054638    -1.756136
C       -2.807560    -3.185341    -1.804337
N       -1.906659    -3.978527    -0.938217
C       -0.966421    -3.176237    -0.505660
C        0.252843    -3.482423     0.393551
N       -1.190843    -2.002777    -0.951813
H       -0.864615    -1.206648    -4.375477
H       -0.228975     0.574377    -4.409707
H        0.428728    -0.695116    -5.350671
H        4.164800    -1.770557    -2.459921
H        2.619664    -1.389609    -4.691698
H        3.225255    -1.242255     0.372809
H        1.068372     0.640640     1.814066
H        0.156692    -0.852121     1.984386
H        3.168617    -0.411124     2.226417
H        2.552415    -2.061232     2.196307
H        0.934153    -2.678835     4.109323
H        0.509737    -2.333164     6.462637
H        1.312714    -0.268854     7.590065
H        2.561480     1.442472     6.267608
H        1.918028     1.238981    -2.198287
H        0.767485     2.364381    -2.872643
H        2.805947     3.353711    -2.224733
H        1.549935     4.053247    -1.288016
H        4.567827     2.086016    -1.531957
H        6.063282     1.473475     0.268509
H        5.331371     1.739507     2.625880
H        3.070765     2.632078     3.043013
H        0.136049     3.493202    -0.092520
H       -1.723076     3.292486     2.336814
H       -2.981976     0.980672     3.088386
H       -3.240758    -1.696199     0.761336
H       -3.257137    -1.318769     2.406836
H       -1.856785    -2.107066     1.963063
H       -2.336905     1.325962    -3.663141
H       -1.232896     2.148855    -2.620784
H       -3.129563     2.378167    -0.883461
H       -3.446410     3.049368    -2.537561
H       -4.389826     0.355502    -0.130396
H       -6.559856    -0.809949    -0.315416
H       -7.939584    -0.478367    -2.313410
H       -7.126008     1.001193    -4.077878
H       -3.433297    -0.547976    -3.066262
H       -3.675807    -3.531892    -2.317246
H       -1.941726    -4.906018    -0.688656
H        1.219132    -3.505041    -0.130277
H        0.110041    -4.566572     0.589105
H        0.231462    -3.085053     1.420150
91
ex_0422 frame4 mer-2
C        3.253881    -2.211031     3.554324
C        4.013762    -2.103942     2.207121
N        3.541391    -1.285045     1.287596
C        4.329731    -1.359693     0.258510
C        5.331764    -2.182748     0.395356
N        5.096494    -2.695726     1.764558
C        4.013208    -0.591434    -0.793261
N        3.006244     0.387515    -0.376118
C        2.972885     1.549038    -1.230626
C        2.990651     1.311172    -2.697832
C        2.056478     0.389014    -3.439851
C        0.917177     0.888179    -4.039906
C        0.111082    -0.025874    -4.779528
C        0.457969    -1.358365    -4.856816
C        1.596876    -1.786841    -4.202855
N        2.364355    -0.901484    -3.494680
Fe       1.798359    -0.360754     1.045516
N        0.538695     0.363322    -0.333673
C        0.267275     1.678467    -0.489107
C       -1.116541     1.911848    -0.290123
C       -1.496605     3.285274    -0.545590
C       -0.516851     4.248866    -0.914180
C       -0.908644     5.544928    -1.141040
C       -2.247998     5.882765    -1.009754
C       -3.181999     4.928074    -0.655378
N       -2.783450     3.657978    -0.435087
C       -0.105980    -0.580194    -1.225159
C        0.207023    -1.876369    -0.735685
C       -0.210662    -2.972587    -1.273857
N        0.416170    -3.962042    -0.368092
C        1.036062    -3.377663     0.553910
C        1.762316    -3.976306     1.741359
N        0.956827    -2.019707     0.316327
N        0.107503    -0.211976     2.095294
C       -1.011413    -0.967115     1.782121
C       -2.243769    -0.665101     2.562141
C       -3.341892    -1.377881     2.185947
C       -4.517676    -1.165508     2.877111
C       -5.639274    -1.857139     2.549029
C       -5.606472    -2.789111     1.500712
C       -4.416836    -2.999117     0.799200
N       -3.325145    -2.298867     1.146731
C        0.049084     0.647395     3.236335
C        1.289494     1.229376     3.352449
C        1.647191     2.063403     4.261060
N        3.083898     2.269989     3.843358
C        3.305119     1.582329     2.826549
C        4.636340     1.428286     1.993496
N        2.205704     0.928050     2.477708
H        3.887082    -1.573330     4.331824
H        2.260071    -1.841514     3.699515
H        3.437689    -3.186775     3.863149
H        6.116653    -2.420690    -0.304561
H        5.629203    -3.356357     2.279944
H        4.758131    -0.030568    -1.419567
H        2.483595     2.452849    -0.896433
H        3.982891     1.884387    -1.096529
H        3.077133     2.294264    -3.160036
H        3.986470     0.901201    -2.952860
H        0.649004     1.900885    -3.986973
H       -0.773694     0.293920    -5.290909
H       -0.129271    -2.080692    -5.410087
H        1.910630    -2.799830    -4.229300
H        0.897472     2.291167     0.252645
H        0.493067     1.983216    -1.524753
H       -1.749675     1.289828    -0.984222
H       -1.403655     1.602433     0.733984
H        0.513717     3.985456    -1.012169
H       -0.199640     6.308448    -1.418517
H       -2.538328     6.891602    -1.188049
H       -4.224101     5.222097    -0.560130
H       -0.682699    -0.131168    -1.930175
H       -0.813282    -3.107193    -2.119813
H        0.309497    -4.950280    -0.478059
H        2.794471    -4.285242     1.520577
H        1.269372    -4.981221     1.690943
H        1.426240    -3.730472     2.733066
H       -1.289380    -0.742335     0.746701
H       -0.701697    -1.984253     1.995378
H       -2.039019    -0.916504     3.646073
H       -2.517454     0.436693     2.568398
H       -4.474695    -0.422695     3.683572
H       -6.553340    -1.684878     3.099776
H       -6.500121    -3.309428     1.274142
H       -4.390060    -3.724346    -0.017600
H       -0.812097     0.687362     3.694647
H        1.142464     2.505063     5.063665
H        3.723242     2.834338     4.272747
H        5.286448     2.061067     2.638937
H        4.649468     1.957820     1.055054
H        5.184604     0.496622     1.927960
