48
ex_0190 frame0 As-C-conf4
O        3.599680    -3.099684     0.006924
N        2.793845    -2.281659    -0.319142
O        1.767124    -2.622202    -0.814078
C        3.056606    -0.912291    -0.118959
C        4.393971    -0.443551    -0.035847
C        4.674646     0.914855     0.141273
C        3.630365     1.818416     0.253354
C        2.321571     1.360039     0.185989
C        2.000000     0.000000     0.000000
Au       0.000000     0.000000     0.000000
As      -2.550000     0.000000     0.000000
C       -3.439841     0.760814     1.563231
C       -2.721038     0.889593     2.756718
C       -3.321857     1.431210     3.894051
C       -4.650274     1.853420     3.839638
C       -5.374678     1.729193     2.645524
C       -4.772181     1.175249     1.509171
C       -3.269072     1.023701    -1.513043
C       -3.312182     0.456823    -2.790439
C       -3.818786     1.196517    -3.866002
C       -4.286966     2.496814    -3.671784
C       -4.242260     3.061087    -2.400313
C       -3.741671     2.322732    -1.324623
C       -3.328612    -1.767854    -0.086117
C       -4.403582    -2.064774    -0.924537
C       -4.910155    -3.373243    -0.947363
C       -4.348107    -4.366498    -0.132086
C       -3.277214    -4.059759     0.703458
C       -2.780775    -2.762249     0.725701
H        5.229033    -1.119945    -0.133656
H        5.699550     1.268355     0.187514
H        3.827568     2.873777     0.393061
H        1.516928     2.084018     0.279796
H       -1.693839     0.563677     2.800459
H       -2.757607     1.522140     4.814702
H       -5.108721     2.273780     4.725026
H       -6.401772     2.059820     2.596421
H       -5.328767     1.086409     0.588382
H       -2.944743    -0.546589    -2.949781
H       -3.853857     0.766746    -4.851530
H       -4.680264     3.069441    -4.502933
H       -4.597545     4.069744    -2.253570
H       -3.692543     2.769306    -0.351771
H       -4.833934    -1.297942    -1.552472
H       -5.738544    -3.624498    -1.590311
H       -4.736596    -5.373829    -0.142882
H       -2.829263    -4.819199     1.334856
H       -1.943769    -2.523714     1.361341
48
ex_0190 frame1 As-C-conf6
O        0.936106    -0.652898     2.513324
N        2.041125    -1.020317     2.256429
O        2.575959    -1.817872     2.966219
C        2.721958    -0.509382     1.106146
C        4.117281    -0.513477     1.074723
C        4.791352    -0.000055    -0.033286
C        4.076956     0.499342    -1.125476
C        2.681349     0.496791    -1.109562
C        2.000000     0.000000     0.000000
Au       0.000000     0.000000     0.000000
As      -2.550000     0.000000     0.000000
C       -3.200926     0.412786     1.778239
C       -2.259596     0.556860     2.803349
C       -2.660544     0.837225     4.106618
C       -4.015841     0.989803     4.390168
C       -4.965598     0.855200     3.366673
C       -4.559857     0.566674     2.054805
C       -3.027692     1.349731    -1.309225
C       -1.991030     1.902093    -2.074338
C       -2.253219     2.874022    -3.033384
C       -3.562049     3.308487    -3.234105
C       -4.605564     2.763407    -2.471513
C       -4.342618     1.775975    -1.506020
C       -3.230252    -1.742800    -0.441987
C       -4.090754    -1.949113    -1.522916
C       -4.521531    -3.252136    -1.813816
C       -4.107800    -4.328401    -1.014924
C       -3.257828    -4.108579     0.070751
C       -2.835367    -2.817634     0.359456
H        4.674934    -0.885913     1.922372
H        5.873041     0.012948    -0.040800
H        4.603046     0.888656    -1.984097
H        2.123539     0.878524    -1.954188
H       -1.211279     0.435758     2.583015
H       -1.922185     0.934617     4.894799
H       -4.321931     1.210349     5.403653
H       -6.015054     0.972603     3.593480
H       -5.294604     0.454837     1.271808
H       -0.970165     1.568612    -1.924801
H       -1.439043     3.285903    -3.617854
H       -3.761190     4.066411    -3.979956
H       -5.615327     3.111252    -2.634516
H       -5.147831     1.360243    -0.920838
H       -4.394651    -1.124861    -2.155464
H       -5.168921    -3.431320    -2.660813
H       -4.436523    -5.333230    -1.237197
H       -2.915868    -4.930356     0.685653
H       -2.155952    -2.650807     1.187232
48
ex_0190 frame2 As-C-conf3
O        3.657305    -2.230542     2.140382
N        2.840514    -1.422583     1.831064
O        1.828027    -1.336227     2.454461
C        3.080241    -0.572570     0.725834
C        4.406432    -0.281207     0.328301
C        4.662678     0.579614    -0.762103
C        3.601258     1.134289    -1.459229
C        2.305660     0.837751    -1.075996
C        2.000000     0.000000     0.000000
Au       0.000000     0.000000     0.000000
As      -2.550000     0.000000     0.000000
C       -3.345272     0.215902    -1.746615
C       -3.807937    -0.888891    -2.464320
C       -4.366076    -0.708637    -3.736368
C       -4.474503     0.579027    -4.275441
C       -4.014150     1.676965    -3.547630
C       -3.454365     1.489897    -2.288025
C       -3.354970     1.430182     1.055575
C       -4.711820     1.736173     0.963342
C       -5.233502     2.781349     1.745707
C       -4.402805     3.501414     2.612124
C       -3.054168     3.194035     2.702552
C       -2.533943     2.161780     1.926559
C       -3.288545    -1.646744     0.686451
C       -4.477331    -1.678123     1.430038
C       -4.959360    -2.902511     1.917913
C       -4.254956    -4.079157     1.647318
C       -3.077945    -4.036414     0.901928
C       -2.602753    -2.828002     0.422949
H        5.261384    -0.683507     0.856884
H        5.678292     0.826137    -1.071886
H        3.777523     1.789599    -2.294434
H        1.480819     1.272705    -1.627057
H       -3.712542    -1.881736    -2.055307
H       -4.717983    -1.556538    -4.303037
H       -4.911011     0.722156    -5.252185
H       -4.089363     2.671584    -3.949796
H       -3.092338     2.332710    -1.727768
H       -5.349572     1.180929     0.286579
H       -6.279012     3.038933     1.688829
H       -4.789346     4.301863     3.218961
H       -2.418969     3.754261     3.375829
H       -1.484430     1.934102     2.009301
H       -5.008180    -0.776434     1.648055
H       -5.875318    -2.946818     2.497446
H       -4.618012    -5.024885     2.010299
H       -2.529133    -4.937677     0.696415
H       -1.695505    -2.800383    -0.138356
48
ex_0190 frame3 As-C
O        1.952919     1.217536    -2.557541
N        2.906782     0.593627    -2.229448
O        3.716304     0.265213    -3.053644
C        3.096711     0.234711    -0.878815
C        4.407796     0.105539    -0.388230
C        4.660181    -0.245111     0.934939
C        3.599268    -0.483924     1.789875
C        2.294962    -0.361822     1.321738
C        2.000000     0.000000     0.000000
Au       0.000000     0.000000     0.000000
As      -2.550000     0.000000     0.000000
C       -3.371671     0.072259     1.771352
C       -3.787097    -1.090785     2.424074
C       -4.369297    -0.991972     3.699402
C       -4.541878     0.245014     4.314726
C       -4.130301     1.389690     3.664994
C       -3.547412     1.306299     2.396914
C       -3.349871     1.508551    -0.947535
C       -4.628240     1.444709    -1.487502
C       -5.165073     2.549860    -2.163635
C       -4.428134     3.719662    -2.295923
C       -3.151988     3.785581    -1.756042
C       -2.609244     2.681780    -1.082069
C       -3.281170    -1.617893    -0.819409
C       -2.448775    -2.391329    -1.633880
C       -2.914792    -3.552174    -2.243213
C       -4.232212    -3.940564    -2.027513
C       -5.079119    -3.178981    -1.212420
C       -4.601690    -2.010136    -0.609149
H        5.225203     0.304192    -1.053180
H        5.676024    -0.331861     1.276293
H        3.797364    -0.762721     2.808252
H        1.463262    -0.550207     1.991978
H       -3.653230    -2.051974     1.958877
H       -4.696125    -1.863613     4.225812
H       -4.992964     0.328216     5.298628
H       -4.272305     2.334934     4.157226
H       -3.230922     2.202929     1.903479
H       -5.202259     0.555878    -1.396469
H       -6.150849     2.518683    -2.589547
H       -4.842728     4.578237    -2.817379
H       -2.589383     4.696751    -1.863916
H       -1.621090     2.738161    -0.665029
H       -1.438291    -2.068842    -1.784727
H       -2.256416    -4.143298    -2.877255
H       -4.579766    -4.835789    -2.500402
H       -6.097936    -3.503992    -1.060598
H       -5.243077    -1.421228     0.020992
48
ex_0190 frame4 As-C-conf5
O        2.000366     0.611612    -2.784591
N        2.945976     0.907967    -2.141892
O        3.759006     1.672891    -2.592157
C        3.115733     0.360110    -0.845420
C        4.423784     0.156641    -0.357069
C        4.665502    -0.382909     0.898759
C        3.602339    -0.722018     1.711400
C        2.296128    -0.530408     1.264174
C        2.000000     0.000000     0.000000
Au       0.000000     0.000000     0.000000
As      -2.550000     0.000000     0.000000
C       -3.328562    -1.706456     0.528361
C       -3.919311    -1.866105     1.779918
C       -4.467460    -3.092908     2.143229
C       -4.429849    -4.165645     1.245918
C       -3.841489    -4.008586    -0.006681
C       -3.291416    -2.779276    -0.361798
C       -3.399501     0.354814    -1.732654
C       -4.488345     1.200915    -1.826436
C       -5.104347     1.465855    -3.051127
C       -4.618424     0.872079    -4.208293
C       -3.517906     0.020016    -4.118605
C       -2.906863    -0.248373    -2.888080
C       -3.264214     1.347125     1.217261
C       -2.411693     2.330059     1.731927
C       -2.881770     3.309699     2.600933
C       -4.220613     3.304699     2.964677
C       -5.068530     2.322468     2.452585
C       -4.597694     1.341728     1.575753
H        5.245593     0.400412    -0.984234
H        5.693909    -0.520002     1.207351
H        3.779679    -1.142930     2.700488
H        1.469795    -0.799875     1.916556
H       -3.935398    -1.042470     2.457669
H       -4.915966    -3.191792     3.116717
H       -4.851200    -5.118849     1.511289
H       -3.815338    -4.843053    -0.698164
H       -2.837532    -2.660220    -1.330184
H       -4.865074     1.657104    -0.957516
H       -5.953393     2.128386    -3.090872
H       -5.080183     1.063093    -5.170069
H       -3.131382    -0.432665    -5.021342
H       -2.053463    -0.904858    -2.849155
H       -1.384498     2.325270     1.443047
H       -2.192566     4.048030     2.970765
H       -4.592731     4.057730     3.637878
H       -6.092231     2.335396     2.744388
H       -5.255833     0.583329     1.184788
48
ex_0190 frame5 As-C-conf2
O        2.003538    -1.906629     2.089958
N        2.938725    -1.215636     1.955092
O        3.758365    -1.130497     2.832087
C        3.115322    -0.480165     0.772583
C        4.422989    -0.205887     0.332158
C        4.671490     0.502829    -0.818946
C        3.612532     0.979113    -1.570832
C        2.305316     0.725548    -1.158184
C        2.000000     0.000000     0.000000
Au       0.000000     0.000000     0.000000
As      -2.550000     0.000000     0.000000
C       -3.395044     1.762138     0.110408
C       -4.691356     1.975562    -0.344599
C       -5.252897     3.252674    -0.246834
C       -4.526020     4.315842     0.306848
C       -3.226870     4.106285     0.765714
C       -2.676622     2.825783     0.658979
C       -3.299420    -0.796879    -1.620836
C       -2.826256    -0.407330    -2.870871
C       -3.370066    -0.993927    -4.020502
C       -4.380092    -1.950475    -3.929279
C       -4.848480    -2.332203    -2.694251
C       -4.307823    -1.756355    -1.544274
C       -3.357135    -0.964422     1.496606
C       -4.736953    -0.964058     1.679737
C       -5.324053    -1.649110     2.740389
C       -4.525554    -2.345325     3.636085
C       -3.139757    -2.353753     3.466076
C       -2.540371    -1.666013     2.398481
H        5.238494    -0.584493     0.909146
H        5.698849     0.667921    -1.090154
H        3.802670     1.540113    -2.466111
H        1.483282     1.100272    -1.749302
H       -5.254888     1.166623    -0.773020
H       -6.249828     3.428306    -0.595749
H       -4.958072     5.299243     0.383847
H       -2.644657     4.912012     1.198069
H       -1.686051     2.624261     1.000200
H       -2.043641     0.324156    -2.977809
H       -3.022355    -0.715081    -4.985514
H       -4.815037    -2.411326    -4.800751
H       -5.628565    -3.070143    -2.620288
H       -4.690387    -2.074446    -0.617638
H       -5.378617    -0.442928     1.012681
H       -6.399302    -1.633678     2.859487
H       -4.970764    -2.879024     4.463228
H       -2.556081    -2.899849     4.174336
H       -1.462243    -1.685786     2.282800
48
ex_0190 frame6 
O       -2.031777     1.818445     1.658280
N       -1.473354     2.350506     2.625797
O       -2.092459     2.281814     3.844962
C       -0.217821     3.030313     2.530633
C       -0.016730     4.087627     3.385950
C        1.148938     4.778418     3.355934
C        2.125531     4.431963     2.480963
C        1.941230     3.378924     1.618116
C        0.754530     2.622766     1.599597
Au       0.503963     1.259300     0.481970
As      -0.053932    -1.079114    -0.368367
C       -0.675967    -2.367033     0.962733
C        0.189740    -2.767078     1.976104
C       -0.247856    -3.685370     2.921996
C       -1.515218    -4.225909     2.907519
C       -2.372186    -3.816503     1.890443
C       -1.923571    -2.904150     0.958015
C        1.457538    -1.947651    -1.261741
C        2.011276    -1.327702    -2.363505
C        3.084006    -1.887054    -3.041483
C        3.620999    -3.092753    -2.616289
C        3.038159    -3.682072    -1.510511
C        1.977796    -3.144922    -0.827657
C       -1.511473    -1.080486    -1.838030
C       -2.204192     0.062223    -1.961902
C       -3.194835     0.157550    -2.908773
C       -3.429622    -0.946274    -3.698545
C       -2.669637    -2.086814    -3.507484
C       -1.673598    -2.170546    -2.549248
H       -0.777423     4.392363     4.099592
H        1.296156     5.598338     4.025546
H        3.090998     4.953541     2.410491
H        2.706698     3.092554     0.918841
H        1.200298    -2.392870     2.060128
H        0.450849    -3.989159     3.712239
H       -1.861038    -4.935065     3.634353
H       -3.393869    -4.224315     1.841709
H       -2.622010    -2.602683     0.170715
H        1.598519    -0.370688    -2.715422
H        3.499940    -1.375349    -3.905637
H        4.453289    -3.512860    -3.152667
H        3.464011    -4.628957    -1.181075
H        1.547844    -3.635479     0.034020
H       -2.006420     0.911550    -1.338552
H       -3.738915     1.071133    -2.996156
H       -4.207148    -0.862813    -4.437192
H       -2.905159    -2.922673    -4.163778
H       -1.093546    -3.073247    -2.420563
