100
ex_0293 frame0 OC-6-chelate-1
V        0.000000     0.000000     0.000000
C        2.256128    -6.698303    -2.866588
C        1.652431    -5.513104    -3.571758
C        2.796994    -4.828651    -4.321403
C        0.614632    -6.008610    -4.556850
C        1.086810    -4.608594    -2.544812
C        1.131740    -4.876099    -1.189380
C        0.590085    -4.002722    -0.239332
C       -0.047986    -2.856666    -0.672602
O       -0.619566    -2.088182     0.227454
O        0.114588    -0.526790     2.122607
C        1.061403     0.160032     2.723700
C        0.727694     0.828979     3.890772
C        1.739538     1.484704     4.570374
C        3.049047     1.529585     4.107292
C        4.050809     2.250416     4.894581
C        4.743971     1.406026     5.930071
C        5.055061     2.889988     3.949518
C        3.413351     3.411622     5.662210
C        3.374608     0.894171     2.917464
C        2.380911     0.217886     2.254063
C        2.579984    -0.527343     1.000412
N        2.233443     0.169896    -0.021591
C        2.183153    -0.613835    -1.271432
C        1.310995    -0.208235    -2.421296
N       -0.015300    -0.289088    -2.221215
C       -0.754051     0.984321    -2.276271
C       -0.233698     2.227467    -1.616049
N       -0.174728     2.216753    -0.270324
C        1.177179     2.300719     0.339316
C        2.313688     1.499529    -0.174763
C       -1.125274     2.512901     0.558466
C       -2.477744     2.171818     0.015826
C       -3.306954     3.102104    -0.548383
C       -4.561203     2.670153    -0.985382
C       -5.436853     3.698662    -1.580110
C       -6.766787     3.137393    -2.012755
C       -5.734135     4.793560    -0.561965
C       -4.746565     4.400263    -2.743250
C       -4.909790     1.342772    -0.843804
C       -4.032847     0.411710    -0.272082
C       -2.806407     0.839775     0.206349
O       -2.035936    -0.035045     0.806123
C       -0.766198    -1.325478    -2.363900
C       -0.066401    -2.602561    -2.041394
C        0.475396    -3.421600    -2.975219
H        2.687178    -7.390889    -3.631821
H        3.059567    -6.357866    -2.178565
H        1.483928    -7.274228    -2.318856
H        2.455263    -4.074182    -5.038759
H        3.492098    -4.410463    -3.561846
H        3.344564    -5.651705    -4.850008
H       -0.328015    -6.159416    -4.022528
H        1.016220    -6.961102    -5.009936
H        0.552901    -5.229692    -5.345097
H        1.608608    -5.803400    -0.855103
H        0.639042    -4.235496     0.811620
H       -0.277781     0.801184     4.258252
H        1.470104     1.973699     5.497439
H        5.636547     1.981366     6.271837
H        5.002418     0.416282     5.536248
H        4.122042     1.255708     6.837750
H        5.698538     2.157220     3.446774
H        4.477503     3.441271     3.174169
H        5.618381     3.617510     4.569876
H        2.973949     3.039916     6.606950
H        2.560774     3.776743     5.043602
H        4.142148     4.182723     5.938757
H        4.371584     0.897777     2.514733
H        2.108727    -1.533349     1.158104
H        3.644292    -0.673583     0.698196
H        2.103758    -1.697222    -1.134651
H        3.234547    -0.376149    -1.533065
H        1.574157     0.799684    -2.776586
H        1.452238    -0.914418    -3.249076
H       -1.829118     0.910868    -2.089379
H       -0.601347     1.091112    -3.371056
H        0.756502     2.495138    -2.005381
H       -0.927870     3.053765    -1.799645
H        1.177699     2.276152     1.434700
H        1.272635     3.367957     0.024183
H        3.212062     1.742897     0.398121
H        2.485352     1.761475    -1.231073
H       -0.923449     3.610870     0.574332
H       -1.106220     2.103698     1.590216
H       -2.977182     4.127802    -0.631078
H       -7.467192     4.005005    -2.189508
H       -7.221717     2.613898    -1.142067
H       -6.710398     2.523292    -2.930526
H       -5.699831     4.298399     0.452006
H       -4.876829     5.497445    -0.553828
H       -6.715454     5.241880    -0.704894
H       -5.315456     5.298422    -2.994150
H       -3.746420     4.748545    -2.414277
H       -4.625779     3.738131    -3.608642
H       -5.900613     1.031675    -1.194267
H       -4.318869    -0.622474    -0.168745
H       -0.960957    -1.177674    -3.454178
H       -1.747415    -1.386140    -1.857716
H        0.407798    -3.157727    -4.019351
100
ex_0293 frame1 OC-6-chelate-1_mirror
V        0.000000     0.000000     0.000000
C        2.256128    -6.698303     2.866588
C        1.652431    -5.513104     3.571758
C        2.796994    -4.828651     4.321403
C        0.614632    -6.008610     4.556850
C        1.086810    -4.608594     2.544812
C        1.131740    -4.876099     1.189380
C        0.590085    -4.002722     0.239332
C       -0.047986    -2.856666     0.672602
O       -0.619566    -2.088182    -0.227454
O        0.114588    -0.526790    -2.122607
C        1.061403     0.160032    -2.723700
C        0.727694     0.828979    -3.890772
C        1.739538     1.484704    -4.570374
C        3.049047     1.529585    -4.107292
C        4.050809     2.250416    -4.894581
C        4.743971     1.406026    -5.930071
C        5.055061     2.889988    -3.949518
C        3.413351     3.411622    -5.662210
C        3.374608     0.894171    -2.917464
C        2.380911     0.217886    -2.254063
C        2.579984    -0.527343    -1.000412
N        2.233443     0.169896     0.021591
C        2.183153    -0.613835     1.271432
C        1.310995    -0.208235     2.421296
N       -0.015300    -0.289088     2.221215
C       -0.754051     0.984321     2.276271
C       -0.233698     2.227467     1.616049
N       -0.174728     2.216753     0.270324
C        1.177179     2.300719    -0.339316
C        2.313688     1.499529     0.174763
C       -1.125274     2.512901    -0.558466
C       -2.477744     2.171818    -0.015826
C       -3.306954     3.102104     0.548383
C       -4.561203     2.670153     0.985382
C       -5.436853     3.698662     1.580110
C       -6.766787     3.137393     2.012755
C       -5.734135     4.793560     0.561965
C       -4.746565     4.400263     2.743250
C       -4.909790     1.342772     0.843804
C       -4.032847     0.411710     0.272082
C       -2.806407     0.839775    -0.206349
O       -2.035936    -0.035045    -0.806123
C       -0.766198    -1.325478     2.363900
C       -0.066401    -2.602561     2.041394
C        0.475396    -3.421600     2.975219
H        2.687178    -7.390889     3.631821
H        3.059567    -6.357866     2.178565
H        1.483928    -7.274228     2.318856
H        2.455263    -4.074182     5.038759
H        3.492098    -4.410463     3.561846
H        3.344564    -5.651705     4.850008
H       -0.328015    -6.159416     4.022528
H        1.016220    -6.961102     5.009936
H        0.552901    -5.229692     5.345097
H        1.608608    -5.803400     0.855103
H        0.639042    -4.235496    -0.811620
H       -0.277781     0.801184    -4.258252
H        1.470104     1.973699    -5.497439
H        5.636547     1.981366    -6.271837
H        5.002418     0.416282    -5.536248
H        4.122042     1.255708    -6.837750
H        5.698538     2.157220    -3.446774
H        4.477503     3.441271    -3.174169
H        5.618381     3.617510    -4.569876
H        2.973949     3.039916    -6.606950
H        2.560774     3.776743    -5.043602
H        4.142148     4.182723    -5.938757
H        4.371584     0.897777    -2.514733
H        2.108727    -1.533349    -1.158104
H        3.644292    -0.673583    -0.698196
H        2.103758    -1.697222     1.134651
H        3.234547    -0.376149     1.533065
H        1.574157     0.799684     2.776586
H        1.452238    -0.914418     3.249076
H       -1.829118     0.910868     2.089379
H       -0.601347     1.091112     3.371056
H        0.756502     2.495138     2.005381
H       -0.927870     3.053765     1.799645
H        1.177699     2.276152    -1.434700
H        1.272635     3.367957    -0.024183
H        3.212062     1.742897    -0.398121
H        2.485352     1.761475     1.231073
H       -0.923449     3.610870    -0.574332
H       -1.106220     2.103698    -1.590216
H       -2.977182     4.127802     0.631078
H       -7.467192     4.005005     2.189508
H       -7.221717     2.613898     1.142067
H       -6.710398     2.523292     2.930526
H       -5.699831     4.298399    -0.452006
H       -4.876829     5.497445     0.553828
H       -6.715454     5.241880     0.704894
H       -5.315456     5.298422     2.994150
H       -3.746420     4.748545     2.414277
H       -4.625779     3.738131     3.608642
H       -5.900613     1.031675     1.194267
H       -4.318869    -0.622474     0.168745
H       -0.960957    -1.177674     3.454178
H       -1.747415    -1.386140     1.857716
H        0.407798    -3.157727     4.019351
