81
ex_0560 frame0 cis-same-S-3
C       -2.930911    -1.198770     1.264627
S       -2.042473    -0.118346     0.060442
C       -2.740893     1.181394    -0.630244
B       -2.964407     0.532685    -2.073662
C       -4.232909    -0.427371    -1.974667
C       -4.266785    -1.635777    -2.678579
C       -5.393247    -2.444341    -2.610845
C       -6.483560    -2.068569    -1.822787
C       -6.445412    -0.884555    -1.089328
C       -5.334708    -0.060347    -1.171286
C       -3.289793     1.727162    -3.015869
C       -3.609702     3.010804    -2.508897
C       -3.857227     4.047265    -3.382176
C       -3.789938     3.822185    -4.756522
C       -3.488530     2.553404    -5.254909
C       -3.260858     1.509888    -4.388766
C       -1.587887    -0.240667    -2.751174
S       -0.590154    -1.365127    -1.715295
C       -1.476237    -2.874403    -1.110831
Ni       0.110143    -0.549763     0.202671
Br       0.430529     1.736406     0.657337
Br      -0.240076    -0.975690     2.492362
S        1.836957    -0.418604    -1.155491
C        1.922738     1.085031    -2.167658
C        3.271884     0.022782    -0.017027
B        3.763663    -0.809572     1.383307
C        4.454505     0.200488     2.484319
C        4.108594     0.175596     3.867227
C        4.743445     1.044301     4.768263
C        5.702413     1.949560     4.311561
C        6.035190     1.987548     2.956395
C        5.418460     1.120427     2.051903
C        4.848349    -1.948841     1.102530
C        4.868672    -3.145619     1.868063
C        5.775798    -4.148876     1.564581
C        6.673951    -3.976006     0.514561
C        6.684214    -2.788490    -0.214429
C        5.796791    -1.774880     0.089703
C        2.498532    -1.541593     1.942055
S        1.398360    -2.290943     0.584849
C        2.227635    -3.593845    -0.160580
H       -2.355912    -2.140313     1.414546
H       -3.882739    -1.562014     0.843615
H       -3.050749    -0.705519     2.251471
H       -3.502872     1.573255     0.067773
H       -1.948663     1.961843    -0.654586
H       -3.443766    -1.965068    -3.291320
H       -5.414363    -3.360748    -3.179034
H       -7.358902    -2.694296    -1.779854
H       -7.275576    -0.593194    -0.460475
H       -5.353189     0.848505    -0.587172
H       -3.670681     3.251949    -1.452995
H       -4.093610     5.020015    -2.977195
H       -3.971821     4.630535    -5.435936
H       -3.420815     2.357622    -6.310538
H       -3.025231     0.537870    -4.798803
H       -1.715573    -0.744332    -3.716957
H       -0.863421     0.580840    -2.950832
H       -0.991864    -3.242903    -0.179261
H       -2.537289    -2.704511    -0.862928
H       -1.376986    -3.695288    -1.842678
H        1.047643     1.727906    -1.920598
H        2.822440     1.701302    -1.996850
H        1.770755     0.783468    -3.213334
H        3.454756     1.109634     0.078783
H        3.971220    -0.321666    -0.760029
H        3.385020    -0.511048     4.286072
H        4.497682     1.014870     5.825052
H        6.191838     2.619718     5.007851
H        6.776988     2.688511     2.600870
H        5.695633     1.166868     1.009298
H        4.200443    -3.354237     2.689620
H        5.769730    -5.063143     2.142526
H        7.368959    -4.758695     0.268690
H        7.374438    -2.638517    -1.027576
H        5.867927    -0.873830    -0.495064
H        2.542153    -2.174064     2.856931
H        2.103907    -0.634695     2.426984
H        3.224301    -3.237948    -0.446289
H        1.603157    -3.635112    -1.083209
H        2.056085    -4.498898     0.441891
