53
ex_0083 frame0 OC-6-chelate-2
Cd       0.000000     0.000000     0.000000
Br      -1.031615     5.903755    -0.775364
C       -0.373445     4.248842    -0.175929
C       -0.834690     2.982670    -0.565430
N       -0.069723     2.146035     0.110331
N        0.879275     2.715940     0.960884
C        0.740971     3.987324     0.807009
B        1.805013     1.835379     1.822321
N        2.580751     0.879764     0.879691
C        3.839976     0.716892     0.723329
C        4.120437    -0.326533    -0.308368
Br       5.815459    -0.936678    -0.905987
C        2.890718    -0.763695    -0.745606
N        2.147989    -0.069723    -0.061485
N       -0.061485     0.110331     2.146287
C       -0.809988    -0.582893     2.976905
C       -0.352124    -0.186217     4.238740
Br      -0.988846    -0.797906     5.898192
C        0.741026     0.818514     3.972927
N        0.882371     0.970371     2.703298
H       -1.636932     2.816104    -1.268597
H        1.330037     4.730083     1.315554
H        2.519328     2.470892     2.462869
H        4.601036     1.272270     1.275780
H        2.727594    -1.527886    -1.502585
H       -1.598220    -1.300334     2.808189
H        1.322961     1.339040     4.713046
N        0.048709     0.047168    -2.148931
C        0.745224     0.750089    -2.942942
C        0.313053     0.298700    -4.187264
Br       0.922678     0.905363    -5.867016
C       -0.721834    -0.753660    -3.906122
N       -0.866811    -0.888217    -2.622869
B       -1.800309    -1.829062    -1.813540
N       -0.866608    -2.654697    -0.880785
C       -0.712556    -3.928026    -0.744464
C        0.329846    -4.200433     0.307777
Br       0.952502    -5.875982     0.912999
C        0.750217    -2.948743     0.753095
N        0.042030    -2.149072     0.047168
N       -2.622448    -0.885552    -0.878263
C       -3.886632    -0.736917    -0.737548
C       -4.173787     0.310770     0.305050
Br      -5.855294     0.916657     0.899479
C       -2.929761     0.745669     0.745494
N       -2.149037     0.042030     0.048709
H        1.497597     1.518303    -2.791628
H       -1.270267    -1.319159    -4.645514
H       -2.467384    -2.471616    -2.470878
H       -1.255997    -4.672226    -1.306417
H        1.502460    -2.786661     1.518087
H       -4.625737    -1.292761    -1.295553
H       -2.770863     1.505411     1.503695
53
ex_0083 frame1 OC-6-chelate-2-conf2
Cd       0.000000     0.000000     0.000000
Br      -1.031615     5.903755    -0.775364
C       -0.373445     4.248842    -0.175929
C       -0.834690     2.982670    -0.565430
N       -0.069723     2.146035     0.110331
N        0.879275     2.715940     0.960884
C        0.740971     3.987324     0.807009
B        1.805013     1.835379     1.822321
N        2.580751     0.879764     0.879691
C        3.839976     0.716892     0.723329
C        4.120437    -0.326533    -0.308368
Br       5.815459    -0.936678    -0.905987
C        2.890718    -0.763695    -0.745606
N        2.147989    -0.069723    -0.061485
N       -0.061485     0.110331     2.146287
C       -0.809988    -0.582893     2.976905
C       -0.352124    -0.186217     4.238740
Br      -0.988846    -0.797906     5.898192
C        0.741026     0.818514     3.972927
N        0.882371     0.970371     2.703298
H       -1.636932     2.816104    -1.268597
H        1.330037     4.730083     1.315554
H        2.519328     2.470892     2.462869
H        4.601036     1.272270     1.275780
H        2.727594    -1.527886    -1.502585
H       -1.598220    -1.300334     2.808189
H        1.322961     1.339040     4.713046
N        0.051252    -2.146855     0.104334
C        0.732747    -2.935927     0.808494
C        0.301457    -4.175632     0.350580
Br       0.916586    -5.846484     0.980064
C       -0.715308    -3.903486    -0.707013
N       -0.876248    -2.612098    -0.854651
B       -1.807093    -1.838151    -1.800125
N       -0.937662    -0.876464    -2.663546
C       -0.791519    -0.743993    -3.934935
C        0.189383     0.364135    -4.223415
Br       0.774600     0.984380    -5.899062
C        0.585221     0.848496    -2.972218
N       -0.082961     0.104334    -2.145864
N       -2.701516    -0.898893    -0.935861
C       -3.961141    -0.758342    -0.790027
C       -4.229178     0.342949     0.208771
Br      -5.897206     0.977879     0.808260
C       -2.970131     0.800071     0.601940
N       -2.147787     0.051252    -0.082961
H        1.477203    -2.788480     1.585153
H       -1.251383    -4.648409    -1.270956
H       -2.424706    -2.543350    -2.456504
H       -1.303975    -1.345393    -4.665701
H        1.289288     1.654168    -2.820268
H       -4.694232    -1.342982    -1.307350
H       -2.799428     1.593907     1.315743
53
ex_0083 frame2 OC-6-chelate-2-conf3
Cd       0.000000     0.000000     0.000000
Br       5.888290    -0.775000    -1.006899
C        4.286842    -0.195032    -0.364153
C        2.954204    -0.599367    -0.828084
N        2.147434     0.089639    -0.054705
N        2.697293     0.944513     0.895372
C        4.001208     0.822501     0.780016
B        1.804198     1.808189     1.834152
N        0.870177     0.860060     2.612255
C        0.736290     0.744912     3.948833
C       -0.333044    -0.351473     4.283864
Br      -0.932535    -0.943441     5.854236
C       -0.759776    -0.813528     2.922940
N       -0.054705    -0.099728     2.146989
N        0.089639     2.145814    -0.099728
C       -0.593268     2.965903    -0.862304
C       -0.199839     4.309191    -0.372206
Br      -0.782665     5.896405    -0.989584
C        0.812207     3.991031     0.774562
N        0.941831     2.677738     0.882327
H        2.797542    -1.292736    -1.610293
H        4.693439     1.317047     1.341400
H        2.437270     2.456610     2.533610
H        1.248808     1.283818     4.642347
H       -1.493515    -1.572134     2.783106
H       -1.282322     2.825065    -1.654608
H        1.298841     4.680505     1.350031
N        0.048709     0.047168    -2.148931
C        0.760851     0.766107    -2.932653
C        0.326352     0.311354    -4.289809
Br       0.922678     0.905363    -5.867016
C       -0.749347    -0.782142    -3.956071
N       -0.866811    -0.888217    -2.622869
B       -1.800309    -1.829062    -1.813540
N       -0.866608    -2.654697    -0.880785
C       -0.738753    -3.976346    -0.771746
C        0.343009    -4.294248     0.319695
Br       0.952502    -5.875982     0.912999
C        0.766021    -2.938132     0.769275
N        0.042030    -2.149072     0.047168
N       -2.622448    -0.885552    -0.878263
C       -3.941248    -0.767565    -0.768405
C       -4.282375     0.325183     0.318798
Br      -5.855294     0.916657     0.899479
C       -2.918632     0.762858     0.762689
N       -2.149037     0.042030     0.048709
H        1.497597     1.518303    -2.791628
H       -1.270267    -1.319159    -4.645514
H       -2.467384    -2.471616    -2.470878
H       -1.255997    -4.672226    -1.306417
H        1.502460    -2.786661     1.518087
H       -4.625737    -1.292761    -1.295553
H       -2.770863     1.505411     1.503695
53
ex_0083 frame3 OC-6-chelate-2-conf4
Cd       0.000000     0.000000     0.000000
Br      -1.031615     5.903755    -0.775364
C       -0.373445     4.248842    -0.175929
C       -0.834690     2.982670    -0.565430
N       -0.069723     2.146035     0.110331
N        0.879275     2.715940     0.960884
C        0.740971     3.987324     0.807009
B        1.805013     1.835379     1.822321
N        2.580751     0.879764     0.879691
C        3.839976     0.716892     0.723329
C        4.120437    -0.326533    -0.308368
Br       5.815459    -0.936678    -0.905987
C        2.890718    -0.763695    -0.745606
N        2.147989    -0.069723    -0.061485
N       -0.061485     0.110331     2.146287
C       -0.809988    -0.582893     2.976905
C       -0.352124    -0.186217     4.238740
Br      -0.988846    -0.797906     5.898192
C        0.741026     0.818514     3.972927
N        0.882371     0.970371     2.703298
H       -1.636932     2.816104    -1.268597
H        1.330037     4.730083     1.315554
H        2.519328     2.470892     2.462869
H        4.601036     1.272270     1.275780
H        2.727594    -1.527886    -1.502585
H       -1.598220    -1.300334     2.808189
H        1.322961     1.339040     4.713046
N       -2.147257     0.101198     0.039300
C       -2.945920     0.809112     0.715749
C       -4.189401     0.344529     0.294738
Br      -5.865298     0.970106     0.905279
C       -3.916424    -0.723849    -0.714238
N       -2.617788    -0.862865    -0.874414
B       -1.845150    -1.812424    -1.800091
N       -0.882560    -2.669769    -0.926463
C       -0.752043    -3.940526    -0.772313
C        0.358791    -4.224566     0.208875
Br       0.976828    -5.896887     0.803225
C        0.845484    -2.971162     0.594685
N        0.101198    -2.146240    -0.076900
N       -0.903720    -0.934979    -2.684772
C       -0.761219    -0.785745    -3.938967
C        0.332424     0.220819    -4.209988
Br       0.960231     0.820681    -5.871266
C        0.783623     0.616028    -2.951302
N        0.039300    -0.076900    -2.148265
H       -2.802501     1.597999     1.456411
H       -4.661113    -1.297771    -1.244405
H       -2.527216    -2.472308    -2.443478
H       -1.354784    -4.672864    -1.277706
H        1.653475    -2.816061     1.296310
H       -1.341149    -1.307315    -4.677104
H        1.569116     1.332914    -2.775777
53
ex_0083 frame4 OC-6-chelate-2-conf5
Cd       0.000000     0.000000     0.000000
Br       5.888290    -0.775000    -1.006899
C        4.286842    -0.195032    -0.364153
C        2.954204    -0.599367    -0.828084
N        2.147434     0.089639    -0.054705
N        2.697293     0.944513     0.895372
C        4.001208     0.822501     0.780016
B        1.804198     1.808189     1.834152
N        0.870177     0.860060     2.612255
C        0.736290     0.744912     3.948833
C       -0.333044    -0.351473     4.283864
Br      -0.932535    -0.943441     5.854236
C       -0.759776    -0.813528     2.922940
N       -0.054705    -0.099728     2.146989
N        0.089639     2.145814    -0.099728
C       -0.593268     2.965903    -0.862304
C       -0.199839     4.309191    -0.372206
Br      -0.782665     5.896405    -0.989584
C        0.812207     3.991031     0.774562
N        0.941831     2.677738     0.882327
H        2.797542    -1.292736    -1.610293
H        4.693439     1.317047     1.341400
H        2.437270     2.456610     2.533610
H        1.248808     1.283818     4.642347
H       -1.493515    -1.572134     2.783106
H       -1.282322     2.825065    -1.654608
H        1.298841     4.680505     1.350031
N        0.051252    -2.146855     0.104334
C        0.748946    -2.925071     0.825448
C        0.314848    -4.284216     0.363760
Br       0.916586    -5.846484     0.980064
C       -0.742749    -3.953116    -0.735960
N       -0.876248    -2.612098    -0.854651
B       -1.807093    -1.838151    -1.800125
N       -0.937662    -0.876464    -2.663546
C       -0.814317    -0.770998    -3.979456
C        0.200147     0.374404    -4.305529
Br       0.774600     0.984380    -5.899062
C        0.599411     0.864910    -2.962267
N       -0.082961     0.104334    -2.145864
N       -2.701516    -0.898893    -0.935861
C       -4.005284    -0.784136    -0.812723
C       -4.305778     0.353684     0.219507
Br      -5.897206     0.977879     0.808260
C       -2.959360     0.816959     0.617024
N       -2.147787     0.051252    -0.082961
H        1.477203    -2.788480     1.585153
H       -1.251383    -4.648409    -1.270956
H       -2.424706    -2.543350    -2.456504
H       -1.303975    -1.345393    -4.665701
H        1.289288     1.654168    -2.820268
H       -4.694232    -1.342982    -1.307350
H       -2.799428     1.593907     1.315743
53
ex_0083 frame5 OC-6-chelate-2-conf6
Cd       0.000000     0.000000     0.000000
Br      -0.936519     5.840570    -0.970811
C       -0.311107     4.184137    -0.341907
C       -0.733316     2.941969    -0.804600
N       -0.049358     2.147077    -0.100627
N        0.871275     2.618329     0.858185
C        0.705931     3.910373     0.719899
B        1.806022     1.843637     1.800826
N        0.929635     0.882383     2.658351
C        0.778925     0.756292     3.931729
C       -0.203622    -0.350315     4.221720
Br      -0.794610    -0.961954     5.897519
C       -0.595209    -0.840448     2.971300
N        0.076188    -0.100627     2.146292
N        2.148083    -0.049358     0.076188
C        2.953403    -0.798162    -0.610398
C        4.214675    -0.346973    -0.216256
Br       5.872441    -0.987939    -0.816513
C        3.948650     0.752695     0.783427
N        2.694364     0.898690     0.931258
H       -1.477357     2.793801    -1.586849
H        1.237075     4.658867     1.289162
H        2.435894     2.534542     2.464498
H        1.288499     1.360115     4.655168
H       -1.299082    -1.646617     2.820614
H        2.781171    -1.589290    -1.324601
H        4.688086     1.334017     1.302456
N        0.048709     0.047168    -2.148931
C        0.745224     0.750089    -2.942942
C        0.313053     0.298700    -4.187264
Br       0.922678     0.905363    -5.867016
C       -0.721834    -0.753660    -3.906122
N       -0.866811    -0.888217    -2.622869
B       -1.800309    -1.829062    -1.813540
N       -0.866608    -2.654697    -0.880785
C       -0.712556    -3.928026    -0.744464
C        0.329846    -4.200433     0.307777
Br       0.952502    -5.875982     0.912999
C        0.750217    -2.948743     0.753095
N        0.042030    -2.149072     0.047168
N       -2.622448    -0.885552    -0.878263
C       -3.886632    -0.736917    -0.737548
C       -4.173787     0.310770     0.305050
Br      -5.855294     0.916657     0.899479
C       -2.929761     0.745669     0.745494
N       -2.149037     0.042030     0.048709
H        1.497597     1.518303    -2.791628
H       -1.270267    -1.319159    -4.645514
H       -2.467384    -2.471616    -2.470878
H       -1.255997    -4.672226    -1.306417
H        1.502460    -2.786661     1.518087
H       -4.625737    -1.292761    -1.295553
H       -2.770863     1.505411     1.503695
53
ex_0083 frame6 OC-6-chelate-2-conf7
Cd       0.000000     0.000000     0.000000
Br      -0.936519     5.840570    -0.970811
C       -0.311107     4.184137    -0.341907
C       -0.733316     2.941969    -0.804600
N       -0.049358     2.147077    -0.100627
N        0.871275     2.618329     0.858185
C        0.705931     3.910373     0.719899
B        1.806022     1.843637     1.800826
N        0.929635     0.882383     2.658351
C        0.778925     0.756292     3.931729
C       -0.203622    -0.350315     4.221720
Br      -0.794610    -0.961954     5.897519
C       -0.595209    -0.840448     2.971300
N        0.076188    -0.100627     2.146292
N        2.148083    -0.049358     0.076188
C        2.953403    -0.798162    -0.610398
C        4.214675    -0.346973    -0.216256
Br       5.872441    -0.987939    -0.816513
C        3.948650     0.752695     0.783427
N        2.694364     0.898690     0.931258
H       -1.477357     2.793801    -1.586849
H        1.237075     4.658867     1.289162
H        2.435894     2.534542     2.464498
H        1.288499     1.360115     4.655168
H       -1.299082    -1.646617     2.820614
H        2.781171    -1.589290    -1.324601
H        4.688086     1.334017     1.302456
N        0.051252    -2.146855     0.104334
C        0.732747    -2.935927     0.808494
C        0.301457    -4.175632     0.350580
Br       0.916586    -5.846484     0.980064
C       -0.715308    -3.903486    -0.707013
N       -0.876248    -2.612098    -0.854651
B       -1.807093    -1.838151    -1.800125
N       -0.937662    -0.876464    -2.663546
C       -0.791519    -0.743993    -3.934935
C        0.189383     0.364135    -4.223415
Br       0.774600     0.984380    -5.899062
C        0.585221     0.848496    -2.972218
N       -0.082961     0.104334    -2.145864
N       -2.701516    -0.898893    -0.935861
C       -3.961141    -0.758342    -0.790027
C       -4.229178     0.342949     0.208771
Br      -5.897206     0.977879     0.808260
C       -2.970131     0.800071     0.601940
N       -2.147787     0.051252    -0.082961
H        1.477203    -2.788480     1.585153
H       -1.251383    -4.648409    -1.270956
H       -2.424706    -2.543350    -2.456504
H       -1.303975    -1.345393    -4.665701
H        1.289288     1.654168    -2.820268
H       -4.694232    -1.342982    -1.307350
H       -2.799428     1.593907     1.315743
53
ex_0083 frame7 OC-6-chelate-2-conf8
Cd       0.000000     0.000000     0.000000
Br       5.864437    -1.024273    -0.790340
C        4.274923    -0.380106    -0.213055
C        2.935618    -0.824811    -0.620849
N        2.148035    -0.051981     0.075775
N        2.691339     0.885793     0.935797
C        3.994312     0.761642     0.819779
B        1.804142     1.832508     1.806214
N        0.865339     2.616932     0.865948
C        0.720097     3.953373     0.764241
C       -0.349332     4.285785    -0.329524
Br      -0.964497     5.863835    -0.909574
C       -0.763917     2.928848    -0.806099
N       -0.051981     2.147168    -0.097311
N        0.075775    -0.097311     2.146460
C       -0.610942    -0.849320     2.969681
C       -0.218816    -0.349585     4.309934
Br      -0.810577    -0.954286     5.902984
C        0.797878     0.789827     3.986584
N        0.932582     0.887493     2.667868
H        2.767712    -1.597835    -1.321132
H        4.683829     1.306501     1.315933
H        2.447003     2.530592     2.449734
H        1.226797     4.646938     1.311689
H       -1.495080     2.789057    -1.567205
H       -1.303485    -1.640781     2.833718
H        1.284536     1.368340     4.671751
N        0.048709     0.047168    -2.148931
C        0.760851     0.766107    -2.932653
C        0.326352     0.311354    -4.289809
Br       0.922678     0.905363    -5.867016
C       -0.749347    -0.782142    -3.956071
N       -0.866811    -0.888217    -2.622869
B       -1.800309    -1.829062    -1.813540
N       -0.866608    -2.654697    -0.880785
C       -0.738753    -3.976346    -0.771746
C        0.343009    -4.294248     0.319695
Br       0.952502    -5.875982     0.912999
C        0.766021    -2.938132     0.769275
N        0.042030    -2.149072     0.047168
N       -2.622448    -0.885552    -0.878263
C       -3.941248    -0.767565    -0.768405
C       -4.282375     0.325183     0.318798
Br      -5.855294     0.916657     0.899479
C       -2.918632     0.762858     0.762689
N       -2.149037     0.042030     0.048709
H        1.497597     1.518303    -2.791628
H       -1.270267    -1.319159    -4.645514
H       -2.467384    -2.471616    -2.470878
H       -1.255997    -4.672226    -1.306417
H        1.502460    -2.786661     1.518087
H       -4.625737    -1.292761    -1.295553
H       -2.770863     1.505411     1.503695
53
ex_0083 frame8 OC-6-chelate-2_mirror
Cd       0.000000     0.000000     0.000000
Br      -1.031615     5.903755     0.775364
C       -0.373445     4.248842     0.175929
C       -0.834690     2.982670     0.565430
N       -0.069723     2.146035    -0.110331
N        0.879275     2.715940    -0.960884
C        0.740971     3.987324    -0.807009
B        1.805013     1.835379    -1.822321
N        2.580751     0.879764    -0.879691
C        3.839976     0.716892    -0.723329
C        4.120437    -0.326533     0.308368
Br       5.815459    -0.936678     0.905987
C        2.890718    -0.763695     0.745606
N        2.147989    -0.069723     0.061485
N       -0.061485     0.110331    -2.146287
C       -0.809988    -0.582893    -2.976905
C       -0.352124    -0.186217    -4.238740
Br      -0.988846    -0.797906    -5.898192
C        0.741026     0.818514    -3.972927
N        0.882371     0.970371    -2.703298
H       -1.636932     2.816104     1.268597
H        1.330037     4.730083    -1.315554
H        2.519328     2.470892    -2.462869
H        4.601036     1.272270    -1.275780
H        2.727594    -1.527886     1.502585
H       -1.598220    -1.300334    -2.808189
H        1.322961     1.339040    -4.713046
N        0.048709     0.047168     2.148931
C        0.745224     0.750089     2.942942
C        0.313053     0.298700     4.187264
Br       0.922678     0.905363     5.867016
C       -0.721834    -0.753660     3.906122
N       -0.866811    -0.888217     2.622869
B       -1.800309    -1.829062     1.813540
N       -0.866608    -2.654697     0.880785
C       -0.712556    -3.928026     0.744464
C        0.329846    -4.200433    -0.307777
Br       0.952502    -5.875982    -0.912999
C        0.750217    -2.948743    -0.753095
N        0.042030    -2.149072    -0.047168
N       -2.622448    -0.885552     0.878263
C       -3.886632    -0.736917     0.737548
C       -4.173787     0.310770    -0.305050
Br      -5.855294     0.916657    -0.899479
C       -2.929761     0.745669    -0.745494
N       -2.149037     0.042030    -0.048709
H        1.497597     1.518303     2.791628
H       -1.270267    -1.319159     4.645514
H       -2.467384    -2.471616     2.470878
H       -1.255997    -4.672226     1.306417
H        1.502460    -2.786661    -1.518087
H       -4.625737    -1.292761     1.295553
H       -2.770863     1.505411    -1.503695
