75
ex_0478 frame0 Isomer 1
C       -5.520215    -0.943563     2.680185
C       -4.596863    -0.628195     1.571905
C       -4.672773     0.615631     0.920864
C       -3.815929     0.929905    -0.142976
C       -2.859261    -0.042576    -0.489170
C       -2.820058    -1.288291     0.156028
C       -3.659388    -1.561116     1.179101
Se      -1.548211    -2.667419    -0.407161
C       -0.721257    -3.373311     1.201971
C        0.127389    -4.451224     1.062194
C        0.622946    -5.108223     2.178915
C        0.336775    -4.649464     3.458532
C       -0.439226    -3.513816     3.600881
C       -0.942476    -2.847938     2.476668
Pd      -0.202706    -0.707491    -0.736233
P        0.607030     0.681628     0.844387
C        1.871971     1.481342    -0.056301
C        3.128585     1.440496     0.431395
C        4.130995     2.192758    -0.140118
C        3.887486     2.951134    -1.277027
C        2.629368     2.928061    -1.852921
C        1.610312     2.165386    -1.275900
C        1.360060    -0.557142     1.880207
C        2.053064    -1.670315     1.376464
C        2.736002    -2.470943     2.304960
C        2.668080    -2.199146     3.681044
C        1.895563    -1.138363     4.136294
C        1.222006    -0.358395     3.229088
C       -0.625293     1.727042     1.435945
C       -1.566225     1.306100     2.376933
C       -2.409630     2.247029     2.958589
C       -2.380421     3.566117     2.546200
C       -1.505229     3.933439     1.532502
C       -0.663601     3.000158     0.956413
C        0.356200    -0.551557    -2.637238
C        1.524544    -1.074420    -3.080907
C        1.852975    -0.772129    -4.381980
C        3.118740    -1.277322    -4.949641
C        0.975130     0.020795    -5.166521
C       -0.239632     0.495208    -4.642736
C       -0.560396     0.158646    -3.367382
N       -1.817829     0.521858    -2.770179
N       -1.895244     0.126099    -1.469008
H       -5.013316    -0.718868     3.638021
H       -5.767764    -2.020163     2.683523
H       -6.454208    -0.350357     2.554135
H       -5.400092     1.332420     1.245465
H       -3.872333     1.896777    -0.619689
H       -3.592723    -2.532228     1.649831
H        0.352858    -4.841411     0.088431
H        1.218247    -5.983365     2.036478
H        0.709625    -5.147454     4.342368
H       -0.656956    -3.162194     4.587751
H       -1.536848    -1.994786     2.631767
H        3.305855     0.872096     1.315650
H        5.097591     2.203377     0.316491
H        4.656148     3.551027    -1.732628
H        2.452659     3.520716    -2.733279
H        0.657698     2.210262    -1.761373
H        2.126708    -1.888688     0.314923
H        3.326821    -3.287481     1.949890
H        3.210132    -2.826413     4.376923
H        1.831927    -0.910377     5.190452
H        0.637634     0.482684     3.574383
H       -1.606060     0.311211     2.748087
H       -3.082754     1.965704     3.742613
H       -3.045702     4.274733     3.018801
H       -1.472031     4.953968     1.209121
H        0.010108     3.328194     0.204643
H        2.145696    -1.672878    -2.414507
H        2.981471    -1.454470    -6.035063
H        3.877327    -0.474779    -4.844508
H        3.426506    -2.214141    -4.423767
H        1.225308     0.256699    -6.177836
H       -0.926036     1.094995    -5.209099
75
ex_0478 frame1 Isomer 1_mirror
C       -5.520215    -0.943563    -2.680185
C       -4.596863    -0.628195    -1.571905
C       -4.672773     0.615631    -0.920864
C       -3.815929     0.929905     0.142976
C       -2.859675    -0.042823     0.489620
C       -2.820221    -1.288377    -0.155872
C       -3.659388    -1.561116    -1.179101
Se      -1.548211    -2.667419     0.407161
C       -0.721257    -3.373311    -1.201971
C        0.127389    -4.451224    -1.062194
C        0.622946    -5.108223    -2.178915
C        0.336775    -4.649464    -3.458532
C       -0.439226    -3.513816    -3.600881
C       -0.942476    -2.847938    -2.476668
Pd      -0.202706    -0.707491     0.736233
P        0.607030     0.681628    -0.844387
C        1.871971     1.481342     0.056301
C        3.128585     1.440496    -0.431395
C        4.130995     2.192758     0.140118
C        3.887486     2.951134     1.277027
C        2.629368     2.928061     1.852921
C        1.610312     2.165386     1.275900
C        1.360060    -0.557142    -1.880207
C        2.053064    -1.670315    -1.376464
C        2.736002    -2.470943    -2.304960
C        2.668080    -2.199146    -3.681044
C        1.895563    -1.138363    -4.136294
C        1.222006    -0.358395    -3.229088
C       -0.625293     1.727042    -1.435945
C       -1.566225     1.306100    -2.376933
C       -2.409630     2.247029    -2.958589
C       -2.380421     3.566117    -2.546200
C       -1.505229     3.933439    -1.532502
C       -0.663601     3.000158    -0.956413
C        0.356200    -0.551557     2.637238
C        1.524544    -1.074420     3.080907
C        1.852975    -0.772129     4.381980
C        3.118740    -1.277322     4.949641
C        0.975130     0.020795     5.166521
C       -0.239632     0.495208     4.642736
C       -0.560396     0.158646     3.367382
N       -1.817829     0.521858     2.770179
N       -1.895244     0.126099     1.469008
H       -5.013316    -0.718868    -3.638021
H       -5.767764    -2.020163    -2.683523
H       -6.454208    -0.350357    -2.554135
H       -5.400092     1.332420    -1.245465
H       -3.872333     1.896777     0.619689
H       -3.592723    -2.532228    -1.649831
H        0.352858    -4.841411    -0.088431
H        1.218247    -5.983365    -2.036478
H        0.709625    -5.147454    -4.342368
H       -0.656956    -3.162194    -4.587751
H       -1.536848    -1.994786    -2.631767
H        3.305855     0.872096    -1.315650
H        5.097591     2.203377    -0.316491
H        4.656148     3.551027     1.732628
H        2.452659     3.520716     2.733279
H        0.657698     2.210262     1.761373
H        2.126708    -1.888688    -0.314923
H        3.326821    -3.287481    -1.949890
H        3.210132    -2.826413    -4.376923
H        1.831927    -0.910377    -5.190452
H        0.637634     0.482684    -3.574383
H       -1.606060     0.311211    -2.748087
H       -3.082754     1.965704    -3.742613
H       -3.045702     4.274733    -3.018801
H       -1.472031     4.953968    -1.209121
H        0.010108     3.328194    -0.204643
H        2.145696    -1.672878     2.414507
H        2.981471    -1.454470     6.035063
H        3.877327    -0.474779     4.844508
H        3.426506    -2.214141     4.423767
H        1.225308     0.256699     6.177836
H       -0.926036     1.094995     5.209099
