44
ex_0443 frame0 T-4-chelate-1
Cu       0.000000     0.000000     0.000000
C        4.215638    -1.953292    -1.166733
C        2.786989    -2.007058    -0.800191
C        2.684801    -1.072868     0.542218
C        3.133546     0.246086     0.068083
C        2.236905     1.045961    -0.695689
N        1.155300     0.796542    -1.466868
C        0.385336     0.756939    -2.434441
C       -1.036947     1.088281    -2.290692
C       -1.800672     1.148823    -3.477266
C       -3.125317     1.536405    -3.449047
Br      -4.088036     1.658794    -5.090737
C       -3.770338     1.835508    -2.283596
C       -3.058903     1.738993    -1.108926
Br      -3.859056     2.133057     0.581489
C       -1.748590     1.426457    -1.162867
O       -1.258091     1.518363     0.179391
O       -0.870269    -1.415219    -1.077120
C       -1.586376    -2.033976     0.040676
C       -2.947123    -2.226099     0.028144
Br      -3.967669    -1.767855    -1.525494
C       -3.539258    -2.754195     1.162266
C       -2.779450    -3.088683     2.270936
Br      -3.632232    -3.790876     3.817846
C       -1.398693    -2.921675     2.278621
C       -0.795544    -2.422119     1.144952
C        0.663335    -2.287262     1.068851
N        1.373568    -1.306676     0.725816
H        4.859819    -1.792691    -0.271924
H        4.518970    -2.960183    -1.595594
H        4.372533    -1.220267    -1.972395
H        2.075941    -1.616416    -1.503331
H        2.508637    -2.988751    -0.405999
H        3.188753    -1.557936     1.273864
H        4.126284     0.072445    -0.450394
H        3.469360     0.817223     0.993874
H        2.993597     1.824304    -1.247443
H        1.833099     1.912834     0.032604
H        0.657045     0.353245    -3.439693
H       -1.363361     0.932971    -4.419832
H       -4.805343     2.141453    -2.247981
H       -4.614085    -2.878652     1.138918
H       -0.790228    -3.177215     3.134675
H        1.299110    -3.118774     1.357302
44
ex_0443 frame1 T-4-chelate-1-beta
Cu       0.000000     0.000000     0.000000
C        4.774422    -2.147712    -0.991026
C        3.288677    -2.171176    -1.097372
C        2.604423    -0.842484    -0.784669
C        2.970760    -0.533172     0.685887
C        2.502832     0.753057     1.237185
N        1.187721     1.132701     1.194658
C        0.461721     2.064462     1.624231
C       -0.950119     2.299642     1.436464
C       -1.638672     3.003332     2.442692
C       -2.970113     3.302209     2.325122
Br      -3.904684     4.279661     3.685270
C       -3.696305     2.914472     1.225969
C       -3.051527     2.192852     0.206465
Br      -4.052848     1.661624    -1.312743
C       -1.705257     1.954555     0.329703
O       -1.226380     1.314909    -0.829100
O       -1.043091    -1.188013     1.192051
C       -1.584734    -2.064612     0.170019
C       -2.929542    -2.341188     0.319682
Br      -3.939487    -1.618168     1.756385
C       -3.533363    -3.171065    -0.617231
C       -2.786979    -3.687808    -1.654986
Br      -3.681704    -4.823632    -2.910278
C       -1.432812    -3.397830    -1.789962
C       -0.803578    -2.573933    -0.839419
C        0.647381    -2.319737    -0.999222
N        1.325933    -1.328730    -0.772837
H        5.161960    -1.299293    -1.613679
H        5.109675    -1.956219     0.043151
H        5.193421    -3.118847    -1.351576
H        2.985402    -2.515043    -2.101684
H        2.847376    -2.923978    -0.368230
H        2.869023    -0.013123    -1.394277
H        2.703967    -1.391517     1.329312
H        4.100927    -0.487631     0.686641
H        3.222489     1.546794     0.792280
H        2.837318     0.768168     2.328441
H        0.981530     2.841585     2.233772
H       -1.085886     3.323004     3.328844
H       -4.747677     3.136400     1.106207
H       -4.597156    -3.373085    -0.470292
H       -0.846911    -3.797110    -2.600628
H        1.195029    -3.180081    -1.397823
44
ex_0443 frame2 T-4-chelate-1-conf2
Cu       0.000000     0.000000     0.000000
C        4.774422    -2.147712    -0.991026
C        3.288677    -2.171176    -1.097372
C        2.604423    -0.842484    -0.784669
C        2.970760    -0.533172     0.685887
C        2.502832     0.753057     1.237185
N        1.187721     1.132701     1.194658
C        0.461721     2.064462     1.624231
C       -0.950119     2.299642     1.436464
C       -1.638672     3.003332     2.442692
C       -2.970113     3.302209     2.325122
Br      -3.904684     4.279661     3.685270
C       -3.696305     2.914472     1.225969
C       -3.051527     2.192852     0.206465
Br      -4.052848     1.661624    -1.312743
C       -1.705257     1.954555     0.329703
O       -1.226380     1.314909    -0.829100
O       -1.043091    -1.188013     1.192051
C       -1.584734    -2.064612     0.170019
C       -2.929542    -2.341188     0.319682
Br      -3.939487    -1.618168     1.756385
C       -3.533363    -3.171065    -0.617231
C       -2.786979    -3.687808    -1.654986
Br      -3.681704    -4.823632    -2.910278
C       -1.432812    -3.397830    -1.789962
C       -0.803578    -2.573933    -0.839419
C        0.647381    -2.319737    -0.999222
N        1.325933    -1.328730    -0.772837
H        5.161960    -1.299293    -1.613679
H        5.109675    -1.956219     0.043151
H        5.193421    -3.118847    -1.351576
H        2.985402    -2.515043    -2.101684
H        2.847376    -2.923978    -0.368230
H        2.869023    -0.013123    -1.394277
H        2.703967    -1.391517     1.329312
H        4.100927    -0.487631     0.686641
H        3.222489     1.546794     0.792280
H        2.837318     0.768168     2.328441
H        0.981530     2.841585     2.233772
H       -1.085886     3.323004     3.328844
H       -4.747677     3.136400     1.106207
H       -4.597156    -3.373085    -0.470292
H       -0.846911    -3.797110    -2.600628
H        1.195029    -3.180081    -1.397823
44
ex_0443 frame3 T-4-chelate-1_mirror
Cu       0.000000     0.000000     0.000000
C        4.215638    -1.953292     1.166733
C        2.786989    -2.007058     0.800191
C        2.684801    -1.072868    -0.542218
C        3.133546     0.246086    -0.068083
C        2.236905     1.045961     0.695689
N        1.155300     0.796542     1.466868
C        0.385336     0.756939     2.434441
C       -1.036947     1.088281     2.290692
C       -1.800672     1.148823     3.477266
C       -3.125317     1.536405     3.449047
Br      -4.088036     1.658794     5.090737
C       -3.770338     1.835508     2.283596
C       -3.058903     1.738993     1.108926
Br      -3.859056     2.133057    -0.581489
C       -1.748590     1.426457     1.162867
O       -1.258091     1.518363    -0.179391
O       -0.870269    -1.415219     1.077120
C       -1.586376    -2.033976    -0.040676
C       -2.947123    -2.226099    -0.028144
Br      -3.967669    -1.767855     1.525494
C       -3.539258    -2.754195    -1.162266
C       -2.779450    -3.088683    -2.270936
Br      -3.632232    -3.790876    -3.817846
C       -1.398693    -2.921675    -2.278621
C       -0.795544    -2.422119    -1.144952
C        0.663335    -2.287262    -1.068851
N        1.373568    -1.306676    -0.725816
H        4.859819    -1.792691     0.271924
H        4.518970    -2.960183     1.595594
H        4.372533    -1.220267     1.972395
H        2.075941    -1.616416     1.503331
H        2.508637    -2.988751     0.405999
H        3.188753    -1.557936    -1.273864
H        4.126284     0.072445     0.450394
H        3.469360     0.817223    -0.993874
H        2.993597     1.824304     1.247443
H        1.833099     1.912834    -0.032604
H        0.657045     0.353245     3.439693
H       -1.363361     0.932971     4.419832
H       -4.805343     2.141453     2.247981
H       -4.614085    -2.878652    -1.138918
H       -0.790228    -3.177215    -3.134675
H        1.299110    -3.118774    -1.357302
