55
ex_0221 frame0 OC-6-1
Ni       0.000000     0.000000     0.000000
C        5.184357    -0.738892    -1.553786
C        4.120873    -0.314268    -0.660862
C        4.143834     0.295141     0.620642
C        2.758511     0.470531     0.989464
N        1.950000     0.000000     0.000000
N        2.795404    -0.444443    -0.943307
H        6.168836    -0.533360    -1.121500
H        5.117461    -0.210162    -2.509963
H        5.117421    -1.814260    -1.747195
H        4.998142     0.561287     1.180311
H        2.355413     0.879285     1.849019
H        2.496073    -0.805502    -1.735317
C       -5.184357     0.568782    -1.623792
C       -4.120873     0.241917    -0.690637
C       -4.143834    -0.227193     0.648605
C       -2.788260    -0.350501     0.978676
N       -1.950000     0.000000     0.000000
N       -2.771637     0.360989    -1.030576
H       -6.168836     0.410577    -1.172033
H       -5.117461    -0.059010    -2.518055
H       -5.117421     1.617355    -1.930904
H       -4.998142    -0.432065     1.233489
H       -2.463970    -0.675703     1.868814
H       -2.372907     0.656483    -1.874175
C        0.982336     5.184358     1.412525
C        0.417810     4.120873     0.600781
C       -0.392386     4.143834    -0.564213
C       -0.625562     2.758511    -0.899506
N        0.000000     1.950000     0.000000
N        0.623464     2.771637     0.896489
H        0.709050     6.168836     1.019549
H        2.074849     5.117439     1.427991
H        0.616601     5.117446     2.442118
H       -0.746225     4.998142    -1.072997
H       -1.168991     2.355413    -1.680914
H        1.133812     2.372907     1.630328
C       -1.719840    -5.184357     0.048600
C       -0.731489    -4.120873     0.020671
C        0.686970    -4.143834    -0.019412
C        1.038751    -2.788424    -0.026528
N        0.000000    -1.950000     0.000000
N       -1.043442    -2.794860     0.035617
H       -1.241371    -6.168836     0.035115
H       -2.381118    -5.117461    -0.821193
H       -2.330989    -5.117421     0.954316
H        1.306451    -4.998142    -0.036917
H        1.983347    -2.467851    -0.055564
H       -1.911584    -2.496344     0.068641
N        0.000000     0.000000     1.950000
N       -0.000000     0.000000     3.410000
N       -0.000002    -0.000005     4.870000
N        0.000000     0.000000    -1.950000
N       -0.000000     0.000000    -3.410000
N       -0.000002    -0.000005    -4.870000
55
ex_0221 frame1 OC-6-1-conf1
Ni       0.000000     0.000000     0.000000
C        5.184357    -0.738892    -1.553786
C        4.114202    -0.310638    -0.653228
C        4.137364     0.291589     0.613173
C        2.781662     0.451912     0.942918
N        1.950000     0.000000     0.000000
N        2.789107    -0.448108    -0.947533
H        6.168836    -0.533360    -1.121500
H        5.117461    -0.210162    -2.509963
H        5.117421    -1.814260    -1.747195
H        4.998142     0.561287     1.180311
H        2.420216     0.862842     1.816601
H        2.446807    -0.824431    -1.758540
C       -5.184357     0.568782    -1.623792
C       -4.114202     0.239122    -0.682659
C       -4.137364    -0.224459     0.640800
C       -2.782680    -0.349070     0.983373
N       -1.950000     0.000000     0.000000
N       -2.786360     0.355441    -0.992588
H       -6.168836     0.410577    -1.172033
H       -5.117461    -0.059010    -2.518055
H       -5.117421     1.617355    -1.930904
H       -4.998142    -0.432065     1.233489
H       -2.420547    -0.676163     1.894219
H       -2.438029     0.662949    -1.832581
C        1.688420     5.184357     0.330833
C        0.709829     4.114202     0.139086
C       -0.666304     4.137364    -0.130557
C       -1.026275     2.780825    -0.211013
N        0.000000     1.950000     0.000000
N        1.028950     2.788550     0.206503
H        1.218686     6.168836     0.238828
H        2.483762     5.117461    -0.418339
H        2.142264     5.117421     1.324739
H       -1.282583     4.998142    -0.251311
H       -1.979508     2.405656    -0.411940
H        1.907753     2.438827     0.396663
C       -1.719840    -5.184357     0.048600
C       -0.723039    -4.114202     0.020432
C        0.678703    -4.137364    -0.019178
C        1.042851    -2.782779    -0.027774
N        0.000000    -1.950000     0.000000
N       -1.048389    -2.788780     0.033304
H       -1.241371    -6.168836     0.035115
H       -2.381118    -5.117461    -0.821193
H       -2.330989    -5.117421     0.954316
H        1.306451    -4.998142    -0.036917
H        2.008658    -2.422876    -0.056471
H       -1.940964    -2.446969     0.063621
N        0.000000     0.000000     1.950000
N       -0.000000     0.000000     3.410000
N       -0.000002    -0.000005     4.870000
N        0.000000     0.000000    -1.950000
N       -0.000000     0.000000    -3.410000
N       -0.000002    -0.000005    -4.870000
55
ex_0221 frame2 OC-6-1-conf2
Ni       0.000000     0.000000     0.000000
C        5.184357    -0.738892    -1.553786
C        4.114202    -0.310638    -0.653228
C        4.137364     0.291589     0.613173
C        2.781662     0.451912     0.942918
N        1.950000     0.000000     0.000000
N        2.774847    -0.462814    -0.973236
H        6.168836    -0.533360    -1.121500
H        5.117461    -0.210162    -2.509963
H        5.117421    -1.814260    -1.747195
H        4.998142     0.561287     1.180311
H        2.420216     0.862842     1.816601
H        2.372907    -0.852824    -1.793375
C       -5.184357     0.568782    -1.623792
C       -4.114202     0.239122    -0.682659
C       -4.137364    -0.224459     0.640800
C       -2.764831    -0.356091     1.016594
N       -1.950000     0.000000     0.000000
N       -2.786360     0.355441    -0.992588
H       -6.168836     0.410577    -1.172033
H       -5.117461    -0.059010    -2.518055
H       -5.117421     1.617355    -1.930904
H       -4.998142    -0.432065     1.233489
H       -2.355413    -0.676853     1.932326
H       -2.438029     0.662949    -1.832581
C        1.688420     5.184357     0.330833
C        0.709829     4.114202     0.139086
C       -0.666304     4.137364    -0.130557
C       -1.026275     2.780825    -0.211013
N        0.000000     1.950000     0.000000
N        1.028950     2.788550     0.206503
H        1.218686     6.168836     0.238828
H        2.483762     5.117461    -0.418339
H        2.142264     5.117421     1.324739
H       -1.282583     4.998142    -0.251311
H       -1.979508     2.405656    -0.411940
H        1.907753     2.438827     0.396663
C        0.817831    -5.184357    -1.513725
C        0.343825    -4.114202    -0.636386
C       -0.322743    -4.137364     0.597363
C       -0.512014    -2.764831     0.947684
N        0.000000    -1.950000     0.000000
N        0.512261    -2.774847    -0.948142
H        0.590275    -6.168836    -1.092616
H        1.901733    -5.117461    -1.651512
H        0.339033    -5.117421    -2.495854
H       -0.621254    -4.998142     1.149878
H       -0.973228    -2.355413     1.801344
H        0.943940    -2.372907    -1.747135
N        0.000000     0.000000     1.950000
N       -0.000000     0.000000     3.410000
N       -0.000002    -0.000005     4.870000
N        0.000000     0.000000    -1.950000
N       -0.000000     0.000000    -3.410000
N       -0.000002    -0.000005    -4.870000
55
ex_0221 frame3 OC-6-1-conf3
Ni       0.000000     0.000000     0.000000
C        5.184357    -1.115864    -1.309603
C        4.120873    -0.474604    -0.557005
C        4.143834     0.445718     0.523106
C        2.786202     0.667836     0.802697
N        1.950000     0.000000     0.000000
N        2.771637    -0.708207    -0.831170
H        6.168836    -0.805452    -0.945242
H        5.117461    -0.852627    -2.370044
H        5.117421    -2.204648    -1.218095
H        4.998142     0.847648     0.994821
H        2.456371     1.271347     1.534324
H        2.372907    -1.287924    -1.511540
C       -5.184357     1.304476    -1.121854
C       -4.120873     0.554825    -0.477151
C       -4.143834    -0.521057     0.448112
C       -2.758511    -0.830700     0.714407
N       -1.950000     0.000000     0.000000
N       -2.794709     0.790324    -0.682634
H       -6.168836     0.941587    -0.809722
H       -5.117461     1.207923    -2.210204
H       -5.117421     2.366123    -0.863535
H       -4.998142    -0.990924     0.852200
H       -2.355413    -1.552335     1.335017
H       -2.496385     1.454612    -1.241741
C        1.706637     5.184357    -0.218179
C        0.725873     4.120873    -0.092797
C       -0.681696     4.143834     0.087149
C       -1.030357     2.788315     0.136490
N        0.000000     1.950000     0.000000
N        1.037687     2.793322    -0.144603
H        1.231840     6.168835    -0.157494
H        2.450578     5.117449     0.582058
H        2.225356     5.117433    -1.179821
H       -1.296421     4.998141     0.165736
H       -1.969720     2.461832     0.274373
H        1.902520     2.483857    -0.279864
C       -0.902009    -5.184357    -1.465125
C       -0.383646    -4.120873    -0.623153
C        0.360296    -4.143834     0.585227
C        0.574406    -2.758511     0.933004
N        0.000000    -1.950000     0.000000
N       -0.572479    -2.771637    -0.929875
H       -0.651096    -6.168836    -1.057502
H       -0.479385    -5.117461    -2.472705
H       -1.991956    -5.117421    -1.541538
H        0.685196    -4.998142     1.112961
H        1.073396    -2.355413     1.743512
H       -1.041093    -2.372907    -1.691043
N        0.000000     0.000000     1.950000
N       -0.000000     0.000000     3.410000
N       -0.000002    -0.000005     4.870000
N        0.000000     0.000000    -1.950000
N       -0.000000     0.000000    -3.410000
N       -0.000002    -0.000005    -4.870000
55
ex_0221 frame4 OC-6-2
Ni       0.000000     0.000000     0.000000
C        5.184357    -0.738892    -1.553786
C        4.120873    -0.314268    -0.660862
C        4.143834     0.295141     0.620642
C        2.758511     0.470531     0.989464
N        1.950000     0.000000     0.000000
N        2.771637    -0.468953    -0.986146
H        6.168836    -0.533360    -1.121500
H        5.117461    -0.210162    -2.509963
H        5.117421    -1.814260    -1.747195
H        4.998142     0.561287     1.180311
H        2.355413     0.879285     1.849019
H        2.372907    -0.852824    -1.793375
C       -5.184357     1.715674     0.129133
C       -4.120873     0.729717     0.054923
C       -4.143834    -0.685306    -0.051580
C       -2.758511    -1.092555    -0.082232
N       -1.950000     0.000000     0.000000
N       -2.771637     1.088891     0.081956
H       -6.168836     1.238362     0.093243
H       -5.117461     2.416981    -0.708720
H       -5.117421     2.283713     1.062490
H       -4.998142    -1.303286    -0.098093
H       -2.355413    -2.041666    -0.153667
H       -2.372907     1.980224     0.149042
C        0.982336     5.184358     1.412525
C        0.417810     4.120873     0.600781
C       -0.392386     4.143834    -0.564213
C       -0.625562     2.758511    -0.899506
N        0.000000     1.950000     0.000000
N        0.623464     2.771637     0.896489
H        0.709050     6.168836     1.019549
H        2.074849     5.117439     1.427991
H        0.616601     5.117446     2.442118
H       -0.746225     4.998142    -1.072997
H       -1.168991     2.355413    -1.680914
H        1.133812     2.372907     1.630328
N        0.000000    -1.950000     0.000000
N       -0.000000    -3.410000     0.000000
N       -0.000005    -4.870000     0.000000
C       -1.194548     1.238252     5.184357
C       -0.508070     0.526658     4.120873
C        0.477148    -0.494605     4.143834
C        0.760699    -0.788528     2.758511
N        0.000000     0.000000     1.950000
N       -0.758147     0.785883     2.771637
H       -0.862193     0.893789     6.168836
H       -2.275604     1.079679     5.117461
H       -0.997304     2.312924     5.117421
H        0.907421    -0.940619     4.998142
H        1.421523    -1.473528     2.355413
H       -1.378744     1.429184     2.372907
N        0.000000     0.000000    -1.950000
N       -0.000000     0.000000    -3.410000
N       -0.000002    -0.000005    -4.870000
55
ex_0221 frame5 OC-6-2-conf1
Ni       0.000000     0.000000     0.000000
C        5.184357    -0.738892    -1.553786
C        4.114202    -0.310638    -0.653228
C        4.137364     0.291589     0.613173
C        2.781662     0.451912     0.942918
N        1.950000     0.000000     0.000000
N        2.774847    -0.462814    -0.973236
H        6.168836    -0.533360    -1.121500
H        5.117461    -0.210162    -2.509963
H        5.117421    -1.814260    -1.747195
H        4.998142     0.561287     1.180311
H        2.420216     0.862842     1.816601
H        2.372907    -0.852824    -1.793375
C       -5.184357     0.568782    -1.623792
C       -4.114202     0.239122    -0.682659
C       -4.137364    -0.224459     0.640800
C       -2.764831    -0.356091     1.016594
N       -1.950000     0.000000     0.000000
N       -2.786360     0.355441    -0.992588
H       -6.168836     0.410577    -1.172033
H       -5.117461    -0.059010    -2.518055
H       -5.117421     1.617355    -1.930904
H       -4.998142    -0.432065     1.233489
H       -2.355413    -0.676853     1.932326
H       -2.438029     0.662949    -1.832581
C        1.688420     5.184357     0.330833
C        0.709829     4.114202     0.139086
C       -0.666304     4.137364    -0.130557
C       -1.026275     2.780825    -0.211013
N        0.000000     1.950000     0.000000
N        1.028950     2.788550     0.206503
H        1.218686     6.168836     0.238828
H        2.483762     5.117461    -0.418339
H        2.142264     5.117421     1.324739
H       -1.282583     4.998142    -0.251311
H       -1.979508     2.405656    -0.411940
H        1.907753     2.438827     0.396663
N        0.000000    -1.950000     0.000000
N       -0.000000    -3.410000     0.000000
N       -0.000005    -4.870000     0.000000
C       -1.194548     1.238252     5.184357
C       -0.502200     0.520574     4.114202
C        0.471407    -0.488653     4.137364
C        0.747861    -0.775221     2.764831
N        0.000000     0.000000     1.950000
N       -0.748222     0.775595     2.774847
H       -0.862193     0.893789     6.168836
H       -2.275604     1.079679     5.117461
H       -0.997304     2.312924     5.117421
H        0.907421    -0.940619     4.998142
H        1.421523    -1.473528     2.355413
H       -1.378744     1.429184     2.372907
N        0.000000     0.000000    -1.950000
N       -0.000000     0.000000    -3.410000
N       -0.000002    -0.000005    -4.870000
55
ex_0221 frame6 OC-6-2-conf3
Ni       0.000000     0.000000     0.000000
C        5.184357     1.309603    -1.115864
C        4.114202     0.550571    -0.469121
C        4.137364    -0.516811     0.440355
C        2.781662    -0.793825     0.680558
N        1.950000     0.000000     0.000000
N        2.774847     0.820288    -0.698936
H        6.168836     0.945242    -0.805452
H        5.117461     2.370044    -0.852627
H        5.117421     1.218095    -2.204648
H        4.998142    -0.994821     0.847648
H        2.420216    -1.531382     1.303612
H        2.372907     1.511540    -1.287924
C       -5.184357     1.121854     1.304476
C       -4.114202     0.471639     0.548415
C       -4.137364    -0.442719    -0.514787
C       -2.764831    -0.702350    -0.816681
N       -1.950000     0.000000     0.000000
N       -2.786360     0.681885     0.804115
H       -6.168836     0.809722     0.941587
H       -5.117461     2.210204     1.207923
H       -5.117421     0.863535     2.366123
H       -4.998142    -0.852200    -0.990924
H       -2.355413    -1.335017    -1.552335
H       -2.438029     1.255587     1.490422
C        1.688420     5.184357     0.330833
C        0.709829     4.114202     0.139086
C       -0.666304     4.137364    -0.130557
C       -1.026275     2.780825    -0.211013
N        0.000000     1.950000     0.000000
N        1.028950     2.788550     0.206503
H        1.218686     6.168836     0.238828
H        2.483762     5.117461    -0.418339
H        2.142264     5.117421     1.324739
H       -1.282583     4.998142    -0.251311
H       -1.979508     2.405656    -0.411940
H        1.907753     2.438827     0.396663
N        0.000000    -1.950000     0.000000
N       -0.000000    -3.410000     0.000000
N       -0.000005    -4.870000     0.000000
C       -1.669632    -0.415383     5.184357
C       -0.701930    -0.174631     4.114202
C        0.658889     0.163924     4.137364
C        1.045292     0.260056     2.764831
N        0.000000     0.000000     1.950000
N       -1.045796    -0.260182     2.774847
H       -1.205140    -0.299787     6.168836
H       -2.072831    -1.430892     5.117461
H       -2.501702     0.292772     5.117421
H        1.268310     0.315540     4.998142
H        1.986874     0.494311     2.355413
H       -1.927082    -0.479436     2.372907
N        0.000000     0.000000    -1.950000
N       -0.000000     0.000000    -3.410000
N       -0.000002    -0.000005    -4.870000
55
ex_0221 frame7 OC-6-2-conf4
Ni       0.000000     0.000000     0.000000
C        5.184357    -0.738892    -1.553786
C        4.114202    -0.310638    -0.653228
C        4.137364     0.291589     0.613173
C        2.781662     0.451912     0.942918
N        1.950000     0.000000     0.000000
N        2.774847    -0.462814    -0.973236
H        6.168836    -0.533360    -1.121500
H        5.117461    -0.210162    -2.509963
H        5.117421    -1.814260    -1.747195
H        4.998142     0.561287     1.180311
H        2.420216     0.862842     1.816601
H        2.372907    -0.852824    -1.793375
C       -5.184357     0.568782    -1.623792
C       -4.114202     0.239122    -0.682659
C       -4.137364    -0.224459     0.640800
C       -2.764831    -0.356091     1.016594
N       -1.950000     0.000000     0.000000
N       -2.786360     0.355441    -0.992588
H       -6.168836     0.410577    -1.172033
H       -5.117461    -0.059010    -2.518055
H       -5.117421     1.617355    -1.930904
H       -4.998142    -0.432065     1.233489
H       -2.355413    -0.676853     1.932326
H       -2.438029     0.662949    -1.832581
C        1.688420     5.184357     0.330833
C        0.709829     4.114202     0.139086
C       -0.666304     4.137364    -0.130557
C       -1.026275     2.780825    -0.211013
N        0.000000     1.950000     0.000000
N        1.028950     2.788550     0.206503
H        1.218686     6.168836     0.238828
H        2.483762     5.117461    -0.418339
H        2.142264     5.117421     1.324739
H       -1.282583     4.998142    -0.251311
H       -1.979508     2.405656    -0.411940
H        1.907753     2.438827     0.396663
N        0.000000    -1.950000     0.000000
N       -0.000000    -3.410000     0.000000
N       -0.000005    -4.870000     0.000000
C       -0.475084    -1.653635     5.184357
C       -0.199730    -0.695205     4.114202
C        0.187482     0.652577     4.137364
C        0.297430     1.035277     2.764831
N        0.000000     0.000000     1.950000
N       -0.297574    -1.035777     2.774847
H       -0.342947    -1.193575     6.168836
H        0.202773    -2.510571     5.117461
H       -1.504399    -2.020152     5.117421
H        0.360889     1.256159     4.998142
H        0.565351     1.967839     2.355413
H       -0.548337    -1.908619     2.372907
N        0.000000     0.000000    -1.950000
N       -0.000000     0.000000    -3.410000
N       -0.000002    -0.000005    -4.870000
55
ex_0221 frame8 OC-6-2-conf5
Ni       0.000000     0.000000     0.000000
C        5.184357    -0.976172     1.416792
C        4.120873    -0.415189     0.602596
C        4.143834     0.389921    -0.565920
C        2.786202     0.602498    -0.852833
N        1.950000     0.000000     0.000000
N        2.771637    -0.619551     0.899198
H        6.168836    -0.704567     1.022653
H        5.117461    -2.068610     1.436987
H        5.117421    -0.605985     2.444793
H        4.998142     0.741536    -1.076244
H        2.456371     1.152995    -1.625140
H        2.372907    -1.126696     1.635254
C       -5.184357     1.121854     1.304476
C       -4.120873     0.477151     0.554825
C       -4.143834    -0.448112    -0.521057
C       -2.758511    -0.714407    -0.830700
N       -1.950000     0.000000     0.000000
N       -2.794709     0.682634     0.790324
H       -6.168836     0.809722     0.941587
H       -5.117461     2.210204     1.207923
H       -5.117421     0.863535     2.366123
H       -4.998142    -0.852200    -0.990924
H       -2.355413    -1.335017    -1.552335
H       -2.496385     1.241741     1.454612
C        0.664370     5.184357    -1.587080
C        0.282572     4.120873    -0.675023
C       -0.265375     4.143834     0.633940
C       -0.396975     2.788315     0.960561
N        0.000000     1.950000     0.000000
N        0.393614     2.793322    -0.970964
H        0.479526     6.168835    -1.145552
H        1.729366     5.117449    -1.831233
H        0.090923     5.117433    -2.517125
H       -0.504679     4.998141     1.205602
H       -0.747246     2.461832     1.843015
H        0.708891     2.483857    -1.787563
N        0.000000    -1.950000     0.000000
N       -0.000000    -3.410000     0.000000
N       -0.000005    -4.870000     0.000000
C       -1.505231    -0.833361     5.184357
C       -0.640211    -0.354448     4.120873
C        0.601246     0.332877     4.143834
C        0.958543     0.530692     2.758511
N        0.000000     0.000000     1.950000
N       -0.955328    -0.528912     2.771637
H       -1.086485    -0.601485     6.168836
H       -1.631859    -1.918623     5.117461
H       -2.492234    -0.364693     5.117421
H        1.143426     0.633052     4.998142
H        1.791236     0.991709     2.355413
H       -1.737331    -0.961865     2.372907
N        0.000000     0.000000    -1.950000
N       -0.000000     0.000000    -3.410000
N       -0.000002    -0.000005    -4.870000
55
ex_0221 frame9 OC-6-2-conf6
Ni       0.000000     0.000000     0.000000
C        5.184357    -1.621168    -0.576217
C        4.120873    -0.689522    -0.245079
C        4.143834     0.647556     0.230164
C        2.758511     1.032373     0.366941
N        1.950000     0.000000     0.000000
N        2.771637    -1.028910    -0.365710
H        6.168836    -1.170163    -0.415877
H        5.117461    -1.923419    -1.626204
H        5.117421    -2.518329     0.047422
H        4.998142     1.231496     0.437716
H        2.355413     1.929202     0.685706
H        2.372907    -1.871145    -0.665070
C       -5.184357     1.690636    -0.319316
C       -4.120873     0.719068    -0.135813
C       -4.143834    -0.675304     0.127548
C       -2.758511    -1.076610     0.203344
N       -1.950000     0.000000     0.000000
N       -2.771637     1.073000    -0.202662
H       -6.168836     1.220299    -0.230446
H       -5.117461     2.151194    -1.310131
H       -5.117421     2.480890     0.435219
H       -4.998142    -1.284266     0.242565
H       -2.355413    -2.011870     0.379991
H       -2.388621     1.942613    -0.372426
C       -0.557700     5.184357    -1.627631
C       -0.237203     4.120873    -0.692270
C        0.222767     4.143834     0.650138
C        0.354503     2.766248     1.018375
N        0.000000     1.950000     0.000000
N       -0.353958     2.771637    -1.033012
H       -0.402512     6.168836    -1.174827
H       -1.604174     5.117461    -1.941831
H        0.076126     5.117421    -2.517625
H        0.423650     4.998142     1.236405
H        0.589852     2.452816     1.890245
H       -0.643698     2.372907    -1.878605
N        0.000000    -1.950000     0.000000
N       -0.000000    -3.410000     0.000000
N       -0.000005    -4.870000     0.000000
C       -1.194548     1.238252     5.184357
C       -0.508070     0.526658     4.120873
C        0.477148    -0.494605     4.143834
C        0.760699    -0.788528     2.758511
N        0.000000     0.000000     1.950000
N       -0.758147     0.785883     2.771637
H       -0.862193     0.893789     6.168836
H       -2.275604     1.079679     5.117461
H       -0.997304     2.312924     5.117421
H        0.907421    -0.940619     4.998142
H        1.421523    -1.473528     2.355413
H       -1.382234     1.331781     2.460160
N        0.000000     0.000000    -1.950000
N       -0.000000     0.000000    -3.410000
N       -0.000002    -0.000005    -4.870000
55
ex_0221 frame10 OC-6-2-conf7
Ni       0.000000     0.000000     0.000000
C        5.184357    -0.738892    -1.553786
C        4.120873    -0.314268    -0.660862
C        4.143834     0.295141     0.620642
C        2.786563     0.452733     0.939717
N        1.950000     0.000000     0.000000
N        2.771637    -0.468953    -0.986146
H        6.168836    -0.533360    -1.121500
H        5.117461    -0.210162    -2.509963
H        5.117421    -1.814260    -1.747195
H        4.998142     0.561287     1.180311
H        2.463418     0.851880     1.794989
H        2.372907    -0.852824    -1.793375
C       -5.184357    -0.568782     1.623792
C       -4.120873    -0.241917     0.690637
C       -4.143834     0.227193    -0.648605
C       -2.758511     0.362204    -1.034044
N       -1.950000     0.000000     0.000000
N       -2.771637    -0.360989     1.030576
H       -6.168836    -0.410577     1.172033
H       -5.117461     0.059010     2.518055
H       -5.117421    -1.617355     1.930904
H       -4.998142     0.432065    -1.233489
H       -2.414462     0.674453    -1.889268
H       -2.372907    -0.656483     1.874175
C        1.688420     5.184357     0.330833
C        0.718125     4.120873     0.140711
C       -0.674419     4.143834    -0.132147
C       -1.075200     2.758511    -0.210676
N        0.000000     1.950000     0.000000
N        1.023902     2.794476     0.208773
H        1.218686     6.168836     0.238828
H        2.483762     5.117461    -0.418339
H        2.142264     5.117421     1.324739
H       -1.282583     4.998142    -0.251311
H       -2.009234     2.355413    -0.393692
H        1.880410     2.482773     0.406543
N        0.000000    -1.950000     0.000000
N       -0.000000    -3.410000     0.000000
N       -0.000005    -4.870000     0.000000
C       -1.194548     1.238252     5.184357
C       -0.508070     0.526658     4.120873
C        0.477148    -0.494605     4.143834
C        0.760699    -0.788528     2.758511
N        0.000000     0.000000     1.950000
N       -0.745680     0.776980     2.776730
H       -0.862193     0.893789     6.168836
H       -2.275604     1.079679     5.117461
H       -0.997304     2.312924     5.117421
H        0.907421    -0.940619     4.998142
H        1.421523    -1.473528     2.355413
H       -1.273238     1.487673     2.429939
N        0.000000     0.000000    -1.950000
N       -0.000000     0.000000    -3.410000
N       -0.000002    -0.000005    -4.870000
55
ex_0221 frame11 OC-6-2-conf8
Ni       0.000000     0.000000     0.000000
C        5.184357    -1.193101     1.239645
C        4.120873    -0.507455     0.527251
C        4.143834     0.476570    -0.495162
C        2.785251     0.717352    -0.761361
N        1.950000     0.000000     0.000000
N        2.771637    -0.757228     0.786769
H        6.168835    -0.861185     0.894760
H        5.117449    -0.994564     2.314080
H        5.117433    -2.274347     1.082374
H        4.998141     0.906322    -0.941678
H        2.458206     1.366074    -1.448166
H        2.372907    -1.377072     1.430796
C       -5.184357     1.121854     1.304476
C       -4.120873     0.477151     0.554825
C       -4.143834    -0.448112    -0.521057
C       -2.758511    -0.714407    -0.830700
N       -1.950000     0.000000     0.000000
N       -2.790826     0.677337     0.806313
H       -6.168836     0.809722     0.941587
H       -5.117461     2.210204     1.207923
H       -5.117421     0.863535     2.366123
H       -4.998142    -0.852200    -0.990924
H       -2.355413    -1.335017    -1.552335
H       -2.481443     1.229418     1.480290
C        1.688420     5.184357     0.330833
C        0.718125     4.120873     0.140711
C       -0.674419     4.143834    -0.132147
C       -1.023900     2.785168    -0.217164
N        0.000000     1.950000     0.000000
N        1.025639     2.793344     0.213973
H        1.218686     6.168836     0.238828
H        2.483762     5.117461    -0.418339
H        2.142264     5.117421     1.324739
H       -1.282583     4.998142    -0.251311
H       -1.959690     2.439150    -0.424106
H        1.884346     2.476202     0.413208
N        0.000000    -1.950000     0.000000
N       -0.000000    -3.410000     0.000000
N       -0.000005    -4.870000     0.000000
C       -1.669632    -0.415383     5.184357
C       -0.710134    -0.176672     4.120873
C        0.666914     0.165920     4.143834
C        1.063235     0.264520     2.758511
N        0.000000     0.000000     1.950000
N       -1.059669    -0.263633     2.771637
H       -1.205140    -0.299787     6.168836
H       -2.072831    -1.430892     5.117461
H       -2.501702     0.292772     5.117421
H        1.268310     0.315540     4.998142
H        1.986874     0.494311     2.355413
H       -1.927082    -0.479436     2.372907
N        0.000000     0.000000    -1.950000
N       -0.000000     0.000000    -3.410000
N       -0.000002    -0.000005    -4.870000
55
ex_0221 frame12 OC-6-2-conf9
Ni       0.000000     0.000000     0.000000
C        5.184357    -1.720212     0.032912
C        4.120873    -0.731647     0.013998
C        4.143834     0.687118    -0.013146
C        2.758511     1.095445    -0.020959
N        1.950000     0.000000     0.000000
N        2.771637    -1.091771     0.020889
H        6.168835    -1.241641     0.023741
H        5.117449    -2.339564     0.933039
H        5.117433    -2.373560    -0.842852
H        4.998141     1.306733    -0.025001
H        2.355413     2.047066    -0.039166
H        2.372907    -1.985462     0.037989
C       -5.184357     0.766269    -1.540469
C       -4.120873     0.325912    -0.655198
C       -4.143834    -0.306077     0.615322
C       -2.758511    -0.487966     0.980983
N       -1.950000     0.000000     0.000000
N       -2.771637     0.486330    -0.977693
H       -6.168835     0.553076    -1.111909
H       -5.117449     1.844898    -1.714781
H       -5.117433     0.254576    -2.505868
H       -4.998141    -0.582085     1.170194
H       -2.355413    -0.911866     1.833170
H       -2.372907     0.884426    -1.778003
C        0.982336     5.184358     1.412525
C        0.417810     4.120873     0.600781
C       -0.392386     4.143834    -0.564213
C       -0.625562     2.758511    -0.899506
N        0.000000     1.950000     0.000000
N        0.623464     2.771637     0.896489
H        0.709050     6.168836     1.019549
H        2.074849     5.117439     1.427991
H        0.616601     5.117446     2.442118
H       -0.746225     4.998142    -1.072997
H       -1.168991     2.355413    -1.680914
H        1.133812     2.372907     1.630328
N        0.000000    -1.950000     0.000000
N       -0.000000    -3.410000     0.000000
N       -0.000005    -4.870000     0.000000
C       -1.194548     1.238252     5.184357
C       -0.508070     0.526658     4.120873
C        0.477148    -0.494605     4.143834
C        0.760699    -0.788528     2.758511
N        0.000000     0.000000     1.950000
N       -0.758147     0.785883     2.771637
H       -0.862193     0.893789     6.168836
H       -2.275604     1.079679     5.117461
H       -0.997304     2.312924     5.117421
H        0.907421    -0.940619     4.998142
H        1.421523    -1.473528     2.355413
H       -1.378744     1.429184     2.372907
N        0.000000     0.000000    -1.950000
N       -0.000000     0.000000    -3.410000
N       -0.000002    -0.000005    -4.870000
