108
ex_0334 frame0 see-saw As-O-ax-conf4
O       -0.074933     1.356680     3.899949
C       -0.098115     0.194481     3.505869
O       -0.112412    -0.823203     4.377418
O       -0.109804    -0.090455     2.191732
Ag       0.000000     0.000000     0.000000
As       0.000000     0.000000    -2.640000
C       -1.546148    -0.954042    -3.389403
C       -2.410531    -0.370748    -4.330146
C       -3.490761    -1.111027    -4.834950
C       -3.711804    -2.423045    -4.401186
C       -2.859884    -2.994202    -3.456648
C       -1.782823    -2.263617    -2.960426
C       -0.027268     1.803807    -3.339091
C       -0.131445     2.028620    -4.707086
C       -0.163093     3.330691    -5.199433
C       -0.079650     4.417116    -4.320728
C        0.036558     4.196879    -2.945025
C        0.059233     2.888552    -2.451681
C        1.485371    -0.831796    -3.602997
C        2.413840    -0.035584    -4.283686
C        3.464361    -0.624457    -4.984994
C        3.572400    -2.026507    -5.051020
C        2.672663    -2.826390    -4.334237
C        1.627874    -2.232523    -3.616354
As       2.588733     0.000000     0.517747
C        3.763898     1.564280     0.208072
C        3.638981     2.304279    -0.985596
C        4.479870     3.392366    -1.233191
C        5.433867     3.764400    -0.286127
C        5.544020     3.052593     0.909882
C        4.720519     1.952568     1.153892
C        3.534575    -1.331175    -0.539597
C        3.750960    -2.668165    -0.142362
C        4.421349    -3.554930    -1.004680
C        4.878067    -3.104206    -2.229929
C        4.661448    -1.790774    -2.572159
C        4.011832    -0.916324    -1.745728
C        2.680843    -0.295485     2.450268
C        2.687900    -1.580226     3.020860
C        2.718586    -1.725019     4.412273
C        2.767144    -0.592680     5.233133
C        2.761606     0.679455     4.664077
C        2.741485     0.820672     3.283764
As      -2.588733     0.000000     0.517747
C       -3.145264     1.523364     1.641963
C       -3.189192     2.796203     1.060441
C       -3.592862     3.904743     1.804668
C       -3.944914     3.753457     3.145200
C       -3.883602     2.495038     3.741865
C       -3.496767     1.379945     2.994930
C       -3.016563    -1.737554     1.316452
C       -2.887891    -1.991897     2.693767
C       -3.254632    -3.239953     3.205539
C       -3.742735    -4.231819     2.351585
C       -3.831256    -3.990348     0.982592
C       -3.465758    -2.755008     0.475153
C       -4.000530     0.197865    -0.850771
C       -3.824871     1.129187    -1.884343
C       -4.797821     1.270926    -2.880505
C       -5.951202     0.482156    -2.847430
C       -6.135326    -0.438071    -1.815975
C       -5.175094    -0.570897    -0.813897
H        0.096150    -0.705683     5.311280
H       -2.283066     0.641638    -4.668527
H       -4.160421    -0.666889    -5.559689
H       -4.543915    -2.997846    -4.788462
H       -3.028494    -4.002613    -3.103623
H       -1.138215    -2.711334    -2.218371
H       -0.187612     1.188374    -5.383183
H       -0.252592     3.487033    -6.263446
H       -0.102209     5.427537    -4.704952
H        0.107042     5.040223    -2.268215
H        0.151180     2.717408    -1.383685
H        2.316958     1.039837    -4.261677
H        4.178560    -0.002806    -5.504484
H        4.446391    -2.475617    -5.511867
H        2.775206    -3.901377    -4.351185
H        0.924667    -2.851979    -3.079535
H        2.895419     2.046389    -1.730496
H        4.395807     3.947566    -2.158921
H        6.087768     4.604035    -0.477860
H        6.275406     3.346284     1.648478
H        4.845435     1.418136     2.077341
H        3.428990    -3.068106     0.771089
H        4.596125    -4.587161    -0.745179
H        5.399523    -3.740759    -2.932846
H        5.005318    -1.439643    -3.501787
H        3.867387     0.093740    -2.055101
H        2.573796    -2.468418     2.443998
H        2.674502    -2.712225     4.855586
H        2.765550    -0.689820     6.308268
H        2.742644     1.563141     5.283331
H        2.677783     1.810877     2.854790
H       -2.908277     2.930455     0.027715
H       -3.635698     4.879862     1.340552
H       -4.264754     4.609637     3.722101
H       -4.143693     2.381828     4.785608
H       -3.477618     0.453146     3.509599
H       -2.482699    -1.281036     3.383154
H       -3.162034    -3.440755     4.264372
H       -4.037615    -5.192347     2.743710
H       -4.187700    -4.750051     0.304476
H       -3.525136    -2.586120    -0.589658
H       -2.924061     1.727092    -1.932241
H       -4.652265     1.982435    -3.683485
H       -6.706052     0.579192    -3.616161
H       -7.025143    -1.051499    -1.788126
H       -5.368314    -1.281534    -0.031997
108
ex_0334 frame1 tetrahedral-conf4
O        1.186298     2.581174     3.022079
C        1.868804     2.041901     2.157705
O        3.189032     2.275616     2.090658
O        1.317542     1.214949     1.268921
Ag       0.000000     0.000000     0.000000
As      -1.524205    -1.524205     1.524205
C       -2.346867    -3.014737     0.529547
C       -2.231665    -4.349211     0.919940
C       -2.864123    -5.347841     0.160089
C       -3.596252    -5.016588    -0.988138
C       -3.688757    -3.687200    -1.379830
C       -3.070902    -2.712414    -0.608514
C       -0.502862    -2.297583     2.971892
C       -1.091728    -3.211577     3.832849
C       -0.351516    -3.778066     4.865269
C        0.988318    -3.418858     5.048746
C        1.584659    -2.490035     4.192142
C        0.839726    -1.929474     3.148307
C       -3.029805    -0.648407     2.492961
C       -2.934692    -0.335140     3.839480
C       -4.009113     0.295512     4.485474
C       -5.151199     0.662840     3.787616
C       -5.241388     0.358120     2.463538
C       -4.205733    -0.333733     1.838965
As      -1.524205     1.524205    -1.524205
C       -3.365268     2.119994    -1.104251
C       -4.255820     1.185209    -0.686621
C       -5.571202     1.486593    -0.332654
C       -5.999884     2.796801    -0.398327
C       -5.111047     3.765946    -0.865673
C       -3.792397     3.430432    -1.212409
C       -1.869868     0.598032    -3.234612
C       -1.146044     0.843406    -4.408158
C       -1.448884     0.116048    -5.570090
C       -2.477580    -0.830706    -5.564872
C       -3.186239    -1.066169    -4.403105
C       -2.886217    -0.346727    -3.271598
C       -0.512343     3.192016    -1.608595
C        0.481551     3.432139    -2.569255
C        1.168125     4.653751    -2.567406
C        0.853476     5.633361    -1.619664
C       -0.127032     5.382919    -0.666174
C       -0.802549     4.175143    -0.666825
As       1.524205    -1.524205    -1.524205
C        1.828694    -3.310106    -0.747288
C        0.775226    -4.228527    -0.764293
C        0.942640    -5.515197    -0.253865
C        2.164744    -5.893305     0.293657
C        3.212740    -4.978432     0.340538
C        3.054257    -3.693141    -0.181255
C        3.181431    -0.538255    -1.840876
C        4.273147    -0.577891    -0.954934
C        5.446599     0.110959    -1.277682
C        5.530300     0.840706    -2.463952
C        4.432355     0.910233    -3.313641
C        3.270469     0.232219    -2.997486
C        1.032150    -2.133087    -3.337018
C       -0.278249    -2.558979    -3.582615
C       -0.652206    -2.986787    -4.861238
C        0.274866    -2.970073    -5.904629
C        1.579945    -2.552033    -5.662723
C        1.963045    -2.149664    -4.385565
H        3.591200     3.019636     2.543227
H       -1.662748    -4.633035     1.779640
H       -2.789180    -6.378223     0.463778
H       -4.089289    -5.780438    -1.574368
H       -4.238342    -3.404653    -2.268313
H       -3.119914    -1.709281    -0.882313
H       -2.125125    -3.480609     3.691466
H       -0.830160    -4.493593     5.514618
H        1.563626    -3.854759     5.853556
H        2.619723    -2.211987     4.343570
H        1.299247    -1.206056     2.485150
H       -2.061212    -0.596825     4.392166
H       -3.974069     0.483243     5.530521
H       -6.000648     1.135047     4.257007
H       -6.155476     0.630676     1.984576
H       -4.293503    -0.598922     0.795715
H       -3.848318     0.238014    -0.678133
H       -6.265631     0.718479    -0.029333
H       -7.018837     3.045863    -0.127811
H       -5.450122     4.770575    -0.991476
H       -3.139542     4.175128    -1.588874
H       -0.351187     1.540044    -4.466535
H       -0.884441     0.275545    -6.473942
H       -2.721650    -1.410026    -6.440268
H       -3.967189    -1.809797    -4.365843
H       -3.464203    -0.553971    -2.439601
H        0.778746     2.696560    -3.281458
H        1.943126     4.840535    -3.297994
H        1.366116     6.583711    -1.604887
H       -0.375163     6.119779     0.078102
H       -1.547591     3.988288     0.091471
H       -0.176375    -3.948105    -1.180368
H        0.128604    -6.221890    -0.290898
H        2.302765    -6.893650     0.678083
H        4.155568    -5.271760     0.773061
H        3.896540    -3.053979    -0.117553
H        4.248630    -1.087479    -0.011953
H        6.295440     0.079865    -0.612725
H        6.436799     1.364512    -2.721058
H        4.469501     1.478086    -4.226798
H        2.423451     0.309106    -3.661954
H       -1.011052    -2.543142    -2.788765
H       -1.668756    -3.310031    -5.049990
H       -0.006779    -3.281188    -6.901097
H        2.302852    -2.545953    -6.464170
H        2.984107    -1.857173    -4.244407
108
ex_0334 frame2 see-saw As-O-ax-conf3
O       -0.084291     1.212816     4.016345
C       -0.138285     0.087210     3.547823
O       -0.243895    -0.937236     4.378941
O       -0.092019    -0.132903     2.190771
Ag       0.000000     0.000000     0.000000
As       0.000000     0.000000    -2.640000
C        1.181761     1.321766    -3.524793
C        2.259742     0.919238    -4.323061
C        3.078774     1.876766    -4.926465
C        2.821387     3.234493    -4.755182
C        1.748502     3.646479    -3.968715
C        0.937961     2.695842    -3.351294
C       -1.745016     0.442782    -3.483569
C       -2.812426    -0.354660    -3.245733
C       -4.074041    -0.134523    -3.775967
C       -4.269530     0.975491    -4.574440
C       -3.187650     1.811386    -4.839818
C       -1.923615     1.534874    -4.308566
C        0.605664    -1.748958    -3.238804
C        1.955766    -2.133456    -3.104653
C        2.374817    -3.382193    -3.565871
C        1.456139    -4.252163    -4.141310
C        0.117914    -3.877330    -4.246770
C       -0.301060    -2.628796    -3.804625
As       2.588733     0.000000     0.517747
C        3.008259     0.890804     2.218501
C        4.198565     0.670594     2.880625
C        4.445104     1.304095     4.104426
C        3.494093     2.144450     4.686605
C        2.306325     2.377269     4.022250
C        2.079995     1.771530     2.776442
C        3.756134     0.947533    -0.754595
C        3.676062     2.341915    -0.856772
C        4.498337     3.035996    -1.756144
C        5.406378     2.334970    -2.550911
C        5.480014     0.951093    -2.451384
C        4.665274     0.257867    -1.560142
C        3.196637    -1.835354     0.497764
C        4.542165    -2.110005     0.619822
C        4.991711    -3.418351     0.595177
C        4.096143    -4.477354     0.468264
C        2.732421    -4.216694     0.348388
C        2.275121    -2.893587     0.359454
As      -2.588733     0.000000     0.517747
C       -3.011593     0.872904     2.214273
C       -2.191110     1.910460     2.659015
C       -2.423277     2.526983     3.893137
C       -3.505651     2.122291     4.669326
C       -4.351931     1.105965     4.210724
C       -4.105902     0.485794     2.984673
C       -3.816846     0.975922    -0.685242
C       -3.523370     2.298831    -1.068132
C       -4.369042     2.977343    -1.958267
C       -5.520845     2.363973    -2.442957
C       -5.828559     1.065884    -2.044873
C       -4.981761     0.374376    -1.168401
C       -3.298818    -1.856090     0.585047
C       -3.510554    -2.526782     1.779362
C       -4.010510    -3.841570     1.740515
C       -4.292433    -4.472076     0.520454
C       -4.072877    -3.798438    -0.649589
C       -3.600777    -2.525296    -0.589119
H       -0.190684    -0.740951     5.323850
H        2.490782    -0.112548    -4.483901
H        3.918193     1.574131    -5.532091
H        3.459061     3.960567    -5.234016
H        1.539389     4.699602    -3.835997
H        0.111271     3.040849    -2.751276
H       -2.576006    -1.106240    -2.636789
H       -4.916944    -0.769749    -3.510265
H       -5.265379     1.199329    -4.934853
H       -3.323715     2.672023    -5.453218
H       -1.122815     2.175339    -4.539271
H        2.695147    -1.487077    -2.659649
H        3.409587    -3.680105    -3.488844
H        1.784643    -5.215033    -4.501904
H       -0.598112    -4.548968    -4.679804
H       -1.332404    -2.359603    -3.886617
H        4.929227     0.023603     2.457068
H        5.377549     1.137790     4.600054
H        3.670178     2.624984     5.640183
H        1.555522     3.011895     4.484440
H        1.150145     1.970554     2.265760
H        2.970726     2.880782    -0.246483
H        4.436979     4.111621    -1.839795
H        6.054651     2.845250    -3.251588
H        6.173693     0.412017    -3.069198
H        4.747010    -0.808057    -1.536004
H        5.245003    -1.302381     0.700740
H        6.042278    -3.597329     0.676238
H        4.465765    -5.492709     0.461617
H        2.040354    -5.040643     0.249335
H        1.214848    -2.714028     0.255080
H       -1.326713     2.197452     2.071809
H       -1.746052     3.296592     4.252848
H       -3.684510     2.600836     5.618963
H       -5.202284     0.787840     4.795374
H       -4.764799    -0.292437     2.654151
H       -2.630581     2.798661    -0.721767
H       -4.135140     3.973933    -2.294446
H       -6.142519     2.864196    -3.176414
H       -6.666126     0.552680    -2.497945
H       -5.210171    -0.648455    -0.959524
H       -3.288445    -2.066986     2.717853
H       -4.185453    -4.371895     2.650091
H       -4.686459    -5.469019     0.454454
H       -4.278239    -4.230739    -1.620004
H       -3.532260    -2.129812    -1.487217
108
ex_0334 frame3 
O       -3.373294     0.878440    -0.959258
C       -3.216096     1.247827     0.196526
O       -4.260440     1.321226     1.034551
O       -2.007168     1.585520     0.650642
Ag      -0.373478     0.227593     0.096952
As       1.780426     1.112665     1.340714
C        2.837582    -0.118925     2.464094
C        2.646854    -0.102122     3.825124
C        3.547591    -0.759487     4.637715
C        4.555385    -1.529837     4.070262
C        4.662763    -1.643156     2.686232
C        3.752785    -0.979001     1.867274
C        3.210275     1.871413     0.233191
C        4.541523     1.600468     0.529569
C        5.560196     2.047486    -0.293856
C        5.263106     2.798928    -1.424882
C        3.936485     3.139638    -1.705314
C        2.904492     2.692428    -0.865510
C        1.554964     2.722293     2.445870
C        2.051537     2.732889     3.713451
C        1.670618     3.722007     4.590703
C        0.891436     4.776072     4.133648
C        0.503221     4.822906     2.794732
C        0.897061     3.812353     1.915872
As      -1.435582    -1.966094     1.111483
C       -2.898370    -2.737167     0.066611
C       -4.223276    -2.391565     0.340940
C       -5.258367    -2.940561    -0.412305
C       -4.977168    -3.891100    -1.396108
C       -3.659827    -4.267602    -1.642304
C       -2.625818    -3.641161    -0.963705
C       -2.339867    -1.555916     2.796698
C       -1.972569    -0.414746     3.506826
C       -2.785975    -0.005590     4.567959
C       -3.862933    -0.803844     4.957669
C       -4.127991    -2.002423     4.294325
C       -3.320705    -2.407687     3.241792
C       -0.330584    -3.480744     1.695498
C        0.466639    -3.328805     2.805473
C        1.424527    -4.302449     3.086946
C        1.483854    -5.462124     2.316748
C        0.585687    -5.639682     1.271548
C       -0.356792    -4.664841     1.006681
As      -0.155641     0.372208    -2.530068
C       -1.002567    -0.924563    -3.705653
C       -0.329113    -2.107101    -4.021050
C       -0.910096    -3.054208    -4.845434
C       -2.155284    -2.804308    -5.414960
C       -2.834527    -1.617552    -5.119660
C       -2.275004    -0.689296    -4.238702
C       -0.812302     2.001461    -3.365472
C       -1.208353     3.090946    -2.569991
C       -1.737152     4.236275    -3.160828
C       -1.752073     4.343246    -4.550517
C       -1.301508     3.281376    -5.339011
C       -0.892481     2.095302    -4.745621
C        1.594416     0.009765    -3.244609
C        2.065771     0.639875    -4.394537
C        3.293136     0.254996    -4.928623
C        4.081812    -0.690949    -4.269264
C        3.626041    -1.284728    -3.094731
C        2.395002    -0.915248    -2.572590
H       -5.125439     0.979877     0.789838
H        1.864277     0.496124     4.267927
H        3.470010    -0.636824     5.705217
H        5.260829    -2.044701     4.705607
H        5.417305    -2.282201     2.250709
H        3.843388    -1.083317     0.797156
H        4.810214     1.049000     1.398793
H        6.580886     1.809525    -0.041037
H        6.069186     3.130708    -2.062400
H        3.719168     3.747142    -2.572906
H        1.882592     2.965095    -1.087005
H        2.657726     1.914172     4.072110
H        1.961073     3.640064     5.627743
H        0.587879     5.556816     4.815331
H       -0.102960     5.640728     2.434021
H        0.638730     3.869985     0.870852
H       -4.460837    -1.695669     1.125815
H       -6.277006    -2.647676    -0.210821
H       -5.774646    -4.338870    -1.967391
H       -3.442356    -5.008465    -2.397438
H       -1.602353    -3.897784    -1.194060
H       -1.110221     0.184283     3.234395
H       -2.565908     0.906947     5.109565
H       -4.491783    -0.488652     5.777182
H       -4.970014    -2.617219     4.568873
H       -3.481164    -3.368636     2.774447
H        0.416700    -2.428290     3.399594
H        2.063897    -4.195128     3.948927
H        2.281481    -6.175813     2.465761
H        0.594100    -6.535413     0.670144
H       -1.053801    -4.805193     0.193735
H        0.651422    -2.309149    -3.642383
H       -0.376437    -3.970336    -5.047414
H       -2.580979    -3.526713    -6.093159
H       -3.787688    -1.411780    -5.581219
H       -2.818157     0.214515    -4.003725
H       -1.130624     3.067629    -1.501806
H       -2.118559     5.042332    -2.544532
H       -2.112851     5.245809    -5.016727
H       -1.271756     3.362843    -6.411480
H       -0.589168     1.258983    -5.357971
H        1.480883     1.363395    -4.921968
H        3.617124     0.663812    -5.872661
H        5.033827    -0.983735    -4.679449
H        4.203343    -2.059753    -2.613124
H        2.011618    -1.411038    -1.689484
108
ex_0334 frame4 
O       -3.373294     0.878440    -0.959258
C       -3.216096     1.247827     0.196526
O       -4.260440     1.321226     1.034551
O       -2.007168     1.585520     0.650642
Ag      -0.373478     0.227593     0.096952
As       1.780426     1.112665     1.340714
C        2.864545    -0.102468     2.471952
C        2.673163    -0.068841     3.825076
C        3.547872    -0.759131     4.637714
C        4.542464    -1.546183     4.070286
C        4.662703    -1.643232     2.686232
C        3.778999    -0.945840     1.867226
C        3.210275     1.871413     0.233191
C        4.541523     1.600468     0.529569
C        5.560196     2.047486    -0.293856
C        5.263106     2.798928    -1.424882
C        3.936485     3.139638    -1.705314
C        2.904492     2.692428    -0.865510
C        1.524751     2.718537     2.463013
C        2.013677     2.710635     3.724396
C        1.669948     3.721613     4.590897
C        0.909995     4.786981     4.128283
C        0.503306     4.822956     2.794708
C        0.859406     3.790220     1.926758
As      -1.435582    -1.966094     1.111483
C       -2.898370    -2.737167     0.066611
C       -4.223276    -2.391565     0.340940
C       -5.258367    -2.940561    -0.412305
C       -4.977168    -3.891100    -1.396108
C       -3.659827    -4.267602    -1.642304
C       -2.625818    -3.641161    -0.963705
C       -2.363599    -1.538794     2.788680
C       -1.996644    -0.395196     3.482307
C       -2.785964    -0.005599     4.567971
C       -3.851107    -0.813447     4.969713
C       -4.128271    -2.002196     4.294040
C       -3.344878    -2.388058     3.217174
C       -0.304964    -3.477027     1.681010
C        0.492213    -3.312155     2.781400
C        1.424547    -4.302436     3.086927
C        1.471187    -5.470371     2.328671
C        0.585965    -5.639501     1.271286
C       -0.331201    -4.648180     0.982592
As      -0.155641     0.372208    -2.530068
C       -1.002567    -0.924563    -3.705653
C       -0.329113    -2.107101    -4.021050
C       -0.910096    -3.054208    -4.845434
C       -2.155284    -2.804308    -5.414960
C       -2.834527    -1.617552    -5.119660
C       -2.275004    -0.689296    -4.238702
C       -0.812302     2.001461    -3.365472
C       -1.208353     3.090946    -2.569991
C       -1.737152     4.236275    -3.160828
C       -1.752073     4.343246    -4.550517
C       -1.301508     3.281376    -5.339011
C       -0.892481     2.095302    -4.745621
C        1.594416     0.009765    -3.244609
C        2.065771     0.639875    -4.394537
C        3.293136     0.254996    -4.928623
C        4.081812    -0.690949    -4.269264
C        3.626041    -1.284728    -3.094731
C        2.395002    -0.915248    -2.572590
H       -5.125439     0.979877     0.789838
H        1.900815     0.542345     4.267860
H        3.441202    -0.673266     5.705270
H        5.227535    -2.086818     4.705668
H        5.437652    -2.256462     2.250672
H        3.884755    -1.030987     0.797080
H        4.810214     1.049000     1.398793
H        6.580886     1.809525    -0.041037
H        6.069186     3.130708    -2.062400
H        3.719168     3.747142    -2.572906
H        1.882592     2.965095    -1.087005
H        2.604984     1.883171     4.087358
H        2.000655     3.663330     5.616300
H        0.635634     5.584886     4.801525
H       -0.088046     5.649494     2.429709
H        0.546728     3.815908     0.897450
H       -4.460837    -1.695669     1.125815
H       -6.277006    -2.647676    -0.210821
H       -5.774646    -4.338870    -1.967391
H       -3.442356    -5.008465    -2.397438
H       -1.602353    -3.897784    -1.194060
H       -1.170811     0.233484     3.172687
H       -2.577265     0.916169     5.097998
H       -4.461352    -0.513363     5.808174
H       -4.946863    -2.636018     4.592451
H       -3.558698    -3.305677     2.695484
H        0.452189    -2.405184     3.366187
H        2.108141    -4.166322     3.907279
H        2.185392    -6.238373     2.556211
H        0.598124    -6.532793     0.666356
H       -1.018190    -4.782008     0.160214
H        0.651422    -2.309149    -3.642383
H       -0.376437    -3.970336    -5.047414
H       -2.580979    -3.526713    -6.093159
H       -3.787688    -1.411780    -5.581219
H       -2.818157     0.214515    -4.003725
H       -1.130624     3.067629    -1.501806
H       -2.118559     5.042332    -2.544532
H       -2.112851     5.245809    -5.016727
H       -1.271756     3.362843    -6.411480
H       -0.589168     1.258983    -5.357971
H        1.480883     1.363395    -4.921968
H        3.617124     0.663812    -5.872661
H        5.033827    -0.983735    -4.679449
H        4.203343    -2.059753    -2.613124
H        2.011618    -1.411038    -1.689484
