48
ex_0043 frame0 TBP-5-chelate-1
Zn       0.000000     0.000000     0.000000
N        1.928082     0.000000     0.086015
C        2.832072    -0.000013    -0.904419
C        4.378421    -0.000024    -0.623129
C        4.727065    -0.000017     0.683002
C        3.853929    -0.000010     1.832076
C        4.140587    -0.000019     3.153026
C        3.140075    -0.000027     4.155245
C        1.821959    -0.000021     3.863833
C        0.667411    -0.000036     4.733847
C       -0.638338    -0.000037     4.379676
C       -0.906430    -0.000013     2.836373
Cl      -2.433006     0.000001     2.122051
N        0.086015     0.000000     1.928082
C        1.498526    -0.000004     2.479504
C        2.471542    -0.000005     1.503476
H        2.441342    -0.000027    -1.868128
H        5.021228    -0.000032    -1.435426
H        5.803198    -0.000020     0.912507
H        5.184898    -0.000038     3.430967
H        3.414279    -0.000030     5.201290
H        0.890990    -0.000053     5.808432
H       -1.457220    -0.000052     5.023763
N       -0.964041     1.669768    -0.086015
C       -1.416047     2.452640     0.904419
C       -2.189231     3.791812     0.623129
C       -2.363548     4.093750    -0.683002
C       -1.926973     3.337595    -1.832076
C       -2.070310     3.585844    -3.153026
C       -1.570061     2.719372    -4.155245
C       -0.910998     1.577852    -3.863833
C       -0.333737     0.577977    -4.733847
C        0.319137    -0.552835    -4.379676
C        0.453204    -0.784997    -2.836373
Cl       1.216504    -2.107045    -2.122051
N       -0.043008     0.074491    -1.928082
C       -0.749267     1.297760    -2.479504
C       -1.235776     2.140416    -1.503476
H       -1.220695     2.114251     1.868128
H       -2.510642     4.348495     1.435426
H       -2.901616     5.025707    -0.912507
H       -2.592482     4.490235    -3.430967
H       -1.707166     2.956837    -5.201290
H       -0.445541     0.771594    -5.808432
H        0.728565    -1.262016    -5.023763
S       -2.594827    -4.494368     0.000000
C       -1.695653    -2.936957     0.000000
N       -0.965000    -1.671429     0.000000
48
ex_0043 frame1 TBP-5-chelate-1-reembed1
Zn       0.000000     0.000000     0.000000
N        1.928082     0.000000     0.086015
C        2.832072    -0.000013    -0.904419
C        4.378421    -0.000024    -0.623129
C        4.727065    -0.000017     0.683002
C        3.853929    -0.000010     1.832076
C        4.140587    -0.000019     3.153026
C        3.140075    -0.000027     4.155245
C        1.821959    -0.000021     3.863833
C        0.667411    -0.000036     4.733847
C       -0.638338    -0.000037     4.379676
C       -0.906430    -0.000013     2.836373
Cl      -2.433006     0.000001     2.122051
N        0.086015     0.000000     1.928082
C        1.498526    -0.000004     2.479504
C        2.471542    -0.000005     1.503476
H        2.441342    -0.000027    -1.868128
H        5.021228    -0.000032    -1.435426
H        5.803198    -0.000020     0.912507
H        5.184898    -0.000038     3.430967
H        3.414279    -0.000030     5.201290
H        0.890990    -0.000053     5.808432
H       -1.457220    -0.000052     5.023763
N       -0.964041     1.669768    -0.086015
C       -1.416047     2.452640     0.904419
C       -2.189231     3.791812     0.623129
C       -2.363548     4.093750    -0.683002
C       -1.926973     3.337595    -1.832076
C       -2.070310     3.585844    -3.153026
C       -1.570061     2.719372    -4.155245
C       -0.910998     1.577852    -3.863833
C       -0.333737     0.577977    -4.733847
C        0.319137    -0.552835    -4.379676
C        0.453204    -0.784997    -2.836373
Cl       1.216504    -2.107045    -2.122051
N       -0.043008     0.074491    -1.928082
C       -0.749267     1.297760    -2.479504
C       -1.235776     2.140416    -1.503476
H       -1.220695     2.114251     1.868128
H       -2.510642     4.348495     1.435426
H       -2.901616     5.025707    -0.912507
H       -2.592482     4.490235    -3.430967
H       -1.707166     2.956837    -5.201290
H       -0.445541     0.771594    -5.808432
H        0.728565    -1.262016    -5.023763
S       -2.594826    -4.494369    -0.000000
C       -1.695653    -2.936957    -0.000000
N       -0.965000    -1.671429     0.000000
48
ex_0043 frame2 TBP-5-chelate-2
Zn       0.000000     0.000000     0.000000
N        1.928082     0.000000     0.086015
C        2.832072    -0.000013    -0.904419
C        4.378421    -0.000024    -0.623129
C        4.727065    -0.000017     0.683002
C        3.853929    -0.000010     1.832076
C        4.140587    -0.000019     3.153026
C        3.140075    -0.000027     4.155245
C        1.821959    -0.000021     3.863833
C        0.667411    -0.000036     4.733847
C       -0.638338    -0.000037     4.379676
C       -0.906430    -0.000013     2.836373
Cl      -2.433006     0.000001     2.122051
N        0.086015     0.000000     1.928082
C        1.498526    -0.000004     2.479504
C        2.471542    -0.000005     1.503476
H        2.441342    -0.000027    -1.868128
H        5.021228    -0.000032    -1.435426
H        5.803198    -0.000020     0.912507
H        5.184898    -0.000038     3.430967
H        3.414279    -0.000030     5.201290
H        0.890990    -0.000053     5.808432
H       -1.457220    -0.000052     5.023763
N       -0.964041    -1.669768    -0.086015
C       -1.416025    -2.452653     0.904419
C       -2.189190    -3.791836     0.623129
C       -2.363518    -4.093767    -0.683002
C       -1.926956    -3.337605    -1.832076
C       -2.070277    -3.585863    -3.153026
C       -1.570014    -2.719399    -4.155245
C       -0.910961    -1.577873    -3.863833
C       -0.333675    -0.578013    -4.733847
C        0.319201     0.552798    -4.379676
C        0.453226     0.784985    -2.836373
Cl       1.216502     2.107046    -2.122051
N       -0.043008    -0.074491    -1.928082
C       -0.749260    -1.297764    -2.479504
C       -1.235767    -2.140421    -1.503476
H       -1.220647    -2.114278     1.868128
H       -2.510586    -4.348527     1.435426
H       -2.901581    -5.025727    -0.912507
H       -2.592416    -4.490273    -3.430967
H       -1.707113    -2.956867    -5.201290
H       -0.445450    -0.771647    -5.808432
H        0.728655     1.261964    -5.023763
S       -2.594824     4.494370     0.000000
C       -1.695653     2.936957     0.000000
N       -0.965000     1.671429     0.000000
48
ex_0043 frame3 TBP-5-chelate-2-reembed1
Zn       0.000000     0.000000     0.000000
N        1.928082     0.000000     0.086015
C        2.832072    -0.000013    -0.904419
C        4.378421    -0.000024    -0.623129
C        4.727065    -0.000017     0.683002
C        3.853929    -0.000010     1.832076
C        4.140587    -0.000019     3.153026
C        3.140075    -0.000027     4.155245
C        1.821959    -0.000021     3.863833
C        0.667411    -0.000036     4.733847
C       -0.638338    -0.000037     4.379676
C       -0.906430    -0.000013     2.836373
Cl      -2.433006     0.000001     2.122051
N        0.086015     0.000000     1.928082
C        1.498526    -0.000004     2.479504
C        2.471542    -0.000005     1.503476
H        2.441342    -0.000027    -1.868128
H        5.021228    -0.000032    -1.435426
H        5.803198    -0.000020     0.912507
H        5.184898    -0.000038     3.430967
H        3.414279    -0.000030     5.201290
H        0.890990    -0.000053     5.808432
H       -1.457220    -0.000052     5.023763
N       -0.964041    -1.669768    -0.086015
C       -1.416025    -2.452653     0.904419
C       -2.189190    -3.791836     0.623129
C       -2.363518    -4.093767    -0.683002
C       -1.926956    -3.337605    -1.832076
C       -2.070277    -3.585863    -3.153026
C       -1.570014    -2.719399    -4.155245
C       -0.910961    -1.577873    -3.863833
C       -0.333675    -0.578013    -4.733847
C        0.319201     0.552798    -4.379676
C        0.453226     0.784985    -2.836373
Cl       1.216502     2.107046    -2.122051
N       -0.043008    -0.074491    -1.928082
C       -0.749260    -1.297764    -2.479504
C       -1.235767    -2.140421    -1.503476
H       -1.220647    -2.114278     1.868128
H       -2.510586    -4.348527     1.435426
H       -2.901581    -5.025727    -0.912507
H       -2.592416    -4.490273    -3.430967
H       -1.707113    -2.956867    -5.201290
H       -0.445450    -0.771647    -5.808432
H        0.728655     1.261964    -5.023763
S       -2.594825     4.494370    -0.000000
C       -1.695653     2.936957     0.000000
N       -0.965000     1.671429     0.000000
