63
ex_0459 frame0 OC-6-chelate-4
Co       0.000000     0.000000     0.000000
C        0.414402    -2.635625     3.177192
C       -0.004067    -1.800779     2.043300
N        0.916614    -1.084456     1.533582
O        2.139659    -0.894624     1.735815
O       -0.929248    -0.000000    -1.816067
C       -2.255351    -0.200382    -1.395878
C       -3.247459     0.241568    -2.408227
C       -4.651174    -0.017471    -1.971841
C       -5.172000    -1.268069    -2.315023
C       -6.464220    -1.592543    -1.950929
C       -7.230626    -0.673362    -1.248643
C       -6.693413     0.564999    -0.917232
C       -5.395212     0.913434    -1.273185
N       -2.707665    -0.727683    -0.223776
N       -1.689333    -1.084456     0.581558
C       -1.420622    -1.808861     1.534829
C       -2.426500    -2.669852     2.183215
H        0.279483    -2.030070     4.100612
H       -0.284397    -3.498942     3.285053
H        1.472592    -2.993672     3.066312
H        2.654274    -0.029224     1.660838
H       -3.144758     1.351878    -2.494384
H       -3.043602    -0.172839    -3.413963
H       -4.574381    -1.998750    -2.868743
H       -6.828585    -2.570516    -2.236122
H       -8.236901    -0.963535    -0.981517
H       -7.315657     1.262969    -0.368193
H       -4.959744     1.858498    -1.030252
H       -3.433159    -2.214271     2.079464
H       -2.204630    -2.684806     3.278974
H       -2.410678    -3.727393     1.833550
O       -0.000000     0.929554     1.815910
C        0.220404     2.248880     1.411481
C       -0.204479     3.212656     2.438781
C        0.486672     3.029826     3.724865
C        1.671744     3.668770     4.014857
C        2.289170     3.470475     5.234024
C        1.734075     2.633445     6.179478
C        0.551822     1.983276     5.915821
C       -0.040567     2.200884     4.691092
N        0.752570     2.700579     0.241930
N        1.089709     1.688239    -0.574876
C        1.817850     1.410644    -1.522910
C        2.693993     2.418825    -2.159056
C        1.807519    -0.004530    -2.034024
C        2.640875    -0.420424    -3.169636
N        1.089709    -0.921007    -1.527213
O        0.885335    -2.153347    -1.734771
H       -1.301309     3.142935     2.684450
H       -0.073989     4.266967     2.126032
H        2.090617     4.317985     3.266054
H        3.207889     3.958894     5.472741
H        2.184811     2.451082     7.145114
H        0.083791     1.319839     6.627916
H       -0.965840     1.693136     4.482560
H        2.336252     3.442812    -1.927750
H        2.858731     2.259186    -3.234712
H        3.695679     2.314688    -1.657780
H        3.661105    -0.733416    -2.910699
H        2.744550     0.359724    -3.952857
H        2.175435    -1.282111    -3.735652
H        0.243369    -2.446969    -2.430460
63
ex_0459 frame1 OC-6-chelate-6
Co       0.000000     0.000000     0.000000
C        3.286204     1.799558    -1.781922
C        2.060272     1.430263    -1.061849
N        1.801358     0.183980    -1.043724
O        2.334298    -0.863031    -1.482490
O       -1.018754     0.180935     1.758125
C       -1.409566     1.527372     1.659970
C       -2.575895     1.847055     2.521320
C       -2.954287     3.288900     2.444833
C       -2.315842     4.132742     3.357713
C       -2.606154     5.483075     3.357426
C       -3.528260     5.986546     2.450942
C       -4.151992     5.129956     1.551398
C       -3.875488     3.767364     1.533375
N       -0.865170     2.519843     0.901621
N        0.183980     2.073617     0.185369
C        1.190304     2.463800    -0.398380
C        1.563711     3.888370    -0.466718
H        3.005820     1.971639    -2.844645
H        3.656684     2.784543    -1.410684
H        4.082491     1.014263    -1.684461
H        1.877814    -1.681884    -1.857280
H       -3.443631     1.272100     2.112392
H       -2.438892     1.510047     3.566525
H       -1.587414     3.743877     4.075923
H       -2.089977     6.100989     4.080111
H       -3.729032     7.048110     2.481286
H       -4.868059     5.551646     0.854822
H       -4.341450     3.088725     0.852108
H        0.650950     4.518032    -0.421187
H        2.017213     4.072381    -1.472009
H        2.319072     4.195625     0.292186
O       -0.183245     1.015706    -1.759648
C       -1.525837     1.395093    -1.680432
C       -1.823033     2.536594    -2.559857
C       -1.528985     2.267692    -3.976316
C       -2.467042     1.727053    -4.827491
C       -2.151425     1.489744    -6.150735
C       -0.897749     1.787902    -6.642699
C        0.057383     2.328326    -5.814675
C       -0.286857     2.553727    -4.499785
N       -2.518355     0.851212    -0.922683
N       -2.073572    -0.182078    -0.187737
C       -2.457024    -1.192258     0.394086
C       -3.886519    -1.569416     0.449149
C       -1.425036    -2.061665     1.059816
C       -1.797621    -3.283200     1.785141
N       -0.182078    -1.803357     1.040601
O        0.876898    -2.332604     1.490021
H       -1.225437     3.457141    -2.307423
H       -2.873451     2.879632    -2.486662
H       -3.439702     1.500598    -4.427126
H       -2.868175     1.071192    -6.822053
H       -0.610399     1.617803    -7.670984
H        1.050361     2.576186    -6.159405
H        0.459008     2.976597    -3.849946
H       -4.527104    -0.687275     0.245415
H       -4.177453    -2.103156     1.365740
H       -4.049189    -2.280912    -0.406893
H       -1.871802    -4.188691     1.168323
H       -2.761186    -3.198817     2.330333
H       -1.062613    -3.518358     2.612170
H        1.161682    -2.172599     2.425764
63
ex_0459 frame2 OC-6-chelate-6-conf8
Co       0.000000     0.000000     0.000000
C        3.286204     1.799558    -1.781922
C        2.060272     1.430263    -1.061849
N        1.801358     0.183980    -1.043724
O        2.334298    -0.863031    -1.482490
O       -1.018754     0.180935     1.758125
C       -1.422707     1.522867     1.672130
C       -2.575895     1.847055     2.521320
C       -2.952403     3.286004     2.446238
C       -2.315842     4.132742     3.357713
C       -2.606154     5.483075     3.357426
C       -3.528260     5.986546     2.450942
C       -4.153876     5.132852     1.549993
C       -3.875488     3.767364     1.533375
N       -0.865170     2.519843     0.901621
N        0.183980     2.073617     0.185369
C        1.190304     2.463800    -0.398380
C        1.563711     3.888370    -0.466718
H        3.005820     1.971639    -2.844645
H        3.656684     2.784543    -1.410684
H        4.082491     1.014263    -1.684461
H        1.877814    -1.681884    -1.857280
H       -3.443631     1.272100     2.112392
H       -2.438892     1.510047     3.566525
H       -1.587414     3.743877     4.075923
H       -2.089977     6.100989     4.080111
H       -3.729032     7.048110     2.481286
H       -4.868059     5.551646     0.854822
H       -4.341450     3.088725     0.852108
H        0.650950     4.518032    -0.421187
H        2.045149     4.047943    -1.445913
H        2.319072     4.195625     0.292186
O       -0.184240     1.019973    -1.757074
C       -1.529780     1.404888    -1.700485
C       -1.856826     2.535806    -2.578139
C       -0.803634     2.838158    -3.575276
C       -0.880363     2.180361    -4.798034
C        0.080757     2.459940    -5.753690
C        1.116273     3.330020    -5.513882
C        1.176291     3.972873    -4.295963
C        0.230602     3.742713    -3.316366
N       -2.517068     0.842185    -0.932942
N       -2.073106    -0.186288    -0.188755
C       -2.462853    -1.191885     0.395793
C       -3.887743    -1.565297     0.449810
C       -1.431545    -2.058274     1.065696
C       -1.798224    -3.274001     1.796931
N       -0.186288    -1.800397     1.044973
O        0.862404    -2.326254     1.494275
H       -2.052030     3.419011    -1.937879
H       -2.830852     2.328150    -3.087730
H       -1.681167     1.472635    -5.013413
H        0.010801     1.921526    -6.690612
H        1.864617     3.527602    -6.257778
H        1.983913     4.664706    -4.123477
H        0.260892     4.233469    -2.362807
H       -4.119610    -2.093247    -0.517423
H       -4.166265    -2.152008     1.324567
H       -4.563572    -0.670637     0.465425
H       -2.744117    -3.151252     2.382799
H       -1.834874    -4.105033     1.072988
H       -1.020729    -3.503270     2.578632
H        0.961064    -2.304638     2.509142
