56
ex_0201 frame0 T-shaped C-C-ax/Sb-eq-conf5
C        0.027758     7.654088     0.067365
C       -1.147979     6.927407     0.094950
C       -1.165063     5.568206     0.087832
C        0.012614     4.912448     0.042539
Sb      -0.002394     2.782720     0.000000
C       -0.050314     2.846878    -2.178342
C        1.107825     2.872066    -2.921683
C        1.097076     3.020685    -4.322306
C       -0.111674     3.088803    -4.973104
C       -1.288352     3.012443    -4.268339
C       -1.240162     2.863903    -2.868291
C        1.910689     2.149790     0.783836
C        2.518516     0.879850     0.669567
C        3.704313     0.479878     1.119370
C        4.491014     1.380342     1.802299
C        3.964912     2.645232     1.989356
C        2.719548     3.036104     1.515999
C        4.082467    -0.842762     0.868647
C        3.234425    -1.735848     0.188080
C        1.973614    -1.293980    -0.268944
C        1.701406    -0.018006     0.000000
Au       0.000000     0.000000     0.000000
C       -1.699011    -0.014714    -0.000000
C       -1.989605    -1.271790    -0.273811
C       -3.246094    -1.723691     0.197603
C       -4.081017    -0.839572     0.905030
C       -3.686099     0.480559     1.162729
C       -4.464360     1.372085     1.877087
C       -3.921104     2.633129     2.070206
C       -2.685436     3.020956     1.580318
C       -1.893407     2.141161     0.815662
C       -2.511487     0.876748     0.704882
C        1.229115     5.546802     0.022204
C        1.196618     6.916134     0.030706
H        0.013613     8.741900     0.074631
H       -2.067277     7.495610     0.122664
H       -2.158912     5.108588     0.061847
H        2.066743     2.818350    -2.417976
H        2.056848     3.073971    -4.817563
H       -0.141042     3.203317    -6.047067
H       -2.263215     3.056200    -4.692866
H       -2.163381     2.800099    -2.288344
H        5.451191     1.063888     2.159350
H        4.585611     3.367441     2.547999
H        2.412698     4.029681     1.772370
H        5.055287    -1.180035     1.223665
H        3.517828    -2.759115     0.001262
H        1.266955    -1.883629    -0.788791
H       -1.302507    -1.872635    -0.816654
H       -3.537243    -2.744490     0.002058
H       -5.045041    -1.174378     1.272144
H       -5.406789     1.066493     2.244308
H       -4.524737     3.338096     2.644548
H       -2.363594     4.008372     1.844811
H        2.184609     5.085034    -0.051033
H        2.115647     7.477413     0.008084
56
ex_0201 frame1 T-shaped C-C-ax/Sb-eq-conf6
C        0.039079     3.077116     4.976558
C       -1.139473     3.003622     4.310108
C       -1.140211     2.857493     2.907515
C        0.028663     2.841702     2.179629
Sb       0.010295     2.785662    -0.000000
C       -0.021282     4.901428    -0.054673
C        1.145061     5.578140    -0.110110
C        1.117238     6.932577    -0.123070
C       -0.060921     7.655240    -0.092807
C       -1.224739     6.900174    -0.046726
C       -1.231924     5.546865    -0.032609
C        1.893659     2.141442    -0.820055
C        2.521293     0.879829    -0.709999
C        3.690050     0.482304    -1.174941
C        4.466903     1.373061    -1.892200
C        3.917282     2.633320    -2.083464
C        2.685326     3.019826    -1.592279
C        4.085367    -0.837172    -0.913365
C        3.248758    -1.716723    -0.201782
C        1.993611    -1.267001     0.270854
C        1.694068    -0.010753     0.000000
Au       0.000000     0.000000     0.000000
C       -1.704363    -0.024908    -0.000000
C       -1.961683    -1.293841     0.279037
C       -3.225945    -1.745302    -0.178442
C       -4.068781    -0.845287    -0.863983
C       -3.701315     0.466904    -1.118890
C       -4.481835     1.371388    -1.807686
C       -3.954162     2.636781    -1.999016
C       -2.709907     3.027882    -1.524995
C       -1.902482     2.143924    -0.787315
C       -2.507310     0.874453    -0.673709
C        1.208501     2.862820     2.887390
C        1.230044     3.008989     4.289702
H        0.052142     3.188937     6.044214
H       -2.117040     3.048251     4.770749
H       -2.083442     2.797028     2.368402
H        2.147555     5.124994    -0.086448
H        2.029387     7.510733    -0.157943
H       -0.101817     8.731669    -0.103346
H       -2.151613     7.456922    -0.021845
H       -2.194126     5.059962     0.051591
H        5.410066     1.063850    -2.260339
H        4.520116     3.352113    -2.666328
H        2.358478     4.006062    -1.856656
H        5.049403    -1.174129    -1.280717
H        3.540303    -2.737514    -0.003550
H        1.308878    -1.870122     0.815116
H       -1.258270    -1.880141     0.801134
H       -3.501991    -2.756218     0.010632
H       -5.041623    -1.186446    -1.219280
H       -5.434026     1.051893    -2.160691
H       -4.572960     3.357159    -2.561227
H       -2.401108     4.020460    -1.783796
H        2.148887     2.808550     2.350578
H        2.203207     3.059002     4.743336
56
ex_0201 frame2 T-shaped C-C-ax/Sb-eq-conf3
C       -0.017769     3.031194    -4.977730
C       -1.210412     2.974611    -4.292481
C       -1.182414     2.847180    -2.889200
C       -0.003371     2.829021    -2.178764
Sb       0.010928     2.789233     0.000000
C        0.028417     4.898389     0.007432
C        1.238703     5.550240    -0.016969
C        1.228601     6.901884    -0.024138
C        0.068366     7.649759    -0.001853
C       -1.113507     6.931615     0.027775
C       -1.142088     5.572819     0.035868
C        1.910678     2.156126     0.785455
C        2.531056     0.889471     0.679568
C        3.710789     0.498820     1.128124
C        4.501675     1.399506     1.813770
C        3.959599     2.664659     1.995098
C        2.722389     3.045236     1.524203
C        4.100337    -0.824966     0.880632
C        3.250761    -1.715564     0.199603
C        1.988329    -1.276661    -0.256455
C        1.691174    -0.012104    -0.000000
Au       0.000000     0.000000     0.000000
C       -1.702102    -0.027129    -0.000000
C       -1.979516    -1.292336    -0.273763
C       -3.244131    -1.735470     0.185808
C       -4.081924    -0.834642     0.874093
C       -3.703724     0.475456     1.128578
C       -4.481775     1.381614     1.821773
C       -3.944081     2.642149     2.011626
C       -2.699804     3.028738     1.536199
C       -1.900753     2.139956     0.792683
C       -2.513166     0.876644     0.682392
C        1.166121     2.837111    -2.905719
C        1.175221     2.964392    -4.309424
H       -0.020180     3.129370    -6.054013
H       -2.177728     3.021261    -4.756765
H       -2.122871     2.799494    -2.325485
H        2.201504     5.061191    -0.082259
H        2.155198     7.457007    -0.048325
H        0.062965     8.738751    -0.006821
H       -2.027889     7.508607     0.044252
H       -2.140563     5.121611     0.011021
H        5.458221     1.095126     2.171511
H        4.576678     3.389697     2.552825
H        2.401042     4.038868     1.774324
H        5.071031    -1.156663     1.234567
H        3.539457    -2.740115     0.012412
H        1.291912    -1.883705    -0.777515
H       -1.284788    -1.887863    -0.798677
H       -3.534805    -2.751723    -0.002277
H       -5.059245    -1.172573     1.232166
H       -5.427868     1.078581     2.177355
H       -4.558493     3.364859     2.576647
H       -2.385021     4.018814     1.795774
H        2.116432     2.782863    -2.372424
H        2.148720     3.001933    -4.778979
56
ex_0201 frame3 T-shaped C-C-ax/Sb-eq-conf4
C       -0.094505     3.080050     4.980605
C       -1.271341     3.012034     4.270339
C       -1.225100     2.873613     2.868945
C       -0.035933     2.853855     2.175355
Sb       0.010673     2.793575    -0.000000
C        0.024404     4.900323    -0.029072
C        1.232288     5.556333    -0.001493
C        1.222620     6.906088    -0.010103
C        0.057734     7.664880    -0.050922
C       -1.118894     6.932771    -0.081693
C       -1.141114     5.576745    -0.074012
C        1.908389     2.154320    -0.785446
C        2.524687     0.885700    -0.679286
C        3.702634     0.488115    -1.129493
C        4.495379     1.387172    -1.817592
C        3.960960     2.651774    -1.998699
C        2.722994     3.040603    -1.524899
C        4.086710    -0.836010    -0.881974
C        3.237385    -1.725871    -0.198552
C        1.976641    -1.279233     0.259976
C        1.691726    -0.014450    -0.000000
Au       0.000000     0.000000     0.000000
C       -1.702400    -0.029126     0.000000
C       -1.974722    -1.292628     0.281622
C       -3.234670    -1.744129    -0.186917
C       -4.066597    -0.846927    -0.889644
C       -3.688275     0.460496    -1.148296
C       -4.462660     1.363201    -1.856820
C       -3.924948     2.621333    -2.048649
C       -2.685248     3.014168    -1.563369
C       -1.890911     2.131958    -0.805480
C       -2.504253     0.868833    -0.694298
C        1.122137     2.873972     2.920760
C        1.111269     3.012364     4.322721
H       -0.122225     3.185670     6.045072
H       -2.250058     3.056202     4.700109
H       -2.150136     2.819278     2.311315
H        2.196421     5.066665     0.077607
H        2.149738     7.461834     0.015333
H        0.043875     8.734490    -0.058810
H       -2.033307     7.508359    -0.112465
H       -2.144342     5.122253    -0.051068
H        5.447949     1.073329    -2.174388
H        4.578537     3.365367    -2.554178
H        2.409344     4.033895    -1.774868
H        5.055876    -1.171194    -1.238359
H        3.520903    -2.747359    -0.012041
H        1.278647    -1.880676     0.782055
H       -1.282551    -1.881700     0.817209
H       -3.520780    -2.754760     0.005399
H       -5.041149    -1.190055    -1.255486
H       -5.404431     1.052500    -2.218314
H       -4.535061     3.338513    -2.624226
H       -2.370735     4.002364    -1.826675
H        2.076769     2.819219     2.397460
H        2.072730     3.058500     4.812426
56
ex_0201 frame4 T-shaped C-C-ax/Sb-eq-conf2
C        0.237113     3.542223     4.866831
C       -1.002341     3.617642     4.238772
C       -1.080589     3.419014     2.854361
C        0.102282     3.162099     2.227328
Sb       0.002628     2.841427     0.000000
C       -0.027024     4.905323    -0.404521
C       -1.235187     5.542757    -0.519998
C       -1.229283     6.872662    -0.747652
C       -0.072922     7.617638    -0.885546
C        1.108959     6.902733    -0.771920
C        1.167558     5.565496    -0.543413
C        1.891838     2.120562    -0.799929
C        2.525831     0.853572    -0.682720
C        3.699067     0.436485    -1.122348
C        4.487599     1.324298    -1.832675
C        3.944034     2.571987    -2.054143
C        2.697975     2.970328    -1.589032
C        4.075643    -0.873623    -0.845727
C        3.222466    -1.763803    -0.157505
C        1.958602    -1.305573     0.282371
C        1.691406    -0.043906    -0.000000
Au       0.000000     0.000000     0.000000
C       -1.694034    -0.047520    -0.000000
C       -1.964304    -1.308897     0.293890
C       -3.224660    -1.765131    -0.153883
C       -4.072227    -0.882575    -0.855188
C       -3.691705     0.428116    -1.138252
C       -4.470618     1.310555    -1.861794
C       -3.924206     2.555331    -2.091000
C       -2.678612     2.953337    -1.618504
C       -1.881541     2.109939    -0.815219
C       -2.517963     0.840403    -0.701394
C        1.329872     3.079232     2.800609
C        1.391581     3.278213     4.171584
H        0.289720     3.696883     5.936485
H       -1.918116     3.820787     4.750052
H       -2.020533     3.467628     2.321219
H       -2.201772     5.076450    -0.354891
H       -2.168297     7.400347    -0.829662
H       -0.071713     8.682869    -1.069239
H        2.033419     7.451155    -0.872871
H        2.141726     5.138469    -0.401091
H        5.444753     1.000296    -2.178066
H        4.559914     3.277110    -2.640332
H        2.380861     3.938850    -1.909623
H        5.049543    -1.217218    -1.189965
H        3.500459    -2.775773     0.042898
H        1.241607    -1.882203     0.801062
H       -1.251463    -1.877092     0.824180
H       -3.511494    -2.783184     0.051671
H       -5.043304    -1.226583    -1.204918
H       -5.422630     0.990599    -2.211587
H       -4.530751     3.259799    -2.687292
H       -2.357051     3.920138    -1.943849
H        2.229058     2.866465     2.212851
H        2.373720     3.208577     4.611655
56
ex_0201 frame5 cis
C       -1.233110    -2.608553    -4.866831
C       -2.344065    -2.053834    -4.238772
C       -2.312458    -1.842702    -2.854361
C       -1.159706    -2.211961    -2.227328
Sb      -1.085582    -1.884445     0.000000
C       -2.143699    -3.656713     0.404521
C       -3.508702    -3.604288     0.519998
C       -4.168861    -4.758790     0.747652
C       -3.540248    -5.982312     0.885546
C       -2.159249    -5.954508     0.771920
C       -1.439570    -4.825925     0.543413
C        0.910865    -2.205314     0.799929
C        2.093631    -1.425391     0.682720
C        3.318163    -1.651140     1.122348
C        3.556824    -2.814341     1.832675
C        2.462015    -3.622786     2.054143
C        1.183803    -3.344377     1.589032
C        4.299603    -0.705112     0.845727
C        4.006151     0.492476     0.157505
C        2.682562     0.727935    -0.282371
C        1.820066    -0.230864    -0.000000
Au       0.000000     0.000000     0.000000
C       -1.109536     1.465795    -0.000000
C       -0.712569     2.693204    -0.293890
C       -1.575669     3.718731     0.153883
C       -2.751055     3.378523     0.855188
C       -3.077226     2.053261     1.138252
C       -4.193106     1.678811     1.861794
C       -4.342661     0.327638     2.091000
C       -3.463215    -0.640085     1.618504
C       -2.351141    -0.308523     0.815219
C       -2.267139     1.109114     0.701394
C       -0.055298    -2.754297    -2.800609
C       -0.101403    -2.957461    -4.171584
H       -1.264926    -2.768788    -5.936485
H       -3.238644    -1.771629    -4.750052
H       -3.150662    -1.414600    -2.321219
H       -4.112391    -2.716996     0.354891
H       -5.245909    -4.745974     0.829662
H       -4.072072    -6.905287     1.069239
H       -1.633113    -6.891831     0.872871
H       -0.382436    -4.943484     0.401091
H        4.547690    -3.012597     2.178066
H        2.642567    -4.541430     2.640332
H        0.424725    -4.024375     1.909623
H        5.314770    -0.894781     1.189965
H        4.753089     1.229665    -0.042898
H        2.350179     1.585900    -0.801062
H        0.188904     2.828606    -0.824180
H       -1.314764     4.743735    -0.051671
H       -3.419812     4.162166     1.204918
H       -4.857387     2.432090     2.211587
H       -5.220263     0.021066     2.687292
H       -3.668412    -1.638083     1.943849
H        0.829730    -3.019872    -2.212851
H        0.783853    -3.388468    -4.611655
56
ex_0201 frame6 cis-conf3
C       -1.290619    -2.041479    -4.980605
C       -2.275047    -1.393043    -4.270339
C       -2.165682    -1.296411    -2.868945
C       -1.126609    -1.875060    -2.175355
Sb      -1.056074    -1.846239     0.000000
C       -2.099628    -3.676422     0.029072
C       -1.382903    -4.849297     0.001493
C       -2.067470    -6.012610     0.010103
C       -3.455771    -6.085729     0.050922
C       -4.107322    -4.862652     0.081693
C       -3.447211    -3.677936     0.074012
C        0.906575    -2.243707     0.785446
C        2.075509    -1.454522     0.679285
C        3.294156    -1.700557     1.129493
C        3.529834    -2.875803     1.817592
C        2.433777    -3.702530     1.998699
C        1.167572    -3.418850     1.524899
C        4.289918    -0.746995     0.881974
C        4.000665     0.448638     0.198552
C        2.685785     0.693698    -0.259976
C        1.805573    -0.258183    -0.000000
Au       0.000000     0.000000     0.000000
C       -1.124551     1.454908     0.000000
C       -0.727245     2.684845    -0.281622
C       -1.591486     3.706809     0.186917
C       -2.760965     3.347097     0.889644
C       -3.088535     2.026044     1.148296
C       -4.210971     1.632742     1.856820
C       -4.375902     0.274497     2.048649
C       -3.499795    -0.686550     1.563369
C       -2.370360    -0.320981     0.805480
C       -2.268383     1.079475     0.694299
C       -0.134425    -2.472640    -2.920760
C       -0.213162    -2.586969    -4.322721
H       -1.367523    -2.119001    -6.045072
H       -3.144214    -0.940951    -4.700109
H       -2.939042    -0.785961    -2.311315
H       -0.303172    -4.908521    -0.077607
H       -1.543505    -6.958053    -0.015333
H       -4.003618    -7.004489     0.058810
H       -5.187067    -4.902697     0.112465
H       -4.087772    -2.781994     0.051068
H        4.511474    -3.081403     2.174388
H        2.610768    -4.629510     2.554178
H        0.398501    -4.121370     1.774868
H        5.296612    -0.942440     1.238359
H        4.757783     1.190657     0.012041
H        2.383012     1.563904    -0.782055
H        0.166913     2.847899    -0.817209
H       -1.332796     4.724805    -0.005399
H       -3.432499     4.132291     1.255486
H       -4.870380     2.373449     2.218314
H       -5.263223    -0.040538     2.624226
H       -3.722664    -1.699359     1.826675
H        0.719200    -2.903505    -2.397460
H        0.595830    -3.108570    -4.812426
56
ex_0201 frame7 cis-conf2
C       -1.199784    -2.037609     4.977730
C       -2.203602    -1.391120     4.292481
C       -2.115527    -1.294863     2.889200
C       -1.086032    -1.869853     2.178764
Sb      -1.053725    -1.842582    -0.000000
C       -2.095286    -3.676701    -0.007432
C       -1.374431    -4.847202     0.016969
C       -2.060353    -6.011913     0.024138
C       -3.439161    -6.077875     0.001853
C       -4.102213    -4.864237    -0.027775
C       -3.446185    -3.673955    -0.035868
C        0.907594    -2.246447    -0.785455
C        2.079097    -1.461039    -0.679568
C        3.295808    -1.714005    -1.128124
C        3.529028    -2.889735    -1.813770
C        2.426044    -3.713073    -1.995098
C        1.164636    -3.422593    -1.524203
C        4.296163    -0.763506    -0.880632
C        4.007096     0.432899    -0.199603
C        2.694639     0.685537     0.256455
C        1.803918    -0.259992    -0.000000
Au       0.000000     0.000000     0.000000
C       -1.125246     1.453059    -0.000000
C       -0.731458     2.687011     0.273763
C       -1.603900     3.704098    -0.185808
C       -2.780283     3.344219    -0.874093
C       -3.109337     2.020921    -1.128578
C       -4.236686     1.626500    -1.821773
C       -4.402876     0.266189    -2.011626
C       -3.519706    -0.691771    -1.536199
C       -2.382888    -0.322907    -0.792682
C       -2.279972     1.077241    -0.682392
C       -0.077956    -2.462775     2.905719
C       -0.133848    -2.577489     4.309424
H       -1.251057    -2.121367     6.054013
H       -3.064132    -0.946863     4.756765
H       -2.905550    -0.782420     2.325485
H       -0.296164    -4.906325     0.082259
H       -1.536554    -6.956571     0.048325
H       -3.989426    -7.017631     0.006821
H       -5.182636    -4.905482    -0.044252
H       -4.084253    -2.783219    -0.011021
H        4.509362    -3.105545    -2.171511
H        2.596844    -4.649712    -2.552825
H        0.388713    -4.121530    -1.774324
H        5.302427    -0.962763    -1.234567
H        4.770252     1.174953    -0.012412
H        2.396060     1.559807     0.777515
H        0.168152     2.854345     0.798677
H       -1.346315     4.729236     0.002277
H       -3.456795     4.126322    -1.232166
H       -4.903657     2.362755    -2.177355
H       -5.296696    -0.051453    -2.576647
H       -3.743311    -1.706335    -1.795774
H        0.771664    -2.891936     2.372424
H        0.689853    -3.097706     4.778979
56
ex_0201 frame8 cis-conf5
C       -1.173466    -2.105903    -4.976558
C       -2.156660    -1.451904    -4.310108
C       -2.084096    -1.325062    -2.907515
C       -1.064551    -1.896939    -2.179629
Sb      -1.052375    -1.839236    -0.000000
C       -2.139591    -3.654567     0.054673
C       -1.469143    -4.824522     0.110110
C       -2.171724    -5.982820     0.123070
C       -3.553410    -6.018074     0.092807
C       -4.182421    -4.781570     0.046726
C       -3.510704    -3.606711     0.032609
C        0.900356    -2.225143     0.820055
C        2.075560    -1.447657     0.710000
C        3.286232    -1.689093     1.174940
C        3.512360    -2.849186     1.892200
C        2.405352    -3.664581     2.083464
C        1.145502    -3.381949     1.592279
C        4.289358    -0.745148     0.913365
C        4.005900     0.435181     0.201782
C        2.694310     0.674718    -0.270854
C        1.805749    -0.262481     0.000000
Au       0.000000     0.000000     0.000000
C       -1.128427     1.452203    -0.000000
C       -0.715464     2.679340    -0.279037
C       -1.583497     3.703398     0.178442
C       -2.763813     3.346671     0.863983
C       -3.103118     2.026916     1.118890
C       -4.231738     1.635105     1.807686
C       -4.408944     0.275600     1.999016
C       -3.527989    -0.686196     1.524995
C       -2.386365    -0.325627     0.787315
C       -2.273892     1.076060     0.673709
C       -0.054006    -2.506252    -2.887390
C       -0.108583    -2.643550    -4.289702
H       -1.218176    -2.209225    -6.044214
H       -3.025080    -1.000819    -4.770749
H       -2.870152    -0.800223    -2.368402
H       -0.374504    -4.934530     0.086448
H       -1.671904    -6.940139     0.157943
H       -4.128039    -6.929213     0.103346
H       -5.263512    -4.799109     0.021845
H       -4.099556    -2.703295    -0.051591
H        4.483545    -3.054044     2.260339
H        2.567014    -4.588668     2.666328
H        0.368571    -4.071780     1.856656
H        5.292507    -0.936450     1.280717
H        4.769588     1.172605     0.003550
H        2.403821     1.539722    -0.815116
H        0.187030     2.834397    -0.801134
H       -1.315993     4.716607    -0.010632
H       -3.434884     4.129278     1.219280
H       -4.895789     2.388618     2.160691
H       -5.305370    -0.037887     2.561227
H       -3.757960    -1.699942     1.783796
H        0.787064    -2.930367    -2.350578
H        0.708614    -3.174339    -4.743336
56
ex_0201 frame9 cis-conf4
C       -3.468209    -6.066008    -0.067365
C       -4.123395    -4.848981    -0.094950
C       -3.458889    -3.663168    -0.087832
C       -2.111107    -3.683762    -0.042539
Sb      -1.059709    -1.831594     0.000000
C       -1.133279    -1.863215     2.178342
C       -0.142744    -2.463847     2.921683
C       -0.226331    -2.587202     4.322306
C       -1.307336    -2.042093     4.973104
C       -2.288355    -1.387872     4.268339
C       -2.172378    -1.283298     2.868291
C        0.913638    -2.239502    -0.783836
C        2.074801    -1.443322    -0.669567
C        3.301778    -1.689524    -1.119369
C        3.533147    -2.862641    -1.802299
C        2.445295    -3.695293    -1.989356
C        1.171270    -3.411438    -1.515999
C        4.290348    -0.732911    -0.868647
C        4.002162     0.464472    -0.188080
C        2.689271     0.711877     0.268944
C        1.815790    -0.257266    -0.000000
Au       0.000000     0.000000     0.000000
C       -1.131133     1.439346     0.000000
C       -0.754569     2.673398     0.273811
C       -1.617028     3.692781    -0.197603
C       -2.782063     3.344279    -0.905030
C       -3.099781     2.003473    -1.162729
C       -4.219440     1.620236    -1.877087
C       -4.379145     0.256471    -2.070206
C       -3.502697    -0.697009    -1.580318
C       -2.376974    -0.330814    -0.815662
C       -2.280395     1.073264    -0.704882
C       -1.374470    -4.841193    -0.022204
C       -2.086983    -6.011002    -0.030706
H       -4.024128    -7.001149    -0.074631
H       -5.203624    -4.881684    -0.122664
H       -4.090005    -2.768362    -0.061847
H        0.714671    -2.896570     2.417976
H        0.578345    -3.113031     4.817563
H       -1.390005    -2.126601     6.047067
H       -3.154603    -0.938554     4.692866
H       -2.940138    -0.766627     2.288344
H        4.522963    -3.068422    -2.159350
H        2.621968    -4.631048    -2.547999
H        0.408921    -4.118669    -1.772370
H        5.301520    -0.926978    -1.223665
H        4.759041     1.209137    -0.001262
H        2.371893     1.575777     0.788791
H        0.140853     2.850422     0.816654
H       -1.359031     4.722459    -0.002058
H       -3.449725     4.116072    -1.272144
H       -4.882998     2.355932    -2.244308
H       -5.254311    -0.052454    -2.644548
H       -3.717424    -1.713112    -1.844811
H       -0.316085    -4.918769     0.051033
H       -1.571481    -6.956468    -0.008084
56
ex_0201 frame10 T-shaped C-C-ax/Sb-eq-conf5
C        0.001639     7.644230     0.122634
C       -1.172756     6.909219     0.113163
C       -1.211420     5.544674     0.101366
C        0.001052     4.900940     0.079704
Sb       0.013554     2.779089     0.000000
C        0.024610     2.826038    -2.184526
C        1.204743     2.836633    -2.891945
C        1.225494     2.985071    -4.293660
C        0.039068     3.062114    -4.977764
C       -1.159090     2.994698    -4.304802
C       -1.151234     2.846088    -2.902429
C        1.901735     2.154280     0.818511
C        2.519555     0.886340     0.706866
C        3.693267     0.492322     1.166800
C        4.474094     1.388919     1.873860
C        3.937047     2.645229     2.063847
C        2.698938     3.034865     1.574289
C        4.091604    -0.827312     0.912399
C        3.251798    -1.712159     0.210083
C        1.998002    -1.265737    -0.260113
C        1.693580    -0.005226     0.000000
Au       0.000000     0.000000     0.000000
C       -1.707134    -0.023863    -0.000000
C       -1.977635    -1.291372    -0.279797
C       -3.233718    -1.739809     0.186706
C       -4.068128    -0.843918     0.885186
C       -3.690418     0.466284     1.146725
C       -4.464317     1.366494     1.846821
C       -3.929669     2.631600     2.042867
C       -2.691595     3.020596     1.558674
C       -1.893233     2.140274     0.809750
C       -2.499413     0.872896     0.690453
C        1.206276     5.557355     0.106882
C        1.171560     6.912136     0.118449
H        0.000562     8.739516     0.132826
H       -2.087869     7.476339     0.115412
H       -2.172136     5.085687     0.046405
H        2.157344     2.774185    -2.347686
H        2.203782     3.029217    -4.746969
H        0.047525     3.176276    -6.049639
H       -2.128380     3.047899    -4.778078
H       -2.105100     2.791183    -2.365630
H        5.429665     1.071109     2.242487
H        4.543013     3.346955     2.633673
H        2.381020     4.022370     1.840884
H        5.055507    -1.161118     1.278329
H        3.544934    -2.730025     0.021122
H        1.308995    -1.872471    -0.798169
H       -1.275141    -1.881524    -0.816703
H       -3.524481    -2.758864    -0.003054
H       -5.042847    -1.188148     1.249728
H       -5.406744     1.058538     2.208383
H       -4.540440     3.348662     2.617355
H       -2.374215     4.009503     1.826248
H        2.174139     5.089372     0.054413
H        2.092293     7.478336     0.124801
56
ex_0201 frame11 T-shaped C-C-ax/Sb-eq-conf7
C        0.071473     7.649018     0.138517
C       -1.111623     6.927100     0.137335
C       -1.164901     5.577729     0.114362
C        0.030347     4.894526     0.077363
Sb      -0.014723     2.793899    -0.000000
C       -0.027635     2.859729    -2.179701
C       -1.208298     2.878947    -2.887569
C       -1.232449     3.035126    -4.287885
C       -0.044062     3.113974    -4.977502
C        1.151994     3.039921    -4.302615
C        1.143748     2.883711    -2.902297
C        1.879665     2.135300     0.810897
C        2.496028     0.864606     0.696637
C        3.671922     0.464899     1.160866
C        4.449858     1.353731     1.868831
C        3.914490     2.618345     2.061089
C        2.681140     3.010216     1.568795
C        4.060037    -0.856730     0.900580
C        3.229753    -1.746708     0.194794
C        1.972361    -1.297533    -0.282673
C        1.708664    -0.032072     0.000000
Au       0.000000     0.000000     0.000000
C       -1.693941    -0.011827    -0.000000
C       -1.990771    -1.272937    -0.259751
C       -3.243676    -1.720207     0.213932
C       -4.082639    -0.834855     0.913481
C       -3.700922     0.484901     1.169288
C       -4.472889     1.381851     1.867946
C       -3.940622     2.641989     2.055038
C       -2.706686     3.033849     1.566199
C       -1.906473     2.151673     0.814454
C       -2.513729     0.883647     0.704210
C        1.242839     5.541672     0.089469
C        1.230205     6.895372     0.113115
H        0.074596     8.732080     0.158175
H       -2.025811     7.503268     0.155924
H       -2.138508     5.118888     0.065142
H       -2.144504     2.813590    -2.325143
H       -2.200639     3.083210    -4.733069
H       -0.050925     3.233540    -6.044240
H        2.122714     3.093200    -4.771962
H        2.084232     2.825032    -2.377124
H        5.389568     1.048277     2.238706
H        4.523183     3.333572     2.641040
H        2.364022     4.000270     1.834589
H        5.023442    -1.193102     1.270241
H        3.516257    -2.765113     0.002296
H        1.280327    -1.880823    -0.819821
H       -1.299361    -1.877171    -0.797906
H       -3.532195    -2.744327     0.025813
H       -5.044509    -1.169571     1.281235
H       -5.427854     1.063242     2.237964
H       -4.553259     3.357972     2.629824
H       -2.391165     4.023872     1.827642
H        2.204955     5.058120     0.021558
H        2.158595     7.450180     0.112783
56
ex_0201 frame12 T-shaped C-C-ax/Sb-eq-conf4
C       -0.006952     7.660965    -0.038520
C        1.167372     6.933046    -0.026451
C        1.194064     5.562380    -0.024060
C        0.004190     4.925842    -0.026609
Sb       0.004735     2.786634     0.000000
C       -0.014614     2.847149     2.179035
C       -1.199934     2.873970     2.880435
C       -1.231801     3.008166     4.282793
C       -0.044332     3.066294     4.974613
C        1.158946     2.993976     4.308269
C        1.146571     2.860057     2.905621
C        1.901982     2.148900    -0.782971
C        2.522149     0.885211    -0.674262
C        3.706265     0.493251    -1.113657
C        4.499522     1.394072    -1.798582
C        3.957487     2.657235    -1.987566
C        2.715171     3.038285    -1.521831
C        4.098550    -0.827925    -0.859282
C        3.250260    -1.722061    -0.178907
C        1.982933    -1.275666     0.268908
C        1.702405    -0.015061    -0.000000
Au       0.000000     0.000000     0.000000
C       -1.707140    -0.021572    -0.000000
C       -2.009638    -1.280366     0.269525
C       -3.269075    -1.717085    -0.188332
C       -4.107862    -0.823558    -0.883496
C       -3.717687     0.489624    -1.146006
C       -4.486539     1.396825    -1.840760
C       -3.935471     2.650194    -2.030814
C       -2.689251     3.030030    -1.552805
C       -1.896476     2.134753    -0.800174
C       -2.525836     0.879058    -0.694037
C       -1.202584     5.559270    -0.045101
C       -1.180970     6.923907    -0.047135
H        0.006060     8.742886    -0.040950
H        2.092742     7.491162    -0.018318
H        2.175770     5.111109     0.031300
H       -2.135669     2.827437     2.337042
H       -2.208395     3.058591     4.742410
H       -0.055645     3.169639     6.050105
H        2.123974     3.033031     4.790178
H        2.078179     2.799250     2.348724
H        5.455620     1.086799    -2.149175
H        4.573775     3.377389    -2.543667
H        2.394237     4.029003    -1.778498
H        5.073279    -1.159029    -1.209119
H        3.539796    -2.743445     0.012014
H        1.285186    -1.879055     0.787825
H       -1.309173    -1.883554     0.806809
H       -3.565035    -2.735650     0.005770
H       -5.074792    -1.152248    -1.238778
H       -5.433235     1.097265    -2.196997
H       -4.541639     3.375541    -2.599886
H       -2.366271     4.009244    -1.811693
H       -2.171938     5.091724    -0.006348
H       -2.107389     7.482157    -0.055622
56
ex_0201 frame13 T-shaped C-C-ax/Sb-eq-conf6
C       -0.016975     3.162394    -4.974277
C       -1.203947     3.085843    -4.281744
C       -1.177061     2.921837    -2.883583
C        0.002280     2.889448    -2.174439
Sb       0.016911     2.803253    -0.000000
C        0.000633     4.906694     0.102652
C       -1.193452     5.556027     0.164113
C       -1.158796     6.926538     0.205732
C        0.014155     7.662042     0.199877
C        1.182824     6.920019     0.147216
C        1.206851     5.570762     0.104728
C        1.892942     2.144579     0.812342
C        2.505182     0.876776     0.705683
C        3.684756     0.464561     1.172004
C        4.459785     1.358880     1.878789
C        3.933098     2.617482     2.065056
C        2.699485     3.022932     1.573369
C        4.059077    -0.850335     0.913088
C        3.222233    -1.734513     0.205801
C        1.970099    -1.276619    -0.270349
C        1.690938    -0.015000     0.000000
Au       0.000000     0.000000     0.000000
C       -1.707849    -0.038253     0.000000
C       -1.968687    -1.293454    -0.303103
C       -3.216638    -1.755812     0.190524
C       -4.031743    -0.874319     0.928807
C       -3.648349     0.436842     1.205465
C       -4.405331     1.319277     1.942495
C       -3.859332     2.579132     2.140617
C       -2.638329     2.977514     1.631452
C       -1.851578     2.111560     0.836541
C       -2.476433     0.848660     0.724372
C        1.171681     2.913935    -2.900059
C        1.178036     3.077888    -4.298947
H       -0.010772     3.288438    -6.044528
H       -2.160929     3.142928    -4.736860
H       -2.105155     2.861214    -2.344364
H       -2.170984     5.108557     0.128447
H       -2.074606     7.491018     0.245395
H        0.003204     8.744723     0.234523
H        2.108653     7.477659     0.140868
H        2.171973     5.091032     0.018400
H        5.409550     1.031714     2.249251
H        4.545479     3.329687     2.642497
H        2.393348     4.007102     1.829648
H        5.022446    -1.195185     1.283126
H        3.509173    -2.756741     0.015160
H        1.278706    -1.869384    -0.810279
H       -1.283973    -1.868900    -0.867741
H       -3.507658    -2.769209    -0.012297
H       -4.992715    -1.222484     1.313107
H       -5.337875     1.004878     2.324653
H       -4.453179     3.288321     2.743663
H       -2.311546     3.962075     1.900628
H        2.097539     2.843595    -2.344023
H        2.139851     3.126246    -4.748140
56
ex_0201 frame14 T-shaped C-C-ax/Sb-eq-conf3
C       -0.044430     3.113710    -4.976756
C       -1.227720     3.038729    -4.279132
C       -1.198275     2.894854    -2.877764
C       -0.015431     2.876430    -2.171464
Sb       0.013800     2.807188    -0.000000
C        0.007267     4.917420     0.046818
C       -1.173285     5.575080     0.089373
C       -1.156112     6.933589     0.109258
C        0.017779     7.660128     0.092841
C        1.188340     6.928757     0.053586
C        1.213607     5.573691     0.032707
C        1.901677     2.143963     0.794097
C        2.520322     0.875844     0.693361
C        3.695202     0.474775     1.145559
C        4.486373     1.368392     1.839159
C        3.950184     2.636581     2.020057
C        2.716958     3.026889     1.540131
C        4.075201    -0.847577     0.893054
C        3.228149    -1.733160     0.200800
C        1.971113    -1.281326    -0.263312
C        1.688303    -0.019107    -0.000000
Au       0.000000     0.000000     0.000000
C       -1.702102    -0.038081    -0.000000
C       -1.960115    -1.299610    -0.296202
C       -3.216394    -1.758543     0.181626
C       -4.041762    -0.867240     0.899303
C       -3.669315     0.440214     1.170012
C       -4.436129     1.333935     1.886480
C       -3.896597     2.593233     2.079931
C       -2.665924     2.990941     1.587195
C       -1.868929     2.115382     0.814014
C       -2.486616     0.853074     0.703544
C        1.148362     2.904054    -2.909178
C        1.142256     3.048002    -4.310660
H       -0.102066     3.224294    -6.049403
H       -2.207281     3.082460    -4.732302
H       -2.145731     2.834764    -2.327936
H       -2.164337     5.112025     0.059025
H       -2.079218     7.496035     0.138869
H       -0.001433     8.748638     0.110408
H        2.114926     7.486123     0.039314
H        2.179754     5.097403    -0.041957
H        5.429609     1.059592     2.200066
H        4.565955     3.359191     2.585051
H        2.402140     4.021478     1.789691
H        5.042226    -1.189034     1.253375
H        3.512052    -2.757085     0.011721
H        1.273165    -1.878673    -0.792848
H       -1.268947    -1.875868    -0.842485
H       -3.498440    -2.766142    -0.017098
H       -5.013911    -1.217113     1.272285
H       -5.373207     1.020467     2.255053
H       -4.501442     3.307811     2.665538
H       -2.347721     3.978587     1.849649
H        2.096570     2.849788    -2.368989
H        2.087238     3.100983    -4.805436
56
ex_0201 frame15 T-shaped C-C-ax/Sb-eq-conf5_mirror
C        0.001639     7.644230    -0.122634
C       -1.172756     6.909219    -0.113163
C       -1.211420     5.544674    -0.101366
C        0.001052     4.900940    -0.079704
Sb       0.013554     2.779089     0.000000
C        0.024610     2.826038     2.184526
C        1.204743     2.836633     2.891945
C        1.225494     2.985071     4.293660
C        0.039068     3.062114     4.977764
C       -1.159090     2.994698     4.304802
C       -1.151234     2.846088     2.902429
C        1.901735     2.154280    -0.818511
C        2.519555     0.886340    -0.706866
C        3.693267     0.492322    -1.166800
C        4.474094     1.388919    -1.873860
C        3.937047     2.645229    -2.063847
C        2.698938     3.034865    -1.574289
C        4.091604    -0.827312    -0.912399
C        3.251798    -1.712159    -0.210083
C        1.998002    -1.265737     0.260113
C        1.693580    -0.005226     0.000000
Au       0.000000     0.000000     0.000000
C       -1.707134    -0.023863     0.000000
C       -1.977635    -1.291372     0.279797
C       -3.233718    -1.739809    -0.186706
C       -4.068128    -0.843918    -0.885186
C       -3.690418     0.466284    -1.146725
C       -4.464317     1.366494    -1.846821
C       -3.929669     2.631600    -2.042867
C       -2.691595     3.020596    -1.558674
C       -1.893233     2.140274    -0.809750
C       -2.499413     0.872896    -0.690453
C        1.206276     5.557355    -0.106882
C        1.171560     6.912136    -0.118449
H        0.000562     8.739516    -0.132826
H       -2.087869     7.476339    -0.115412
H       -2.172136     5.085687    -0.046405
H        2.157344     2.774185     2.347686
H        2.203782     3.029217     4.746969
H        0.047525     3.176276     6.049639
H       -2.128380     3.047899     4.778078
H       -2.105100     2.791183     2.365630
H        5.429665     1.071109    -2.242487
H        4.543013     3.346955    -2.633673
H        2.381020     4.022370    -1.840884
H        5.055507    -1.161118    -1.278329
H        3.544934    -2.730025    -0.021122
H        1.308995    -1.872471     0.798169
H       -1.275141    -1.881524     0.816703
H       -3.524481    -2.758864     0.003054
H       -5.042847    -1.188148    -1.249728
H       -5.406744     1.058538    -2.208383
H       -4.540440     3.348662    -2.617355
H       -2.374215     4.009503    -1.826248
H        2.174139     5.089372    -0.054413
H        2.092293     7.478336    -0.124801
56
ex_0201 frame16 
C        1.344981    -3.859931    -2.830627
C        0.027221    -3.674536    -2.423773
C       -0.253320    -2.738183    -1.420425
C        0.824300    -2.072288    -0.916763
Sb       0.398899    -0.562659     0.699964
C        0.316739    -2.033399     2.201416
C       -0.893353    -2.595908     2.515384
C       -0.916725    -3.560048     3.458994
C        0.209310    -3.995293     4.132627
C        1.392893    -3.370334     3.772907
C        1.480176    -2.395111     2.832069
C        2.148537     0.642537     1.163555
C        2.788956     1.672129     0.421426
C        3.883968     2.363256     0.680284
C        4.562831     2.101503     1.857224
C        3.996556     1.154266     2.683852
C        2.833175     0.457937     2.384963
C        4.292927     3.316383    -0.246547
C        3.546873     3.586982    -1.414520
C        2.362371     2.854123    -1.660873
C        2.060624     1.953435    -0.744009
Au       0.425202     0.901393    -0.627867
C       -1.288390     1.665739    -1.147189
C       -1.516638     2.513555    -2.136936
C       -2.830337     3.032499    -2.182103
C       -3.768660     2.629513    -1.209347
C       -3.429611     1.744540    -0.187241
C       -4.303271     1.360070     0.811667
C       -3.792441     0.513169     1.772072
C       -2.489908     0.026881     1.762208
C       -1.586498     0.335907     0.722850
C       -2.203325     1.260422    -0.168500
C        2.122288    -2.221723    -1.284721
C        2.384504    -3.152218    -2.278901
H        1.553976    -4.585051    -3.606106
H       -0.803278    -4.208109    -2.832297
H       -1.260991    -2.558512    -1.070544
H       -1.826816    -2.388703     2.000893
H       -1.856006    -4.028112     3.715101
H        0.186911    -4.767097     4.889119
H        2.294323    -3.684776     4.277026
H        2.463365    -2.040721     2.588436
H        5.458159     2.644499     2.066885
H        4.522224     0.957893     3.635291
H        2.475554    -0.184609     3.159958
H        5.204930     3.876268    -0.047003
H        3.848078     4.329575    -2.121171
H        1.727198     2.974244    -2.496188
H       -0.735642     2.742972    -2.807464
H       -3.087145     3.728695    -2.963332
H       -4.781505     3.025841    -1.236021
H       -5.297192     1.738305     0.801008
H       -4.477522     0.218071     2.586516
H       -2.216428    -0.556737     2.615761
H        2.925159    -1.638588    -0.821455
H        3.420235    -3.258563    -2.560076
56
ex_0201 frame17 
C        3.796825     0.736835     3.978754
C        2.541696     0.546468     4.521683
C        1.418822     0.459500     3.776608
C        1.528419     0.575494     2.410978
Sb      -0.208052     0.472514     1.231546
C       -0.438569     2.631698     1.414177
C       -1.164927     3.191787     2.440792
C       -1.237514     4.586082     2.631263
C       -0.609700     5.416449     1.738989
C        0.081622     4.892941     0.671100
C        0.135288     3.494594     0.508777
C        0.434605    -0.104284    -0.758466
C       -0.281870     0.006424    -1.967258
C        0.106095    -0.307363    -3.208735
C        1.373978    -0.825047    -3.382922
C        2.140856    -1.000560    -2.238366
C        1.705261    -0.668097    -0.968284
C       -0.793200    -0.091229    -4.240281
C       -2.091821     0.416205    -4.016499
C       -2.483814     0.731511    -2.692459
C       -1.555237     0.509734    -1.779411
Au      -1.812825     0.716594     0.187593
C       -3.416097     0.049202     1.029600
C       -4.659013     0.164163     0.584835
C       -5.654899    -0.493356     1.335252
C       -5.305966    -1.221700     2.486600
C       -3.968111    -1.319701     2.897201
C       -3.575220    -2.042742     4.005143
C       -2.211164    -2.059559     4.262279
C       -1.277376    -1.393457     3.496624
C       -1.656367    -0.617227     2.381972
C       -3.055914    -0.687379     2.178102
C        2.744444     0.757094     1.796987
C        3.846384     0.837391     2.602083
H        4.663777     0.798782     4.616772
H        2.494085     0.467786     5.599083
H        0.479189     0.360813     4.310983
H       -1.667564     2.519933     3.152959
H       -1.797633     4.919127     3.490198
H       -0.657709     6.484586     1.874504
H        0.598665     5.484483    -0.070194
H        0.674894     3.076579    -0.327023
H        1.693609    -1.071788    -4.358517
H        3.148146    -1.430004    -2.375926
H        2.375282    -0.904513    -0.165374
H       -0.484162    -0.338236    -5.262190
H       -2.788740     0.571172    -4.804799
H       -3.434001     1.118653    -2.412679
H       -4.848958     0.734298    -0.294676
H       -6.680483    -0.424841     1.008084
H       -6.066998    -1.730462     3.067187
H       -4.299996    -2.547747     4.586731
H       -1.882907    -2.647890     5.136149
H       -0.250058    -1.532716     3.775864
H        2.903651     0.899182     0.747465
H        4.826778     0.987722     2.169991
