41
ex_0181 frame0 TBP-5-chelate-1
Cu       0.000000     0.000000     0.000000
N        0.106323     0.000000     2.027214
C       -0.903162     0.000013     2.752999
C       -0.649969    -0.000002     4.277694
C        0.640501    -0.000037     4.685685
C        1.792640    -0.000048     3.819423
C        3.124054    -0.000072     4.129511
C        4.130053    -0.000074     3.129319
C        3.826537    -0.000049     1.797645
C        4.692680    -0.000042     0.646063
C        4.291900    -0.000017    -0.647034
C        2.763167     0.000014    -0.902008
N        2.027214     0.000000     0.106323
C        2.437868    -0.000027     1.476807
C        1.475631    -0.000025     2.433131
H       -1.865327     0.000037     2.340460
H       -1.479947     0.000014     4.932496
H        0.869253    -0.000048     5.768547
H        3.380787    -0.000096     5.170845
H        5.170730    -0.000089     3.391147
H        5.776086    -0.000062     0.877864
H        4.945146     0.000005    -1.474818
H        2.359634     0.006877    -1.863643
N       -0.102502     0.226609    -6.126361
C       -0.047556     0.097326    -4.738431
N       -0.274641     1.229106    -4.054973
C       -0.237568     1.141878    -2.707389
N        0.000000     0.000000    -2.030000
C        0.229499    -1.110694    -2.717369
N        0.464401    -2.227885    -2.029579
C        0.722923    -3.365767    -2.701793
N        0.743975    -3.459870    -4.049399
C        0.496315    -2.317257    -4.740737
C        0.226001    -1.108602    -4.102474
H       -0.333653     1.204844    -6.341524
H       -0.783553    -0.401366    -6.546160
H       -0.407670     2.022609    -2.148888
H        0.914469    -4.240742    -2.139949
H        0.536080    -2.413144    -5.803746
Cl      -1.170000     2.026499     0.000000
Cl      -1.170000    -2.026499     0.000000
41
ex_0181 frame1 TBP-5-chelate-1-conf1
Cu       0.000000     0.000000     0.000000
N        0.106323     0.000000     2.027214
C       -0.903162     0.000013     2.752999
C       -0.649969    -0.000002     4.277694
C        0.640501    -0.000037     4.685685
C        1.792640    -0.000048     3.819423
C        3.127111    -0.000072     4.132658
C        4.133225    -0.000074     3.132416
C        3.826537    -0.000049     1.797645
C        4.692680    -0.000042     0.646063
C        4.291900    -0.000017    -0.647034
C        2.707348    -0.079967    -0.979476
N        2.027214     0.000000     0.106323
C        2.434696    -0.000027     1.473710
C        1.472574    -0.000025     2.429984
H       -1.865327     0.000037     2.340460
H       -1.479947     0.000014     4.932496
H        0.869253    -0.000048     5.768547
H        3.380787    -0.000096     5.170845
H        5.170730    -0.000089     3.391147
H        5.776086    -0.000062     0.877864
H        4.945146     0.000005    -1.474818
H        2.489765     0.250094    -1.801380
N       -0.008205     0.248578    -6.126361
C        0.000336     0.103663    -4.740897
N       -0.296874     1.223926    -4.054973
C       -0.296511     1.148092    -2.695557
N        0.000000     0.000000    -2.030000
C        0.260604    -1.091333    -2.729133
N        0.653374    -2.185227    -1.951174
C        0.842692    -3.352903    -2.691596
N        0.861814    -3.432416    -4.049399
C        0.577903    -2.293726    -4.752309
C        0.287247    -1.094333    -4.102474
H        0.882298    -0.014003    -6.550326
H       -0.235365     1.238591    -6.356333
H       -0.528251     1.994516    -2.148888
H        1.053998    -4.208233    -2.139948
H        0.585677    -2.401589    -5.803745
Cl      -1.170000     2.026499     0.000000
Cl      -1.170000    -2.026499     0.000000
41
ex_0181 frame2 TBP-5-chelate-1-conf2
Cu       0.000000     0.000000     0.000000
N        2.028519     0.000000     0.077539
C        2.686497    -0.075024    -0.996076
C        4.254528    -0.000008    -0.670141
C        4.669024     0.000007     0.621766
C        3.792382     0.000014     1.767819
C        4.106675     0.000022     3.105516
C        3.106495     0.000023     4.111889
C        1.768144     0.000015     3.801536
C        0.619893     0.000012     4.673259
C       -0.671241     0.000006     4.265832
C       -0.929991    -0.000004     2.742661
N        0.077539     0.000000     2.028519
C        1.446320     0.000009     2.415908
C        2.408347     0.000008     1.447681
H        2.461603     0.256745    -1.827987
H        4.915076    -0.000028    -1.497597
H        5.742663     0.000017     0.849594
H        5.142722     0.000045     3.357522
H        3.361327    -0.000001     5.146394
H        0.851319     0.000029     5.754023
H       -1.499471     0.000015     4.923436
H       -1.889521    -0.000020     2.332529
N       -0.008205     0.248578    -6.126361
C        0.000325     0.103718    -4.740990
N       -0.296874     1.223926    -4.054973
C       -0.296541     1.148254    -2.695549
N        0.000000     0.000000    -2.030000
C        0.256977    -1.090382    -2.730979
N        0.646226    -2.185103    -1.957460
C        0.842657    -3.352738    -2.691593
N        0.861814    -3.432416    -4.049399
C        0.577910    -2.293751    -4.752347
C        0.287247    -1.094333    -4.102474
H        0.882298    -0.014003    -6.550326
H       -0.235365     1.238591    -6.356333
H       -0.528251     1.994516    -2.148888
H        1.053998    -4.208233    -2.139948
H        0.585677    -2.401589    -5.803745
Cl      -1.170000     2.026499     0.000000
Cl      -1.170000    -2.026499     0.000000
41
ex_0181 frame3 TBP-5-chelate-2
Cu       0.000000     0.000000     0.000000
N        0.106323     0.000000     2.027214
C       -0.903162     0.000013     2.752999
C       -0.649969    -0.000002     4.277694
C        0.640501    -0.000037     4.685685
C        1.792640    -0.000048     3.819423
C        3.124054    -0.000072     4.129511
C        4.130053    -0.000074     3.129319
C        3.826537    -0.000049     1.797645
C        4.692680    -0.000042     0.646063
C        4.291900    -0.000017    -0.647034
C        2.763167     0.000014    -0.902008
N        2.027214     0.000000     0.106323
C        2.437868    -0.000027     1.476807
C        1.475631    -0.000025     2.433131
H       -1.865327     0.000037     2.340460
H       -1.479947     0.000014     4.932496
H        0.869253    -0.000048     5.768547
H        3.380787    -0.000096     5.170845
H        5.170730    -0.000089     3.391147
H        5.776086    -0.000062     0.877864
H        4.945146     0.000005    -1.474818
H        2.353509     0.000045    -1.866099
N       -2.849872     5.428737    -0.034518
C       -2.276740     4.156991    -0.018216
N       -0.939155     4.140058     0.082723
C       -0.346890     2.925946     0.093723
N       -1.015000     1.758032     0.000000
C       -2.337482     1.786817    -0.091096
N       -2.976083     0.624232    -0.171668
C       -4.324056     0.623266    -0.254500
N       -5.081190     1.742216    -0.260812
C       -4.416981     2.923985    -0.176564
C       -3.027569     2.989161    -0.095449
H       -3.415436     5.586949    -0.864892
H       -2.088195     6.116940     0.019265
H        0.705705     2.888761     0.178613
H       -4.816926    -0.310054    -0.317192
H       -5.037865     3.792975    -0.165424
Cl       0.000000     0.000000    -2.340000
Cl      -1.170000    -2.026499     0.000000
41
ex_0181 frame4 TBP-5-chelate-2-conf2
Cu       0.000000     0.000000     0.000000
N        2.028519     0.000000     0.077539
C        2.737174    -0.000010    -0.924894
C        4.254528    -0.000008    -0.670141
C        4.669024     0.000007     0.621766
C        3.792382     0.000014     1.767819
C        4.103100     0.000022     3.102027
C        3.102978     0.000023     4.108296
C        1.768144     0.000015     3.801536
C        0.619893     0.000012     4.673259
C       -0.671241     0.000006     4.265832
C       -0.929991    -0.000004     2.742661
N        0.077539     0.000000     2.028519
C        1.449837     0.000009     2.419501
C        2.411922     0.000008     1.451170
H        2.321837    -0.000008    -1.893057
H        4.915076    -0.000028    -1.497597
H        5.742663     0.000017     0.849594
H        5.142722     0.000045     3.357522
H        3.361327    -0.000001     5.146394
H        0.851319     0.000029     5.754023
H       -1.499471     0.000015     4.923436
H       -1.889521    -0.000020     2.332529
N       -2.849872     5.428737    -0.034518
C       -2.276740     4.156991    -0.018216
N       -0.939155     4.140058     0.082723
C       -0.346890     2.925946     0.093723
N       -1.015000     1.758032     0.000000
C       -2.337482     1.786817    -0.091096
N       -2.976083     0.624232    -0.171668
C       -4.324056     0.623266    -0.254500
N       -5.081190     1.742216    -0.260812
C       -4.416981     2.923985    -0.176564
C       -3.027569     2.989161    -0.095449
H       -3.415436     5.586949    -0.864892
H       -2.088195     6.116940     0.019265
H        0.705705     2.888761     0.178613
H       -4.816926    -0.310054    -0.317192
H       -5.037865     3.792975    -0.165424
Cl       0.000000     0.000000    -2.340000
Cl      -1.170000    -2.026499     0.000000
41
ex_0181 frame5 TBP-5-chelate-3
Cu       0.000000     0.000000     0.000000
N        0.106323     0.000000     2.027214
C       -0.903162     0.000013     2.752999
C       -0.649969    -0.000002     4.277694
C        0.640501    -0.000037     4.685685
C        1.792640    -0.000048     3.819423
C        3.124054    -0.000072     4.129511
C        4.130053    -0.000074     3.129319
C        3.826537    -0.000049     1.797645
C        4.692680    -0.000042     0.646063
C        4.291900    -0.000017    -0.647034
C        2.763167     0.000014    -0.902008
N        2.027214     0.000000     0.106323
C        2.437868    -0.000027     1.476807
C        1.475631    -0.000025     2.433131
H       -1.865327     0.000037     2.340460
H       -1.479947     0.000014     4.932496
H        0.869253    -0.000048     5.768547
H        3.380787    -0.000096     5.170845
H        5.170730    -0.000089     3.391147
H        5.776086    -0.000062     0.877864
H        4.945146     0.000005    -1.474818
H        2.353509     0.000045    -1.866099
N       -3.276447    -5.182455    -0.034861
C       -2.461668    -4.050224    -0.018364
N       -3.115916    -2.883304     0.080975
C       -2.360611    -1.763324     0.092106
N       -1.015000    -1.758032     0.000000
C       -0.378579    -2.917788    -0.089522
N        0.947646    -2.889598    -0.168517
C        1.622567    -4.056551    -0.249724
N        1.032102    -5.271727    -0.255902
C       -0.323544    -5.287332    -0.173276
C       -1.074790    -4.116598    -0.093881
H       -3.129680    -5.751931    -0.864662
H       -4.253350    -4.866887     0.017527
H       -2.854806    -0.833099     0.175754
H        2.677356    -4.016771    -0.311173
H       -0.765683    -6.259520    -0.161993
Cl       0.000000     0.000000    -2.340000
Cl      -1.170000     2.026499     0.000000
41
ex_0181 frame6 TBP-5-chelate-3-conf2
Cu       0.000000     0.000000     0.000000
N        0.106323     0.000000     2.027214
C       -0.903162     0.000013     2.752999
C       -0.649969    -0.000002     4.277694
C        0.640501    -0.000037     4.685685
C        1.792640    -0.000048     3.819423
C        3.124054    -0.000072     4.129511
C        4.130053    -0.000074     3.129319
C        3.826537    -0.000049     1.797645
C        4.692680    -0.000042     0.646063
C        4.291900    -0.000017    -0.647034
C        2.763167     0.000014    -0.902008
N        2.027214     0.000000     0.106323
C        2.437868    -0.000027     1.476807
C        1.475631    -0.000025     2.433131
H       -1.865327     0.000037     2.340460
H       -1.479947     0.000014     4.932496
H        0.869253    -0.000048     5.768547
H        3.380787    -0.000096     5.170845
H        5.170730    -0.000089     3.391147
H        5.776086    -0.000062     0.877864
H        4.945146     0.000005    -1.474818
H        2.353509     0.000045    -1.866099
N       -2.875467    -5.413960     0.121969
C       -2.286129    -4.151571     0.050293
N       -1.205706    -3.986164     0.828070
C       -0.602508    -2.778366     0.779710
N       -1.015000    -1.758032     0.000000
C       -2.088863    -1.930357    -0.758424
N       -2.483764    -0.908472    -1.510562
C       -3.580900    -1.052328    -2.284832
N       -4.317635    -2.183054    -2.348217
C       -3.904697    -3.219752    -1.573886
C       -2.777292    -3.133659    -0.759738
H       -2.931910    -5.866115    -0.787308
H       -2.320230    -5.982975     0.773585
H        0.246968    -2.623909     1.388874
H       -3.882216    -0.229601    -2.876664
H       -4.513112    -4.095941    -1.627634
Cl       0.000000     0.000000    -2.340000
Cl      -1.170000     2.026499     0.000000
41
ex_0181 frame7 TBP-5-chelate-3-conf3
Cu       0.000000     0.000000     0.000000
N        2.028519     0.000000     0.077539
C        2.737174    -0.000010    -0.924894
C        4.254528    -0.000008    -0.670141
C        4.669024     0.000007     0.621766
C        3.792382     0.000014     1.767819
C        4.103100     0.000022     3.102027
C        3.102978     0.000023     4.108296
C        1.768144     0.000015     3.801536
C        0.619893     0.000012     4.673259
C       -0.671241     0.000006     4.265832
C       -0.929991    -0.000004     2.742661
N        0.077539     0.000000     2.028519
C        1.449837     0.000009     2.419501
C        2.411922     0.000008     1.451170
H        2.321837    -0.000008    -1.893057
H        4.915076    -0.000028    -1.497597
H        5.742663     0.000017     0.849594
H        5.142722     0.000045     3.357522
H        3.361327    -0.000001     5.146394
H        0.851319     0.000029     5.754023
H       -1.499471     0.000015     4.923436
H       -1.889521    -0.000020     2.332529
N       -3.276447    -5.182455    -0.034861
C       -2.461668    -4.050224    -0.018364
N       -3.115916    -2.883304     0.080975
C       -2.360611    -1.763324     0.092106
N       -1.015000    -1.758032     0.000000
C       -0.378579    -2.917788    -0.089522
N        0.947646    -2.889598    -0.168517
C        1.622567    -4.056551    -0.249724
N        1.032102    -5.271727    -0.255902
C       -0.323544    -5.287332    -0.173276
C       -1.074790    -4.116598    -0.093881
H       -3.129680    -5.751931    -0.864662
H       -4.253350    -4.866887     0.017527
H       -2.854806    -0.833099     0.175754
H        2.677356    -4.016771    -0.311173
H       -0.765683    -6.259520    -0.161993
Cl       0.000000     0.000000    -2.340000
Cl      -1.170000     2.026499     0.000000
41
ex_0181 frame8 TBP-5-chelate-3-conf4
Cu       0.000000     0.000000     0.000000
N        2.028519     0.000000     0.077539
C        2.737174    -0.000010    -0.924894
C        4.254528    -0.000008    -0.670141
C        4.669024     0.000007     0.621766
C        3.792382     0.000014     1.767819
C        4.103100     0.000022     3.102027
C        3.102978     0.000023     4.108296
C        1.768144     0.000015     3.801536
C        0.619893     0.000012     4.673259
C       -0.671241     0.000006     4.265832
C       -0.929991    -0.000004     2.742661
N        0.077539     0.000000     2.028519
C        1.449837     0.000009     2.419501
C        2.411922     0.000008     1.451170
H        2.321837    -0.000008    -1.893057
H        4.915076    -0.000028    -1.497597
H        5.742663     0.000017     0.849594
H        5.142722     0.000045     3.357522
H        3.361327    -0.000001     5.146394
H        0.851319     0.000029     5.754023
H       -1.499471     0.000015     4.923436
H       -1.889521    -0.000020     2.332529
N       -2.875467    -5.413960     0.121969
C       -2.286129    -4.151571     0.050293
N       -1.205706    -3.986164     0.828070
C       -0.602508    -2.778366     0.779710
N       -1.015000    -1.758032     0.000000
C       -2.088863    -1.930357    -0.758424
N       -2.483764    -0.908472    -1.510562
C       -3.580900    -1.052328    -2.284832
N       -4.317635    -2.183054    -2.348217
C       -3.904697    -3.219752    -1.573886
C       -2.777292    -3.133659    -0.759738
H       -2.931910    -5.866115    -0.787308
H       -2.320230    -5.982975     0.773585
H        0.246968    -2.623909     1.388874
H       -3.882216    -0.229601    -2.876664
H       -4.513112    -4.095941    -1.627634
Cl       0.000000     0.000000    -2.340000
Cl      -1.170000     2.026499     0.000000
