36
ex_0272 frame0 OC-6-chelate-2
Ni       0.000000     0.000000     0.000000
N        1.939258    -0.124302    -0.162258
C        2.766377    -0.756496    -0.807367
C        4.184033    -0.365927    -0.300547
C        3.982052     0.573115     0.700974
N        2.545331     0.784281     0.832363
C        1.784080     1.654069     1.699456
N        0.877558     2.516431     0.899125
C        0.743528     3.928321     0.780506
C       -0.297534     4.185600    -0.117633
C       -0.805657     2.781827    -0.562211
N       -0.124302     1.945976     0.015061
N        0.882733     0.857486     2.533876
C        0.773960     0.692842     3.966112
C       -0.296571    -0.166076     4.213020
C       -0.855684    -0.549122     2.808632
N       -0.162258     0.015061     1.943179
H        2.610403    -1.486095    -1.603215
H        5.087842    -0.757332    -0.668101
H        4.730993     1.057372     1.269450
H        2.421051     2.255162     2.305939
H        1.323511     4.648769     1.284678
H       -0.674443     5.103857    -0.439798
H       -1.612048     2.645480    -1.259303
H        1.390148     1.149920     4.693249
H       -0.672449    -0.503992     5.128469
H       -1.701019    -1.214771     2.679897
S       -5.209651     0.000002     0.000000
C       -3.411306     0.000000     0.000000
N       -1.950000     0.000000     0.000000
S        0.000000    -2.290000     0.000000
C        0.000000    -4.088345     0.000000
N        0.000002    -5.549651     0.000000
S        0.000000     0.000000    -2.290000
C        0.000000     0.000000    -4.088345
N        0.000001    -0.000002    -5.549651
36
ex_0272 frame1 OC-6-chelate-2-conf3
Ni       0.000000     0.000000     0.000000
N        1.939292    -0.164014    -0.121434
C        2.763811    -0.811729    -0.750977
C        4.181370    -0.305586    -0.361550
C        3.978821     0.699848     0.574766
N        2.543604     0.833315     0.784195
C        1.779568     1.704528     1.650694
N        0.874784     0.899401     2.513858
C        0.731658     0.775860     3.917620
C       -0.297662    -0.124078     4.182090
C       -0.799719    -0.573531     2.776760
N       -0.121434     0.008515     1.946197
N        0.876825     2.536328     0.853516
C        0.763449     3.969564     0.690680
C       -0.303677     4.213298    -0.170894
C       -0.858494     2.808538    -0.558533
N       -0.164014     1.943071     0.008515
H        2.605466    -1.609484    -1.477609
H        5.085186    -0.674056    -0.749945
H        4.725940     1.268903     1.057646
H        2.421333     2.311108     2.241732
H        1.313378     1.290784     4.642684
H       -0.670740    -0.444999     5.095151
H       -1.599976    -1.275511     2.638950
H        1.376469     4.697567     1.151397
H       -0.682610     5.129909    -0.510382
H       -1.700319     2.677623    -1.226641
S       -5.209651     0.000002     0.000000
C       -3.411306     0.000000     0.000000
N       -1.950000     0.000000     0.000000
S        0.000000    -2.290000     0.000000
C        0.000000    -4.088345     0.000000
N        0.000002    -5.549651     0.000000
S        0.000000     0.000000    -2.290000
C        0.000000     0.000000    -4.088345
N        0.000001    -0.000002    -5.549651
36
ex_0272 frame2 OC-6-chelate-2_mirror
Ni       0.000000     0.000000     0.000000
N        1.939258    -0.124302     0.162258
C        2.766377    -0.756496     0.807367
C        4.184033    -0.365927     0.300547
C        3.982052     0.573115    -0.700974
N        2.545331     0.784281    -0.832363
C        1.784080     1.654069    -1.699456
N        0.877558     2.516431    -0.899125
C        0.743528     3.928321    -0.780506
C       -0.297534     4.185600     0.117633
C       -0.805657     2.781827     0.562211
N       -0.124302     1.945976    -0.015061
N        0.882733     0.857486    -2.533876
C        0.773960     0.692842    -3.966112
C       -0.296571    -0.166076    -4.213020
C       -0.855684    -0.549122    -2.808632
N       -0.162258     0.015061    -1.943179
H        2.610403    -1.486095     1.603215
H        5.087842    -0.757332     0.668101
H        4.730993     1.057372    -1.269450
H        2.421051     2.255162    -2.305939
H        1.323511     4.648769    -1.284678
H       -0.674443     5.103857     0.439798
H       -1.612048     2.645480     1.259303
H        1.390148     1.149920    -4.693249
H       -0.672449    -0.503992    -5.128469
H       -1.701019    -1.214771    -2.679897
S       -5.209651     0.000002     0.000000
C       -3.411306     0.000000     0.000000
N       -1.950000     0.000000     0.000000
S        0.000000    -2.290000     0.000000
C        0.000000    -4.088345     0.000000
N        0.000002    -5.549651     0.000000
S        0.000000     0.000000     2.290000
C        0.000000     0.000000     4.088345
N        0.000001    -0.000002     5.549651
