47
ex_0384 frame0 T-4-1
Zn       0.000000     0.000000     0.000000
F        4.869544     4.813834     4.743669
C        4.090801     4.026867     3.946425
C        2.880663     3.592632     4.487278
F        2.511500     3.948270     5.753719
C        2.037467     2.785969     3.726575
F        0.841751     2.342541     4.228648
C        2.433545     2.433545     2.433545
Se       1.397188     1.397188     1.397188
C        3.635498     2.866392     1.899854
F        4.055119     2.553999     0.667632
C        4.467512     3.670785     2.669483
F        5.666245     4.119747     2.176197
F        4.792508    -4.755836    -4.878704
C        4.002407    -3.960385    -4.101301
C        3.864808    -4.331849    -2.763916
F        4.497532    -5.440060    -2.275898
C        3.072120    -3.563169    -1.914722
F        2.916315    -3.901006    -0.595619
C        2.433545    -2.433545    -2.433545
Se       1.397188    -1.397188    -1.397188
C        2.572357    -2.067759    -3.761628
F        1.980126    -0.995341    -4.301282
C        3.366181    -2.843419    -4.598180
F        3.528498    -2.513818    -5.919874
N       -1.114286     1.114286    -1.114286
C       -2.396819     0.788767    -1.386435
C       -3.235068     1.555724    -2.179893
C       -2.729238     2.729236    -2.729241
C       -1.412055     3.091397    -2.467234
C       -0.651194     2.259247    -1.661579
H       -2.744972    -0.135715    -0.934952
H       -4.257153     1.245671    -2.364960
H       -3.356313     3.356311    -3.356318
H       -0.988036     3.999516    -2.880234
H        0.382165     2.498523    -1.427852
N       -1.114286    -1.114286     1.114286
C       -1.531379    -2.333101     0.707540
C       -2.331264    -3.168524     1.470897
C       -2.729242    -2.729237     2.729236
C       -2.315863    -1.478598     3.176224
C       -1.516635    -0.714912     2.340473
H       -1.194607    -2.630827    -0.281225
H       -2.636405    -4.137824     1.093555
H       -3.356319    -3.356312     3.356312
H       -2.608790    -1.107364     4.151632
H       -1.168197     0.268020     2.644033
47
ex_0384 frame1 T-4-1-conf2
Zn       0.000000     0.000000     0.000000
F        4.869544     4.813834     4.743669
C        4.090801     4.026867     3.946425
C        2.880663     3.592632     4.487278
F        2.511500     3.948270     5.753719
C        2.037467     2.785969     3.726575
F        0.841751     2.342541     4.228648
C        2.433545     2.433545     2.433545
Se       1.397188     1.397188     1.397188
C        3.635498     2.866392     1.899854
F        4.055119     2.553999     0.667632
C        4.467512     3.670785     2.669483
F        5.666245     4.119747     2.176197
F        4.792508    -4.755836    -4.878704
C        4.002407    -3.960385    -4.101301
C        3.864808    -4.331849    -2.763916
F        4.497532    -5.440060    -2.275898
C        3.072120    -3.563169    -1.914722
F        2.916315    -3.901006    -0.595619
C        2.433545    -2.433545    -2.433545
Se       1.397188    -1.397188    -1.397188
C        2.572357    -2.067759    -3.761628
F        1.980126    -0.995341    -4.301282
C        3.366181    -2.843419    -4.598180
F        3.528498    -2.513818    -5.919874
N       -1.114286     1.114286    -1.114286
C       -2.396819     0.788767    -1.386435
C       -3.235068     1.555724    -2.179893
C       -2.729238     2.729236    -2.729241
C       -1.412055     3.091397    -2.467234
C       -0.651194     2.259247    -1.661579
H       -2.744972    -0.135715    -0.934952
H       -4.257153     1.245671    -2.364960
H       -3.356313     3.356311    -3.356318
H       -0.988036     3.999516    -2.880234
H        0.382165     2.498523    -1.427852
N       -1.114286    -1.114286     1.114286
C       -0.995352    -1.116734     2.459934
C       -1.771471    -1.898233     3.300981
C       -2.729236    -2.729240     2.729238
C       -2.875652    -2.748892     1.346142
C       -2.052661    -1.931280     0.588080
H       -0.234363    -0.451812     2.858036
H       -1.632555    -1.859877     4.375352
H       -3.356309    -3.356319     3.356314
H       -3.612630    -3.385318     0.869839
H       -2.128442    -1.910996    -0.495229
47
ex_0384 frame2 T-4-1-conf3
Zn       0.000000     0.000000     0.000000
F        4.869544     4.813834     4.743669
C        4.090801     4.026867     3.946425
C        2.880663     3.592632     4.487278
F        2.511500     3.948270     5.753719
C        2.037467     2.785969     3.726575
F        0.841751     2.342541     4.228648
C        2.433545     2.433545     2.433545
Se       1.397188     1.397188     1.397188
C        3.635498     2.866392     1.899854
F        4.055119     2.553999     0.667632
C        4.467512     3.670785     2.669483
F        5.666245     4.119747     2.176197
F        4.792508    -4.755836    -4.878704
C        4.002407    -3.960385    -4.101301
C        3.864808    -4.331849    -2.763916
F        4.497532    -5.440060    -2.275898
C        3.072120    -3.563169    -1.914722
F        2.916315    -3.901006    -0.595619
C        2.433545    -2.433545    -2.433545
Se       1.397188    -1.397188    -1.397188
C        2.572357    -2.067759    -3.761628
F        1.980126    -0.995341    -4.301282
C        3.366181    -2.843419    -4.598180
F        3.528498    -2.513818    -5.919874
N       -1.114286     1.114286    -1.114286
C       -0.600860     2.132219    -1.838941
C       -1.359489     2.958738    -2.652458
C       -2.729239     2.729240    -2.729236
C       -3.287635     1.688387    -1.994664
C       -2.447154     0.915795    -1.209072
H        0.472334     2.270965    -1.745579
H       -0.893772     3.761626    -3.212386
H       -3.356315     3.356318    -3.356309
H       -4.351419     1.483569    -2.032799
H       -2.835141     0.091843    -0.617225
N       -1.114286    -1.114286     1.114286
C       -1.531379    -2.333101     0.707540
C       -2.331264    -3.168524     1.470897
C       -2.729242    -2.729237     2.729236
C       -2.315863    -1.478598     3.176224
C       -1.516635    -0.714912     2.340473
H       -1.194607    -2.630827    -0.281225
H       -2.636405    -4.137824     1.093555
H       -3.356319    -3.356312     3.356312
H       -2.608790    -1.107364     4.151632
H       -1.168197     0.268020     2.644033
47
ex_0384 frame3 T-4-1-conf4
Zn       0.000000     0.000000     0.000000
F        4.869544     4.813834     4.743669
C        4.090801     4.026867     3.946425
C        2.880663     3.592632     4.487278
F        2.511500     3.948270     5.753719
C        2.037467     2.785969     3.726575
F        0.841751     2.342541     4.228648
C        2.433545     2.433545     2.433545
Se       1.397188     1.397188     1.397188
C        3.635498     2.866392     1.899854
F        4.055119     2.553999     0.667632
C        4.467512     3.670785     2.669483
F        5.666245     4.119747     2.176197
F        4.852674    -4.834166    -4.812398
C        4.053689    -4.048340    -4.042053
C        2.826611    -3.608206    -4.531812
F        2.421128    -3.961643    -5.781964
C        2.062081    -2.814387    -3.703369
F        0.863439    -2.398776    -4.212994
C        2.452096    -2.452096    -2.452096
Se       1.397188    -1.397188    -1.397188
C        3.672036    -2.894775    -1.976329
F        4.093711    -2.553247    -0.733020
C        4.488640    -3.701963    -2.772406
F        5.660756    -4.098230    -2.251838
N       -1.114286     1.114286    -1.114286
C       -2.396819     0.788767    -1.386435
C       -3.235068     1.555724    -2.179893
C       -2.729238     2.729236    -2.729241
C       -1.412055     3.091397    -2.467234
C       -0.651194     2.259247    -1.661579
H       -2.744972    -0.135715    -0.934952
H       -4.257153     1.245671    -2.364960
H       -3.356313     3.356311    -3.356318
H       -0.988036     3.999516    -2.880234
H        0.382165     2.498523    -1.427852
N       -1.114286    -1.114286     1.114286
C       -1.531379    -2.333101     0.707540
C       -2.331264    -3.168524     1.470897
C       -2.729242    -2.729237     2.729236
C       -2.315863    -1.478598     3.176224
C       -1.516635    -0.714912     2.340473
H       -1.194607    -2.630827    -0.281225
H       -2.636405    -4.137824     1.093555
H       -3.356319    -3.356312     3.356312
H       -2.608790    -1.107364     4.151632
H       -1.168197     0.268020     2.644033
47
ex_0384 frame4 T-4-1-conf5
Zn       0.000000     0.000000     0.000000
F        4.822483     4.820427     4.856328
C        4.044965     4.044373     4.054744
C        4.103022     4.192350     2.671258
F        4.936886     5.112897     2.114951
C        3.290655     3.376629     1.912552
F        3.370746     3.546175     0.558288
C        2.452096     2.452096     2.452096
Se       1.397188     1.397188     1.397188
C        2.402716     2.313905     3.826518
F        1.578047     1.402062     4.399869
C        3.203949     3.114070     4.644991
F        3.109031     2.930470     5.971322
F        4.792508    -4.755836    -4.878704
C        4.002407    -3.960385    -4.101301
C        3.864808    -4.331849    -2.763916
F        4.497532    -5.440060    -2.275898
C        3.072120    -3.563169    -1.914722
F        2.916315    -3.901006    -0.595619
C        2.433545    -2.433545    -2.433545
Se       1.397188    -1.397188    -1.397188
C        2.572357    -2.067759    -3.761628
F        1.980126    -0.995341    -4.301282
C        3.366181    -2.843419    -4.598180
F        3.528498    -2.513818    -5.919874
N       -1.114286     1.114286    -1.114286
C       -2.396819     0.788767    -1.386435
C       -3.235068     1.555724    -2.179893
C       -2.729238     2.729236    -2.729241
C       -1.412055     3.091397    -2.467234
C       -0.651194     2.259247    -1.661579
H       -2.744972    -0.135715    -0.934952
H       -4.257153     1.245671    -2.364960
H       -3.356313     3.356311    -3.356318
H       -0.988036     3.999516    -2.880234
H        0.382165     2.498523    -1.427852
N       -1.114286    -1.114286     1.114286
C       -1.531379    -2.333101     0.707540
C       -2.331264    -3.168524     1.470897
C       -2.729242    -2.729237     2.729236
C       -2.315863    -1.478598     3.176224
C       -1.516635    -0.714912     2.340473
H       -1.194607    -2.630827    -0.281225
H       -2.636405    -4.137824     1.093555
H       -3.356319    -3.356312     3.356312
H       -2.608790    -1.107364     4.151632
H       -1.168197     0.268020     2.644033
47
ex_0384 frame5 T-4-1-conf6
Zn       0.000000     0.000000     0.000000
F        4.869544     4.813834     4.743669
C        4.090801     4.026867     3.946425
C        2.880663     3.592632     4.487278
F        2.511500     3.948270     5.753719
C        2.037467     2.785969     3.726575
F        0.841751     2.342541     4.228648
C        2.433545     2.433545     2.433545
Se       1.397188     1.397188     1.397188
C        3.635498     2.866392     1.899854
F        4.055119     2.553999     0.667632
C        4.467512     3.670785     2.669483
F        5.666245     4.119747     2.176197
F        4.792508    -4.755836    -4.878704
C        4.002407    -3.960385    -4.101301
C        3.864808    -4.331849    -2.763916
F        4.497532    -5.440060    -2.275898
C        3.072120    -3.563169    -1.914722
F        2.916315    -3.901006    -0.595619
C        2.433545    -2.433545    -2.433545
Se       1.397188    -1.397188    -1.397188
C        2.572357    -2.067759    -3.761628
F        1.980126    -0.995341    -4.301282
C        3.366181    -2.843419    -4.598180
F        3.528498    -2.513818    -5.919874
N       -1.114286     1.114286    -1.114286
C       -0.600860     2.132219    -1.838941
C       -1.359489     2.958738    -2.652458
C       -2.729239     2.729240    -2.729236
C       -3.287635     1.688387    -1.994664
C       -2.447154     0.915795    -1.209072
H        0.472334     2.270965    -1.745579
H       -0.893772     3.761626    -3.212386
H       -3.356315     3.356318    -3.356309
H       -4.351419     1.483569    -2.032799
H       -2.835141     0.091843    -0.617225
N       -1.114286    -1.114286     1.114286
C       -0.995352    -1.116734     2.459934
C       -1.771471    -1.898233     3.300981
C       -2.729236    -2.729240     2.729238
C       -2.875652    -2.748892     1.346142
C       -2.052661    -1.931280     0.588080
H       -0.234363    -0.451812     2.858036
H       -1.632555    -1.859877     4.375352
H       -3.356309    -3.356319     3.356314
H       -3.612630    -3.385318     0.869839
H       -2.128442    -1.910996    -0.495229
47
ex_0384 frame6 T-4-1-conf7
Zn       0.000000     0.000000     0.000000
F        4.869544     4.813834     4.743669
C        4.090801     4.026867     3.946425
C        2.880663     3.592632     4.487278
F        2.511500     3.948270     5.753719
C        2.037467     2.785969     3.726575
F        0.841751     2.342541     4.228648
C        2.433545     2.433545     2.433545
Se       1.397188     1.397188     1.397188
C        3.635498     2.866392     1.899854
F        4.055119     2.553999     0.667632
C        4.467512     3.670785     2.669483
F        5.666245     4.119747     2.176197
F        4.852674    -4.834166    -4.812398
C        4.053689    -4.048340    -4.042053
C        2.826611    -3.608206    -4.531812
F        2.421128    -3.961643    -5.781964
C        2.062081    -2.814387    -3.703369
F        0.863439    -2.398776    -4.212994
C        2.452096    -2.452096    -2.452096
Se       1.397188    -1.397188    -1.397188
C        3.672036    -2.894775    -1.976329
F        4.093711    -2.553247    -0.733020
C        4.488640    -3.701963    -2.772406
F        5.660756    -4.098230    -2.251838
N       -1.114286     1.114286    -1.114286
C       -2.396819     0.788767    -1.386435
C       -3.235068     1.555724    -2.179893
C       -2.729238     2.729236    -2.729241
C       -1.412055     3.091397    -2.467234
C       -0.651194     2.259247    -1.661579
H       -2.744972    -0.135715    -0.934952
H       -4.257153     1.245671    -2.364960
H       -3.356313     3.356311    -3.356318
H       -0.988036     3.999516    -2.880234
H        0.382165     2.498523    -1.427852
N       -1.114286    -1.114286     1.114286
C       -0.995352    -1.116734     2.459934
C       -1.771471    -1.898233     3.300981
C       -2.729236    -2.729240     2.729238
C       -2.875652    -2.748892     1.346142
C       -2.052661    -1.931280     0.588080
H       -0.234363    -0.451812     2.858036
H       -1.632555    -1.859877     4.375352
H       -3.356309    -3.356319     3.356314
H       -3.612630    -3.385318     0.869839
H       -2.128442    -1.910996    -0.495229
47
ex_0384 frame7 T-4-1-conf8
Zn       0.000000     0.000000     0.000000
F        4.869544     4.813834     4.743669
C        4.090801     4.026867     3.946425
C        2.880663     3.592632     4.487278
F        2.511500     3.948270     5.753719
C        2.037467     2.785969     3.726575
F        0.841751     2.342541     4.228648
C        2.433545     2.433545     2.433545
Se       1.397188     1.397188     1.397188
C        3.635498     2.866392     1.899854
F        4.055119     2.553999     0.667632
C        4.467512     3.670785     2.669483
F        5.666245     4.119747     2.176197
F        4.852674    -4.834166    -4.812398
C        4.053689    -4.048340    -4.042053
C        2.826611    -3.608206    -4.531812
F        2.421128    -3.961643    -5.781964
C        2.062081    -2.814387    -3.703369
F        0.863439    -2.398776    -4.212994
C        2.452096    -2.452096    -2.452096
Se       1.397188    -1.397188    -1.397188
C        3.672036    -2.894775    -1.976329
F        4.093711    -2.553247    -0.733020
C        4.488640    -3.701963    -2.772406
F        5.660756    -4.098230    -2.251838
N       -1.114286     1.114286    -1.114286
C       -0.600860     2.132219    -1.838941
C       -1.359489     2.958738    -2.652458
C       -2.729239     2.729240    -2.729236
C       -3.287635     1.688387    -1.994664
C       -2.447154     0.915795    -1.209072
H        0.472334     2.270965    -1.745579
H       -0.893772     3.761626    -3.212386
H       -3.356315     3.356318    -3.356309
H       -4.351419     1.483569    -2.032799
H       -2.835141     0.091843    -0.617225
N       -1.114286    -1.114286     1.114286
C       -1.531379    -2.333101     0.707540
C       -2.331264    -3.168524     1.470897
C       -2.729242    -2.729237     2.729236
C       -2.315863    -1.478598     3.176224
C       -1.516635    -0.714912     2.340473
H       -1.194607    -2.630827    -0.281225
H       -2.636405    -4.137824     1.093555
H       -3.356319    -3.356312     3.356312
H       -2.608790    -1.107364     4.151632
H       -1.168197     0.268020     2.644033
47
ex_0384 frame8 T-4-1-conf9
Zn       0.000000     0.000000     0.000000
F        4.822483     4.820427     4.856328
C        4.044965     4.044373     4.054744
C        4.103022     4.192350     2.671258
F        4.936886     5.112897     2.114951
C        3.290655     3.376629     1.912552
F        3.370746     3.546175     0.558288
C        2.452096     2.452096     2.452096
Se       1.397188     1.397188     1.397188
C        2.402716     2.313905     3.826518
F        1.578047     1.402062     4.399869
C        3.203949     3.114070     4.644991
F        3.109031     2.930470     5.971322
F        4.792508    -4.755836    -4.878704
C        4.002407    -3.960385    -4.101301
C        3.864808    -4.331849    -2.763916
F        4.497532    -5.440060    -2.275898
C        3.072120    -3.563169    -1.914722
F        2.916315    -3.901006    -0.595619
C        2.433545    -2.433545    -2.433545
Se       1.397188    -1.397188    -1.397188
C        2.572357    -2.067759    -3.761628
F        1.980126    -0.995341    -4.301282
C        3.366181    -2.843419    -4.598180
F        3.528498    -2.513818    -5.919874
N       -1.114286     1.114286    -1.114286
C       -2.396819     0.788767    -1.386435
C       -3.235068     1.555724    -2.179893
C       -2.729238     2.729236    -2.729241
C       -1.412055     3.091397    -2.467234
C       -0.651194     2.259247    -1.661579
H       -2.744972    -0.135715    -0.934952
H       -4.257153     1.245671    -2.364960
H       -3.356313     3.356311    -3.356318
H       -0.988036     3.999516    -2.880234
H        0.382165     2.498523    -1.427852
N       -1.114286    -1.114286     1.114286
C       -0.995352    -1.116734     2.459934
C       -1.771471    -1.898233     3.300981
C       -2.729236    -2.729240     2.729238
C       -2.875652    -2.748892     1.346142
C       -2.052661    -1.931280     0.588080
H       -0.234363    -0.451812     2.858036
H       -1.632555    -1.859877     4.375352
H       -3.356309    -3.356319     3.356314
H       -3.612630    -3.385318     0.869839
H       -2.128442    -1.910996    -0.495229
47
ex_0384 frame9 T-4-1-conf10
Zn       0.000000     0.000000     0.000000
F        4.822483     4.820427     4.856328
C        4.044965     4.044373     4.054744
C        4.103022     4.192350     2.671258
F        4.936886     5.112897     2.114951
C        3.290655     3.376629     1.912552
F        3.370746     3.546175     0.558288
C        2.452096     2.452096     2.452096
Se       1.397188     1.397188     1.397188
C        2.402716     2.313905     3.826518
F        1.578047     1.402062     4.399869
C        3.203949     3.114070     4.644991
F        3.109031     2.930470     5.971322
F        4.792508    -4.755836    -4.878704
C        4.002407    -3.960385    -4.101301
C        3.864808    -4.331849    -2.763916
F        4.497532    -5.440060    -2.275898
C        3.072120    -3.563169    -1.914722
F        2.916315    -3.901006    -0.595619
C        2.433545    -2.433545    -2.433545
Se       1.397188    -1.397188    -1.397188
C        2.572357    -2.067759    -3.761628
F        1.980126    -0.995341    -4.301282
C        3.366181    -2.843419    -4.598180
F        3.528498    -2.513818    -5.919874
N       -1.114286     1.114286    -1.114286
C       -0.600860     2.132219    -1.838941
C       -1.359489     2.958738    -2.652458
C       -2.729239     2.729240    -2.729236
C       -3.287635     1.688387    -1.994664
C       -2.447154     0.915795    -1.209072
H        0.472334     2.270965    -1.745579
H       -0.893772     3.761626    -3.212386
H       -3.356315     3.356318    -3.356309
H       -4.351419     1.483569    -2.032799
H       -2.835141     0.091843    -0.617225
N       -1.114286    -1.114286     1.114286
C       -1.531379    -2.333101     0.707540
C       -2.331264    -3.168524     1.470897
C       -2.729242    -2.729237     2.729236
C       -2.315863    -1.478598     3.176224
C       -1.516635    -0.714912     2.340473
H       -1.194607    -2.630827    -0.281225
H       -2.636405    -4.137824     1.093555
H       -3.356319    -3.356312     3.356312
H       -2.608790    -1.107364     4.151632
H       -1.168197     0.268020     2.644033
47
ex_0384 frame10 SP-4-1
Zn       0.000000     0.000000     0.000000
F        8.329460    -0.085714    -0.024702
C        6.965208    -0.098319    -0.028304
C        6.328089     1.094176     0.314557
F        7.051461     2.208092     0.634803
C        4.936351     1.150353     0.330728
F        4.279863     2.306608     0.663205
C        4.215024    -0.000000     0.000000
Se       2.420000     0.000000     0.000000
C        4.850749    -1.182043    -0.339854
F        4.201233    -2.307022    -0.663265
C        6.239875    -1.224525    -0.352088
F        6.906373    -2.376858    -0.683403
F        0.088522     8.329460    -0.010993
C        0.101536     6.965208    -0.012580
C       -1.129906     6.328089     0.139569
F       -2.280199     7.051461     0.281670
C       -1.187920     4.936351     0.146755
F       -2.381944     4.279863     0.294315
C       -0.000000     4.215024     0.000000
Se       0.000000     2.420000     0.000000
C        1.220648     4.850749    -0.150814
F        2.382363     4.201233    -0.294311
C        1.264521     6.239875    -0.156253
F        2.454489     6.906373    -0.303279
N       -1.930000     0.000000     0.000000
C       -2.639657     0.244788     1.123114
C       -4.024527     0.255637     1.172906
C       -4.727180    -0.000004     0.000001
C       -4.024527    -0.255641    -1.172904
C       -2.639657    -0.244788    -1.123114
H       -2.046250     0.438520     2.011961
H       -4.542467     0.458423     2.103313
H       -5.813307    -0.000005     0.000002
H       -4.542468    -0.458428    -2.103310
H       -2.046250    -0.438517    -2.011962
N        0.000000    -1.930000     0.000000
C        0.733668    -2.639657     0.884894
C        0.766196    -4.024527     0.924122
C        0.000003    -4.727180    -0.000002
C       -0.766193    -4.024527    -0.924124
C       -0.733668    -2.639657    -0.884894
H        1.314300    -2.046250     1.585213
H        1.373980    -4.542467     1.657182
H        0.000005    -5.813307    -0.000003
H       -1.373975    -4.542468    -1.657185
H       -1.314303    -2.046250    -1.585211
47
ex_0384 frame11 SP-4-2
Zn       0.000000     0.000000     0.000000
F        8.329460    -0.085714    -0.024702
C        6.965208    -0.098319    -0.028304
C        6.328089     1.094176     0.314557
F        7.051461     2.208092     0.634803
C        4.936351     1.150353     0.330728
F        4.279863     2.306608     0.663205
C        4.215024    -0.000000     0.000000
Se       2.420000     0.000000     0.000000
C        4.850749    -1.182043    -0.339854
F        4.201233    -2.307022    -0.663265
C        6.239875    -1.224525    -0.352088
F        6.906373    -2.376858    -0.683403
N        0.000000     1.930000     0.000000
C       -0.990278     2.639657     0.583656
C       -1.034183     4.024527     0.609528
C       -0.000002     4.727180    -0.000003
C        1.034180     4.024527    -0.609532
C        0.990278     2.639657    -0.583656
H       -1.773997     2.046250     1.045572
H       -1.854547     4.542467     1.093038
H       -0.000003     5.813307    -0.000004
H        1.854543     4.542468    -1.093042
H        1.773999     2.046250    -1.045569
F       -8.329460     0.088752    -0.008952
C       -6.965208     0.101798    -0.010239
C       -6.328089    -1.132820     0.113524
F       -7.051461    -2.286078     0.229109
C       -4.936351    -1.190984     0.119372
F       -4.279863    -2.388088     0.239409
C       -4.215024     0.000000     0.000000
Se      -2.420000     0.000000     0.000000
C       -4.850749     1.223796    -0.122676
F       -4.201233     2.388506    -0.239394
C       -6.239875     1.267783    -0.127105
F       -6.906373     2.460819    -0.246700
N        0.000000    -1.930000     0.000000
C        0.937696    -2.639657     0.664855
C        0.979269    -4.024527     0.694327
C        0.000003    -4.727180    -0.000003
C       -0.979266    -4.024527    -0.694330
C       -0.937696    -2.639657    -0.664855
H        1.679800    -2.046250     1.191032
H        1.756073    -4.542467     1.245103
H        0.000004    -5.813307    -0.000004
H       -1.756069    -4.542468    -1.245107
H       -1.679802    -2.046250    -1.191030
