79
ex_0457 frame0 Isomer 2
C        3.515139    -5.046660     4.121782
C        2.611161    -4.344430     3.149991
C        3.149417    -3.492398     2.180936
C        2.320738    -2.852232     1.243002
C        2.944331    -1.934962     0.229207
C        0.925437    -3.091330     1.263293
N        0.084766    -2.501806     0.268453
C       -0.658117    -3.326012    -0.650200
C       -0.000416    -4.611988    -1.112695
C       -2.038518    -3.015118    -1.191070
C       -2.803420    -1.889107    -1.150813
C       -4.076689    -1.903516    -1.971291
N       -2.464887    -0.728591    -0.389171
C       -3.383399     0.308235    -0.069540
C       -4.484023     0.034308     0.779542
C       -4.704884    -1.318017     1.410774
C       -5.413802     1.044482     1.055790
C       -5.246841     2.332246     0.538808
C       -6.254460     3.395509     0.857610
C       -4.141202     2.614139    -0.270295
C       -3.211569     1.615211    -0.588158
C       -2.062559     1.994713    -1.478679
Cu      -0.745805    -0.720320     0.631352
N        0.451001     0.838445     0.262671
C        1.257088     1.282085    -0.639131
C        1.799170     2.648967    -0.327423
C        1.713011     3.136189     1.000256
C        2.144055     4.418975     1.327363
C        2.704014     5.235028     0.349129
C        2.830236     4.767483    -0.959458
C        2.395720     3.481688    -1.297161
C        1.590711     0.476613    -1.874227
C        2.800035     0.663808    -2.583762
C        3.068669    -0.045741    -3.758244
C        2.144453    -0.965648    -4.247170
C        0.962757    -1.198875    -3.544522
C        0.694556    -0.497747    -2.361747
C        0.377549    -3.923283     2.277312
C       -1.100093    -4.190232     2.414149
C        1.228685    -4.536113     3.205964
H        4.091329    -5.829573     3.585129
H        4.221598    -4.325064     4.582902
H        2.935793    -5.533122     4.935808
H        4.223327    -3.346367     2.146470
H        2.607195    -0.895592     0.401738
H        4.054009    -1.940525     0.296059
H        2.658400    -2.262555    -0.791279
H        0.800847    -4.988357    -0.442694
H       -0.706032    -5.454703    -1.272500
H        0.448395    -4.310808    -2.079861
H       -2.429567    -3.815554    -1.815611
H       -4.633262    -0.947509    -1.917058
H       -3.838312    -2.092123    -3.038976
H       -4.744743    -2.710327    -1.599971
H       -3.884524    -2.033929     1.211289
H       -4.750401    -1.191539     2.513580
H       -5.656765    -1.762455     1.055948
H       -6.260740     0.832790     1.698315
H       -5.998637     4.360029     0.369695
H       -7.254703     3.075462     0.496766
H       -6.295626     3.553883     1.955422
H       -4.006465     3.613598    -0.668196
H       -1.441178     2.772313    -0.985502
H       -1.422448     1.135259    -1.718247
H       -2.450129     2.396401    -2.438081
H        1.274796     2.539929     1.791808
H        2.032063     4.779593     2.341875
H        3.028378     6.234288     0.604490
H        3.250818     5.410279    -1.720657
H        2.473125     3.191867    -2.331929
H        3.560614     1.344572    -2.234375
H        3.997036     0.120739    -4.290971
H        2.350144    -1.504109    -5.164383
H        0.250003    -1.921522    -3.921330
H       -0.228268    -0.706131    -1.851849
H       -1.298888    -5.234879     2.092764
H       -1.726782    -3.498742     1.820114
H       -1.423339    -4.065382     3.467629
H        0.810277    -5.198417     3.955083
79
ex_0457 frame1 Isomer 1
C        3.737395    -3.460387     5.422438
C        3.238968    -2.454569     4.425325
C        2.009982    -1.810134     4.606072
C        1.567232    -0.838476     3.693941
C        0.243536    -0.167664     3.914655
C        2.370061    -0.495544     2.585829
N        1.933341     0.531329     1.689725
C        2.544995     1.785609     1.587912
C        3.354336     2.255128     2.745180
C        2.472791     2.712006     0.433527
C        1.839068     2.630039    -0.768007
C        1.798129     3.884057    -1.611771
N        1.233844     1.424547    -1.229730
C        0.684255     1.169594    -2.504158
C        1.419162     0.389353    -3.421463
C        2.783948    -0.162850    -3.089653
C        0.874475     0.113230    -4.680767
C       -0.398199     0.586017    -5.025093
C       -1.006573     0.248255    -6.351937
C       -1.110711     1.382731    -4.121065
C       -0.584095     1.679421    -2.858198
C       -1.400785     2.535833    -1.926905
Cu       1.110801    -0.147309    -0.002380
N       -0.669415    -1.041626     0.164712
C       -1.897586    -0.877304     0.508619
C       -2.381382     0.476159     0.991777
C       -3.749371     0.825681     1.076290
C       -4.148385     2.082639     1.549872
C       -3.197755     3.020668     1.946379
C       -1.844093     2.709522     1.856991
C       -1.442126     1.456160     1.383382
C       -2.698414    -2.149712     0.363591
C       -3.941046    -2.396452     0.984971
C       -4.595397    -3.624049     0.804628
C       -4.035109    -4.617422    -0.000830
C       -2.816521    -4.393999    -0.628039
C       -2.164002    -3.178918    -0.459866
C        3.603896    -1.179067     2.383204
C        4.503501    -0.892594     1.207372
C        4.013029    -2.158010     3.301473
H        3.876782    -4.445630     4.931462
H        3.030315    -3.581342     6.270269
H        4.712843    -3.119104     5.832085
H        1.407016    -2.048128     5.473945
H        0.389003     0.932074     3.961026
H       -0.235624    -0.499129     4.859411
H       -0.439774    -0.423073     3.082132
H        3.721946     1.496295     3.466772
H        4.194554     2.954349     2.553714
H        2.517446     2.810966     3.221463
H        2.875936     3.692766     0.682438
H        2.844899     4.198140    -1.823504
H        1.277339     4.704340    -1.077755
H        1.304108     3.723696    -2.588883
H        3.101016     0.060861    -2.050590
H        2.776001    -1.266343    -3.209762
H        3.542578     0.270196    -3.775181
H        1.431109    -0.501934    -5.378159
H       -0.327848    -0.384265    -6.962530
H       -1.229029     1.178649    -6.913694
H       -1.950439    -0.313353    -6.185014
H       -2.096182     1.745912    -4.388413
H       -2.350014     2.008434    -1.695445
H       -1.632546     3.511253    -2.402142
H       -0.884642     2.743965    -0.971389
H       -4.530828     0.164837     0.751915
H       -5.200492     2.333271     1.603120
H       -3.509652     3.991900     2.311355
H       -1.102747     3.441640     2.153224
H       -0.388925     1.261364     1.326318
H       -4.399928    -1.693177     1.655699
H       -5.536116    -3.813856     1.302713
H       -4.536259    -5.566813    -0.132484
H       -2.366000    -5.161894    -1.244925
H       -1.215257    -3.063004    -0.970546
H        3.917702    -0.736399     0.278410
H        5.203557    -1.734560     1.016693
H        5.112699     0.008511     1.431046
H        4.964470    -2.661568     3.167969
79
ex_0457 frame2 Isomer 1
C       -0.117631    -1.616606    -6.693182
C        0.154314    -1.414905    -5.229504
C        0.803212    -0.262975    -4.770712
C        1.090744    -0.095425    -3.406039
C        1.778529     1.155202    -2.945378
C        0.734031    -1.099993    -2.481516
N        1.067608    -0.946252    -1.099107
C        2.082351    -1.682609    -0.443985
C        3.263284    -2.095668    -1.265437
C        2.104878    -2.097623     0.993044
C        1.272626    -1.834645     2.039112
C        1.743398    -2.270858     3.411787
N        0.013604    -1.182552     1.884030
C       -0.936325    -1.015593     2.923112
C       -2.006670    -1.925278     3.035817
C       -2.155496    -3.056738     2.053696
C       -2.938139    -1.771194     4.072879
C       -2.820365    -0.715761     4.985409
C       -3.838191    -0.558120     6.074451
C       -1.752707     0.183247     4.872590
C       -0.815549     0.051839     3.839402
C        0.302018     1.051245     3.726196
Cu      -0.487740    -0.496653     0.075559
N       -1.208275     1.367327    -0.005948
C       -0.791013     2.583619     0.015253
C       -1.907032     3.594460    -0.021023
C       -3.179627     3.175540    -0.486593
C       -4.264208     4.047173    -0.518037
C       -4.107647     5.365595    -0.104276
C       -2.863179     5.810921     0.345619
C       -1.766009     4.939531     0.381103
C        0.688477     2.880619     0.071349
C        1.595853     1.904022     0.536246
C        2.969520     2.160504     0.598557
C        3.469547     3.397616     0.196908
C        2.596822     4.376555    -0.274413
C        1.220840     4.126864    -0.331763
C        0.044401    -2.256158    -2.945023
C       -0.390713    -3.354833    -2.008539
C       -0.245672    -2.390151    -4.312693
H        0.266859    -0.770924    -7.302075
H       -1.208749    -1.714619    -6.869898
H        0.388469    -2.545258    -7.035514
H        1.102805     0.497342    -5.481965
H        1.105121     1.702625    -2.261027
H        2.719815     0.894712    -2.418657
H        2.021716     1.829887    -3.792977
H        3.767574    -3.046314    -0.991992
H        3.918388    -1.241310    -0.993134
H        3.126121    -2.102805    -2.366521
H        3.033672    -2.598288     1.261727
H        1.926730    -3.368238     3.392139
H        0.992665    -2.086211     4.204221
H        2.683319    -1.752826     3.689808
H       -1.239690    -3.684934     2.055392
H       -2.311877    -2.644765     1.034649
H       -3.021520    -3.706322     2.302744
H       -3.765758    -2.464609     4.165357
H       -3.622664     0.328292     6.708452
H       -3.843988    -1.461595     6.718613
H       -4.842535    -0.425526     5.619545
H       -1.665593     1.003509     5.574869
H        0.170956     1.612386     2.782773
H        0.283819     1.789841     4.554329
H        1.291098     0.550194     3.731281
H       -3.352624     2.156936    -0.812691
H       -5.228476     3.691050    -0.858725
H       -4.955773     6.036835    -0.123072
H       -2.753185     6.833042     0.681746
H       -0.840406     5.322467     0.778548
H        1.250447     0.934985     0.851172
H        3.648055     1.396255     0.956335
H        4.533762     3.594338     0.240196
H        2.988485     5.330585    -0.604997
H        0.597804     4.905308    -0.739989
H        0.499805    -3.881857    -1.610344
H       -0.986463    -2.938094    -1.170813
H       -1.014517    -4.114715    -2.526864
H       -0.752216    -3.277548    -4.676430
79
ex_0457 frame3 Isomer 2
C       -1.523566     3.511090     5.969577
C       -1.361883     3.058809     4.545966
C       -2.051854     1.930047     4.097384
C       -1.958430     1.511096     2.762644
C       -2.750343     0.307143     2.345600
C       -1.138040     2.217506     1.854813
N       -1.052737     1.785588     0.493070
C       -1.733451     2.378803    -0.577868
C       -2.995613     3.100153    -0.260824
C       -1.322220     2.362062    -2.008935
C       -0.255125     1.817020    -2.663041
C       -0.287794     1.846477    -4.176303
N        0.855208     1.238525    -1.978773
C        2.062500     0.800691    -2.570144
C        3.189544     1.645431    -2.544062
C        3.117343     2.998510    -1.885864
C        4.384805     1.217231    -3.137291
C        4.465164    -0.040762    -3.747220
C        5.759218    -0.488855    -4.353931
C        3.336073    -0.869056    -3.785033
C        2.139331    -0.468541    -3.178976
C        0.957353    -1.398628    -3.187965
Cu       0.748897     1.068409     0.009003
N        1.360134    -0.583392     0.957578
C        0.882771    -1.734764     1.267886
C        1.832266    -2.588518     2.065845
C        1.736919    -3.990859     2.188516
C        2.656442    -4.699925     2.972959
C        3.684493    -4.029915     3.639217
C        3.806252    -2.650009     3.517219
C        2.896645    -1.938466     2.741329
C       -0.511434    -2.118709     0.834004
C       -1.144864    -1.457533    -0.240524
C       -2.443482    -1.799329    -0.638065
C       -3.135192    -2.811415     0.024975
C       -2.531255    -3.480220     1.087361
C       -1.231346    -3.147885     1.482441
C       -0.410187     3.351191     2.318742
C        0.494791     4.147292     1.412210
C       -0.529320     3.752460     3.661754
H       -0.918845     4.417803     6.185314
H       -1.213289     2.704493     6.665677
H       -2.591429     3.757476     6.154420
H       -2.694140     1.391674     4.784723
H       -2.388742    -0.589514     2.890641
H       -3.822096     0.474203     2.577089
H       -2.677488     0.119367     1.261705
H       -3.643849     2.202353    -0.360190
H       -3.124492     3.516867     0.759867
H       -3.337428     3.876022    -0.977059
H       -2.110045     2.748280    -2.653867
H       -0.382154     2.906056    -4.504867
H        0.643615     1.455241    -4.629750
H       -1.147336     1.268653    -4.570008
H        2.867969     2.874004    -0.811691
H        2.333252     3.617903    -2.371008
H        4.082553     3.543870    -1.956278
H        5.261157     1.854166    -3.110572
H        6.068526     0.221052    -5.148364
H        5.670524    -1.503271    -4.797611
H        6.539385    -0.519588    -3.564115
H        3.401676    -1.847006    -4.245725
H        0.051726    -0.912159    -3.602444
H        0.768216    -1.712171    -2.144295
H        1.157055    -2.319220    -3.773445
H        0.984406    -4.559385     1.666307
H        2.577210    -5.775001     3.059626
H        4.394329    -4.578173     4.243683
H        4.605932    -2.123300     4.022813
H        3.031726    -0.865234     2.679483
H       -0.650798    -0.661117    -0.769904
H       -2.918258    -1.270800    -1.455277
H       -4.143283    -3.069607    -0.275050
H       -3.074962    -4.253986     1.614779
H       -0.831291    -3.672230     2.333350
H        1.280978     3.493575     0.985282
H        0.998665     4.975993     1.956801
H       -0.093918     4.609667     0.594840
H        0.007690     4.625580     4.016248
79
ex_0457 frame4 T-shaped N1-N2-ax/N0-eq-conf2
C       -5.286429     4.475293     0.252119
C       -3.935130     3.820401     0.207449
C       -3.017896     4.175471    -0.789579
C       -1.740429     3.590394    -0.831553
C       -0.801175     4.027568    -1.927789
C       -1.388143     2.624492     0.150460
N       -0.114954     1.992584     0.139692
C        0.961063     2.579266     0.823874
C        0.858028     4.006933     1.244034
C        2.206863     1.867418     1.160694
C        2.723543     0.706838     0.668621
C        4.178180     0.459971     1.044634
N        1.979168    -0.226076    -0.141464
C        2.515040    -1.509095    -0.396117
C        2.063414    -2.603923     0.363520
C        1.032701    -2.415181     1.442902
C        2.580874    -3.877194     0.108552
C        3.555278    -4.063704    -0.878295
C        4.100016    -5.436612    -1.119547
C        4.009336    -2.968464    -1.627428
C        3.491430    -1.686834    -1.400127
C        3.981089    -0.520893    -2.226305
Cu       0.000000     0.000000     0.000000
N       -1.535543    -0.845895    -0.962471
C       -2.939724    -0.604209    -0.577223
C       -3.561039    -1.462418     0.526123
C       -4.901407    -1.879705     0.324706
C       -5.567628    -2.657244     1.280791
C       -4.915786    -3.039835     2.451137
C       -3.591724    -2.662369     2.658772
C       -2.927485    -1.873103     1.715690
C       -3.747096     0.492706    -1.284541
C       -3.212054     1.127284    -2.423763
C       -3.983090     2.036732    -3.167644
C       -5.278666     2.362766    -2.764579
C       -5.803002     1.797990    -1.606867
C       -5.032067     0.914465    -0.846561
C       -2.307576     2.284626     1.151471
C       -1.919295     1.306918     2.217695
C       -3.582546     2.854241     1.157286
H       -5.916817     4.051490     1.064261
H       -5.818939     4.336295    -0.710633
H       -5.161149     5.563305     0.429398
H       -3.291969     4.929465    -1.520023
H       -1.253646     3.834505    -2.926829
H       -0.622139     5.122882    -1.818970
H        0.180961     3.511034    -1.880183
H        1.290461     4.456777     0.326880
H       -0.156430     4.426120     1.414121
H        1.462180     4.305263     2.124719
H        2.882818     2.458265     1.775787
H        4.245839     0.437180     2.156322
H        4.580177    -0.505944     0.690507
H        4.834614     1.274292     0.670374
H        0.093242    -2.035976     1.006915
H        1.415237    -1.683814     2.188548
H        0.807478    -3.362712     1.974880
H        2.240116    -4.724188     0.691849
H        4.568925    -5.817425    -0.188175
H        4.862005    -5.435641    -1.926847
H        3.270664    -6.112944    -1.415326
H        4.763649    -3.114111    -2.390510
H        4.446094     0.256168    -1.589496
H        3.127322    -0.065277    -2.770554
H        4.743100    -0.835338    -2.969719
H       -5.454623    -1.601933    -0.560702
H       -6.598076    -2.950881     1.121790
H       -5.434559    -3.631284     3.195641
H       -3.080664    -2.966969     3.563267
H       -1.913550    -1.604154     1.934906
H       -2.211717     0.903130    -2.764864
H       -3.576299     2.496397    -4.058579
H       -5.873952     3.064238    -3.338156
H       -6.804298     2.061679    -1.283589
H       -5.482093     0.546228     0.061832
H       -1.495984     0.409296     1.755974
H       -2.770011     1.039233     2.876243
H       -1.119198     1.755573     2.839747
H       -4.282066     2.586391     1.938429
