64
ex_0225 frame0 mer-OC-6-1
Ru       0.000000     0.000000     0.000000
Br       2.660000     0.000000     0.000000
Br      -2.660000     0.000000     0.000000
Br       0.000000     2.660000     0.000000
C       -1.838233    -3.311876    -0.354987
As       0.000000    -2.650000     0.000000
C        0.636474    -3.305363     1.741083
C        1.205378    -3.304035    -1.403432
C        2.523503    -2.902394    -1.462929
C        3.347655    -3.379624    -2.462193
C        2.863193    -4.271128    -3.422895
C        1.528222    -4.667224    -3.348536
C        0.688571    -4.192800    -2.346046
H       -2.255410    -2.829590    -1.260261
H       -1.807180    -4.407383    -0.486069
H       -2.458976    -3.020715     0.507719
H        0.810658    -2.459363     2.420997
H       -0.045195    -4.090065     2.176103
H        1.619016    -3.827233     1.665560
H        2.922519    -2.205007    -0.720376
H        4.392100    -3.099724    -2.560002
H        3.512066    -4.646682    -4.209370
H        1.099760    -5.360273    -4.072193
H       -0.362831    -4.511148    -2.295952
C       -1.110536    -1.448794     3.295353
As       0.000000     0.000000     2.650000
C       -0.702420     1.687170     3.296093
C        1.779300    -0.233142     3.284412
C        2.671759    -1.038708     2.599662
C        3.978722    -1.229064     3.037846
C        4.386319    -0.590910     4.190413
C        3.527769     0.222948     4.905798
C        2.222065     0.392643     4.438216
H       -1.606125    -2.002940     2.479830
H       -0.601449    -2.125925     3.998736
H       -1.952810    -0.984743     3.881182
H        0.108965     2.297619     3.748778
H       -1.013456     2.272844     2.385632
H       -1.594661     1.618872     3.937886
H        2.350538    -1.536724     1.698480
H        4.685917    -1.856698     2.510843
H        5.404696    -0.697146     4.593153
H        3.859253     0.722422     5.814710
H        1.524469     1.029047     4.983235
C       -0.724171    -1.705700    -3.305112
As       0.000000     0.000000    -2.650000
C        1.834818     0.259828    -3.305134
C       -1.108873     1.474060    -3.302111
C       -1.812847     2.224713    -2.365269
C       -2.618614     3.288651    -2.779390
C       -2.689787     3.563463    -4.141419
C       -1.989926     2.817006    -5.077689
C       -1.185767     1.754271    -4.651321
H       -1.584451    -1.588343    -3.991052
H        0.092725    -2.232430    -3.882230
H       -1.016169    -2.396197    -2.512148
H        2.234612     1.180112    -2.833045
H        2.485168    -0.614318    -3.057598
H        1.763195     0.417920    -4.389596
H       -1.754467     2.030066    -1.416563
H       -3.172908     3.886750    -2.087550
H       -3.311700     4.391438    -4.516576
H       -2.058578     3.046530    -6.131549
H       -0.626161     1.150066    -5.346569
64
ex_0225 frame1 mer-OC-6-1-conf1
Ru       0.000000     0.000000     0.000000
Br       2.660000     0.000000     0.000000
Br      -2.660000     0.000000     0.000000
Br       0.000000     2.660000     0.000000
C        1.845305    -3.329468     0.318811
As       0.000000    -2.650000     0.000000
C       -0.632367    -3.311723    -1.736359
C       -1.205378    -3.304035     1.403432
C       -0.720257    -3.928188     2.533653
C       -1.592929    -4.377826     3.504102
C       -2.972292    -4.209075     3.358111
C       -3.446374    -3.576075     2.209579
C       -2.576315    -3.118945     1.225146
H        1.806807    -4.336623     0.773392
H        2.412552    -3.301890    -0.587531
H        2.317363    -2.666515     1.044397
H       -1.416496    -2.708269    -2.072657
H        0.187913    -3.380854    -2.498358
H       -1.012728    -4.377074    -1.675897
H        0.356282    -4.070180     2.667251
H       -1.270459    -4.875522     4.413547
H       -3.659052    -4.563051     4.122101
H       -4.512271    -3.419065     2.045912
H       -2.960036    -2.620945     0.322896
C        1.488628    -1.135387     3.311876
As       0.000000     0.000000     2.650000
C       -1.716301    -0.625592     3.344501
C        0.244819     1.833745     3.304035
C        1.257176     2.153256     4.184577
C        1.404528     3.452399     4.627316
C        0.536477     4.457774     4.193563
C       -0.481700     4.118063     3.303349
C       -0.639680     2.812274     2.850543
H        1.779925    -0.833399     4.336623
H        1.167643    -2.191394     3.301890
H        2.348277    -0.962981     2.644316
H       -2.366531    -0.944617     2.472244
H       -1.593741    -1.482382     4.090065
H       -2.320654     0.099341     3.827233
H        1.947541     1.380865     4.536366
H        2.181116     3.763462     5.319362
H        0.652627     5.480326     4.542153
H       -1.185813     4.863237     2.933867
H       -1.445858     2.554389     2.148493
C        1.288878    -1.350487    -3.318121
As       0.000000     0.000000    -2.650000
C        0.493270     1.786940    -3.305363
C       -1.796389    -0.442206    -3.304035
C       -2.004248    -1.483239    -4.184577
C       -3.279754    -1.770586    -4.627316
C       -4.373323    -1.016664    -4.193563
C       -4.146014     0.032345    -3.303349
C       -2.865053     0.330978    -2.850543
H        1.705873    -1.941726    -2.485436
H        0.779279    -2.011462    -4.044562
H        2.071837    -0.821724    -3.733567
H       -0.324634     2.496474    -3.115799
H        1.483850     2.132977    -2.894652
H        0.648135     1.807032    -4.409471
H       -1.161555    -2.085784    -4.536366
H       -3.504779    -2.576324    -5.319362
H       -5.377252    -1.243003    -4.542153
H       -4.963141     0.651509    -2.933867
H       -2.696101     1.160365    -2.148493
64
ex_0225 frame2 mer-OC-6-1-conf2
Ru       0.000000     0.000000     0.000000
Br       2.660000     0.000000     0.000000
Br      -2.660000     0.000000     0.000000
Br       0.000000     2.660000     0.000000
C        1.699914    -3.329468     0.785548
As       0.000000    -2.650000     0.000000
C       -0.163664    -3.316350    -1.833893
C       -1.527541    -3.304035     1.043637
C       -2.816151    -2.902394     0.759950
C       -3.870849    -3.379624     1.511859
C       -3.651543    -4.271128     2.565214
C       -2.342814    -4.667224     2.838905
C       -1.272310    -4.192800     2.087891
H        1.545073    -4.336623     1.214675
H        2.482410    -3.301890     0.056903
H        1.968091    -2.666515     1.608588
H        0.633432    -3.944077    -2.023713
H       -1.155987    -3.797139    -2.039368
H       -0.091062    -2.511720    -2.598801
H       -3.009384    -2.205007    -0.060574
H       -4.905020    -3.099724     1.336013
H       -4.481860    -4.646682     3.156950
H       -2.116248    -5.360273     3.648798
H       -0.243769    -4.511148     2.311627
C       -0.238960    -1.856883     3.311876
As       0.000000     0.000000     2.650000
C       -1.399929     1.173564     3.344501
C        1.710480     0.704853     3.304035
C        2.493363    -0.012119     4.184577
C        3.692130     0.509842     4.627316
C        4.128784     1.764284     4.193563
C        3.325497     2.476196     3.303349
C        2.115661     1.960116     2.850543
H        0.168218    -1.958159     4.336623
H       -1.313981    -2.106906     3.301890
H        0.340173    -2.515158     2.644316
H       -2.001328     1.577167     2.472244
H       -2.080651     0.639029     4.090065
H       -1.074295     2.059416     3.827233
H        2.169634    -0.996187     4.536366
H        4.349812    -0.007171     5.319362
H        5.072415     2.174971     4.542153
H        3.618780     3.458563     2.933867
H        1.489236     2.529344     2.148493
C       -1.598760    -0.883572    -3.316102
As       0.000000     0.000000    -2.650000
C        0.115651     1.840950    -3.302113
C        1.547041    -0.977308    -3.296989
C        1.876373    -0.922827    -4.639691
C        2.956576    -1.589241    -5.165102
C        3.755116    -2.348211    -4.331228
C        3.427691    -2.403535    -2.990949
C        2.341081    -1.727725    -2.422742
H       -1.308904    -1.630843    -4.051569
H       -2.180715    -0.158421    -3.895053
H       -2.211503    -1.338627    -2.553767
H       -0.889861     2.285449    -3.255697
H        0.564421     1.900857    -4.321089
H        0.853745     2.399143    -2.659361
H        1.281607    -0.336999    -5.354737
H        3.211281    -1.543770    -6.218881
H        4.631137    -2.901268    -4.699413
H        4.025399    -2.987566    -2.293320
H        2.067798    -1.826007    -1.535330
64
ex_0225 frame3 mer-OC-6-1-conf3
Ru       0.000000     0.000000     0.000000
Br       2.660000     0.000000     0.000000
Br      -2.660000     0.000000     0.000000
Br       0.000000     2.660000     0.000000
C       -1.065974    -3.362496    -1.483136
As       0.000000    -2.650000     0.000000
C       -0.780640    -3.311723     1.674942
C        1.844707    -3.304035    -0.140045
C        2.739295    -3.158783     0.899629
C        4.030785    -3.629113     0.771780
C        4.449748    -4.255616    -0.404824
C        3.532995    -4.394497    -1.446383
C        2.229063    -3.924397    -1.328714
H       -0.730734    -4.336623    -1.824476
H       -2.121379    -3.301890    -1.290484
H       -0.811873    -2.721341    -2.339130
H       -0.136480    -4.013908     2.104018
H       -1.025780    -2.486608     2.394230
H       -1.783782    -3.812039     1.511562
H        2.431294    -2.671193     1.829327
H        4.778190    -3.543563     1.554623
H        5.466363    -4.625784    -0.505273
H        3.807644    -4.875075    -2.385100
H        1.513490    -4.038696    -2.155873
C        1.081040    -1.416008     3.358540
As       0.000000     0.000000     2.650000
C        0.714450     1.700597     3.302113
C       -1.820192    -0.188063     3.296989
C       -2.106695    -1.135881     4.263341
C       -3.371498    -1.322709     4.765704
C       -4.408949    -0.540006     4.296536
C       -4.124549     0.406357     3.332103
C       -2.844334     0.631783     2.809459
H        0.890219    -1.531292     4.447942
H        2.136165    -1.012627     3.354989
H        1.171255    -2.302354     2.788770
H        1.812755     1.651985     3.255697
H        0.339043     1.953684     4.321089
H        0.301275     2.528636     2.659361
H       -1.326065    -1.789618     4.677438
H       -3.591798    -2.067304     5.523621
H       -5.439525    -0.647888     4.664121
H       -4.907190     1.047586     2.930445
H       -2.665820     1.207142     2.085877
C       -1.813995    -0.440957    -3.318121
As       0.000000     0.000000    -2.650000
C        1.300901    -1.320654    -3.305363
C        0.515233     1.776821    -3.304035
C       -0.282399     2.477349    -4.184577
C        0.106504     3.725643    -4.627316
C        1.306204     4.295741    -4.193563
C        2.101019     3.574381    -3.303349
C        1.719162     2.315720    -2.850543
H       -1.964854    -0.045094    -4.336623
H       -1.949051    -1.539098    -3.306080
H       -2.477152     0.054139    -2.701426
H        2.215844    -1.281613    -2.697338
H        0.859529    -2.355040    -3.375431
H        1.633371    -1.108500    -4.348384
H       -1.225564     2.048828    -4.536366
H       -0.478772     4.323389    -5.319362
H        1.612154     5.278339    -4.542153
H        3.045793     3.972452    -2.933867
H        2.352956     1.754709    -2.148493
64
ex_0225 frame4 mer-OC-6-1-conf4
Ru       0.000000     0.000000     0.000000
Br       2.660000     0.000000     0.000000
Br      -2.660000     0.000000     0.000000
Br       0.000000     2.660000     0.000000
C       -0.441904    -3.298387    -1.780007
As       0.000000    -2.650000     0.000000
C        1.756624    -3.302113     0.562799
C       -1.326405    -3.296969     1.260817
C       -0.945185    -4.164563     2.267742
C       -1.831690    -4.660059     3.192324
C       -3.157756    -4.287583     3.127950
C       -3.539956    -3.421994     2.123948
C       -2.651124    -2.921506     1.192148
H       -1.522580    -3.087748    -1.964705
H       -0.361498    -4.396671    -1.774608
H        0.218574    -2.902891    -2.565189
H        1.642034    -4.339128     0.912454
H        2.227562    -2.641247     1.327501
H        2.460118    -3.227900    -0.314174
H        0.097131    -4.500454     2.374462
H       -1.525801    -5.342178     3.982030
H       -3.908278    -4.655090     3.843156
H       -4.575876    -3.096859     2.029355
H       -2.961542    -2.236205     0.399733
C        0.249779    -1.855459     3.311876
As       0.000000     0.000000     2.650000
C       -1.702032     0.734545     3.305363
C        1.469767     1.123540     3.304035
C        2.411540     0.633624     4.184577
C        3.434366     1.448063     4.627316
C        3.531469     2.772776     4.193563
C        2.571297     3.252524     3.303349
C        1.536256     2.440900     2.850543
H       -0.724797    -2.302370     3.588694
H        0.735109    -2.456455     2.523498
H        0.871063    -1.793963     4.219942
H       -2.370929     0.947147     2.459363
H       -2.175148     0.078742     4.090065
H       -1.570705     1.711195     3.827233
H        2.353538    -0.400700     4.536366
H        4.203452     1.118888     5.319362
H        4.336653     3.413699     4.542153
H        2.600331     4.277325     2.933867
H        0.783849     2.828602     2.148493
C        1.597294    -0.976610    -3.311876
As       0.000000     0.000000    -2.650000
C        0.013968     1.853719    -3.305363
C       -1.620727    -0.892078    -3.304035
C       -2.876127    -0.485922    -2.902394
C       -3.998175    -1.133041    -3.379624
C       -3.881067    -2.202592    -4.271128
C       -2.604680    -2.600730    -4.667224
C       -1.466986    -1.956020    -4.192800
H        1.421248    -1.357475    -4.336623
H        2.465465    -0.295095    -3.301890
H        1.747799    -1.840363    -2.644316
H       -0.959707     2.327387    -3.115798
H        0.881233     2.444346    -2.894652
H        0.158356     1.913208    -4.409471
H       -2.989649     0.349369    -2.205007
H       -5.010673    -0.858668    -3.099724
H       -4.764385    -2.711832    -4.646682
H       -2.456959    -3.428642    -5.360273
H       -0.464692    -2.277522    -4.511148
64
ex_0225 frame5 mer-OC-6-1-conf6
Ru       0.000000     0.000000     0.000000
Br       2.660000     0.000000     0.000000
Br      -2.660000     0.000000     0.000000
Br       0.000000     2.660000     0.000000
C        1.664728    -3.362496     0.751447
As       0.000000    -2.650000     0.000000
C       -0.163664    -3.316350    -1.833893
C       -1.527541    -3.304035     1.043637
C       -2.816151    -2.902394     0.759950
C       -3.870849    -3.379624     1.511859
C       -3.651543    -4.271128     2.565214
C       -2.342814    -4.667224     2.838905
C       -1.272310    -4.192800     2.087891
H        1.545073    -4.336623     1.214675
H        2.482410    -3.301890     0.056903
H        1.872667    -2.721341     1.619810
H        0.633432    -3.944077    -2.023713
H       -1.155987    -3.797139    -2.039368
H       -0.091062    -2.511720    -2.598801
H       -3.009384    -2.205007    -0.060574
H       -4.905020    -3.099724     1.336013
H       -4.481860    -4.646682     3.156950
H       -2.116248    -5.360273     3.648798
H       -0.243769    -4.511148     2.311627
C       -0.685779    -1.644212     3.358540
As       0.000000     0.000000     2.650000
C        1.829986     0.231567     3.302113
C       -1.072964     1.482301     3.296989
C       -1.039370     1.814414     4.639691
C       -1.772605     2.850420     5.165102
C       -2.580443     3.599487     4.331228
C       -2.615000     3.269224     2.990949
C       -1.869433     2.228829     2.421184
H       -1.747269    -1.775770     3.054514
H       -0.788752    -1.467339     4.469455
H       -0.063562    -2.498366     3.317874
H        2.337038    -0.743899     3.255697
H        1.861461     0.683222     4.321089
H        2.340501     1.003407     2.659361
H       -0.417185     1.257792     5.354737
H       -1.743294     3.107487     6.218881
H       -3.187667     4.438870     4.699413
H       -3.235577     3.828894     2.293320
H       -1.964308     1.941240     1.529687
C       -1.598760    -0.883572    -3.316102
As       0.000000     0.000000    -2.650000
C        0.115651     1.840950    -3.302113
C        1.547041    -0.977308    -3.296989
C        1.876373    -0.922827    -4.639691
C        2.956576    -1.589241    -5.165102
C        3.755116    -2.348211    -4.331228
C        3.427691    -2.403535    -2.990949
C        2.341081    -1.727725    -2.422742
H       -1.308904    -1.630843    -4.051569
H       -2.180715    -0.158421    -3.895053
H       -2.211503    -1.338627    -2.553767
H       -0.889861     2.285449    -3.255697
H        0.564421     1.900857    -4.321089
H        0.853745     2.399143    -2.659361
H        1.281607    -0.336999    -5.354737
H        3.211281    -1.543770    -6.218881
H        4.631137    -2.901268    -4.699413
H        4.025399    -2.987566    -2.293320
H        2.067798    -1.826007    -1.535330
64
ex_0225 frame6 mer-OC-6-1-conf9
Ru       0.000000     0.000000     0.000000
Br       2.660000     0.000000     0.000000
Br      -2.660000     0.000000     0.000000
Br       0.000000     2.660000     0.000000
C        1.614544    -3.321257    -0.845890
As       0.000000    -2.650000     0.000000
C       -0.088974    -3.302113     1.842432
C       -1.561034    -3.296989    -0.954797
C       -1.889543    -4.639691    -0.895552
C       -2.979285    -5.165102    -1.546250
C       -3.788735    -4.331228    -2.293574
C       -3.462146    -2.990949    -2.353635
C       -2.366733    -2.459829    -1.700190
H        1.350176    -4.120973    -1.543762
H        2.182042    -3.820650    -0.086470
H        2.274377    -2.548479    -1.228346
H       -0.523224    -2.475213     2.466188
H        0.908263    -3.620136     2.226715
H       -0.633938    -4.297205     1.814269
H       -1.286353    -5.354737    -0.318401
H       -3.233305    -6.218881    -1.497094
H       -4.672675    -4.699413    -2.833884
H       -4.068250    -2.293320    -2.928947
H       -2.078124    -1.510751    -1.836090
C        0.274282     1.809688     3.311012
As       0.000000     0.000000     2.650000
C       -1.707696    -0.697311     3.302113
C        1.420051    -1.154089     3.296989
C        1.117290    -2.188006     4.165108
C        2.071885    -3.041994     4.661550
C        3.391338    -2.873737     4.287677
C        3.695028    -1.842308     3.421336
C        2.744263    -0.963363     2.886151
H       -0.559411     2.439721     2.973672
H        1.106634     2.214265     2.822058
H        0.494667     1.858629     4.379952
H       -2.449941     0.113682     3.255697
H       -1.621203    -1.141723     4.321089
H       -2.001049    -1.574983     2.659361
H        0.087314    -2.374815     4.500491
H        1.830034    -3.851653     5.342249
H        4.194569    -3.528422     4.655172
H        4.719486    -1.668329     3.096916
H        2.960492    -0.203423     2.374084
C        0.440271    -1.761853    -3.366544
As       0.000000     0.000000    -2.650000
C        1.320654     1.300901    -3.305363
C       -1.776821     0.515233    -3.304035
C       -2.477349    -0.282399    -4.184577
C       -3.725643     0.106504    -4.627316
C       -4.295741     1.306204    -4.193563
C       -3.574381     2.101019    -3.303349
C       -2.315720     1.719162    -2.850543
H        0.096484    -2.584755    -2.780822
H        0.137551    -1.840565    -4.434366
H        1.576364    -1.834489    -3.325858
H        1.867211     1.741240    -2.459363
H        1.999095     0.860863    -4.090065
H        0.844662     2.163758    -3.827233
H       -2.048828    -1.225564    -4.536366
H       -4.323389    -0.478772    -5.319362
H       -5.278339     1.612154    -4.542153
H       -3.972452     3.045793    -2.933867
H       -1.754709     2.352956    -2.148493
64
ex_0225 frame7 fac-OC-6-2
Ru       0.000000     0.000000     0.000000
Br       2.660000     0.000000     0.000000
C       -3.311876    -1.834711    -0.372762
As      -2.650000     0.000000     0.000000
C       -3.305363     1.252274    -1.366851
C       -3.304035     0.579173     1.757019
C       -4.184577    -0.192594     2.485943
C       -4.627316     0.241212     3.719352
C       -4.193563     1.460751     4.245676
C       -3.303349     2.228949     3.496036
C       -2.850543     1.801809     2.252012
H       -3.333421    -2.024482    -1.463486
H       -2.652253    -2.563986     0.128574
H       -4.344924    -1.889168     0.006980
H       -2.459363     1.672553    -1.928979
H       -4.090065     0.787981    -2.028929
H       -3.827233     2.131786    -0.922384
H       -4.536366    -1.150644     2.091822
H       -5.319362    -0.322057     4.337879
H       -4.542153     1.802046     5.216563
H       -2.933867     3.187506     3.859668
H       -2.148493     2.414894     1.668441
Br       0.000000     2.660000     0.000000
C       -0.805358    -3.301617     1.657921
As       0.000000    -2.650000     0.000000
C       -0.986358    -3.303027    -1.561765
C        1.835353    -3.299578    -0.103757
C        2.321601    -3.919404    -1.249542
C        3.625916    -4.352500    -1.252008
C        4.419599    -4.171481    -0.143117
C        3.938382    -3.552140     1.005619
C        2.624309    -3.111991     1.017622
H       -0.001618    -3.385918     2.432158
H       -1.229403    -4.315785     1.571280
H       -1.518827    -2.552756     2.063296
H       -1.577722    -2.549534    -2.080825
H       -1.631810    -4.172878    -1.245711
H       -0.241233    -3.743373    -2.226984
H        1.646692    -4.031033    -2.086810
H        3.983241    -4.835874    -2.163646
H        5.439960    -4.540410    -0.220292
H        4.606865    -3.434548     1.852470
H        2.224948    -2.621166     1.913096
Br       0.000000     0.000000     2.660000
C        1.253442    -1.338875    -3.298387
As       0.000000     0.000000    -2.650000
C       -1.808154    -0.364762    -3.302113
C        0.543603     1.747273    -3.296989
C        0.130333     2.171091    -4.547535
C        0.477627     3.394285    -5.067326
C        1.270977     4.245931    -4.322784
C        1.684196     3.824336    -3.074536
C        1.338736     2.589612    -2.512029
H        0.685154    -2.282029    -3.482375
H        1.950796    -1.580057    -2.480921
H        1.836550    -1.005673    -4.169090
H       -2.377626    -0.853853    -2.526376
H       -1.805239    -0.960500    -4.244653
H       -2.276817     0.611641    -3.612733
H       -0.501878     1.540803    -5.188844
H        0.151277     3.722726    -6.048659
H        1.578041     5.235422    -4.690840
H        2.310211     4.458619    -2.449378
H        1.680512     2.266347    -1.705474
64
ex_0225 frame8 fac-OC-6-2-conf1
Ru       0.000000     0.000000     0.000000
Br       2.660000     0.000000     0.000000
C       -3.311876    -1.033754    -1.560919
As      -2.650000     0.000000     0.000000
C       -3.305363     1.852000    -0.081018
C       -3.304035    -0.832863     1.651937
C       -3.928188    -2.062721     1.638094
C       -4.377826    -2.623586     2.816549
C       -4.209075    -1.959034     4.034057
C       -3.576075    -0.716508     4.030676
C       -3.118945    -0.141728     2.849262
H       -2.474110    -1.293450    -2.236835
H       -3.809703    -1.950542    -1.200431
H       -4.007911    -0.379564    -2.110398
H       -2.459363     2.546668    -0.181321
H       -4.090065     1.991856    -0.877483
H       -3.827233     2.159624     0.855176
H       -4.070180    -2.599529     0.695426
H       -4.875522    -3.587131     2.868092
H       -4.563051    -2.400674     4.961566
H       -3.419065    -0.156025     4.951970
H       -2.620945     0.838699     2.857036
Br       0.000000     2.660000     0.000000
C       -1.414463    -3.311876    -1.226544
As       0.000000    -2.650000     0.000000
C       -0.319339    -3.305363     1.826059
C        1.745604    -3.304035    -0.612719
C        1.852502    -4.184577    -1.668904
C        3.094508    -4.627316    -2.077445
C        4.255441    -4.193563    -1.432056
C        4.129949    -3.303349    -0.366063
C        2.883597    -2.850543     0.054236
H       -1.323112    -2.829590    -2.219123
H       -1.322029    -4.407383    -1.324539
H       -2.383395    -3.020716    -0.789791
H       -0.508448    -2.459363     2.501974
H       -1.127191    -4.090065     1.861963
H        0.569329    -3.827233     2.251925
H        0.955827    -4.536366    -2.187715
H        3.241095    -5.319362    -2.901072
H        5.232986    -4.542153    -1.753784
H        5.002772    -2.933867     0.171746
H        2.795096    -2.148493     0.896017
Br       0.000000     0.000000     2.660000
C        0.438890    -1.820025    -3.311876
As       0.000000     0.000000    -2.650000
C        1.320654     1.300901    -3.305363
C       -1.776821     0.515233    -3.304035
C       -2.477349    -0.282399    -4.184577
C       -3.725643     0.106504    -4.627316
C       -4.295741     1.306204    -4.193563
C       -3.574381     2.101019    -3.303349
C       -2.315720     1.719162    -2.850543
H        1.261002    -1.775033    -4.052325
H        0.730114    -2.453559    -2.456244
H       -0.460575    -2.205453    -3.818596
H        1.867211     1.741240    -2.459363
H        1.999095     0.860863    -4.090065
H        0.844662     2.163758    -3.827233
H       -2.048828    -1.225564    -4.536366
H       -4.323389    -0.478772    -5.319362
H       -5.278339     1.612154    -4.542153
H       -3.972452     3.045793    -2.933867
H       -1.754709     2.352956    -2.148493
64
ex_0225 frame9 fac-OC-6-2-conf3
Ru       0.000000     0.000000     0.000000
Br       2.660000     0.000000     0.000000
C       -3.315766    -0.594548    -1.772009
As      -2.650000     0.000000     0.000000
C       -3.301211     1.800231     0.407663
C       -3.304035    -1.232037     1.380088
C       -3.928188    -2.416405     1.048406
C       -4.377826    -3.263166     2.041544
C       -4.209075    -2.936372     3.389565
C       -3.576075    -1.735309     3.707888
C       -3.118945    -0.874342     2.715494
H       -4.021306    -1.438951    -1.658466
H       -3.810700     0.267075    -2.277872
H       -2.436891    -0.970903    -2.328486
H       -4.377296     1.864844     0.215410
H       -3.003537     2.128426     1.451352
H       -2.850332     2.585475    -0.237410
H       -4.070180    -2.690941    -0.001078
H       -4.875522    -4.207219     1.841946
H       -4.563051    -3.603021     4.171165
H       -3.419065    -1.432373     4.742853
H       -2.620945     0.070666     2.976756
Br       0.000000     2.660000     0.000000
C       -0.042678    -3.303327     1.831018
As       0.000000    -2.650000     0.000000
C       -1.551105    -3.302113    -0.998270
C        1.605350    -3.300148    -0.871935
C        1.502992    -4.165568    -1.942753
C        2.599533    -4.661493    -2.604624
C        3.863520    -4.288317    -2.197098
C        3.970535    -3.423424    -1.127784
C        2.868165    -2.925688    -0.459119
H       -0.996767    -2.973672     2.296004
H        0.737649    -2.780246     2.393162
H        0.145906    -4.379952     1.917787
H       -1.856516    -2.518900    -1.708263
H       -2.382523    -3.620137    -0.326779
H       -1.260116    -4.256247    -1.522147
H        0.524624    -4.501690    -2.316830
H        2.510214    -5.343788    -3.445981
H        4.774294    -4.655978    -2.692035
H        4.950630    -3.097640    -0.769737
H        2.955334    -2.243891     0.398197
Br       0.000000     0.000000     2.660000
C       -0.043582    -1.859543    -3.323684
As       0.000000     0.000000    -2.650000
C        1.612352     0.914763    -3.305363
C       -1.582925     0.957552    -3.304035
C       -2.031266     2.108154    -2.689695
C       -3.148074     2.760074    -3.172648
C       -3.837605     2.268257    -4.283997
C       -3.381057     1.108055    -4.887095
C       -2.245149     0.431198    -4.402999
H       -1.005361    -2.091084    -3.800651
H        0.792208    -2.014581    -4.030010
H        0.058082    -2.522811    -2.439468
H        2.254253     1.198639    -2.459363
H        2.153786     0.314126    -4.090065
H        1.375902     1.871415    -3.827233
H       -1.505700     2.509812    -1.818261
H       -3.547381     3.668222    -2.731517
H       -4.716656     2.781551    -4.664018
H       -3.876537     0.675682    -5.762583
H       -1.890939    -0.492530    -4.886904
