49
ex_0521 frame0 T-4-1
Ag       0.000000     0.000000     0.000000
Br       5.190631     2.258243     1.204864
C        4.219925     3.052354     2.632944
C        4.945063     3.881070     3.498855
C        4.313005     4.505698     4.574863
C        2.952563     4.306029     4.792158
C        2.222586     3.481705     3.933984
C        2.851235     2.851235     2.851235
I        1.639675     1.639675     1.639675
H        6.008694     4.047521     3.343036
H        4.883153     5.147481     5.242343
H        2.457906     4.791774     5.630040
H        1.160706     3.340322     4.123262
Br       3.454589    -0.594051    -4.605098
C        3.528694    -2.389740    -3.986789
C        4.315156    -3.277227    -4.732605
C        4.427097    -4.615005    -4.351464
C        3.753862    -5.074089    -3.222799
C        2.968020    -4.196259    -2.473996
C        2.851235    -2.851235    -2.851235
I        1.639675    -1.639675    -1.639675
H        4.847631    -2.934525    -5.617095
H        5.039663    -5.297410    -4.935905
H        3.839637    -6.116192    -2.923892
H        2.451096    -4.577276    -1.595919
Br      -0.933653     5.047991    -2.672094
C       -2.524958     4.163132    -3.217134
C       -3.400448     4.893307    -4.031233
C       -4.592685     4.322373    -4.478509
C       -4.917338     3.018393    -4.115019
C       -4.050438     2.283830    -3.304006
C       -2.851235     2.851235    -2.851235
I       -1.639675     1.639675    -1.639675
H       -3.161651     5.913298    -4.324302
H       -5.266791     4.896001    -5.110185
H       -5.845897     2.571420    -4.462404
H       -4.324851     1.266726    -3.032713
Br      -4.197386    -0.503876     3.952477
C       -3.824448    -2.353835     3.726941
C       -4.584674    -3.244508     4.495806
C       -4.378291    -4.620939     4.394337
C       -3.411024    -5.115719     3.524007
C       -2.649077    -4.234982     2.754215
C       -2.851235    -2.851235     2.851235
I       -1.639675    -1.639675     1.639675
H       -5.344410    -2.874214     5.180626
H       -4.972714    -5.305551     4.994712
H       -3.248459    -6.187978     3.443284
H       -1.898984    -4.644306     2.081000
49
ex_0521 frame1 T-4-1-conf2
Ag       0.000000     0.000000     0.000000
Br       5.190631     2.258243     1.204864
C        4.219925     3.052354     2.632944
C        4.945063     3.881070     3.498855
C        4.313005     4.505698     4.574863
C        2.952563     4.306029     4.792158
C        2.222586     3.481705     3.933984
C        2.851235     2.851235     2.851235
I        1.639675     1.639675     1.639675
H        6.008694     4.047521     3.343036
H        4.883153     5.147481     5.242343
H        2.457906     4.791774     5.630040
H        1.160706     3.340322     4.123262
Br       3.454589    -0.594051    -4.605098
C        3.528694    -2.389740    -3.986789
C        4.315156    -3.277227    -4.732605
C        4.427097    -4.615005    -4.351464
C        3.753862    -5.074089    -3.222799
C        2.968020    -4.196259    -2.473996
C        2.851235    -2.851235    -2.851235
I        1.639675    -1.639675    -1.639675
H        4.847631    -2.934525    -5.617095
H        5.039663    -5.297410    -4.935905
H        3.839637    -6.116192    -2.923892
H        2.451096    -4.577276    -1.595919
Br      -0.933653     5.047991    -2.672094
C       -2.524958     4.163132    -3.217134
C       -3.400448     4.893307    -4.031233
C       -4.592685     4.322373    -4.478509
C       -4.917338     3.018393    -4.115019
C       -4.050438     2.283830    -3.304006
C       -2.851235     2.851235    -2.851235
I       -1.639675     1.639675    -1.639675
H       -3.161651     5.913298    -4.324302
H       -5.266791     4.896001    -5.110185
H       -5.845897     2.571420    -4.462404
H       -4.324851     1.266726    -3.032713
Br      -0.960812    -5.067179     2.625746
C       -2.535769    -4.170770     3.198684
C       -3.410305    -4.900271     4.014411
C       -4.590921    -4.321127     4.481518
C       -4.904827    -3.009554     4.136369
C       -4.038784    -2.275598     3.323892
C       -2.851235    -2.851235     2.851235
I       -1.639675    -1.639675     1.639675
H       -3.179811    -5.926129     4.293310
H       -5.264377    -4.894297     5.114303
H       -5.824322    -2.556178     4.499221
H       -4.304672    -1.252470     3.067149
49
ex_0521 frame2 T-4-1-conf3
Ag       0.000000     0.000000     0.000000
Br       5.190631     2.258243     1.204864
C        4.219925     3.052354     2.632944
C        4.945063     3.881070     3.498855
C        4.313005     4.505698     4.574863
C        2.952563     4.306029     4.792158
C        2.222586     3.481705     3.933984
C        2.851235     2.851235     2.851235
I        1.639675     1.639675     1.639675
H        6.008694     4.047521     3.343036
H        4.883153     5.147481     5.242343
H        2.457906     4.791774     5.630040
H        1.160706     3.340322     4.123262
Br       3.454589    -0.594051    -4.605098
C        3.528694    -2.389740    -3.986789
C        4.315156    -3.277227    -4.732605
C        4.427097    -4.615005    -4.351464
C        3.753862    -5.074089    -3.222799
C        2.968020    -4.196259    -2.473996
C        2.851235    -2.851235    -2.851235
I        1.639675    -1.639675    -1.639675
H        4.847631    -2.934525    -5.617095
H        5.039663    -5.297410    -4.935905
H        3.839637    -6.116192    -2.923892
H        2.451096    -4.577276    -1.595919
Br      -4.229339     0.506466    -3.917931
C       -3.837174     2.354866    -3.713183
C       -4.596264     3.245447    -4.483276
C       -4.376162     4.620765    -4.396639
C       -3.396241     5.114521    -3.539988
C       -2.635344     4.233869    -2.769062
C       -2.851235     2.851235    -2.851235
I       -1.639675     1.639675    -1.639675
H       -5.365786     2.875947    -5.157518
H       -4.969785     5.305313    -4.997878
H       -3.222970     6.185911    -3.470840
H       -1.875222     4.642379    -2.106689
Br      -4.197386    -0.503876     3.952477
C       -3.824448    -2.353835     3.726941
C       -4.584674    -3.244508     4.495806
C       -4.378291    -4.620939     4.394337
C       -3.411024    -5.115719     3.524007
C       -2.649077    -4.234982     2.754215
C       -2.851235    -2.851235     2.851235
I       -1.639675    -1.639675     1.639675
H       -5.344410    -2.874214     5.180626
H       -4.972714    -5.305551     4.994712
H       -3.248459    -6.187978     3.443284
H       -1.898984    -4.644306     2.081000
49
ex_0521 frame3 T-4-1-conf4
Ag       0.000000     0.000000     0.000000
Br       5.190631     2.258243     1.204864
C        4.219925     3.052354     2.632944
C        4.945063     3.881070     3.498855
C        4.313005     4.505698     4.574863
C        2.952563     4.306029     4.792158
C        2.222586     3.481705     3.933984
C        2.851235     2.851235     2.851235
I        1.639675     1.639675     1.639675
H        6.008694     4.047521     3.343036
H        4.883153     5.147481     5.242343
H        2.457906     4.791774     5.630040
H        1.160706     3.340322     4.123262
Br       5.161660    -2.360028    -1.132048
C        4.208389    -3.092885    -2.603949
C        4.934553    -3.917997    -3.472437
C        4.314919    -4.498976    -4.579671
C        2.965945    -4.259010    -4.825795
C        2.235029    -3.437986    -3.965259
C        2.851235    -2.851235    -2.851235
I        1.639675    -1.639675    -1.639675
H        5.989317    -4.115600    -3.294333
H        4.885780    -5.138250    -5.248946
H        2.480981    -4.710698    -5.688041
H        1.182243    -3.264653    -4.177395
Br      -0.933653     5.047991    -2.672094
C       -2.524958     4.163132    -3.217134
C       -3.400448     4.893307    -4.031233
C       -4.592685     4.322373    -4.478509
C       -4.917338     3.018393    -4.115019
C       -4.050438     2.283830    -3.304006
C       -2.851235     2.851235    -2.851235
I       -1.639675     1.639675    -1.639675
H       -3.161651     5.913298    -4.324302
H       -5.266791     4.896001    -5.110185
H       -5.845897     2.571420    -4.462404
H       -4.324851     1.266726    -3.032713
Br      -4.197386    -0.503876     3.952477
C       -3.824448    -2.353835     3.726941
C       -4.584674    -3.244508     4.495806
C       -4.378291    -4.620939     4.394337
C       -3.411024    -5.115719     3.524007
C       -2.649077    -4.234982     2.754215
C       -2.851235    -2.851235     2.851235
I       -1.639675    -1.639675     1.639675
H       -5.344410    -2.874214     5.180626
H       -4.972714    -5.305551     4.994712
H       -3.248459    -6.187978     3.443284
H       -1.898984    -4.644306     2.081000
49
ex_0521 frame4 T-4-1-conf5
Ag       0.000000     0.000000     0.000000
Br       3.107469     0.716790     4.829478
C        3.390488     2.438609     4.076126
C        4.189201     3.321763     4.814023
C        4.449868     4.606952     4.336746
C        3.914033     5.017452     3.119266
C        3.117051     4.143561     2.377662
C        2.851235     2.851235     2.851235
I        1.639675     1.639675     1.639675
H        4.615484     3.016611     5.767155
H        5.070889     5.286366     4.915722
H        4.115831     6.018528     2.745361
H        2.709091     4.486049     1.429150
Br       3.454589    -0.594051    -4.605098
C        3.528694    -2.389740    -3.986789
C        4.315156    -3.277227    -4.732605
C        4.427097    -4.615005    -4.351464
C        3.753862    -5.074089    -3.222799
C        2.968020    -4.196259    -2.473996
C        2.851235    -2.851235    -2.851235
I        1.639675    -1.639675    -1.639675
H        4.847631    -2.934525    -5.617095
H        5.039663    -5.297410    -4.935905
H        3.839637    -6.116192    -2.923892
H        2.451096    -4.577276    -1.595919
Br      -0.933653     5.047991    -2.672094
C       -2.524958     4.163132    -3.217134
C       -3.400448     4.893307    -4.031233
C       -4.592685     4.322373    -4.478509
C       -4.917338     3.018393    -4.115019
C       -4.050438     2.283830    -3.304006
C       -2.851235     2.851235    -2.851235
I       -1.639675     1.639675    -1.639675
H       -3.161651     5.913298    -4.324302
H       -5.266791     4.896001    -5.110185
H       -5.845897     2.571420    -4.462404
H       -4.324851     1.266726    -3.032713
Br      -4.197386    -0.503876     3.952477
C       -3.824448    -2.353835     3.726941
C       -4.584674    -3.244508     4.495806
C       -4.378291    -4.620939     4.394337
C       -3.411024    -5.115719     3.524007
C       -2.649077    -4.234982     2.754215
C       -2.851235    -2.851235     2.851235
I       -1.639675    -1.639675     1.639675
H       -5.344410    -2.874214     5.180626
H       -4.972714    -5.305551     4.994712
H       -3.248459    -6.187978     3.443284
H       -1.898984    -4.644306     2.081000
49
ex_0521 frame5 T-4-1-conf6
Ag       0.000000     0.000000     0.000000
Br       5.190631     2.258243     1.204864
C        4.219925     3.052354     2.632944
C        4.945063     3.881070     3.498855
C        4.313005     4.505698     4.574863
C        2.952563     4.306029     4.792158
C        2.222586     3.481705     3.933984
C        2.851235     2.851235     2.851235
I        1.639675     1.639675     1.639675
H        6.008694     4.047521     3.343036
H        4.883153     5.147481     5.242343
H        2.457906     4.791774     5.630040
H        1.160706     3.340322     4.123262
Br       3.454589    -0.594051    -4.605098
C        3.528694    -2.389740    -3.986789
C        4.315156    -3.277227    -4.732605
C        4.427097    -4.615005    -4.351464
C        3.753862    -5.074089    -3.222799
C        2.968020    -4.196259    -2.473996
C        2.851235    -2.851235    -2.851235
I        1.639675    -1.639675    -1.639675
H        4.847631    -2.934525    -5.617095
H        5.039663    -5.297410    -4.935905
H        3.839637    -6.116192    -2.923892
H        2.451096    -4.577276    -1.595919
Br      -0.933653     5.047991    -2.672094
C       -2.524958     4.163132    -3.217134
C       -3.400448     4.893307    -4.031233
C       -4.592685     4.322373    -4.478509
C       -4.917338     3.018393    -4.115019
C       -4.050438     2.283830    -3.304006
C       -2.851235     2.851235    -2.851235
I       -1.639675     1.639675    -1.639675
H       -3.161651     5.913298    -4.324302
H       -5.266791     4.896001    -5.110185
H       -5.845897     2.571420    -4.462404
H       -4.324851     1.266726    -3.032713
Br      -5.265283    -1.816682     1.571773
C       -4.249648    -2.876542     2.779034
C       -4.972150    -3.720853     3.631985
C       -4.308106    -4.534707     4.550753
C       -2.918114    -4.509827     4.622809
C       -2.190534    -3.671301     3.776439
C       -2.851235    -2.851235     2.851235
I       -1.639675    -1.639675     1.639675
H       -6.058620    -3.752208     3.588424
H       -4.876434    -5.187273     5.209271
H       -2.398503    -5.143196     5.338021
H       -1.105221    -3.668527     3.850543
49
ex_0521 frame6 T-4-1-conf7
Ag       0.000000     0.000000     0.000000
Br       5.190631     2.258243     1.204864
C        4.219925     3.052354     2.632944
C        4.945063     3.881070     3.498855
C        4.313005     4.505698     4.574863
C        2.952563     4.306029     4.792158
C        2.222586     3.481705     3.933984
C        2.851235     2.851235     2.851235
I        1.639675     1.639675     1.639675
H        6.008694     4.047521     3.343036
H        4.883153     5.147481     5.242343
H        2.457906     4.791774     5.630040
H        1.160706     3.340322     4.123262
Br       3.454589    -0.594051    -4.605098
C        3.528694    -2.389740    -3.986789
C        4.315156    -3.277227    -4.732605
C        4.427097    -4.615005    -4.351464
C        3.753862    -5.074089    -3.222799
C        2.968020    -4.196259    -2.473996
C        2.851235    -2.851235    -2.851235
I        1.639675    -1.639675    -1.639675
H        4.847631    -2.934525    -5.617095
H        5.039663    -5.297410    -4.935905
H        3.839637    -6.116192    -2.923892
H        2.451096    -4.577276    -1.595919
Br      -4.229339     0.506466    -3.917931
C       -3.837174     2.354866    -3.713183
C       -4.596264     3.245447    -4.483276
C       -4.376162     4.620765    -4.396639
C       -3.396241     5.114521    -3.539988
C       -2.635344     4.233869    -2.769062
C       -2.851235     2.851235    -2.851235
I       -1.639675     1.639675    -1.639675
H       -5.365786     2.875947    -5.157518
H       -4.969785     5.305313    -4.997878
H       -3.222970     6.185911    -3.470840
H       -1.875222     4.642379    -2.106689
Br      -0.960812    -5.067179     2.625746
C       -2.535769    -4.170770     3.198684
C       -3.410305    -4.900271     4.014411
C       -4.590921    -4.321127     4.481518
C       -4.904827    -3.009554     4.136369
C       -4.038784    -2.275598     3.323892
C       -2.851235    -2.851235     2.851235
I       -1.639675    -1.639675     1.639675
H       -3.179811    -5.926129     4.293310
H       -5.264377    -4.894297     5.114303
H       -5.824322    -2.556178     4.499221
H       -4.304672    -1.252470     3.067149
49
ex_0521 frame7 T-4-1-conf8
Ag       0.000000     0.000000     0.000000
Br       5.190631     2.258243     1.204864
C        4.219925     3.052354     2.632944
C        4.945063     3.881070     3.498855
C        4.313005     4.505698     4.574863
C        2.952563     4.306029     4.792158
C        2.222586     3.481705     3.933984
C        2.851235     2.851235     2.851235
I        1.639675     1.639675     1.639675
H        6.008694     4.047521     3.343036
H        4.883153     5.147481     5.242343
H        2.457906     4.791774     5.630040
H        1.160706     3.340322     4.123262
Br       3.454589    -0.594051    -4.605098
C        3.528694    -2.389740    -3.986789
C        4.315156    -3.277227    -4.732605
C        4.427097    -4.615005    -4.351464
C        3.753862    -5.074089    -3.222799
C        2.968020    -4.196259    -2.473996
C        2.851235    -2.851235    -2.851235
I        1.639675    -1.639675    -1.639675
H        4.847631    -2.934525    -5.617095
H        5.039663    -5.297410    -4.935905
H        3.839637    -6.116192    -2.923892
H        2.451096    -4.577276    -1.595919
Br      -0.721167     3.097065    -4.835506
C       -2.440351     3.386348    -4.078525
C       -3.323352     4.185426    -4.816210
C       -4.606672     4.450536    -4.336359
C       -5.015441     3.918814    -3.116495
C       -4.141686     3.121510    -2.375079
C       -2.851235     2.851235    -2.851235
I       -1.639675     1.639675    -1.639675
H       -3.019536     4.608532    -5.771183
H       -5.285984     5.071800    -4.915194
H       -6.015060     4.124077    -2.740583
H       -4.482801     2.716814    -1.424676
Br      -4.197386    -0.503876     3.952477
C       -3.824448    -2.353835     3.726941
C       -4.584674    -3.244508     4.495806
C       -4.378291    -4.620939     4.394337
C       -3.411024    -5.115719     3.524007
C       -2.649077    -4.234982     2.754215
C       -2.851235    -2.851235     2.851235
I       -1.639675    -1.639675     1.639675
H       -5.344410    -2.874214     5.180626
H       -4.972714    -5.305551     4.994712
H       -3.248459    -6.187978     3.443284
H       -1.898984    -4.644306     2.081000
49
ex_0521 frame8 T-4-1-conf9
Ag       0.000000     0.000000     0.000000
Br       5.190631     2.258243     1.204864
C        4.219925     3.052354     2.632944
C        4.945063     3.881070     3.498855
C        4.313005     4.505698     4.574863
C        2.952563     4.306029     4.792158
C        2.222586     3.481705     3.933984
C        2.851235     2.851235     2.851235
I        1.639675     1.639675     1.639675
H        6.008694     4.047521     3.343036
H        4.883153     5.147481     5.242343
H        2.457906     4.791774     5.630040
H        1.160706     3.340322     4.123262
Br       5.161660    -2.360028    -1.132048
C        4.208389    -3.092885    -2.603949
C        4.934553    -3.917997    -3.472437
C        4.314919    -4.498976    -4.579671
C        2.965945    -4.259010    -4.825795
C        2.235029    -3.437986    -3.965259
C        2.851235    -2.851235    -2.851235
I        1.639675    -1.639675    -1.639675
H        5.989317    -4.115600    -3.294333
H        4.885780    -5.138250    -5.248946
H        2.480981    -4.710698    -5.688041
H        1.182243    -3.264653    -4.177395
Br      -0.933653     5.047991    -2.672094
C       -2.524958     4.163132    -3.217134
C       -3.400448     4.893307    -4.031233
C       -4.592685     4.322373    -4.478509
C       -4.917338     3.018393    -4.115019
C       -4.050438     2.283830    -3.304006
C       -2.851235     2.851235    -2.851235
I       -1.639675     1.639675    -1.639675
H       -3.161651     5.913298    -4.324302
H       -5.266791     4.896001    -5.110185
H       -5.845897     2.571420    -4.462404
H       -4.324851     1.266726    -3.032713
Br      -0.960812    -5.067179     2.625746
C       -2.535769    -4.170770     3.198684
C       -3.410305    -4.900271     4.014411
C       -4.590921    -4.321127     4.481518
C       -4.904827    -3.009554     4.136369
C       -4.038784    -2.275598     3.323892
C       -2.851235    -2.851235     2.851235
I       -1.639675    -1.639675     1.639675
H       -3.179811    -5.926129     4.293310
H       -5.264377    -4.894297     5.114303
H       -5.824322    -2.556178     4.499221
H       -4.304672    -1.252470     3.067149
49
ex_0521 frame9 T-4-1-conf10
Ag       0.000000     0.000000     0.000000
Br       5.190631     2.258243     1.204864
C        4.219925     3.052354     2.632944
C        4.945063     3.881070     3.498855
C        4.313005     4.505698     4.574863
C        2.952563     4.306029     4.792158
C        2.222586     3.481705     3.933984
C        2.851235     2.851235     2.851235
I        1.639675     1.639675     1.639675
H        6.008694     4.047521     3.343036
H        4.883153     5.147481     5.242343
H        2.457906     4.791774     5.630040
H        1.160706     3.340322     4.123262
Br       5.161660    -2.360028    -1.132048
C        4.208389    -3.092885    -2.603949
C        4.934553    -3.917997    -3.472437
C        4.314919    -4.498976    -4.579671
C        2.965945    -4.259010    -4.825795
C        2.235029    -3.437986    -3.965259
C        2.851235    -2.851235    -2.851235
I        1.639675    -1.639675    -1.639675
H        5.989317    -4.115600    -3.294333
H        4.885780    -5.138250    -5.248946
H        2.480981    -4.710698    -5.688041
H        1.182243    -3.264653    -4.177395
Br      -4.229339     0.506466    -3.917931
C       -3.837174     2.354866    -3.713183
C       -4.596264     3.245447    -4.483276
C       -4.376162     4.620765    -4.396639
C       -3.396241     5.114521    -3.539988
C       -2.635344     4.233869    -2.769062
C       -2.851235     2.851235    -2.851235
I       -1.639675     1.639675    -1.639675
H       -5.365786     2.875947    -5.157518
H       -4.969785     5.305313    -4.997878
H       -3.222970     6.185911    -3.470840
H       -1.875222     4.642379    -2.106689
Br      -4.197386    -0.503876     3.952477
C       -3.824448    -2.353835     3.726941
C       -4.584674    -3.244508     4.495806
C       -4.378291    -4.620939     4.394337
C       -3.411024    -5.115719     3.524007
C       -2.649077    -4.234982     2.754215
C       -2.851235    -2.851235     2.851235
I       -1.639675    -1.639675     1.639675
H       -5.344410    -2.874214     5.180626
H       -4.972714    -5.305551     4.994712
H       -3.248459    -6.187978     3.443284
H       -1.898984    -4.644306     2.081000
49
ex_0521 frame10 T-4-1-reembed1
Ag       0.000000     0.000000     0.000000
Br       0.526089     3.757305     4.370342
C        2.362678     3.649233     3.893311
C        3.252568     4.424991     4.647427
C        4.619479     4.407171     4.366915
C        5.105465     3.614110     3.331174
C        4.225444     2.838020     2.574809
C        2.851235     2.851235     2.851235
I        1.639675     1.639675     1.639675
H        2.889069     5.050097     5.460082
H        5.303550     5.012320     4.957106
H        6.170293     3.598673     3.110752
H        4.627797     2.226063     1.770431
Br       4.332116    -3.802239    -0.519382
C        3.878100    -3.667113    -2.360009
C        4.633557    -4.441295    -3.250134
C        4.369407    -4.404241    -4.619916
C        3.348810    -3.593380    -5.108560
C        2.591210    -2.818742    -4.228322
C        2.851235    -2.851235    -2.851235
I        1.639675    -1.639675    -1.639675
H        5.434526    -5.080136    -2.884585
H        4.960519    -5.008309    -5.304148
H        3.141196    -3.562887    -6.175634
H        1.798818    -2.192696    -4.632777
Br      -5.178850     1.173484    -2.301402
C       -4.215231     2.620443    -3.069547
C       -4.940788     3.487470    -3.896727
C       -4.313789     4.576951    -4.502825
C       -2.958009     4.806666    -4.286074
C       -2.227649     3.947471    -3.463153
C       -2.851235     2.851235    -2.851235
I       -1.639675     1.639675    -1.639675
H       -6.000811     3.322040    -4.076397
H       -4.884231     5.245216    -5.143530
H       -2.467290     5.655042    -4.757386
H       -1.169470     4.146606    -3.308214
Br      -5.122690    -1.052115     2.478932
C       -4.192870    -2.572119     3.140233
C       -4.920411    -3.443432     3.961142
C       -4.317479    -4.584924     4.491161
C       -2.983929    -4.862683     4.204136
C       -2.251763    -3.999584     3.386926
C       -2.851235    -2.851235     2.851235
I       -1.639675    -1.639675     1.639675
H       -5.963251    -3.240869     4.195127
H       -4.889293    -5.256153     5.127530
H       -2.511985    -5.751637     4.616095
H       -1.211214    -4.236818     3.176259
49
ex_0521 frame11 T-4-1-reembed2
Ag       0.000000     0.000000     0.000000
Br       3.757305     4.370342     0.526089
C        3.649233     3.893311     2.362678
C        4.424991     4.647427     3.252568
C        4.407171     4.366915     4.619479
C        3.614110     3.331174     5.105465
C        2.838020     2.574809     4.225444
C        2.851235     2.851235     2.851235
I        1.639675     1.639675     1.639675
H        5.050097     5.460082     2.889069
H        5.012320     4.957106     5.303550
H        3.598673     3.110752     6.170293
H        2.226063     1.770431     4.627797
Br       4.332116    -3.802239    -0.519382
C        3.878100    -3.667113    -2.360009
C        4.633557    -4.441295    -3.250134
C        4.369407    -4.404241    -4.619916
C        3.348810    -3.593380    -5.108560
C        2.591210    -2.818742    -4.228322
C        2.851235    -2.851235    -2.851235
I        1.639675    -1.639675    -1.639675
H        5.434526    -5.080136    -2.884585
H        4.960519    -5.008309    -5.304148
H        3.141196    -3.562887    -6.175634
H        1.798818    -2.192696    -4.632777
Br      -5.178850     1.173484    -2.301402
C       -4.215231     2.620443    -3.069547
C       -4.940788     3.487470    -3.896727
C       -4.313789     4.576951    -4.502825
C       -2.958009     4.806666    -4.286074
C       -2.227649     3.947471    -3.463153
C       -2.851235     2.851235    -2.851235
I       -1.639675     1.639675    -1.639675
H       -6.000811     3.322040    -4.076397
H       -4.884231     5.245216    -5.143530
H       -2.467290     5.655042    -4.757386
H       -1.169470     4.146606    -3.308214
Br      -5.122690    -1.052115     2.478932
C       -4.192870    -2.572119     3.140233
C       -4.920411    -3.443432     3.961142
C       -4.317479    -4.584924     4.491161
C       -2.983929    -4.862683     4.204136
C       -2.251763    -3.999584     3.386926
C       -2.851235    -2.851235     2.851235
I       -1.639675    -1.639675     1.639675
H       -5.963251    -3.240869     4.195127
H       -4.889293    -5.256153     5.127530
H       -2.511985    -5.751637     4.616095
H       -1.211214    -4.236818     3.176259
49
ex_0521 frame12 T-4-1-reembed3
Ag       0.000000     0.000000     0.000000
Br       4.370342     0.526089     3.757305
C        3.893311     2.362678     3.649233
C        4.647427     3.252568     4.424991
C        4.366915     4.619479     4.407171
C        3.331174     5.105465     3.614110
C        2.574809     4.225444     2.838020
C        2.851235     2.851235     2.851235
I        1.639675     1.639675     1.639675
H        5.460082     2.889069     5.050097
H        4.957106     5.303550     5.012320
H        3.110752     6.170293     3.598673
H        1.770431     4.627797     2.226063
Br       4.332116    -3.802239    -0.519382
C        3.878100    -3.667113    -2.360009
C        4.633557    -4.441295    -3.250134
C        4.369407    -4.404241    -4.619916
C        3.348810    -3.593380    -5.108560
C        2.591210    -2.818742    -4.228322
C        2.851235    -2.851235    -2.851235
I        1.639675    -1.639675    -1.639675
H        5.434526    -5.080136    -2.884585
H        4.960519    -5.008309    -5.304148
H        3.141196    -3.562887    -6.175634
H        1.798818    -2.192696    -4.632777
Br      -5.178850     1.173484    -2.301402
C       -4.215231     2.620443    -3.069547
C       -4.940788     3.487470    -3.896727
C       -4.313789     4.576951    -4.502825
C       -2.958009     4.806666    -4.286074
C       -2.227649     3.947471    -3.463153
C       -2.851235     2.851235    -2.851235
I       -1.639675     1.639675    -1.639675
H       -6.000811     3.322040    -4.076397
H       -4.884231     5.245216    -5.143530
H       -2.467290     5.655042    -4.757386
H       -1.169470     4.146606    -3.308214
Br      -5.122690    -1.052115     2.478932
C       -4.192870    -2.572119     3.140233
C       -4.920411    -3.443432     3.961142
C       -4.317479    -4.584924     4.491161
C       -2.983929    -4.862683     4.204136
C       -2.251763    -3.999584     3.386926
C       -2.851235    -2.851235     2.851235
I       -1.639675    -1.639675     1.639675
H       -5.963251    -3.240869     4.195127
H       -4.889293    -5.256153     5.127530
H       -2.511985    -5.751637     4.616095
H       -1.211214    -4.236818     3.176259
49
ex_0521 frame13 T-4-1-reembed4
Ag       0.000000     0.000000     0.000000
Br       0.526089     3.757305     4.370342
C        2.362678     3.649233     3.893311
C        3.252568     4.424991     4.647427
C        4.619479     4.407171     4.366915
C        5.105465     3.614110     3.331174
C        4.225444     2.838020     2.574809
C        2.851235     2.851235     2.851235
I        1.639675     1.639675     1.639675
H        2.889069     5.050097     5.460082
H        5.303550     5.012320     4.957106
H        6.170293     3.598673     3.110752
H        4.627797     2.226063     1.770431
Br       3.802239    -0.519382    -4.332116
C        3.667113    -2.360009    -3.878100
C        4.441295    -3.250134    -4.633557
C        4.404241    -4.619916    -4.369407
C        3.593380    -5.108560    -3.348810
C        2.818742    -4.228322    -2.591210
C        2.851235    -2.851235    -2.851235
I        1.639675    -1.639675    -1.639675
H        5.080136    -2.884585    -5.434526
H        5.008309    -5.304148    -4.960519
H        3.562887    -6.175634    -3.141196
H        2.192696    -4.632777    -1.798818
Br      -5.178850     1.173484    -2.301402
C       -4.215231     2.620443    -3.069547
C       -4.940788     3.487470    -3.896727
C       -4.313789     4.576951    -4.502825
C       -2.958009     4.806666    -4.286074
C       -2.227649     3.947471    -3.463153
C       -2.851235     2.851235    -2.851235
I       -1.639675     1.639675    -1.639675
H       -6.000811     3.322040    -4.076397
H       -4.884231     5.245216    -5.143530
H       -2.467290     5.655042    -4.757386
H       -1.169470     4.146606    -3.308214
Br      -5.122690    -1.052115     2.478932
C       -4.192870    -2.572119     3.140233
C       -4.920411    -3.443432     3.961142
C       -4.317479    -4.584924     4.491161
C       -2.983929    -4.862683     4.204136
C       -2.251763    -3.999584     3.386926
C       -2.851235    -2.851235     2.851235
I       -1.639675    -1.639675     1.639675
H       -5.963251    -3.240869     4.195127
H       -4.889293    -5.256153     5.127530
H       -2.511985    -5.751637     4.616095
H       -1.211214    -4.236818     3.176259
49
ex_0521 frame14 T-4-1-reembed5
Ag       0.000000     0.000000     0.000000
Br       0.526089     3.757305     4.370342
C        2.362678     3.649233     3.893311
C        3.252568     4.424991     4.647427
C        4.619479     4.407171     4.366915
C        5.105465     3.614110     3.331174
C        4.225444     2.838020     2.574809
C        2.851235     2.851235     2.851235
I        1.639675     1.639675     1.639675
H        2.889069     5.050097     5.460082
H        5.303550     5.012320     4.957106
H        6.170293     3.598673     3.110752
H        4.627797     2.226063     1.770431
Br       0.519382    -4.332116    -3.802239
C        2.360009    -3.878100    -3.667113
C        3.250134    -4.633557    -4.441295
C        4.619916    -4.369407    -4.404241
C        5.108560    -3.348810    -3.593380
C        4.228322    -2.591210    -2.818742
C        2.851235    -2.851235    -2.851235
I        1.639675    -1.639675    -1.639675
H        2.884585    -5.434526    -5.080136
H        5.304148    -4.960519    -5.008309
H        6.175634    -3.141196    -3.562887
H        4.632777    -1.798818    -2.192696
Br      -5.178850     1.173484    -2.301402
C       -4.215231     2.620443    -3.069547
C       -4.940788     3.487470    -3.896727
C       -4.313789     4.576951    -4.502825
C       -2.958009     4.806666    -4.286074
C       -2.227649     3.947471    -3.463153
C       -2.851235     2.851235    -2.851235
I       -1.639675     1.639675    -1.639675
H       -6.000811     3.322040    -4.076397
H       -4.884231     5.245216    -5.143530
H       -2.467290     5.655042    -4.757386
H       -1.169470     4.146606    -3.308214
Br      -5.122690    -1.052115     2.478932
C       -4.192870    -2.572119     3.140233
C       -4.920411    -3.443432     3.961142
C       -4.317479    -4.584924     4.491161
C       -2.983929    -4.862683     4.204136
C       -2.251763    -3.999584     3.386926
C       -2.851235    -2.851235     2.851235
I       -1.639675    -1.639675     1.639675
H       -5.963251    -3.240869     4.195127
H       -4.889293    -5.256153     5.127530
H       -2.511985    -5.751637     4.616095
H       -1.211214    -4.236818     3.176259
49
ex_0521 frame15 T-4-1-reembed6
Ag       0.000000     0.000000     0.000000
Br       0.526089     3.757305     4.370342
C        2.362678     3.649233     3.893311
C        3.252568     4.424991     4.647427
C        4.619479     4.407171     4.366915
C        5.105465     3.614110     3.331174
C        4.225444     2.838020     2.574809
C        2.851235     2.851235     2.851235
I        1.639675     1.639675     1.639675
H        2.889069     5.050097     5.460082
H        5.303550     5.012320     4.957106
H        6.170293     3.598673     3.110752
H        4.627797     2.226063     1.770431
Br       4.332116    -3.802239    -0.519382
C        3.878100    -3.667113    -2.360009
C        4.633557    -4.441295    -3.250134
C        4.369407    -4.404241    -4.619916
C        3.348810    -3.593380    -5.108560
C        2.591210    -2.818742    -4.228322
C        2.851235    -2.851235    -2.851235
I        1.639675    -1.639675    -1.639675
H        5.434526    -5.080136    -2.884585
H        4.960519    -5.008309    -5.304148
H        3.141196    -3.562887    -6.175634
H        1.798818    -2.192696    -4.632777
Br      -1.173484     2.301402    -5.178850
C       -2.620443     3.069547    -4.215231
C       -3.487470     3.896727    -4.940788
C       -4.576951     4.502825    -4.313789
C       -4.806666     4.286074    -2.958009
C       -3.947471     3.463153    -2.227649
C       -2.851235     2.851235    -2.851235
I       -1.639675     1.639675    -1.639675
H       -3.322040     4.076397    -6.000811
H       -5.245216     5.143530    -4.884231
H       -5.655042     4.757386    -2.467290
H       -4.146606     3.308214    -1.169470
Br      -5.122690    -1.052115     2.478932
C       -4.192870    -2.572119     3.140233
C       -4.920411    -3.443432     3.961142
C       -4.317479    -4.584924     4.491161
C       -2.983929    -4.862683     4.204136
C       -2.251763    -3.999584     3.386926
C       -2.851235    -2.851235     2.851235
I       -1.639675    -1.639675     1.639675
H       -5.963251    -3.240869     4.195127
H       -4.889293    -5.256153     5.127530
H       -2.511985    -5.751637     4.616095
H       -1.211214    -4.236818     3.176259
49
ex_0521 frame16 T-4-1-reembed7
Ag       0.000000     0.000000     0.000000
Br       0.526089     3.757305     4.370342
C        2.362678     3.649233     3.893311
C        3.252568     4.424991     4.647427
C        4.619479     4.407171     4.366915
C        5.105465     3.614110     3.331174
C        4.225444     2.838020     2.574809
C        2.851235     2.851235     2.851235
I        1.639675     1.639675     1.639675
H        2.889069     5.050097     5.460082
H        5.303550     5.012320     4.957106
H        6.170293     3.598673     3.110752
H        4.627797     2.226063     1.770431
Br       4.332116    -3.802239    -0.519382
C        3.878100    -3.667113    -2.360009
C        4.633557    -4.441295    -3.250134
C        4.369407    -4.404241    -4.619916
C        3.348810    -3.593380    -5.108560
C        2.591210    -2.818742    -4.228322
C        2.851235    -2.851235    -2.851235
I        1.639675    -1.639675    -1.639675
H        5.434526    -5.080136    -2.884585
H        4.960519    -5.008309    -5.304148
H        3.141196    -3.562887    -6.175634
H        1.798818    -2.192696    -4.632777
Br      -2.301402     5.178850    -1.173484
C       -3.069547     4.215231    -2.620443
C       -3.896727     4.940788    -3.487470
C       -4.502825     4.313789    -4.576951
C       -4.286074     2.958009    -4.806666
C       -3.463153     2.227649    -3.947471
C       -2.851235     2.851235    -2.851235
I       -1.639675     1.639675    -1.639675
H       -4.076397     6.000811    -3.322040
H       -5.143530     4.884231    -5.245216
H       -4.757386     2.467290    -5.655042
H       -3.308214     1.169470    -4.146606
Br      -5.122690    -1.052115     2.478932
C       -4.192870    -2.572119     3.140233
C       -4.920411    -3.443432     3.961142
C       -4.317479    -4.584924     4.491161
C       -2.983929    -4.862683     4.204136
C       -2.251763    -3.999584     3.386926
C       -2.851235    -2.851235     2.851235
I       -1.639675    -1.639675     1.639675
H       -5.963251    -3.240869     4.195127
H       -4.889293    -5.256153     5.127530
H       -2.511985    -5.751637     4.616095
H       -1.211214    -4.236818     3.176259
49
ex_0521 frame17 T-4-1-reembed8
Ag       0.000000     0.000000     0.000000
Br       0.526089     3.757305     4.370342
C        2.362678     3.649233     3.893311
C        3.252568     4.424991     4.647427
C        4.619479     4.407171     4.366915
C        5.105465     3.614110     3.331174
C        4.225444     2.838020     2.574809
C        2.851235     2.851235     2.851235
I        1.639675     1.639675     1.639675
H        2.889069     5.050097     5.460082
H        5.303550     5.012320     4.957106
H        6.170293     3.598673     3.110752
H        4.627797     2.226063     1.770431
Br       4.332116    -3.802239    -0.519382
C        3.878100    -3.667113    -2.360009
C        4.633557    -4.441295    -3.250134
C        4.369407    -4.404241    -4.619916
C        3.348810    -3.593380    -5.108560
C        2.591210    -2.818742    -4.228322
C        2.851235    -2.851235    -2.851235
I        1.639675    -1.639675    -1.639675
H        5.434526    -5.080136    -2.884585
H        4.960519    -5.008309    -5.304148
H        3.141196    -3.562887    -6.175634
H        1.798818    -2.192696    -4.632777
Br      -5.178850     1.173484    -2.301402
C       -4.215231     2.620443    -3.069547
C       -4.940788     3.487470    -3.896727
C       -4.313789     4.576951    -4.502825
C       -2.958009     4.806666    -4.286074
C       -2.227649     3.947471    -3.463153
C       -2.851235     2.851235    -2.851235
I       -1.639675     1.639675    -1.639675
H       -6.000811     3.322040    -4.076397
H       -4.884231     5.245216    -5.143530
H       -2.467290     5.655042    -4.757386
H       -1.169470     4.146606    -3.308214
Br      -1.052115    -2.478932     5.122690
C       -2.572119    -3.140233     4.192870
C       -3.443432    -3.961142     4.920411
C       -4.584924    -4.491161     4.317479
C       -4.862683    -4.204136     2.983929
C       -3.999584    -3.386926     2.251763
C       -2.851235    -2.851235     2.851235
I       -1.639675    -1.639675     1.639675
H       -3.240869    -4.195127     5.963251
H       -5.256153    -5.127530     4.889293
H       -5.751637    -4.616095     2.511985
H       -4.236818    -3.176259     1.211214
49
ex_0521 frame18 SP-4-1
Ag       0.000000     0.000000     0.000000
Br       4.996238    -2.917363     0.143569
C        5.718783    -1.161584     0.057168
C        7.115835    -1.058544     0.052090
C        7.732779     0.191672    -0.009464
C        6.957504     1.346491    -0.066301
C        5.564660     1.252652    -0.061660
C        4.938485     0.000000    -0.000000
I        2.840000     0.000000     0.000000
H        7.736061    -1.951117     0.096025
H        8.817858     0.262919    -0.012991
H        7.436110     2.321843    -0.114327
H        4.979236     2.168432    -0.106728
Br       2.920810     4.996238     0.021990
C        1.162956     5.718783     0.008759
C        1.059795     7.115835     0.007976
C       -0.191900     7.732779    -0.001477
C       -1.348084     6.957504    -0.010187
C       -1.254133     5.564660    -0.009456
C       -0.000000     4.938485    -0.000000
I        0.000000     2.840000     0.000000
H        1.953423     7.736061     0.014714
H       -0.263232     8.817858    -0.002034
H       -2.324589     7.436110    -0.017565
H       -2.170995     4.979236    -0.016360
Br      -4.996238     2.920877    -0.009807
C       -5.718783     1.162983    -0.003901
C       -7.115835     1.059819    -0.003561
C       -7.732779    -0.191905     0.000613
C       -6.957504    -1.348115     0.004488
C       -5.564660    -1.254162     0.004197
C       -4.938485    -0.000000     0.000000
I       -2.840000     0.000000     0.000000
H       -7.736061     1.953467    -0.006552
H       -8.817858    -0.263238     0.000831
H       -7.436110    -2.324643     0.007741
H       -4.979236    -2.171044     0.007274
Br      -2.920190    -4.996238    -0.064097
C       -1.162709    -5.718783    -0.025517
C       -1.059570    -7.115835    -0.023260
C        0.191860    -7.732779     0.004179
C        1.347798    -6.957504     0.029545
C        1.253867    -5.564660     0.027507
C       -0.000000    -4.938485    -0.000000
I        0.000000    -2.840000     0.000000
H       -1.953008    -7.736061    -0.042861
H        0.263177    -8.817858     0.005724
H        2.324097    -7.436110     0.050948
H        2.170534    -4.979236     0.047627
