116
ex_0508 frame0 Isomer 1
C       -6.549239    -1.837989    -1.759399
O       -5.460121    -2.014799    -0.932293
C       -4.555721    -2.961743    -1.051188
O       -4.598367    -3.750079    -1.968745
C       -3.431058    -3.094014    -0.040582
N       -3.561068    -2.080498     0.968086
C       -4.322159    -2.232608     2.124891
C       -4.260203    -1.039650     2.848173
N       -3.447031    -0.167102     2.127354
C       -3.149303     1.159707     2.506912
C       -4.209948     2.050528     2.559353
C       -5.589356     1.590534     2.239563
C       -3.988324     3.377434     2.911098
C       -2.713122     3.836396     3.220438
C       -2.500978     5.276994     3.602901
C       -1.641216     2.949446     3.171663
C       -1.851999     1.603986     2.828590
C       -0.696236     0.671657     2.811836
C       -2.994518    -0.810228     0.989827
Se      -1.882856    -0.061704    -0.182485
Cd       0.121468    -1.346125    -1.346722
Cl      -0.811552    -2.486451    -3.427263
Se       1.170957    -3.183539     0.248578
C        2.929020    -3.593825     0.322219
N        3.635937    -4.448660    -0.523222
C        3.129539    -5.199768    -1.636483
C        3.358251    -4.502554    -2.944267
O        4.476373    -4.109813    -3.236194
O        2.345669    -4.324197    -3.760339
C        2.372467    -3.707918    -5.000145
C        4.966526    -4.466182    -0.108201
C        5.085004    -3.621568     0.994333
N        3.823656    -3.115858     1.268175
C        3.586065    -2.268176     2.351368
C        2.857361    -2.802025     3.413238
C        2.337779    -4.185732     3.359613
C        2.609243    -2.044682     4.533872
C        3.083208    -0.750810     4.621339
C        2.817581     0.008618     5.854195
C        3.798828    -0.187783     3.552710
C        4.047626    -0.947313     2.404391
C        4.801755    -0.341206     1.249755
Se       1.940177     0.388290    -2.187319
C        1.924019     1.035793    -3.869216
N        2.903677     0.792203    -4.797698
C        4.086248     0.016783    -4.567863
C        5.203365     0.909737    -4.055440
O        5.994502     1.330211    -4.863577
O        5.323194     1.225263    -2.786174
C        6.349984     2.029167    -2.294235
C        2.560201     1.423222    -6.003034
C        1.333533     2.079440    -5.785964
N        0.971799     1.853234    -4.450905
C       -0.171161     2.376986    -3.821570
C        0.039268     3.399380    -2.897338
C        1.411763     3.867272    -2.601968
C       -1.023930     3.987099    -2.247652
C       -2.315683     3.561948    -2.497957
C       -3.431602     4.226484    -1.775981
C       -2.548687     2.522122    -3.418868
C       -1.468809     1.920586    -4.085353
C       -1.696659     0.801953    -5.069268
H       -6.620214    -2.676778    -2.471241
H       -7.479700    -1.779485    -1.161130
H       -6.405766    -0.870589    -2.265744
H       -2.408623    -3.138703    -0.494255
H       -3.535694    -4.094312     0.462163
H       -4.866725    -3.089609     2.381722
H       -4.755380    -0.828627     3.762787
H       -5.600708     0.893437     1.367979
H       -6.030919     1.126085     3.143848
H       -6.196508     2.466983     1.986725
H       -4.823424     4.045544     2.948576
H       -1.535188     5.649912     3.210740
H       -3.285276     5.911500     3.144569
H       -2.534509     5.426067     4.702749
H       -0.656634     3.308055     3.422793
H       -1.022024    -0.386924     2.749727
H       -0.217909     0.787305     3.788593
H        0.039745     0.947955     2.025728
H        2.081355    -5.472405    -1.481143
H        3.733391    -6.139139    -1.651496
H        1.770438    -4.289803    -5.743823
H        3.408899    -3.576590    -5.373238
H        1.918434    -2.699399    -4.897824
H        5.738657    -5.033363    -0.540917
H        5.955093    -3.440816     1.563430
H        2.614911    -4.651103     4.311206
H        2.830082    -4.775992     2.565465
H        1.232444    -4.199650     3.270406
H        2.057724    -2.495784     5.353162
H        3.467022    -0.422082     6.644378
H        1.754973    -0.180373     6.131318
H        3.009264     1.086221     5.695268
H        4.169450     0.819981     3.619364
H        5.085319     0.678633     1.516915
H        5.750155    -0.875195     1.023591
H        4.155238    -0.246748     0.350062
H        3.817026    -0.762970    -3.826021
H        4.384741    -0.461907    -5.530128
H        7.351662     1.515756    -2.281656
H        6.130709     2.312543    -1.243265
H        6.393638     2.952259    -2.917876
H        3.130296     1.409845    -6.900509
H        0.816215     2.669593    -6.484841
H        1.695869     3.514615    -1.596473
H        1.463143     4.967504    -2.670192
H        2.137776     3.456310    -3.316193
H       -0.827228     4.788168    -1.540823
H       -3.630860     5.224022    -2.223815
H       -3.103612     4.372322    -0.723694
H       -4.353474     3.623271    -1.787263
H       -3.553362     2.199082    -3.601978
H       -2.214440     1.158491    -5.979409
H       -0.731644     0.357552    -5.376034
H       -2.291318    -0.009417    -4.613345
116
ex_0508 frame1 conf2
C        2.821033     5.353605    -1.392854
O        3.271040     4.202855    -0.752179
C        3.499156     3.050069    -1.337436
O        3.325100     2.919469    -2.536018
C        3.976060     1.871216    -0.555943
N        4.148809     2.241254     0.817235
C        5.319603     2.756958     1.386756
C        5.047833     3.003818     2.754844
N        3.717500     2.627414     2.985676
C        3.084375     2.749190     4.252029
C        2.189365     3.808949     4.499195
C        1.868203     4.827056     3.454835
C        1.584325     3.917573     5.745971
C        1.857051     3.010931     6.759233
C        1.217823     3.172830     8.094703
C        2.724074     1.958133     6.522647
C        3.347966     1.820767     5.281182
C        4.282221     0.686559     5.079547
C        3.183529     2.152863     1.788131
Se       1.529978     1.529978     1.529978
Cd       0.000000     0.000000     0.000000
Cl      -1.472404    -1.472272     1.471069
Se      -1.529978     1.529978    -1.529978
C       -2.067900     3.192523    -1.875317
N       -2.029567     4.244334    -0.992685
C       -1.558586     4.183138     0.359993
C       -2.674677     3.851777     1.321228
O       -2.435137     3.810527     2.509460
O       -3.894618     3.609585     0.882628
C       -5.004086     3.343352     1.688053
C       -2.527049     5.385993    -1.634149
C       -2.887233     5.008916    -2.944656
N       -2.596297     3.649609    -3.076999
C       -2.825284     2.914836    -4.262958
C       -3.997993     2.162876    -4.423840
C       -5.020490     2.112251    -3.349091
C       -4.210017     1.455779    -5.599927
C       -3.277893     1.506892    -6.631426
C       -3.545267     0.770142    -7.895074
C       -2.103650     2.246536    -6.472480
C       -1.874328     2.945542    -5.286630
C       -0.618259     3.719043    -5.120395
Se       1.529978    -1.529978    -1.529978
C        1.752841    -3.036612    -2.493921
N        0.755444    -3.794379    -3.097201
C       -0.651441    -3.519177    -3.070254
C       -1.050388    -2.681479    -4.257119
O       -1.144412    -1.475769    -4.110357
O       -1.293871    -3.226326    -5.428192
C       -1.745811    -2.506567    -6.536550
C        1.351513    -4.879568    -3.741271
C        2.740948    -4.786780    -3.525707
N        2.972384    -3.638525    -2.770744
C        4.267328    -3.225823    -2.387766
C        4.774230    -3.362218    -1.079895
C        3.944368    -3.955695     0.010808
C        6.079052    -2.933963    -0.797074
C        6.872928    -2.397554    -1.816272
C        8.274770    -1.983103    -1.554057
C        6.353794    -2.245638    -3.095376
C        5.065499    -2.663507    -3.387970
C        4.540881    -2.508248    -4.774263
H        2.143100     5.094955    -2.231476
H        3.672117     5.945416    -1.799802
H        2.254434     6.001323    -0.679693
H        3.209952     1.063149    -0.653376
H        4.938940     1.515098    -0.971420
H        6.224640     2.932353     0.861357
H        5.706082     3.410573     3.484012
H        0.819523     5.169032     3.582145
H        2.536640     5.699013     3.592764
H        1.978603     4.436089     2.433475
H        0.924462     4.740667     5.941155
H        0.384972     3.898856     8.016145
H        1.960906     3.601099     8.794562
H        0.835706     2.198092     8.475422
H        2.924754     1.256130     7.316738
H        3.766629    -0.272444     5.299158
H        4.739195     0.669784     4.073636
H        5.085234     0.839038     5.815866
H       -1.125108     5.169199     0.617702
H       -0.766075     3.402313     0.437536
H       -4.854230     3.670715     2.736716
H       -5.931978     3.845460     1.323154
H       -5.217387     2.253639     1.710492
H       -2.611258     6.349152    -1.202478
H       -3.300127     5.626568    -3.700167
H       -5.631979     1.188654    -3.434750
H       -4.528082     2.089137    -2.363766
H       -5.646391     3.022122    -3.442525
H       -5.130288     0.904782    -5.727512
H       -4.602210     0.947528    -8.178904
H       -3.395799    -0.314926    -7.737446
H       -2.875821     1.104160    -8.710264
H       -1.367676     2.285673    -7.264033
H        0.185292     3.222564    -5.697984
H       -0.301828     3.762155    -4.056866
H       -0.817970     4.741939    -5.492500
H       -0.920069    -2.982585    -2.137251
H       -1.176665    -4.500938    -3.069770
H       -1.077129    -2.660522    -7.413240
H       -1.807738    -1.414916    -6.332455
H       -2.771841    -2.821625    -6.821295
H        0.828144    -5.623438    -4.280745
H        3.500068    -5.438050    -3.876961
H        2.969176    -4.333091    -0.363938
H        3.805635    -3.238103     0.846807
H        4.509842    -4.819542     0.393180
H        6.493727    -3.051907     0.196229
H        8.353446    -0.876821    -1.588446
H        8.648173    -2.357280    -0.583561
H        8.897717    -2.421834    -2.356750
H        6.971838    -1.839872    -3.884965
H        3.459221    -2.254783    -4.766931
H        5.071688    -1.685225    -5.278616
H        4.744359    -3.437818    -5.340242
116
ex_0508 frame2 conf6
C       -0.433086     2.861680     5.941878
O        0.754776     2.550397     5.292308
C        1.367443     1.392564     5.380867
O        0.914084     0.496835     6.074518
C        2.639813     1.141905     4.631715
N        2.993383     2.312104     3.890041
C        3.814630     3.369108     4.361568
C        3.892455     4.327030     3.317937
N        3.120307     3.828046     2.241473
C        2.953164     4.510719     1.023485
C        3.588033     4.099667    -0.168751
C        4.458548     2.873089    -0.197676
C        3.403399     4.847331    -1.343482
C        2.624915     6.015735    -1.312236
C        2.493553     6.896674    -2.533311
C        1.958041     6.373855    -0.132673
C        2.129834     5.637607     1.030760
C        1.432771     6.052324     2.290755
C        2.579564     2.587631     2.587005
Se       1.529978     1.529978     1.529978
Cd       0.000000     0.000000     0.000000
Cl      -1.473144    -1.472151     1.470448
Se      -1.529978     1.529978    -1.529978
C       -2.605735     2.599870    -2.595420
N       -2.659115     3.975526    -2.610178
C       -1.869233     4.811370    -1.800462
C       -0.639766     5.089057    -2.556469
O        0.136770     5.892704    -2.072654
O       -0.380367     4.502988    -3.702379
C        0.763113     4.698456    -4.478971
C       -3.619127     4.417367    -3.553619
C       -4.158319     3.256501    -4.159739
N       -3.511663     2.148564    -3.559555
C       -3.759515     0.803436    -3.897191
C       -4.427841    -0.082736    -3.020567
C       -4.891777     0.377321    -1.657451
C       -4.661187    -1.407533    -3.427092
C       -4.251372    -1.833586    -4.703610
C       -4.533860    -3.226185    -5.171647
C       -3.573586    -0.952171    -5.546986
C       -3.319521     0.354882    -5.151860
C       -2.574397     1.271018    -6.078597
Se       1.529978    -1.529978    -1.529978
C        2.601987    -2.603992    -2.595683
N        3.961341    -2.432404    -2.841086
C        4.773915    -1.390378    -2.279040
C        5.335652    -1.856905    -0.962961
O        6.097951    -1.127260    -0.350820
O        5.010109    -3.032964    -0.479754
C        5.527221    -3.574263     0.685769
C        4.411080    -3.445135    -3.729123
C        3.291724    -4.275084    -4.011220
N        2.197697    -3.745182    -3.287892
C        0.901903    -4.293441    -3.275129
C       -0.188622    -3.663470    -3.905293
C       -0.024211    -2.339395    -4.620821
C       -1.441544    -4.276562    -3.865703
C       -1.620943    -5.508590    -3.213774
C       -2.961901    -6.179279    -3.182134
C       -0.536939    -6.116583    -2.587196
C        0.716764    -5.514452    -2.602441
C        1.855676    -6.182248    -1.896876
H       -0.799086     2.030083     6.580658
H       -1.219892     3.091709     5.194331
H       -0.287703     3.748215     6.591342
H        3.461202     0.865330     5.322062
H        2.469578     0.286875     3.940272
H        4.263085     3.439321     5.339962
H        4.409119     5.276296     3.328803
H        4.506773     2.353511     0.778844
H        5.486195     3.209856    -0.438316
H        4.110829     2.141242    -0.956359
H        3.892095     4.537449    -2.259908
H        1.687816     7.653898    -2.395711
H        3.443749     7.361247    -2.813380
H        2.192069     6.359093    -3.412171
H        1.327524     7.252819    -0.113489
H        1.104973     5.166384     2.878163
H        2.166181     6.628557     2.888841
H        0.535549     6.668270     2.080693
H       -1.590319     4.309880    -0.844534
H       -2.407257     5.744157    -1.550411
H        0.827649     3.974471    -5.308353
H        0.772236     5.721543    -4.936759
H        1.676470     4.458903    -3.893842
H       -3.840324     5.446110    -3.793052
H       -4.886959     3.203667    -4.954329
H       -4.286275    -0.094176    -0.854313
H       -5.961099     0.118523    -1.516121
H       -4.817352     1.476753    -1.539261
H       -5.183841    -2.091094    -2.766616
H       -3.867002    -3.481795    -6.026506
H       -5.585726    -3.326834    -5.491246
H       -4.354016    -3.945206    -4.358533
H       -3.241296    -1.278583    -6.523586
H       -3.227970     1.544509    -6.930644
H       -2.222738     2.189458    -5.568953
H       -1.663708     0.759113    -6.447647
H        4.155609    -0.483578    -2.089627
H        5.561394    -1.097031    -3.000479
H        4.892142    -4.419522     1.022153
H        6.557426    -3.956093     0.517875
H        5.530565    -2.817918     1.500002
H        5.420332    -3.576550    -4.083035
H        3.259546    -5.166601    -4.620545
H       -0.535871    -1.523972    -4.063820
H       -0.450251    -2.402634    -5.643781
H        1.039843    -2.057685    -4.738570
H       -2.242869    -3.789326    -4.361583
H       -2.972248    -6.970637    -2.402967
H       -3.174264    -6.655888    -4.162798
H       -3.757873    -5.463928    -2.905852
H       -0.664374    -7.062532    -2.078164
H        2.164617    -7.081203    -2.464982
H        2.718898    -5.502187    -1.765337
H        1.531261    -6.467889    -0.876505
116
ex_0508 frame3 square-planar trans
C        4.402197     0.011655     4.970901
O        4.176713    -0.682148     3.809115
C        3.322343    -1.662441     3.633211
O        2.527956    -1.971892     4.506213
C        3.342051    -2.372039     2.376548
N        4.359079    -1.910074     1.452409
C        5.648539    -2.483496     1.324364
C        6.331756    -1.750622     0.323111
N        5.462341    -0.732052    -0.129965
C        5.757730     0.262407    -1.122399
C        6.673324     1.257000    -0.785178
C        7.316796     1.240412     0.562262
C        6.984142     2.266069    -1.712638
C        6.401184     2.270365    -2.988256
C        6.749617     3.327301    -3.985593
C        5.491605     1.284571    -3.330100
C        5.167632     0.281517    -2.423343
C        4.209900    -0.739841    -2.851687
C        4.246120    -0.939539     0.473983
Se       2.650000     0.000000     0.000000
Cd       0.000000     0.000000     0.000000
Cl      -2.549431    -0.001736     0.001325
Se       0.000000     2.650000     0.000000
C        0.934133     4.301620    -0.287797
N        2.117799     4.497431    -0.980970
C        2.948206     3.470105    -1.568660
C        2.656094     3.401174    -3.044365
O        2.704566     4.410815    -3.727759
O        2.349821     2.244003    -3.582719
C        2.139938     1.972854    -4.923855
C        2.387709     5.891284    -1.021582
C        1.343194     6.540263    -0.317262
N        0.485163     5.528907     0.180871
C       -0.641057     5.770505     1.019979
C       -0.644041     5.329609     2.362282
C        0.515333     4.569325     2.946603
C       -1.742280     5.599189     3.176129
C       -2.835675     6.317970     2.697760
C       -3.966683     6.635591     3.624181
C       -2.865946     6.734498     1.360912
C       -1.780621     6.462251     0.508735
C       -1.843809     6.908721    -0.933315
Se       0.000000    -2.650000     0.000000
C        1.085551    -4.225292     0.195268
N        2.418023    -4.364325    -0.135952
C        3.227489    -3.356834    -0.691681
C        3.065238    -3.433712    -2.322553
O        3.983704    -3.870835    -2.987666
O        1.964547    -3.031604    -2.906736
C        1.928608    -2.721958    -4.255713
C        2.864166    -5.664896     0.160280
C        1.757651    -6.359421     0.695438
N        0.667416    -5.466141     0.634828
C       -0.654851    -5.811981     0.977495
C       -1.548524    -5.935766    -0.121496
C       -1.111737    -5.661493    -1.539574
C       -2.871235    -6.322288     0.111429
C       -3.320937    -6.574914     1.409910
C       -4.738099    -7.006599     1.628667
C       -2.443303    -6.422526     2.496167
C       -1.113961    -6.033410     2.283923
C       -0.183199    -5.854433     3.459501
H        3.801407    -0.377028     5.818890
H        5.478469    -0.077044     5.222462
H        4.153880     1.075927     4.792557
H        2.337591    -2.329259     1.855994
H        3.521794    -3.471949     2.571651
H        6.022831    -3.324247     1.894315
H        7.339067    -1.922385    -0.025587
H        6.535780     1.084019     1.338524
H        8.044005     0.402732     0.606585
H        7.829320     2.196343     0.769009
H        7.696049     3.032069    -1.450010
H        5.845739     3.639621    -4.553378
H        7.178936     4.215708    -3.483812
H        7.489026     2.907062    -4.700899
H        5.031266     1.287990    -4.315135
H        4.149844    -1.466838    -2.068058
H        4.601369    -1.225617    -3.769582
H        3.206964    -0.293817    -3.035699
H        2.751658     2.484345    -1.123178
H        4.017859     3.715335    -1.404498
H        2.755404     1.098308    -5.222568
H        2.403609     2.828245    -5.581789
H        1.073266     1.708361    -5.077872
H        3.242363     6.362160    -1.487538
H        1.237898     7.601916    -0.130349
H        0.838730     5.075204     3.873410
H        1.413004     4.535195     2.311827
H        0.200189     3.528493     3.169991
H       -1.728083     5.270458     4.207271
H       -3.596055     7.354023     4.387478
H       -4.304466     5.710934     4.136684
H       -4.826270     7.092309     3.092149
H       -3.729732     7.275196     0.986972
H       -2.795906     7.442744    -1.155171
H       -1.011517     7.592167    -1.183697
H       -1.805318     6.017345    -1.596674
H        2.777157    -2.433763    -0.598358
H        4.240639    -3.444151    -0.535120
H        2.712880    -1.992193    -4.548867
H        0.962498    -2.252601    -4.520587
H        2.107944    -3.640303    -4.841885
H        3.867731    -6.029347    -0.001808
H        1.742108    -7.383144     1.032610
H       -1.664234    -4.779552    -1.931228
H       -1.353911    -6.538989    -2.176146
H       -0.028029    -5.465281    -1.640360
H       -3.553387    -6.435823    -0.724687
H       -4.866311    -8.039136     1.239922
H       -5.422898    -6.329318     1.075470
H       -5.011967    -6.986755     2.703856
H       -2.786494    -6.609970     3.505651
H       -0.009849    -6.827782     3.958224
H        0.808669    -5.444611     3.172498
H       -0.621428    -5.129294     4.173834
116
ex_0508 frame4 square-planar trans-conf2
C        4.086675     4.383016    -1.791389
O        3.923942     3.023966    -2.043610
C        3.162558     2.465720    -2.958246
O        2.461541     3.145773    -3.688919
C        3.114519     0.885449    -3.160163
N        4.218456     0.388608    -2.393162
C        5.561332     0.341695    -2.837705
C        6.324786    -0.213632    -1.784070
N        5.432464    -0.465110    -0.712149
C        5.845187    -0.987545     0.547625
C        6.058812    -0.105260     1.651212
C        5.847784     1.379104     1.532163
C        6.477357    -0.626893     2.885853
C        6.716692    -1.994854     3.035168
C        7.211893    -2.539171     4.342618
C        6.492846    -2.858340     1.959546
C        6.056676    -2.368649     0.721101
C        5.821477    -3.331570    -0.404841
C        4.180181    -0.026470    -1.093443
Se       2.650000     0.000000     0.000000
Cd       0.000000     0.000000     0.000000
Cl      -2.544161     0.158966     0.032985
Se       0.000000     2.650000     0.000000
C        0.996325     4.215399     0.325780
N        2.109003     4.301179     1.147783
C        2.715103     3.203723     1.873359
C        2.116439     3.056302     3.248951
O        2.553275     2.196947     3.996407
O        1.139047     3.841001     3.637697
C        0.573498     3.852302     4.903083
C        2.563091     5.643620     1.165793
C        1.705991     6.390760     0.305319
N        0.734133     5.491274    -0.199223
C       -0.334955     5.843340    -1.098283
C       -1.613064     6.124830    -0.555429
C       -1.857347     6.043411     0.922356
C       -2.669539     6.486443    -1.416872
C       -2.452807     6.605887    -2.796176
C       -3.555293     7.050777    -3.702954
C       -1.204791     6.308866    -3.324959
C       -0.160637     5.916642    -2.495555
C        1.131787     5.577854    -3.092239
Se       0.000000    -2.650000     0.000000
C       -0.972164    -4.296450     0.108367
N       -2.278361    -4.462248    -0.269637
C       -3.173785    -3.417703    -0.713494
C       -3.167612    -3.344734    -2.229490
O       -2.682028    -2.367803    -2.770452
O       -3.675936    -4.315621    -2.954053
C       -3.850879    -4.253745    -4.335737
C       -2.585201    -5.837786    -0.145254
C       -1.436965    -6.474078     0.379409
N       -0.440348    -5.491395     0.516741
C        0.882741    -5.714985     0.997031
C        1.426756    -5.327380     2.240511
C        0.607414    -4.561975     3.239806
C        2.754639    -5.658767     2.556220
C        3.546623    -6.386931     1.659785
C        4.941220    -6.800090     2.032905
C        3.035412    -6.731401     0.409327
C        1.709967    -6.419221     0.066883
C        1.191708    -6.838382    -1.282350
H        3.151816     4.893661    -1.537055
H        4.559981     4.901532    -2.650149
H        4.701888     4.515576    -0.880170
H        2.143785     0.619356    -2.752645
H        3.208771     0.711635    -4.193955
H        5.912498     0.674275    -3.806112
H        7.391063    -0.395758    -1.779047
H        5.468975     1.789678     2.496200
H        6.831991     1.856065     1.340497
H        5.133916     1.654204     0.734053
H        6.659283     0.042479     3.721371
H        7.196279    -1.765724     5.140118
H        8.258331    -2.887274     4.211875
H        6.580526    -3.392117     4.668914
H        6.673221    -3.918929     2.079841
H        5.064278    -4.081521    -0.099076
H        5.456634    -2.844707    -1.330800
H        6.780189    -3.836963    -0.635362
H        3.811270     3.329324     1.911782
H        2.495873     2.251722     1.373815
H        1.196221     3.320649     5.656319
H        0.452153     4.901486     5.240321
H       -0.426922     3.371399     4.866131
H        3.411131     6.009481     1.726438
H        1.763365     7.445182     0.081355
H       -2.947406     6.035606     1.143264
H       -1.420815     5.117707     1.348423
H       -1.403690     6.931955     1.406268
H       -3.648197     6.718399    -1.014906
H       -3.976779     8.002938    -3.319508
H       -4.341159     6.272185    -3.749686
H       -3.173235     7.239753    -4.731596
H       -1.037208     6.371749    -4.394801
H        1.031972     5.268450    -4.153919
H        1.378818     4.674364    -2.540176
H        1.881470     6.381885    -2.951130
H       -2.827368    -2.443841    -0.346614
H       -4.215475    -3.556219    -0.361490
H       -3.556610    -5.218900    -4.788724
H       -3.250071    -3.449273    -4.817608
H       -4.920102    -4.057335    -4.589396
H       -3.505672    -6.316819    -0.448236
H       -1.290844    -7.532728     0.557169
H       -0.430917    -4.375529     2.917516
H        1.079429    -3.578467     3.440886
H        0.549287    -5.155235     4.171626
H        3.155709    -5.377424     3.522010
H        5.681987    -6.290282     1.384724
H        5.166097    -6.573025     3.096745
H        5.038198    -7.900112     1.894060
H        3.663112    -7.283927    -0.284027
H        0.573975    -6.035065    -1.733458
H        2.036692    -7.023890    -1.985580
H        0.613130    -7.778239    -1.188142
116
ex_0508 frame5 see-saw Cl-Se-ax-conf4
C       -2.784507     4.215958     3.807254
O       -2.760748     2.840273     4.002066
C       -3.350480     1.982551     3.202039
O       -3.960500     2.376365     2.217106
C       -3.273095     0.525148     3.499897
N       -2.407181     0.063330     4.468066
C       -2.761500    -0.192033     5.792096
C       -1.615213    -0.725499     6.419626
N       -0.567732    -0.633572     5.475461
C        0.772542    -0.926879     5.734159
C        1.590247     0.161925     6.116285
C        1.051279     1.565078     6.192932
C        2.927293    -0.064896     6.430197
C        3.459127    -1.351076     6.364948
C        4.900539    -1.560847     6.682351
C        2.639486    -2.430649     6.003597
C        1.309551    -2.209576     5.629756
C        0.456321    -3.346910     5.116217
C       -1.057069    -0.194335     4.269346
Se       0.000000     0.000000     2.650000
Cd       0.000000     0.000000     0.000000
Cl      -0.088984     0.001275    -2.547923
Se       2.598539     0.000000     0.519708
C        4.014981    -0.417576     1.665371
N        4.041971    -1.452524     2.546667
C        3.007627    -2.410409     2.822017
C        3.191318    -3.584038     1.925314
O        2.912554    -3.502298     0.740309
O        3.656135    -4.703784     2.427872
C        4.029697    -5.827610     1.729495
C        5.303357    -1.453399     3.190788
C        6.022531    -0.352214     2.706054
N        5.222567     0.235477     1.718213
C        5.599127     1.331162     0.900349
C        6.720441     1.052283     0.056145
C        7.368582    -0.307598     0.012637
C        7.241869     2.060746    -0.758434
C        6.641072     3.316753    -0.804907
C        7.218243     4.380184    -1.681398
C        5.502945     3.574684    -0.032125
C        4.998557     2.606719     0.844828
C        3.820483     2.952338     1.712611
Se      -2.598539     0.000000     0.519708
C       -4.269259     0.421554    -0.054637
N       -4.606726     1.327716    -0.991532
C       -3.722531     2.193771    -1.769328
C       -3.749757     3.582505    -1.170456
O       -3.108748     4.479638    -1.694629
O       -4.463468     3.812260    -0.090320
C       -4.591976     5.033779     0.534377
C       -5.959413     1.334115    -1.129775
C       -6.465556     0.403725    -0.206996
N       -5.391521    -0.140437     0.404306
C       -5.474509    -1.159621     1.389757
C       -4.978234    -2.438191     1.080312
C       -4.417830    -2.743962    -0.285856
C       -5.002169    -3.438359     2.043910
C       -5.560191    -3.198486     3.302851
C       -5.582216    -4.283682     4.324565
C       -6.098525    -1.938969     3.604451
C       -6.040745    -0.904674     2.662918
C       -6.585810     0.467092     3.026308
H       -2.564423     4.712641     4.773166
H       -3.794858     4.548585     3.478365
H       -2.026200     4.504292     3.048148
H       -4.213225     0.086383     3.696011
H       -2.952069    -0.101611     2.770408
H       -3.767258    -0.093395     6.175928
H       -1.539872    -1.092995     7.424613
H        1.765953     2.272732     5.716477
H        0.940889     1.834136     7.262143
H        0.074432     1.691597     5.686924
H        3.563541     0.765486     6.711188
H        5.197761    -2.624039     6.569647
H        5.091037    -1.222978     7.718981
H        5.510566    -0.942926     5.988384
H        3.048684    -3.431899     5.935693
H       -0.282319    -2.980284     4.363540
H        1.071516    -4.086891     4.561926
H       -0.094555    -3.821488     5.946810
H        3.177814    -2.805646     3.798848
H        1.980077    -2.006245     2.731263
H        3.384530    -6.657540     2.069188
H        3.923584    -5.693478     0.632986
H        5.092278    -6.084765     1.942764
H        5.650882    -2.189714     3.899357
H        7.040799    -0.071064     2.939031
H        6.716260    -1.106043     0.413652
H        7.543062    -0.591529    -1.050724
H        8.341195    -0.283771     0.541820
H        8.104254     1.855102    -1.385913
H        6.518912     5.234452    -1.792194
H        7.438144     3.962375    -2.685853
H        8.163376     4.739524    -1.220382
H        5.046291     4.556220    -0.054229
H        3.584089     2.188308     2.471815
H        2.924310     3.108916     1.079668
H        4.051529     3.872014     2.281215
H       -2.690901     1.794838    -1.819338
H       -4.110488     2.261338    -2.814082
H       -3.595232     5.419754     0.835821
H       -5.100223     5.760336    -0.133107
H       -5.210864     4.905404     1.446972
H       -6.530189     1.944329    -1.817941
H       -7.498460     0.130933    -0.029189
H       -4.976255    -3.605110    -0.702231
H       -3.337791    -2.981764    -0.220475
H       -4.552114    -1.923141    -1.017147
H       -4.604470    -4.413681     1.795242
H       -4.992405    -3.970459     5.210867
H       -6.634508    -4.477181     4.613330
H       -5.145131    -5.221331     3.918811
H       -6.508749    -1.748003     4.589704
H       -7.686492     0.475517     3.103363
H       -6.176936     0.780864     4.014186
H       -6.259205     1.249146     2.312543
116
ex_0508 frame6 see-saw Se-Se-ax-conf2
C        4.770438    -0.819422     3.877654
O        3.501740    -1.367490     3.826795
C        3.099500    -2.278229     2.971773
O        3.851225    -2.685565     2.101392
C        1.700375    -2.831519     3.057164
N        1.010139    -2.241693     4.183094
C        0.982793    -2.748694     5.508711
C        0.215795    -1.832105     6.289076
N       -0.195571    -0.799105     5.418034
C       -0.952095     0.325930     5.838373
C       -0.333209     1.600942     6.040833
C        1.120656     1.810039     5.814904
C       -1.102458     2.696757     6.464156
C       -2.446519     2.533109     6.738865
C       -3.259028     3.696296     7.250466
C       -3.025080     1.279567     6.533213
C       -2.317790     0.192428     6.070611
C       -3.049412    -1.108581     5.831021
C        0.287256    -1.061545     4.139971
Se       0.000000     0.000000     2.650000
Cd       0.000000     0.000000     0.000000
Cl       2.517228     0.022707     0.403280
Se       0.000000     0.000000    -2.650000
C        0.288288     1.020357    -4.176283
N        0.232057     2.397934    -4.251118
C       -0.041144     3.286180    -3.140980
C       -1.523515     3.541629    -3.003072
O       -1.915221     4.313970    -2.144618
O       -2.380300     2.941948    -3.794924
C       -3.749113     3.175089    -3.826247
C        0.485108     2.795237    -5.589123
C        0.714889     1.604809    -6.342156
N        0.587025     0.520592    -5.442706
C        0.742320    -0.853280    -5.796986
C       -0.404009    -1.633511    -6.102300
C       -1.781856    -1.041097    -6.037286
C       -0.250916    -2.979866    -6.471024
C        1.022964    -3.544195    -6.579907
C        1.173292    -4.961747    -7.044149
C        2.151026    -2.781113    -6.254385
C        2.016055    -1.444760    -5.851335
C        3.232573    -0.652995    -5.480064
Se      -2.598539     0.000000     0.519708
C       -4.381045     0.108115    -0.101047
N       -4.815161    -0.254115    -1.354738
C       -3.977168    -0.714955    -2.439746
C       -3.926646    -2.226444    -2.484791
O       -2.872104    -2.772878    -2.216685
O       -4.979215    -2.941241    -2.801512
C       -4.935318    -4.327439    -2.985471
C       -6.220960    -0.095879    -1.392302
C       -6.612241     0.418359    -0.130612
N       -5.449518     0.511923     0.659439
C       -5.443501     0.973495     2.015485
C       -4.978785     2.218915     2.483176
C       -4.330959     3.202934     1.541638
C       -5.122653     2.547692     3.851825
C       -5.712747     1.630221     4.745906
C       -5.894685     1.960404     6.204346
C       -6.138490     0.396893     4.288589
C       -6.007921     0.046692     2.938800
C       -6.471598    -1.309044     2.501234
H        5.192359    -0.669202     2.859169
H        5.443552    -1.466861     4.478403
H        4.709062     0.173543     4.368687
H        1.190154    -2.560894     2.104258
H        1.691102    -3.934314     3.137111
H        1.460257    -3.651152     5.850997
H       -0.019386    -1.885087     7.342128
H        1.300380     2.848275     5.456046
H        1.600156     1.702764     6.810268
H        1.547032     1.102569     5.085068
H       -0.643682     3.663449     6.641043
H       -2.660980     4.629710     7.284926
H       -3.641751     3.480347     8.270751
H       -4.089843     3.934680     6.573023
H       -4.004833     1.067149     6.748421
H       -3.859136    -0.953744     5.086107
H       -2.412908    -1.927132     5.445707
H       -3.515086    -1.430299     6.783880
H        0.515560     4.230836    -3.268181
H        0.289933     2.824984    -2.183833
H       -4.030231     4.118027    -3.309389
H       -4.092090     3.252172    -4.879122
H       -4.286303     2.331720    -3.342009
H        0.506928     3.811646    -5.948832
H        0.944646     1.520381    -7.393572
H       -2.557107    -1.839024    -5.997890
H       -1.907103    -0.413034    -5.133332
H       -1.944374    -0.432912    -6.950485
H       -1.119402    -3.576901    -6.730555
H        0.590667    -5.106613    -7.980090
H        0.789347    -5.651274    -6.265497
H        2.235038    -5.208676    -7.259738
H        3.138224    -3.222481    -6.318287
H        4.013299    -1.318144    -5.057014
H        2.999552     0.092616    -4.690352
H        3.607607    -0.132770    -6.381897
H       -2.939975    -0.352077    -2.302839
H       -4.321536    -0.356717    -3.425953
H       -5.825520    -4.783339    -2.515171
H       -4.029591    -4.811748    -2.543601
H       -4.933440    -4.578128    -4.072441
H       -6.869290    -0.349053    -2.218989
H       -7.615755     0.634567     0.214772
H       -4.360452     2.884670     0.481507
H       -3.284493     3.422532     1.799636
H       -4.941797     4.133955     1.585889
H       -4.783245     3.518277     4.192017
H       -5.845630     1.500884     7.032901
H       -5.980889     3.145182     6.311440
H       -7.246307     1.916578     6.222618
H       -6.589835    -0.296567     4.988428
H       -5.819906    -1.737112     1.706943
H       -6.448066    -2.029844     3.355707
H       -7.511061    -1.204897     2.159675
116
ex_0508 frame7 see-saw Se-Se-ax-conf5
C        5.774133    -0.891883     4.470698
O        4.507633    -1.462171     4.518314
C        3.706864    -1.434117     3.479345
O        4.010835    -0.774399     2.499443
C        2.406263    -2.206429     3.468560
N        1.497391    -1.740460     4.493295
C        1.539587    -2.070968     5.872531
C        0.462051    -1.387887     6.498435
N       -0.184279    -0.633228     5.494708
C       -1.282798     0.231273     5.761401
C       -1.017810     1.624055     5.875759
C        0.368247     2.175898     5.703928
C       -2.069255     2.511224     6.155435
C       -3.369603     2.035132     6.344335
C       -4.481104     2.988108     6.688245
C       -3.630743     0.664900     6.211270
C       -2.589795    -0.238438     5.922524
C       -2.873931    -1.706187     5.786056
C        0.468297    -0.837947     4.290774
Se       0.000000     0.000000     2.650000
Cd       0.000000     0.000000     0.000000
Cl       2.538859     0.114992     0.200148
Se       0.000000     0.000000    -2.650000
C        0.987502     0.021790    -4.255258
N        2.261260    -0.443650    -4.453650
C        3.166451    -0.986465    -3.463844
C        2.910219    -2.479370    -3.424377
O        2.027180    -2.966487    -4.111463
O        3.644327    -3.240758    -2.647061
C        3.568975    -4.622938    -2.552730
C        2.558068    -0.302524    -5.830800
C        1.431843     0.287063    -6.444218
N        0.470624     0.478401    -5.434624
C       -0.813830     1.053393    -5.634395
C       -1.774131     0.173564    -6.220173
C       -1.435326    -1.251612    -6.564697
C       -3.070109     0.640039    -6.485478
C       -3.428406     1.954390    -6.182382
C       -4.815029     2.435696    -6.489997
C       -2.489918     2.812855    -5.593453
C       -1.189308     2.369763    -5.313824
C       -0.207636     3.310664    -4.672131
Se      -2.598539     0.000000     0.519708
C       -4.376059     0.327796    -0.019282
N       -4.782584     1.158699    -1.029970
C       -3.928284     1.896816    -1.926692
C       -3.792570     3.307556    -1.382650
O       -4.312040     3.610976    -0.317971
O       -3.111311     4.187166    -2.073974
C       -2.742470     5.443265    -1.643543
C       -6.200248     1.175982    -1.052270
C       -6.641425     0.314424    -0.023898
N       -5.484135    -0.224043     0.580773
C       -5.516357    -1.172866     1.628568
C       -5.603216    -2.546282     1.372663
C       -5.647087    -3.051941    -0.040414
C       -5.649413    -3.452749     2.438286
C       -5.628485    -2.997333     3.761070
C       -5.698685    -3.979596     4.894376
C       -5.541915    -1.623844     4.019834
C       -5.458655    -0.704038     2.965563
C       -5.309204     0.767782     3.270522
H        6.337218    -1.260922     3.578432
H        6.352171    -1.171246     5.371118
H        5.702962     0.215936     4.401439
H        1.946185    -2.092655     2.464678
H        2.642970    -3.278478     3.608773
H        2.258267    -2.716998     6.353315
H        0.186322    -1.394601     7.545430
H        1.078643     1.442535     5.279326
H        0.354637     3.068836     5.041185
H        0.730859     2.482499     6.707622
H       -1.863795     3.571036     6.268660
H       -4.794191     2.819782     7.740642
H       -5.352595     2.832593     6.018769
H       -4.154591     4.046009     6.587581
H       -4.639177     0.306979     6.365256
H       -1.963341    -2.328965     5.836437
H       -3.253031    -1.914873     4.776352
H       -3.546513    -2.041518     6.598001
H        2.999669    -0.565767    -2.455280
H        4.225197    -0.812596    -3.744277
H        2.783686    -5.059839    -3.206670
H        3.351273    -4.914839    -1.504101
H        4.544315    -5.063009    -2.849477
H        3.460430    -0.641667    -6.320802
H        1.284666     0.491638    -7.497052
H       -1.253873    -1.327109    -7.656218
H       -0.556654    -1.623735    -6.003629
H       -2.291288    -1.917956    -6.306687
H       -3.805515    -0.021039    -6.935495
H       -5.042244     2.249600    -7.561514
H       -4.926730     3.522254    -6.290278
H       -5.545383     1.879408    -5.865260
H       -2.762721     3.833489    -5.357327
H       -0.674711     3.851436    -3.827091
H        0.682889     2.810569    -4.257792
H        0.150309     4.014360    -5.447125
H       -2.909229     1.456424    -1.978813
H       -4.347655     1.916603    -2.951921
H       -1.960796     5.363444    -0.858561
H       -3.628305     5.982400    -1.257274
H       -2.324321     6.010401    -2.505066
H       -6.819557     1.756378    -1.720240
H       -7.660690     0.087141     0.262593
H       -4.714506    -3.605149    -0.265579
H       -6.533340    -3.702235    -0.164226
H       -5.739131    -2.239028    -0.788358
H       -5.719465    -4.513006     2.235039
H       -6.760161    -4.241219     5.080849
H       -5.264021    -3.560677     5.826198
H       -5.134480    -4.902843     4.642387
H       -5.523035    -1.279028     5.044822
H       -4.228273     1.029226     3.343673
H       -5.770797     1.397447     2.487581
H       -5.799657     1.024590     4.233324
116
ex_0508 frame8 see-saw Cl-Se-ax-conf3
C       -0.058300    -5.202912     3.879537
O       -0.584140    -3.919331     3.960690
C       -1.652086    -3.612350     3.264754
O       -2.153737    -4.427941     2.509964
C       -2.251760    -2.308355     3.378460
N       -1.737337    -1.452517     4.410415
C       -2.069607    -1.509252     5.789046
C       -1.440996    -0.450128     6.423222
N       -0.632531     0.156374     5.461737
C        0.224774     1.200622     5.772198
C        0.102770     2.481279     5.219978
C       -0.974432     2.814033     4.227337
C        0.997131     3.462037     5.599362
C        1.996721     3.181965     6.530449
C        2.914599     4.251963     6.940961
C        2.128020     1.898389     7.070291
C        1.242370     0.908733     6.691471
C        1.375779    -0.471564     7.266552
C       -0.824920    -0.455081     4.229120
Se       0.000000     0.000000     2.650000
Cd       0.000000     0.000000     0.000000
Cl      -0.000865     0.000772    -2.549433
Se       2.598539     0.000000     0.519708
C        3.908969    -0.238320     1.809002
N        3.804365    -0.965163     2.989109
C        2.690702    -1.699934     3.421787
C        2.769859    -3.048075     2.857377
O        1.854167    -3.821827     3.049455
O        3.808490    -3.437995     2.148796
C        3.999567    -4.738022     1.692502
C        4.986056    -0.865791     3.708361
C        5.873233    -0.107141     2.937653
N        5.203040     0.276214     1.765715
C        5.804173     1.054140     0.745805
C        6.228471     2.350728     1.045362
C        6.030337     2.888950     2.420535
C        6.837601     3.139420     0.054375
C        7.030312     2.618535    -1.228814
C        7.701951     3.415420    -2.299629
C        6.592301     1.339092    -1.519730
C        5.987585     0.550472    -0.552043
C        5.552896    -0.809013    -0.928036
Se      -2.598539     0.000000     0.519708
C       -4.043458     1.038474     0.909687
N       -4.193311     2.381473     0.600555
C       -3.235105     3.194263    -0.103482
C       -3.632407     3.097487    -1.534873
O       -4.560478     3.767319    -1.952064
O       -2.990951     2.296534    -2.350545
C       -3.274482     2.073848    -3.698767
C       -5.437207     2.813499     1.090404
C       -6.062387     1.706636     1.702780
N       -5.208614     0.618826     1.560315
C       -5.557493    -0.664107     2.034675
C       -5.133520    -1.136697     3.246032
C       -4.313243    -0.268872     4.082583
C       -5.481842    -2.435765     3.677735
C       -6.262568    -3.236741     2.880363
C       -6.613869    -4.598845     3.355690
C       -6.706758    -2.752694     1.644155
C       -6.365996    -1.451125     1.235415
C       -6.863396    -0.899291    -0.052760
H       -0.651963    -5.898664     4.457301
H        0.969618    -5.328286     4.296656
H       -0.053445    -5.482926     2.798868
H       -3.204926    -2.632520     3.668779
H       -2.391033    -1.783217     2.422731
H       -2.839663    -2.105016     6.230499
H       -1.520078    -0.196836     7.470117
H       -1.758071     2.030775     4.164848
H       -0.507240     2.997734     3.238308
H       -1.485005     3.743842     4.538056
H        0.894889     4.457561     5.195670
H        3.800874     3.809262     7.428675
H        3.208418     4.835872     6.040957
H        2.373655     4.885372     7.668116
H        2.898221     1.664646     7.797652
H        2.434066    -0.761914     7.374356
H        0.928720    -1.238159     6.593300
H        0.873468    -0.467025     8.254785
H        2.533381    -1.616292     4.518237
H        1.863005    -1.354831     2.921167
H        3.916521    -4.806085     0.583677
H        5.022143    -5.049232     1.952856
H        3.307687    -5.478665     2.167675
H        5.160443    -1.330640     4.648083
H        6.878035     0.127193     3.177877
H        6.070564     3.986979     2.392880
H        6.853753     2.521105     3.060586
H        5.058574     2.531708     2.844287
H        7.183011     4.134673     0.286728
H        7.162420     3.214398    -3.251728
H        8.768424     3.111751    -2.392674
H        7.658589     4.502031    -2.109526
H        6.751202     0.939619    -2.507469
H        5.277385    -1.416060    -0.048094
H        4.710935    -0.705048    -1.641506
H        6.416732    -1.290370    -1.425171
H       -3.331770     4.239924     0.276990
H       -2.187499     2.875721     0.032669
H       -3.729468     1.070066    -3.880311
H       -2.345303     2.111810    -4.304262
H       -3.970669     2.831141    -4.091739
H       -5.835753     3.789240     0.994563
H       -7.021453     1.655109     2.160772
H       -3.885800    -0.954684     4.698566
H       -3.565232     0.381607     3.573569
H       -4.880414     0.171005     4.880242
H       -5.119713    -2.840434     4.629054
H       -7.329032    -4.474062     4.193129
H       -5.699970    -5.080023     3.770792
H       -7.036219    -5.219747     2.538035
H       -7.361901    -3.345806     1.034242
H       -7.384696    -1.685833    -0.615777
H       -7.580719    -0.081744     0.171382
H       -6.030047    -0.452628    -0.640229
116
ex_0508 frame9 see-saw Se-Se-ax-conf4
C       -2.773063     4.205954     3.813163
O       -2.759385     2.837296     4.015276
C       -3.400360     1.968944     3.269275
O       -4.049387     2.344695     2.307494
C       -3.319018     0.565782     3.612844
N       -2.409448     0.067226     4.537950
C       -2.706139    -0.161521     5.882105
C       -1.549796    -0.660441     6.490882
N       -0.555703    -0.649481     5.491404
C        0.788981    -0.974811     5.702905
C        1.591938     0.125062     6.110856
C        1.029877     1.523515     6.229860
C        2.939739    -0.089099     6.411206
C        3.501019    -1.363674     6.277075
C        4.941370    -1.575181     6.615057
C        2.711335    -2.433920     5.827263
C        1.356674    -2.239895     5.544771
C        0.501588    -3.386017     5.070126
C       -1.077746    -0.192716     4.300539
Se       0.000000     0.000000     2.650000
Cd       0.000000     0.000000     0.000000
Cl       2.544143     0.005038     0.164042
Se       0.000000     0.000000    -2.650000
C        0.374844     0.924055    -4.286710
N        1.346531     1.866123    -4.461992
C        2.226569     2.468595    -3.490384
C        3.437784     1.568575    -3.593714
O        3.332635     0.386714    -3.309560
O        4.590090     2.059085    -3.986150
C        5.736880     1.318739    -4.245138
C        1.360439     2.183643    -5.835109
C        0.327551     1.474186    -6.452503
N       -0.255800     0.658357    -5.475203
C       -1.312896    -0.282424    -5.684473
C       -0.963040    -1.310002    -6.625821
C        0.403838    -1.392589    -7.258071
C       -1.914568    -2.281179    -6.982430
C       -3.170689    -2.305333    -6.377951
C       -4.174819    -3.351581    -6.760215
C       -3.487866    -1.353041    -5.417610
C       -2.597272    -0.324369    -5.100383
C       -3.043851     0.702533    -4.144783
Se      -2.598539     0.000000     0.519708
C       -4.267295     0.435436    -0.023011
N       -4.597045     1.378499    -0.917272
C       -3.696226     2.271269    -1.638797
C       -3.740822     3.631094    -1.053894
O       -3.090882     4.526328    -1.558754
O       -4.477254     3.869181     0.003062
C       -4.617383     5.096435     0.600768
C       -5.947655     1.392779    -1.069532
C       -6.461212     0.418100    -0.195415
N       -5.391436    -0.139969     0.416515
C       -5.478025    -1.183599     1.381979
C       -4.973668    -2.466410     1.081045
C       -4.398782    -2.781270    -0.280679
C       -5.003953    -3.464158     2.053393
C       -5.574297    -3.219953     3.307997
C       -5.596319    -4.298604     4.343485
C       -6.125406    -1.963107     3.594205
C       -6.071845    -0.932357     2.648370
C       -6.651530     0.431445     3.001584
H       -2.485754     4.716060     4.755853
H       -3.792303     4.561703     3.541759
H       -2.053455     4.480651     3.014660
H       -4.294584     0.161735     3.962637
H       -3.162710    -0.196486     2.814745
H       -3.669247     0.023797     6.343285
H       -1.437811    -0.940705     7.525294
H        1.691959     2.228059     5.675863
H        1.003040     1.839711     7.292662
H        0.017324     1.629773     5.793750
H        3.558859     0.741161     6.734409
H        5.235785    -2.638599     6.495055
H        5.109791    -1.278911     7.672292
H        5.572250    -0.946718     5.953473
H        3.140015    -3.420532     5.714920
H       -0.180760    -3.050683     4.257403
H        1.116220    -4.204450     4.649588
H       -0.121896    -3.757045     5.910411
H        2.479055     3.525824    -3.720636
H        1.837306     2.415752    -2.452740
H        6.590814     1.753267    -3.688703
H        5.639160     0.247343    -3.962395
H        5.968206     1.358301    -5.332447
H        2.051115     2.851220    -6.328776
H        0.136577     1.404261    -7.516158
H        1.170122    -0.799293    -6.728541
H        0.763240    -2.441491    -7.164362
H        0.363692    -1.130757    -8.334368
H       -1.660339    -3.048643    -7.705409
H       -5.070627    -3.314872    -6.102474
H       -3.727521    -4.363638    -6.690378
H       -4.505560    -3.163219    -7.803667
H       -4.465691    -1.365148    -4.949164
H       -2.355294     1.551251    -4.019799
H       -3.207524     0.199992    -3.170038
H       -3.988828     1.134764    -4.529628
H       -2.649431     1.908633    -1.617775
H       -4.067158     2.387608    -2.675319
H       -3.618291     5.474132     0.906732
H       -5.098453     5.807730    -0.103828
H       -5.255367     4.984997     1.499380
H       -6.510981     2.041532    -1.728588
H       -7.498058     0.150436    -0.030430
H       -4.961086    -3.636408    -0.709424
H       -3.325753    -3.045211    -0.201031
H       -4.502324    -1.956579    -1.013430
H       -4.598715    -4.440221     1.817722
H       -5.017532    -3.968801     5.231736
H       -6.645303    -4.505872     4.636976
H       -5.142614    -5.236557     3.957648
H       -6.559937    -1.774043     4.569029
H       -7.749894     0.389034     3.111844
H       -6.260937     0.788913     3.977599
H       -6.389334     1.217623     2.268052
116
ex_0508 frame10 Isomer 1
C       -6.549239    -1.837989    -1.759399
O       -5.460121    -2.014799    -0.932293
C       -4.555721    -2.961743    -1.051188
O       -4.598367    -3.750079    -1.968745
C       -3.431058    -3.094014    -0.040582
N       -3.563551    -2.079358     0.966611
C       -4.322159    -2.232608     2.124891
C       -4.260203    -1.039650     2.848173
N       -3.449047    -0.166281     2.126083
C       -3.149363     1.159615     2.507281
C       -4.209967     2.050498     2.559480
C       -5.589356     1.590534     2.239563
C       -3.988324     3.377434     2.911098
C       -2.713122     3.836396     3.220438
C       -2.500978     5.276994     3.602901
C       -1.641216     2.949446     3.171663
C       -1.852021     1.603957     2.828717
C       -0.696236     0.671657     2.811836
C       -2.996025    -0.809537     0.988836
Se      -1.882856    -0.061704    -0.182485
Cd       0.121468    -1.346125    -1.346722
Cl      -0.811552    -2.486451    -3.427263
Se       1.170957    -3.183539     0.248578
C        2.927405    -3.599775     0.326815
N        3.635443    -4.450587    -0.521703
C        3.129539    -5.199768    -1.636483
C        3.358251    -4.502554    -2.944267
O        4.476373    -4.109813    -3.236194
O        2.345669    -4.324197    -3.760339
C        2.372467    -3.707918    -5.000145
C        4.966526    -4.466182    -0.108201
C        5.085004    -3.621568     0.994333
N        3.822930    -3.118914     1.270421
C        3.588525    -2.269079     2.352610
C        2.858201    -2.802357     3.413649
C        2.337779    -4.185732     3.359613
C        2.609243    -2.044682     4.533872
C        3.083208    -0.750810     4.621339
C        2.817581     0.008618     5.854195
C        3.798828    -0.187783     3.552710
C        4.048479    -0.947625     2.404783
C        4.801755    -0.341206     1.249755
Se       1.940177     0.388290    -2.187319
C        1.926583     1.039943    -3.867627
N        2.904480     0.793568    -4.797215
C        4.086248     0.016783    -4.567863
C        5.203365     0.909737    -4.055440
O        5.994502     1.330211    -4.863577
O        5.323194     1.225263    -2.786174
C        6.349984     2.029167    -2.294235
C        2.560201     1.423222    -6.003034
C        1.333533     2.079440    -5.785964
N        0.972732     1.854681    -4.450409
C       -0.171205     2.377313    -3.821921
C        0.039256     3.399492    -2.897459
C        1.411763     3.867272    -2.601968
C       -1.023930     3.987099    -2.247652
C       -2.315683     3.561948    -2.497957
C       -3.431602     4.226484    -1.775981
C       -2.548687     2.522122    -3.418868
C       -1.468823     1.920695    -4.085474
C       -1.696659     0.801953    -5.069268
H       -6.620214    -2.676778    -2.471241
H       -7.479700    -1.779485    -1.161130
H       -6.405766    -0.870589    -2.265744
H       -2.408623    -3.138703    -0.494255
H       -3.535694    -4.094312     0.462163
H       -4.866725    -3.089609     2.381722
H       -4.755380    -0.828627     3.762787
H       -5.600708     0.893437     1.367979
H       -6.030919     1.126085     3.143848
H       -6.196508     2.466983     1.986725
H       -4.823424     4.045544     2.948576
H       -1.535188     5.649912     3.210740
H       -3.285276     5.911500     3.144569
H       -2.534509     5.426067     4.702749
H       -0.656634     3.308055     3.422793
H       -1.022024    -0.386924     2.749727
H       -0.217909     0.787305     3.788593
H        0.039745     0.947955     2.025728
H        2.081355    -5.472405    -1.481143
H        3.733391    -6.139139    -1.651496
H        1.770438    -4.289803    -5.743823
H        3.408899    -3.576590    -5.373238
H        1.918434    -2.699399    -4.897824
H        5.738657    -5.033363    -0.540917
H        5.955093    -3.440816     1.563430
H        2.614911    -4.651103     4.311206
H        2.830082    -4.775992     2.565465
H        1.232444    -4.199650     3.270406
H        2.057724    -2.495784     5.353162
H        3.467022    -0.422082     6.644378
H        1.754973    -0.180373     6.131318
H        3.009264     1.086221     5.695268
H        4.169450     0.819981     3.619364
H        5.085319     0.678633     1.516915
H        5.750155    -0.875195     1.023591
H        4.155238    -0.246748     0.350062
H        3.817026    -0.762970    -3.826021
H        4.384741    -0.461907    -5.530128
H        7.351662     1.515756    -2.281656
H        6.130709     2.312543    -1.243265
H        6.393638     2.952259    -2.917876
H        3.130296     1.409845    -6.900509
H        0.816215     2.669593    -6.484841
H        1.695869     3.514615    -1.596473
H        1.463143     4.967504    -2.670192
H        2.137776     3.456310    -3.316193
H       -0.827228     4.788168    -1.540823
H       -3.630860     5.224022    -2.223815
H       -3.103612     4.372322    -0.723694
H       -4.353474     3.623271    -1.787263
H       -3.553362     2.199082    -3.601978
H       -2.214440     1.158491    -5.979409
H       -0.731644     0.357552    -5.376034
H       -2.291318    -0.009417    -4.613345
116
ex_0508 frame11 conf2
C        2.821033     5.353605    -1.392854
O        3.271040     4.202855    -0.752179
C        3.499156     3.050069    -1.337436
O        3.325100     2.919469    -2.536018
C        3.976060     1.871216    -0.555943
N        4.148054     2.243570     0.816701
C        5.319603     2.756958     1.386756
C        5.047833     3.003818     2.754844
N        3.716388     2.630843     2.984801
C        3.087090     2.751226     4.253183
C        2.190296     3.809647     4.499587
C        1.868203     4.827056     3.454835
C        1.584325     3.917573     5.745971
C        1.857051     3.010931     6.759233
C        1.217823     3.172830     8.094703
C        2.724074     1.958133     6.522647
C        3.348898     1.821464     5.281575
C        4.282221     0.686559     5.079547
C        3.182860     2.154833     1.787646
Se       1.529978     1.529978     1.529978
Cd       0.000000     0.000000     0.000000
Cl      -1.472404    -1.472272     1.471069
Se      -1.529978     1.529978    -1.529978
C       -2.067877     3.192529    -1.875325
N       -2.029560     4.244336    -0.992687
C       -1.558586     4.183138     0.359993
C       -2.674677     3.851777     1.321228
O       -2.435137     3.810527     2.509460
O       -3.894618     3.609585     0.882628
C       -5.004086     3.343352     1.688053
C       -2.527049     5.385993    -1.634149
C       -2.887233     5.008916    -2.944656
N       -2.596665     3.649518    -3.076872
C       -2.826335     2.916666    -4.263885
C       -3.998352     2.163501    -4.424152
C       -5.020490     2.112251    -3.349091
C       -4.210017     1.455779    -5.599927
C       -3.277893     1.506892    -6.631426
C       -3.545267     0.770142    -7.895074
C       -2.103650     2.246536    -6.472480
C       -1.874677     2.946175    -5.286936
C       -0.618259     3.719043    -5.120395
Se       1.529978    -1.529978    -1.529978
C        1.753138    -3.034680    -2.496860
N        0.755546    -3.793762    -3.098148
C       -0.651441    -3.519177    -3.070254
C       -1.050388    -2.681479    -4.257119
O       -1.144412    -1.475769    -4.110357
O       -1.293871    -3.226326    -5.428192
C       -1.745811    -2.506567    -6.536550
C        1.351513    -4.879568    -3.741271
C        2.740948    -4.786780    -3.525707
N        2.972375    -3.638584    -2.770652
C        4.268384    -3.228522    -2.388450
C        4.774584    -3.363142    -1.080127
C        3.944368    -3.955695     0.010808
C        6.079052    -2.933963    -0.797074
C        6.872928    -2.397554    -1.816272
C        8.274770    -1.983103    -1.554057
C        6.353794    -2.245638    -3.095376
C        5.065853    -2.664429    -3.388208
C        4.540881    -2.508248    -4.774263
H        2.143100     5.094955    -2.231476
H        3.672117     5.945416    -1.799802
H        2.254434     6.001323    -0.679693
H        3.209952     1.063149    -0.653376
H        4.938940     1.515098    -0.971420
H        6.224640     2.932353     0.861357
H        5.706082     3.410573     3.484012
H        0.819523     5.169032     3.582145
H        2.536640     5.699013     3.592764
H        1.978603     4.436089     2.433475
H        0.924462     4.740667     5.941155
H        0.384972     3.898856     8.016145
H        1.960906     3.601099     8.794562
H        0.835706     2.198092     8.475422
H        2.924754     1.256130     7.316738
H        3.766629    -0.272444     5.299158
H        4.739195     0.669784     4.073636
H        5.085234     0.839038     5.815866
H       -1.125108     5.169199     0.617702
H       -0.766075     3.402313     0.437536
H       -4.854230     3.670715     2.736716
H       -5.931978     3.845460     1.323154
H       -5.217387     2.253639     1.710492
H       -2.611258     6.349152    -1.202478
H       -3.300127     5.626568    -3.700167
H       -5.631979     1.188654    -3.434750
H       -4.528082     2.089137    -2.363766
H       -5.646391     3.022122    -3.442525
H       -5.130288     0.904782    -5.727512
H       -4.602210     0.947528    -8.178904
H       -3.395799    -0.314926    -7.737446
H       -2.875821     1.104160    -8.710264
H       -1.367676     2.285673    -7.264033
H        0.185292     3.222564    -5.697984
H       -0.301828     3.762155    -4.056866
H       -0.817970     4.741939    -5.492500
H       -0.920069    -2.982585    -2.137251
H       -1.176665    -4.500938    -3.069770
H       -1.077129    -2.660522    -7.413240
H       -1.807738    -1.414916    -6.332455
H       -2.771841    -2.821625    -6.821295
H        0.828144    -5.623438    -4.280745
H        3.500068    -5.438050    -3.876961
H        2.969176    -4.333091    -0.363938
H        3.805635    -3.238103     0.846807
H        4.509842    -4.819542     0.393180
H        6.493727    -3.051907     0.196229
H        8.353446    -0.876821    -1.588446
H        8.648173    -2.357280    -0.583561
H        8.897717    -2.421834    -2.356750
H        6.971838    -1.839872    -3.884965
H        3.459221    -2.254783    -4.766931
H        5.071688    -1.685225    -5.278616
H        4.744359    -3.437818    -5.340242
116
ex_0508 frame12 conf6
C       -0.433086     2.861680     5.941878
O        0.754776     2.550397     5.292308
C        1.367443     1.392564     5.380867
O        0.914084     0.496835     6.074518
C        2.639813     1.141905     4.631715
N        2.993189     2.312217     3.890127
C        3.814630     3.369108     4.361568
C        3.892455     4.327030     3.317937
N        3.121327     3.827471     2.241009
C        2.955763     4.512623     1.024203
C        3.588930     4.100296    -0.168492
C        4.458548     2.873089    -0.197676
C        3.403399     4.847331    -1.343482
C        2.624915     6.015735    -1.312236
C        2.493553     6.896674    -2.533311
C        1.958041     6.373855    -0.132673
C        2.130713     5.638249     1.031036
C        1.432771     6.052324     2.290755
C        2.579849     2.587472     2.586881
Se       1.529978     1.529978     1.529978
Cd       0.000000     0.000000     0.000000
Cl      -1.473144    -1.472151     1.470448
Se      -1.529978     1.529978    -1.529978
C       -2.600951     2.600038    -2.600039
N       -2.657607     3.975575    -2.611694
C       -1.869233     4.811370    -1.800462
C       -0.639766     5.089057    -2.556469
O        0.136770     5.892704    -2.072654
O       -0.380367     4.502988    -3.702379
C        0.763113     4.698456    -4.478971
C       -3.619127     4.417367    -3.553619
C       -4.158319     3.256501    -4.159739
N       -3.510370     2.148639    -3.560815
C       -3.759882     0.803546    -3.897359
C       -4.427966    -0.082697    -3.020623
C       -4.891777     0.377321    -1.657451
C       -4.661187    -1.407533    -3.427092
C       -4.251372    -1.833586    -4.703610
C       -4.533860    -3.226185    -5.171647
C       -3.573586    -0.952171    -5.546986
C       -3.319645     0.354924    -5.151918
C       -2.574397     1.271018    -6.078597
Se       1.529978    -1.529978    -1.529978
C        2.603247    -2.607241    -2.591110
N        3.961743    -2.433489    -2.839649
C        4.773915    -1.390378    -2.279040
C        5.335652    -1.856905    -0.962961
O        6.097951    -1.127260    -0.350820
O        5.010109    -3.032964    -0.479754
C        5.527221    -3.574263     0.685769
C        4.411080    -3.445135    -3.729123
C        3.291724    -4.275084    -4.011220
N        2.198146    -3.746215    -3.286461
C        0.901871    -4.293363    -3.274997
C       -0.188633    -3.663444    -3.905248
C       -0.024211    -2.339395    -4.620821
C       -1.441544    -4.276562    -3.865703
C       -1.620943    -5.508590    -3.213774
C       -2.961901    -6.179279    -3.182134
C       -0.536939    -6.116583    -2.587196
C        0.716752    -5.514425    -2.602396
C        1.855676    -6.182248    -1.896876
H       -0.799086     2.030083     6.580658
H       -1.219892     3.091709     5.194331
H       -0.287703     3.748215     6.591342
H        3.461202     0.865330     5.322062
H        2.469578     0.286875     3.940272
H        4.263085     3.439321     5.339962
H        4.409119     5.276296     3.328803
H        4.506773     2.353511     0.778844
H        5.486195     3.209856    -0.438316
H        4.110829     2.141242    -0.956359
H        3.892095     4.537449    -2.259908
H        1.687816     7.653898    -2.395711
H        3.443749     7.361247    -2.813380
H        2.192069     6.359093    -3.412171
H        1.327524     7.252819    -0.113489
H        1.104973     5.166384     2.878163
H        2.166181     6.628557     2.888841
H        0.535549     6.668270     2.080693
H       -1.590319     4.309880    -0.844534
H       -2.407257     5.744157    -1.550411
H        0.827649     3.974471    -5.308353
H        0.772236     5.721543    -4.936759
H        1.676470     4.458903    -3.893842
H       -3.840324     5.446110    -3.793052
H       -4.886959     3.203667    -4.954329
H       -4.286275    -0.094176    -0.854313
H       -5.961099     0.118523    -1.516121
H       -4.817352     1.476753    -1.539261
H       -5.183841    -2.091094    -2.766616
H       -3.867002    -3.481795    -6.026506
H       -5.585726    -3.326834    -5.491246
H       -4.354016    -3.945206    -4.358533
H       -3.241296    -1.278583    -6.523586
H       -3.227970     1.544509    -6.930644
H       -2.222738     2.189458    -5.568953
H       -1.663708     0.759113    -6.447647
H        4.155609    -0.483578    -2.089627
H        5.561394    -1.097031    -3.000479
H        4.892142    -4.419522     1.022153
H        6.557426    -3.956093     0.517875
H        5.530565    -2.817918     1.500002
H        5.420332    -3.576550    -4.083035
H        3.259546    -5.166601    -4.620545
H       -0.535871    -1.523972    -4.063820
H       -0.450251    -2.402634    -5.643781
H        1.039843    -2.057685    -4.738570
H       -2.242869    -3.789326    -4.361583
H       -2.972248    -6.970637    -2.402967
H       -3.174264    -6.655888    -4.162798
H       -3.757873    -5.463928    -2.905852
H       -0.664374    -7.062532    -2.078164
H        2.164617    -7.081203    -2.464982
H        2.718898    -5.502187    -1.765337
H        1.531261    -6.467889    -0.876505
116
ex_0508 frame13 square-planar trans
C        4.402197     0.011655     4.970901
O        4.176713    -0.682148     3.809115
C        3.321223    -1.661351     3.632580
O        2.527956    -1.971892     4.506213
C        3.314961    -2.424171     2.319263
N        4.343178    -1.941847     1.417383
C        5.650642    -2.479154     1.329084
C        6.338786    -1.736108     0.338887
N        5.457487    -0.742336    -0.139553
C        5.759498     0.261065    -1.123225
C        6.673924     1.256548    -0.785469
C        7.316796     1.240412     0.562262
C        6.984142     2.266069    -1.712638
C        6.401184     2.270365    -2.988256
C        6.749617     3.327301    -3.985593
C        5.491605     1.284571    -3.330100
C        5.168238     0.281066    -2.423626
C        4.209900    -0.739841    -2.851687
C        4.246108    -0.957141     0.458420
Se       2.650000     0.000000     0.000000
Cd       0.000000     0.000000     0.000000
Cl      -2.549431    -0.001736     0.001325
Se       0.000000     2.650000     0.000000
C        0.931222     4.302412    -0.292591
N        2.116860     4.497569    -0.982545
C        2.948206     3.470105    -1.568660
C        2.656094     3.401174    -3.044365
O        2.704566     4.410815    -3.727759
O        2.349821     2.244003    -3.582719
C        2.139938     1.972854    -4.923855
C        2.387709     5.891284    -1.021582
C        1.343194     6.540263    -0.317262
N        0.483998     5.529104     0.179256
C       -0.641263     5.770056     1.019831
C       -0.644116     5.329457     2.362232
C        0.515333     4.569325     2.946603
C       -1.742280     5.599189     3.176129
C       -2.835675     6.317970     2.697760
C       -3.966683     6.635591     3.624181
C       -2.865946     6.734498     1.360912
C       -1.780694     6.462098     0.508691
C       -1.843809     6.908721    -0.933315
Se       0.000000    -2.650000     0.000000
C        1.072445    -4.237372     0.151632
N        2.399086    -4.387210    -0.199891
C        3.185792    -3.405323    -0.840825
C        3.059768    -3.446983    -2.321383
O        3.983704    -3.870835    -2.987666
O        1.964547    -3.031604    -2.906736
C        1.928608    -2.721958    -4.255713
C        2.866792    -5.661842     0.169674
C        1.763225    -6.352939     0.715376
N        0.662172    -5.470457     0.627497
C       -0.654297    -5.814308     0.977301
C       -1.548310    -5.936553    -0.121583
C       -1.111737    -5.661493    -1.539574
C       -2.871235    -6.322288     0.111429
C       -3.320937    -6.574914     1.409910
C       -4.738099    -7.006599     1.628667
C       -2.443303    -6.422526     2.496167
C       -1.113741    -6.034197     2.283868
C       -0.183199    -5.854433     3.459501
H        3.801407    -0.377028     5.818890
H        5.478469    -0.077044     5.222462
H        4.153880     1.075927     4.792557
H        2.337591    -2.329259     1.855994
H        3.521794    -3.471949     2.571651
H        6.033002    -3.303415     1.916987
H        7.356581    -1.880941     0.018605
H        6.535780     1.084019     1.338524
H        8.044005     0.402732     0.606585
H        7.829320     2.196343     0.769009
H        7.696049     3.032069    -1.450010
H        5.845739     3.639621    -4.553378
H        7.178936     4.215708    -3.483812
H        7.489026     2.907062    -4.700899
H        5.031266     1.287990    -4.315135
H        4.149844    -1.466838    -2.068058
H        4.601369    -1.225617    -3.769582
H        3.206964    -0.293817    -3.035699
H        2.751658     2.484345    -1.123178
H        4.017859     3.715335    -1.404498
H        2.755404     1.098308    -5.222568
H        2.403609     2.828245    -5.581789
H        1.073266     1.708361    -5.077872
H        3.242363     6.362160    -1.487538
H        1.237898     7.601916    -0.130349
H        0.838730     5.075204     3.873410
H        1.413004     4.535195     2.311827
H        0.200189     3.528493     3.169991
H       -1.728083     5.270458     4.207271
H       -3.596055     7.354023     4.387478
H       -4.304466     5.710934     4.136684
H       -4.826270     7.092309     3.092149
H       -3.729732     7.275196     0.986972
H       -2.795906     7.442744    -1.155171
H       -1.011517     7.592167    -1.183697
H       -1.805318     6.017345    -1.596674
H        2.777157    -2.433763    -0.598358
H        4.240639    -3.444151    -0.535120
H        2.712880    -1.992193    -4.548867
H        0.962498    -2.252601    -4.520587
H        2.107944    -3.640303    -4.841885
H        3.860706    -6.037516    -0.026934
H        1.735707    -7.390587     1.009716
H       -1.664234    -4.779552    -1.931228
H       -1.353911    -6.538989    -2.176146
H       -0.028029    -5.465281    -1.640360
H       -3.553387    -6.435823    -0.724687
H       -4.866311    -8.039136     1.239922
H       -5.422898    -6.329318     1.075470
H       -5.011967    -6.986755     2.703856
H       -2.786494    -6.609970     3.505651
H       -0.009849    -6.827782     3.958224
H        0.808669    -5.444611     3.172498
H       -0.621428    -5.129294     4.173834
116
ex_0508 frame14 square-planar trans-conf2
C        4.086675     4.383016    -1.791389
O        3.923942     3.023966    -2.043610
C        3.160996     2.465591    -2.956867
O        2.461541     3.145773    -3.688919
C        3.129649     0.975027    -3.123913
N        4.235061     0.461366    -2.364179
C        5.563246     0.353026    -2.833120
C        6.327936    -0.194979    -1.776522
N        5.442248    -0.420575    -0.695820
C        5.851860    -0.986803     0.545803
C        6.061084    -0.104984     1.650564
C        5.847784     1.379104     1.532163
C        6.477357    -0.626893     2.885853
C        6.716692    -1.994854     3.035168
C        7.211893    -2.539171     4.342618
C        6.492846    -2.858340     1.959546
C        6.058941    -2.368399     0.720408
C        5.821477    -3.331570    -0.404841
C        4.185883     0.014480    -1.074144
Se       2.650000     0.000000     0.000000
Cd       0.000000     0.000000     0.000000
Cl      -2.544161     0.158966     0.032985
Se       0.000000     2.650000     0.000000
C        0.992199     4.216850     0.331274
N        2.107658     4.301614     1.149572
C        2.715103     3.203723     1.873359
C        2.116439     3.056302     3.248951
O        2.553275     2.196947     3.996407
O        1.139047     3.841001     3.637697
C        0.573498     3.852302     4.903083
C        2.563091     5.643620     1.165793
C        1.705991     6.390760     0.305319
N        0.732878     5.491706    -0.197567
C       -0.335126     5.842674    -1.098340
C       -1.613123     6.124604    -0.555451
C       -1.857347     6.043411     0.922356
C       -2.669539     6.486443    -1.416872
C       -2.452807     6.605887    -2.796176
C       -3.555293     7.050777    -3.702954
C       -1.204791     6.308866    -3.324959
C       -0.160705     5.916420    -2.495575
C        1.131787     5.577854    -3.092239
Se       0.000000    -2.650000     0.000000
C       -0.965853    -4.301254     0.087328
N       -2.276320    -4.463362    -0.276494
C       -3.173785    -3.417703    -0.713494
C       -3.167612    -3.344734    -2.229490
O       -2.682028    -2.367803    -2.770452
O       -3.675936    -4.315621    -2.954053
C       -3.850879    -4.253745    -4.335737
C       -2.585201    -5.837786    -0.145254
C       -1.436965    -6.474078     0.379409
N       -0.438098    -5.492788     0.510004
C        0.882925    -5.714440     0.996781
C        1.426823    -5.327195     2.240424
C        0.607414    -4.561975     3.239806
C        2.754639    -5.658767     2.556220
C        3.546623    -6.386931     1.659785
C        4.941220    -6.800090     2.032905
C        3.035412    -6.731401     0.409327
C        1.710032    -6.419035     0.066800
C        1.191708    -6.838382    -1.282350
H        3.151816     4.893661    -1.537055
H        4.559981     4.901532    -2.650149
H        4.701888     4.515576    -0.880170
H        2.143785     0.619356    -2.752645
H        3.208771     0.711635    -4.193955
H        5.913554     0.680530    -3.803581
H        7.393276    -0.382654    -1.773744
H        5.468975     1.789678     2.496200
H        6.831991     1.856065     1.340497
H        5.133916     1.654204     0.734053
H        6.659283     0.042479     3.721371
H        7.196279    -1.765724     5.140118
H        8.258331    -2.887274     4.211875
H        6.580526    -3.392117     4.668914
H        6.673221    -3.918929     2.079841
H        5.064278    -4.081521    -0.099076
H        5.456634    -2.844707    -1.330800
H        6.780189    -3.836963    -0.635362
H        3.811270     3.329324     1.911782
H        2.495873     2.251722     1.373815
H        1.196221     3.320649     5.656319
H        0.452153     4.901486     5.240321
H       -0.426922     3.371399     4.866131
H        3.411131     6.009481     1.726438
H        1.763365     7.445182     0.081355
H       -2.947406     6.035606     1.143264
H       -1.420815     5.117707     1.348423
H       -1.403690     6.931955     1.406268
H       -3.648197     6.718399    -1.014906
H       -3.976779     8.002938    -3.319508
H       -4.341159     6.272185    -3.749686
H       -3.173235     7.239753    -4.731596
H       -1.037208     6.371749    -4.394801
H        1.031972     5.268450    -4.153919
H        1.378818     4.674364    -2.540176
H        1.881470     6.381885    -2.951130
H       -2.827368    -2.443841    -0.346614
H       -4.215475    -3.556219    -0.361490
H       -3.556610    -5.218900    -4.788724
H       -3.250071    -3.449273    -4.817608
H       -4.920102    -4.057335    -4.589396
H       -3.505672    -6.316819    -0.448236
H       -1.290844    -7.532728     0.557169
H       -0.430917    -4.375529     2.917516
H        1.079429    -3.578467     3.440886
H        0.549287    -5.155235     4.171626
H        3.155709    -5.377424     3.522010
H        5.681987    -6.290282     1.384724
H        5.166097    -6.573025     3.096745
H        5.038198    -7.900112     1.894060
H        3.663112    -7.283927    -0.284027
H        0.573975    -6.035065    -1.733458
H        2.036692    -7.023890    -1.985580
H        0.613130    -7.778239    -1.188142
116
ex_0508 frame15 see-saw Cl-Se-ax-conf4
C       -2.784507     4.215958     3.807254
O       -2.760748     2.840273     4.002066
C       -3.350480     1.982551     3.202039
O       -3.960500     2.376365     2.217106
C       -3.273095     0.525148     3.499897
N       -2.405779     0.069315     4.469626
C       -2.761500    -0.192033     5.792096
C       -1.615213    -0.725499     6.419626
N       -0.566722    -0.627554     5.477210
C        0.772652    -0.926795     5.733685
C        1.590289     0.161950     6.116123
C        1.051279     1.565078     6.192932
C        2.927293    -0.064896     6.430197
C        3.459127    -1.351076     6.364948
C        4.900539    -1.560847     6.682351
C        2.639486    -2.430649     6.003597
C        1.309601    -2.209543     5.629600
C        0.456321    -3.346910     5.116217
C       -1.056098    -0.190148     4.270470
Se       0.000000     0.000000     2.650000
Cd       0.000000     0.000000     0.000000
Cl      -0.088984     0.001275    -2.547923
Se       2.598539     0.000000     0.519708
C        4.022297    -0.429413     1.651679
N        4.044363    -1.456480     2.542045
C        3.007627    -2.410409     2.822017
C        3.191318    -3.584038     1.925314
O        2.912554    -3.502298     0.740309
O        3.656135    -4.703784     2.427872
C        4.029697    -5.827610     1.729495
C        5.303357    -1.453399     3.190788
C        6.022531    -0.352214     2.706054
N        5.225082     0.231318     1.713746
C        5.598237     1.330700     0.899317
C        6.720136     1.052149     0.055783
C        7.368582    -0.307598     0.012637
C        7.241869     2.060746    -0.758434
C        6.641072     3.316753    -0.804907
C        7.218243     4.380184    -1.681398
C        5.502945     3.574684    -0.032125
C        4.998251     2.606560     0.844476
C        3.820483     2.952338     1.712611
Se      -2.598539     0.000000     0.519708
C       -4.269255     0.421506    -0.054685
N       -4.606724     1.327700    -0.991548
C       -3.722531     2.193771    -1.769328
C       -3.749757     3.582505    -1.170456
O       -3.108748     4.479638    -1.694629
O       -4.463468     3.812260    -0.090320
C       -4.591976     5.033779     0.534377
C       -5.959413     1.334115    -1.129775
C       -6.465556     0.403725    -0.206996
N       -5.391552    -0.140044     0.404710
C       -5.473550    -1.159339     1.390128
C       -4.977902    -2.438090     1.080425
C       -4.417830    -2.743962    -0.285856
C       -5.002169    -3.438359     2.043910
C       -5.560191    -3.198486     3.302851
C       -5.582216    -4.283682     4.324565
C       -6.098525    -1.938969     3.604451
C       -6.040417    -0.904577     2.663045
C       -6.585810     0.467092     3.026308
H       -2.564423     4.712641     4.773166
H       -3.794858     4.548585     3.478365
H       -2.026200     4.504292     3.048148
H       -4.213225     0.086383     3.696011
H       -2.952069    -0.101611     2.770408
H       -3.767258    -0.093395     6.175928
H       -1.539872    -1.092995     7.424613
H        1.765953     2.272732     5.716477
H        0.940889     1.834136     7.262143
H        0.074432     1.691597     5.686924
H        3.563541     0.765486     6.711188
H        5.197761    -2.624039     6.569647
H        5.091037    -1.222978     7.718981
H        5.510566    -0.942926     5.988384
H        3.048684    -3.431899     5.935693
H       -0.282319    -2.980284     4.363540
H        1.071516    -4.086891     4.561926
H       -0.094555    -3.821488     5.946810
H        3.177814    -2.805646     3.798848
H        1.980077    -2.006245     2.731263
H        3.384530    -6.657540     2.069188
H        3.923584    -5.693478     0.632986
H        5.092278    -6.084765     1.942764
H        5.650882    -2.189714     3.899357
H        7.040799    -0.071064     2.939031
H        6.716260    -1.106043     0.413652
H        7.543062    -0.591529    -1.050724
H        8.341195    -0.283771     0.541820
H        8.104254     1.855102    -1.385913
H        6.518912     5.234452    -1.792194
H        7.438144     3.962375    -2.685853
H        8.163376     4.739524    -1.220382
H        5.046291     4.556220    -0.054229
H        3.584089     2.188308     2.471815
H        2.924310     3.108916     1.079668
H        4.051529     3.872014     2.281215
H       -2.690901     1.794838    -1.819338
H       -4.110488     2.261338    -2.814082
H       -3.595232     5.419754     0.835821
H       -5.100223     5.760336    -0.133107
H       -5.210864     4.905404     1.446972
H       -6.530189     1.944329    -1.817941
H       -7.498460     0.130933    -0.029189
H       -4.976255    -3.605110    -0.702231
H       -3.337791    -2.981764    -0.220475
H       -4.552114    -1.923141    -1.017147
H       -4.604470    -4.413681     1.795242
H       -4.992405    -3.970459     5.210867
H       -6.634508    -4.477181     4.613330
H       -5.145131    -5.221331     3.918811
H       -6.508749    -1.748003     4.589704
H       -7.686492     0.475517     3.103363
H       -6.176936     0.780864     4.014186
H       -6.259205     1.249146     2.312543
116
ex_0508 frame16 see-saw Se-Se-ax-conf2
C        4.770438    -0.819422     3.877654
O        3.501740    -1.367490     3.826795
C        3.099500    -2.278229     2.971773
O        3.851225    -2.685565     2.101392
C        1.700375    -2.831519     3.057164
N        1.018097    -2.236660     4.185253
C        0.982793    -2.748694     5.508711
C        0.215795    -1.832105     6.289076
N       -0.186130    -0.793511     5.420354
C       -0.951234     0.324813     5.842889
C       -0.332912     1.600557     6.042374
C        1.120656     1.810039     5.814904
C       -1.102458     2.696757     6.464156
C       -2.446519     2.533109     6.738865
C       -3.259028     3.696296     7.250466
C       -3.025080     1.279567     6.533213
C       -2.317488     0.191973     6.072147
C       -3.049412    -1.108581     5.831021
C        0.293274    -1.057790     4.141451
Se       0.000000     0.000000     2.650000
Cd       0.000000     0.000000     0.000000
Cl       2.517228     0.022707     0.403280
Se       0.000000     0.000000    -2.650000
C        0.284396     1.020163    -4.177137
N        0.230795     2.397871    -4.251377
C       -0.041144     3.286180    -3.140980
C       -1.523515     3.541629    -3.003072
O       -1.915221     4.313970    -2.144618
O       -2.380300     2.941948    -3.794924
C       -3.749113     3.175089    -3.826247
C        0.485108     2.795237    -5.589123
C        0.714889     1.604809    -6.342156
N        0.585567     0.520506    -5.443019
C        0.742418    -0.852963    -5.798167
C       -0.403979    -1.633398    -6.102701
C       -1.781856    -1.041097    -6.037286
C       -0.250916    -2.979866    -6.471024
C        1.022964    -3.544195    -6.579907
C        1.173292    -4.961747    -7.044149
C        2.151026    -2.781113    -6.254385
C        2.016096    -1.444636    -5.851732
C        3.232573    -0.652995    -5.480064
Se      -2.598539     0.000000     0.519708
C       -4.383910     0.090699    -0.095298
N       -4.815872    -0.259773    -1.352917
C       -3.977168    -0.714955    -2.439746
C       -3.926646    -2.226444    -2.484791
O       -2.872104    -2.772878    -2.216685
O       -4.979215    -2.941241    -2.801512
C       -4.935318    -4.327439    -2.985471
C       -6.220960    -0.095879    -1.392302
C       -6.612241     0.418359    -0.130612
N       -5.450189     0.507697     0.660983
C       -5.448982     0.975883     2.014688
C       -4.985095     2.221669     2.482061
C       -4.343773     3.208416     1.538826
C       -5.123629     2.548166     3.851882
C       -5.709810     1.628880     4.746141
C       -5.883270     1.955139     6.205000
C       -6.139508     0.397379     4.288612
C       -6.014219     0.049390     2.937688
C       -6.484280    -1.303595     2.498566
H        5.192359    -0.669202     2.859169
H        5.443552    -1.466861     4.478403
H        4.709062     0.173543     4.368687
H        1.190154    -2.560894     2.104258
H        1.691102    -3.934314     3.137111
H        1.460257    -3.651152     5.850997
H       -0.019386    -1.885087     7.342128
H        1.300380     2.848275     5.456046
H        1.600156     1.702764     6.810268
H        1.547032     1.102569     5.085068
H       -0.643682     3.663449     6.641043
H       -2.660980     4.629710     7.284926
H       -3.641751     3.480347     8.270751
H       -4.089843     3.934680     6.573023
H       -4.004833     1.067149     6.748421
H       -3.859136    -0.953744     5.086107
H       -2.412908    -1.927132     5.445707
H       -3.515086    -1.430299     6.783880
H        0.515560     4.230836    -3.268181
H        0.289933     2.824984    -2.183833
H       -4.030231     4.118027    -3.309389
H       -4.092090     3.252172    -4.879122
H       -4.286303     2.331720    -3.342009
H        0.506928     3.811646    -5.948832
H        0.944646     1.520381    -7.393572
H       -2.557107    -1.839024    -5.997890
H       -1.907103    -0.413034    -5.133332
H       -1.944374    -0.432912    -6.950485
H       -1.119402    -3.576901    -6.730555
H        0.590667    -5.106613    -7.980090
H        0.789347    -5.651274    -6.265497
H        2.235038    -5.208676    -7.259738
H        3.138224    -3.222481    -6.318287
H        4.013299    -1.318144    -5.057014
H        2.999552     0.092616    -4.690352
H        3.607607    -0.132770    -6.381897
H       -2.939975    -0.352077    -2.302839
H       -4.321536    -0.356717    -3.425953
H       -5.825520    -4.783339    -2.515171
H       -4.029591    -4.811748    -2.543601
H       -4.933440    -4.578128    -4.072441
H       -6.869290    -0.349053    -2.218989
H       -7.615755     0.634567     0.214772
H       -4.360452     2.884670     0.481507
H       -3.284493     3.422532     1.799636
H       -4.941797     4.133955     1.585889
H       -4.781254     3.517450     4.192574
H       -5.845630     1.500884     7.032901
H       -5.980889     3.145182     6.311440
H       -7.246307     1.916578     6.222618
H       -6.587804    -0.297409     4.988999
H       -5.819906    -1.737112     1.706943
H       -6.448066    -2.029844     3.355707
H       -7.511061    -1.204897     2.159675
116
ex_0508 frame17 see-saw Se-Se-ax-conf5
C        5.774133    -0.891883     4.470698
O        4.507633    -1.462171     4.518314
C        3.706864    -1.434117     3.479345
O        4.010835    -0.774399     2.499443
C        2.406263    -2.206429     3.468560
N        1.509804    -1.725049     4.496902
C        1.539587    -2.070968     5.872531
C        0.462051    -1.387887     6.498435
N       -0.170648    -0.616641     5.498878
C       -1.281989     0.230719     5.766515
C       -1.017514     1.623860     5.877504
C        0.368247     2.175898     5.703928
C       -2.069255     2.511224     6.155435
C       -3.369603     2.035132     6.344335
C       -4.481104     2.988108     6.688245
C       -3.630743     0.664900     6.211270
C       -2.589507    -0.238657     5.924260
C       -2.873931    -1.706187     5.786056
C        0.477428    -0.826783     4.293737
Se       0.000000     0.000000     2.650000
Cd       0.000000     0.000000     0.000000
Cl       2.538859     0.114992     0.200148
Se       0.000000     0.000000    -2.650000
C        0.980515     0.003649    -4.259555
N        2.258949    -0.449673    -4.454797
C        3.166451    -0.986465    -3.463844
C        2.910219    -2.479370    -3.424377
O        2.027180    -2.966487    -4.111463
O        3.644327    -3.240758    -2.647061
C        3.568975    -4.622938    -2.552730
C        2.558068    -0.302524    -5.830800
C        1.431843     0.287063    -6.444218
N        0.468308     0.472877    -5.435819
C       -0.813615     1.053626    -5.635098
C       -1.774054     0.173640    -6.220413
C       -1.435326    -1.251612    -6.564697
C       -3.070109     0.640039    -6.485478
C       -3.428406     1.954390    -6.182382
C       -4.815029     2.435696    -6.489997
C       -2.489918     2.812855    -5.593453
C       -1.189229     2.369844    -5.314063
C       -0.207636     3.310664    -4.672131
Se      -2.598539     0.000000     0.519708
C       -4.376558     0.336111    -0.012361
N       -4.782595     1.161445    -1.027733
C       -3.928284     1.896816    -1.926692
C       -3.792570     3.307556    -1.382650
O       -4.312040     3.610976    -0.317971
O       -3.111311     4.187166    -2.073974
C       -2.742470     5.443265    -1.643543
C       -6.200248     1.175982    -1.052270
C       -6.641425     0.314424    -0.023898
N       -5.484173    -0.221399     0.583178
C       -5.516537    -1.172855     1.628572
C       -5.603278    -2.546278     1.372664
C       -5.647087    -3.051941    -0.040414
C       -5.649413    -3.452749     2.438286
C       -5.628485    -2.997333     3.761070
C       -5.698685    -3.979596     4.894376
C       -5.541915    -1.623844     4.019834
C       -5.458716    -0.704032     2.965563
C       -5.309204     0.767782     3.270522
H        6.337218    -1.260922     3.578432
H        6.352171    -1.171246     5.371118
H        5.702962     0.215936     4.401439
H        1.946185    -2.092655     2.464678
H        2.642970    -3.278478     3.608773
H        2.258267    -2.716998     6.353315
H        0.186322    -1.394601     7.545430
H        1.078643     1.442535     5.279326
H        0.354637     3.068836     5.041185
H        0.730859     2.482499     6.707622
H       -1.863795     3.571036     6.268660
H       -4.794191     2.819782     7.740642
H       -5.352595     2.832593     6.018769
H       -4.154591     4.046009     6.587581
H       -4.639177     0.306979     6.365256
H       -1.963341    -2.328965     5.836437
H       -3.253031    -1.914873     4.776352
H       -3.546513    -2.041518     6.598001
H        2.999669    -0.565767    -2.455280
H        4.225197    -0.812596    -3.744277
H        2.783686    -5.059839    -3.206670
H        3.351273    -4.914839    -1.504101
H        4.544315    -5.063009    -2.849477
H        3.460430    -0.641667    -6.320802
H        1.284666     0.491638    -7.497052
H       -1.253873    -1.327109    -7.656218
H       -0.556654    -1.623735    -6.003629
H       -2.291288    -1.917956    -6.306687
H       -3.805515    -0.021039    -6.935495
H       -5.042244     2.249600    -7.561514
H       -4.926730     3.522254    -6.290278
H       -5.545383     1.879408    -5.865260
H       -2.762721     3.833489    -5.357327
H       -0.674711     3.851436    -3.827091
H        0.682889     2.810569    -4.257792
H        0.150309     4.014360    -5.447125
H       -2.909229     1.456424    -1.978813
H       -4.347655     1.916603    -2.951921
H       -1.960796     5.363444    -0.858561
H       -3.628305     5.982400    -1.257274
H       -2.324321     6.010401    -2.505066
H       -6.819557     1.756378    -1.720240
H       -7.660690     0.087141     0.262593
H       -4.714506    -3.605149    -0.265579
H       -6.533340    -3.702235    -0.164226
H       -5.739131    -2.239028    -0.788358
H       -5.719465    -4.513006     2.235039
H       -6.760161    -4.241219     5.080849
H       -5.264021    -3.560677     5.826198
H       -5.134480    -4.902843     4.642387
H       -5.523035    -1.279028     5.044822
H       -4.228273     1.029226     3.343673
H       -5.770797     1.397447     2.487581
H       -5.799657     1.024590     4.233324
116
ex_0508 frame18 see-saw Cl-Se-ax-conf3
C       -0.058300    -5.202912     3.879537
O       -0.584140    -3.919331     3.960690
C       -1.652086    -3.612350     3.264754
O       -2.153737    -4.427941     2.509964
C       -2.251760    -2.308355     3.378460
N       -1.732295    -1.456889     4.411483
C       -2.069607    -1.509252     5.789046
C       -1.440996    -0.450128     6.423222
N       -0.628379     0.152647     5.462911
C        0.224361     1.200806     5.772714
C        0.102627     2.481341     5.220154
C       -0.974432     2.814033     4.227337
C        0.997131     3.462037     5.599362
C        1.996721     3.181965     6.530449
C        2.914599     4.251963     6.940961
C        2.128020     1.898389     7.070291
C        1.242228     0.908792     6.691647
C        1.375779    -0.471564     7.266552
C       -0.821718    -0.457842     4.229985
Se       0.000000     0.000000     2.650000
Cd       0.000000     0.000000     0.000000
Cl      -0.000865     0.000772    -2.549433
Se       2.598539     0.000000     0.519708
C        3.910330    -0.241879     1.806946
N        3.804860    -0.966300     2.988456
C        2.690702    -1.699934     3.421787
C        2.769859    -3.048075     2.857377
O        1.854167    -3.821827     3.049455
O        3.808490    -3.437995     2.148796
C        3.999567    -4.738022     1.692502
C        4.986056    -0.865791     3.708361
C        5.873233    -0.107141     2.937653
N        5.203981     0.273742     1.764375
C        5.806464     1.053241     0.746473
C        6.229247     2.350421     1.045594
C        6.030337     2.888950     2.420535
C        6.837601     3.139420     0.054375
C        7.030312     2.618535    -1.228814
C        7.701951     3.415420    -2.299629
C        6.592301     1.339092    -1.519730
C        5.988368     0.550157    -0.551811
C        5.552896    -0.809013    -0.928036
Se      -2.598539     0.000000     0.519708
C       -4.045859     1.037042     0.904516
N       -4.194121     2.381011     0.598914
C       -3.235105     3.194263    -0.103482
C       -3.632407     3.097487    -1.534873
O       -4.560478     3.767319    -1.952064
O       -2.990951     2.296534    -2.350545
C       -3.274482     2.073848    -3.698767
C       -5.437207     2.813499     1.090404
C       -6.062387     1.706636     1.702780
N       -5.209122     0.618568     1.559247
C       -5.560350    -0.662751     2.036214
C       -5.134511    -1.136260     3.246552
C       -4.313243    -0.268872     4.082583
C       -5.481842    -2.435765     3.677735
C       -6.262568    -3.236741     2.880363
C       -6.613869    -4.598845     3.355690
C       -6.706758    -2.752694     1.644155
C       -6.366964    -1.450698     1.235971
C       -6.863396    -0.899291    -0.052760
H       -0.651963    -5.898664     4.457301
H        0.969618    -5.328286     4.296656
H       -0.053445    -5.482926     2.798868
H       -3.204926    -2.632520     3.668779
H       -2.391033    -1.783217     2.422731
H       -2.839663    -2.105016     6.230499
H       -1.520078    -0.196836     7.470117
H       -1.758071     2.030775     4.164848
H       -0.507240     2.997734     3.238308
H       -1.485005     3.743842     4.538056
H        0.894889     4.457561     5.195670
H        3.800874     3.809262     7.428675
H        3.208418     4.835872     6.040957
H        2.373655     4.885372     7.668116
H        2.898221     1.664646     7.797652
H        2.434066    -0.761914     7.374356
H        0.928720    -1.238159     6.593300
H        0.873468    -0.467025     8.254785
H        2.533381    -1.616292     4.518237
H        1.863005    -1.354831     2.921167
H        3.916521    -4.806085     0.583677
H        5.022143    -5.049232     1.952856
H        3.307687    -5.478665     2.167675
H        5.160443    -1.330640     4.648083
H        6.878035     0.127193     3.177877
H        6.070564     3.986979     2.392880
H        6.853753     2.521105     3.060586
H        5.058574     2.531708     2.844287
H        7.183011     4.134673     0.286728
H        7.162420     3.214398    -3.251728
H        8.768424     3.111751    -2.392674
H        7.658589     4.502031    -2.109526
H        6.751202     0.939619    -2.507469
H        5.277385    -1.416060    -0.048094
H        4.710935    -0.705048    -1.641506
H        6.416732    -1.290370    -1.425171
H       -3.331770     4.239924     0.276990
H       -2.187499     2.875721     0.032669
H       -3.729468     1.070066    -3.880311
H       -2.345303     2.111810    -4.304262
H       -3.970669     2.831141    -4.091739
H       -5.835753     3.789240     0.994563
H       -7.021453     1.655109     2.160772
H       -3.885800    -0.954684     4.698566
H       -3.565232     0.381607     3.573569
H       -4.880414     0.171005     4.880242
H       -5.119713    -2.840434     4.629054
H       -7.329032    -4.474062     4.193129
H       -5.699970    -5.080023     3.770792
H       -7.036219    -5.219747     2.538035
H       -7.361901    -3.345806     1.034242
H       -7.384696    -1.685833    -0.615777
H       -7.580719    -0.081744     0.171382
H       -6.030047    -0.452628    -0.640229
116
ex_0508 frame19 see-saw Se-Se-ax-conf4
C       -2.773063     4.205954     3.813163
O       -2.759385     2.837296     4.015276
C       -3.401107     1.969034     3.269814
O       -4.049387     2.344695     2.307494
C       -3.303576     0.622516     3.630046
N       -2.398150     0.114182     4.546690
C       -2.703009    -0.153941     5.882358
C       -1.548297    -0.653300     6.493899
N       -0.551753    -0.624470     5.499893
C        0.788935    -0.974855     5.703108
C        1.591920     0.125049     6.110925
C        1.029877     1.523515     6.229860
C        2.939739    -0.089099     6.411206
C        3.501019    -1.363674     6.277075
C        4.941370    -1.575181     6.615057
C        2.711335    -2.433920     5.827263
C        1.356658    -2.239910     5.544839
C        0.501588    -3.386017     5.070126
C       -1.069236    -0.167581     4.306010
Se       0.000000     0.000000     2.650000
Cd       0.000000     0.000000     0.000000
Cl       2.544143     0.005038     0.164042
Se       0.000000     0.000000    -2.650000
C        0.395100     0.902863    -4.293482
N        1.353381     1.858962    -4.463652
C        2.226569     2.468595    -3.490384
C        3.437784     1.568575    -3.593714
O        3.332635     0.386714    -3.309560
O        4.590090     2.059085    -3.986150
C        5.736880     1.318739    -4.245138
C        1.360439     2.183643    -5.835109
C        0.327551     1.474186    -6.452503
N       -0.248298     0.650318    -5.477565
C       -1.311546    -0.284579    -5.681635
C       -0.962632    -1.310763    -6.624842
C        0.403838    -1.392589    -7.258071
C       -1.914568    -2.281179    -6.982430
C       -3.170689    -2.305333    -6.377951
C       -4.174819    -3.351581    -6.760215
C       -3.487866    -1.353041    -5.417610
C       -2.596801    -0.325084    -5.099392
C       -3.043851     0.702533    -4.144783
Se      -2.598539     0.000000     0.519708
C       -4.267409     0.436700    -0.021640
N       -4.597093     1.378920    -0.916811
C       -3.696226     2.271269    -1.638797
C       -3.740822     3.631094    -1.053894
O       -3.090882     4.526328    -1.558754
O       -4.477254     3.869181     0.003062
C       -4.617383     5.096435     0.600768
C       -5.947655     1.392779    -1.069532
C       -6.461212     0.418100    -0.195415
N       -5.391483    -0.139464     0.417057
C       -5.477753    -1.183518     1.382091
C       -4.973574    -2.466381     1.081078
C       -4.398782    -2.781270    -0.280679
C       -5.003953    -3.464158     2.053393
C       -5.574297    -3.219953     3.307997
C       -5.596319    -4.298604     4.343485
C       -6.125406    -1.963107     3.594205
C       -6.071753    -0.932328     2.648407
C       -6.651530     0.431445     3.001584
H       -2.485754     4.716060     4.755853
H       -3.792303     4.561703     3.541759
H       -2.053455     4.480651     3.014660
H       -4.294584     0.161735     3.962637
H       -3.162710    -0.196486     2.814745
H       -3.673364     0.006883     6.337224
H       -1.451452    -0.957128     7.525704
H        1.691959     2.228059     5.675863
H        1.003040     1.839711     7.292662
H        0.017324     1.629773     5.793750
H        3.558859     0.741161     6.734409
H        5.235785    -2.638599     6.495055
H        5.109791    -1.278911     7.672292
H        5.572250    -0.946718     5.953473
H        3.140015    -3.420532     5.714920
H       -0.180760    -3.050683     4.257403
H        1.116220    -4.204450     4.649588
H       -0.121896    -3.757045     5.910411
H        2.479055     3.525824    -3.720636
H        1.837306     2.415752    -2.452740
H        6.590814     1.753267    -3.688703
H        5.639160     0.247343    -3.962395
H        5.968206     1.358301    -5.332447
H        2.051115     2.851220    -6.328776
H        0.052564     1.522182    -7.495805
H        1.170122    -0.799293    -6.728541
H        0.763240    -2.441491    -7.164362
H        0.363692    -1.130757    -8.334368
H       -1.660339    -3.048643    -7.705409
H       -5.070627    -3.314872    -6.102474
H       -3.727521    -4.363638    -6.690378
H       -4.505560    -3.163219    -7.803667
H       -4.465691    -1.365148    -4.949164
H       -2.355294     1.551251    -4.019799
H       -3.207524     0.199992    -3.170038
H       -3.988828     1.134764    -4.529628
H       -2.649431     1.908633    -1.617775
H       -4.067158     2.387608    -2.675319
H       -3.618291     5.474132     0.906732
H       -5.098453     5.807730    -0.103828
H       -5.255367     4.984997     1.499380
H       -6.510981     2.041532    -1.728588
H       -7.498058     0.150436    -0.030430
H       -4.961086    -3.636408    -0.709424
H       -3.325753    -3.045211    -0.201031
H       -4.502324    -1.956579    -1.013430
H       -4.598715    -4.440221     1.817722
H       -5.017532    -3.968801     5.231736
H       -6.645303    -4.505872     4.636976
H       -5.142614    -5.236557     3.957648
H       -6.559937    -1.774043     4.569029
H       -7.749894     0.389034     3.111844
H       -6.260937     0.788913     3.977599
H       -6.389334     1.217623     2.268052
