91
ex_0175 frame0 OC-6-1
Zn       0.000000     0.000000     0.000000
C        5.639474    -2.284216     0.650772
C        5.178706    -0.958912     1.230934
N        4.062226    -0.435965     0.546528
C        4.115162     0.457843    -0.582139
C        2.751846     0.718851    -0.914414
N        1.930000     0.000000     0.000000
C        2.702261    -0.700483     0.891113
H        5.933155    -2.175148    -0.398651
H        6.500581    -2.664528     1.208784
H        4.842959    -3.034379     0.698133
H        4.893596    -1.076941     2.282182
H        5.984354    -0.217874     1.184712
H        5.004210     0.779130    -0.989048
H        2.367887     1.297235    -1.648575
H        2.409422    -1.283389     1.635522
C       -5.639474    -2.368137    -0.181870
C       -5.178706    -1.185258    -1.014827
N       -4.062226    -0.536256    -0.448540
C       -4.115162     0.564800     0.479069
C       -2.751846     0.886864     0.752577
N       -1.930000     0.000000     0.000000
C       -2.702261    -0.864215    -0.733410
H       -5.933155    -2.051851     0.824682
H       -6.500581    -2.852151    -0.652769
H       -4.842959    -3.112662    -0.078584
H       -4.893596    -1.510689    -2.021379
H       -5.984354    -0.449900    -1.117409
H       -5.004210     0.960824     0.813682
H       -2.367887     1.600117     1.356556
H       -2.409422    -1.583944    -1.346529
C       -2.299307     5.639489     0.595210
C       -1.450122     5.178707    -0.576068
N       -0.652655     4.062226    -0.250599
C        0.689553     4.115162     0.270230
C        1.082860     2.751847     0.424636
N        0.000000     1.930000     0.000000
C       -1.055222     2.702262    -0.413840
H       -1.673954     5.933179     1.444982
H       -2.970205     4.842978     0.934164
H       -2.909783     6.500594     0.306528
H       -2.084128     4.893592    -1.422877
H       -0.787667     5.984349    -0.911383
H        1.172629     5.004211     0.458480
H        1.953327     2.367888     0.764940
H       -1.934778     2.409422    -0.760693
C        1.229460    -5.639481    -2.032128
C        1.440046    -5.178707    -0.600812
N        0.642063    -4.062226    -0.276611
C       -0.682179    -4.115162     0.288337
C       -1.071471    -2.751846     0.452604
N        0.000000    -1.930000     0.000000
C        1.044154    -2.702262    -0.441023
H        1.472746    -4.842969    -2.743329
H        1.867939    -6.500592    -2.252023
H        0.188367    -5.933161    -2.203332
H        1.200267    -5.984352     0.101887
H        2.485259    -4.893595    -0.437774
H       -1.159348    -5.004211     0.491095
H       -1.865615    -2.468205     0.818394
H        1.913886    -2.414383    -0.805996
C        0.521264     2.317204     5.639474
C        1.175050     1.026629     5.178706
N        0.526467     0.470606     4.067293
C       -0.555466    -0.489862     4.115162
C       -0.858951    -0.728422     2.767577
N        0.000000     0.000000     1.930000
C        0.853453     0.752078     2.702051
H       -0.520364     2.149282     5.933155
H        1.057001     2.728300     6.500581
H        0.526355     3.068842     4.842959
H        2.217995     1.203600     4.893596
H        1.170582     0.284164     5.984354
H       -0.943660    -0.833527     5.004210
H       -1.666136    -1.270734     2.418626
H        1.560747     1.373349     2.409422
C       -2.367629    -0.188335    -5.639478
C       -1.328558     0.818317    -5.178707
N       -0.602573     0.361655    -4.064881
C        0.632384    -0.385482    -4.115162
C        0.974787    -0.592752    -2.755213
N        0.000000     0.000000    -1.930000
C       -0.969786     0.591485    -2.702181
H       -1.898771    -1.133508    -5.933164
H       -2.918939     0.201632    -6.500584
H       -3.087059    -0.406067    -4.842963
H       -0.618073     1.033926    -5.984353
H       -1.806451     1.762070    -4.893595
H        1.075595    -0.654491    -5.004211
H        1.791482    -1.091426    -2.367888
H       -1.773947     1.084034    -2.409422
91
ex_0175 frame1 OC-6-1-conf6
Zn       0.000000     0.000000     0.000000
C        5.639474     1.155019    -2.075350
C        5.178706    -0.192348    -1.548455
N        4.057586    -0.077422    -0.688253
C        4.098699     0.085324     0.713931
C        2.780822     0.125371     1.069232
N        1.930000     0.000000     0.000000
C        2.710891    -0.131041    -1.094064
H        5.933155     1.819951    -1.256173
H        6.500581     1.029366    -2.738846
H        4.842959     1.651975    -2.639284
H        4.893596    -0.852234    -2.375259
H        5.984354    -0.683658    -0.991778
H        5.004210     0.148435     1.250291
H        2.512036     0.212930     2.019563
H        2.409422    -0.248996    -2.063982
C       -5.639481    -1.184297     2.058777
C       -5.178707     0.170399     1.551023
N       -4.057587     0.067666     0.689281
C       -4.098699    -0.075203    -0.715068
C       -2.778073    -0.112353    -1.070699
N       -1.930000     0.000000     0.000000
C       -2.710891     0.115531     1.095810
H       -6.500587    -1.068052     2.723986
H       -4.842967    -1.689197     2.615612
H       -5.933167    -1.837554     1.230261
H       -4.893594     0.818502     2.387093
H       -5.984352     0.669550     1.001362
H       -5.004211    -0.130712    -1.252269
H       -2.466862    -0.219683    -2.023949
H       -2.409422     0.219737     2.067301
C        2.197599     5.639474    -0.900948
C        1.514750     5.178706     0.374488
N        0.674229     4.057586     0.158436
C       -0.698789     4.098699    -0.169325
C       -1.106997     2.753768    -0.268507
N        0.000000     1.930000     0.000000
C        1.070826     2.710891     0.259766
H        1.462990     5.933155    -1.658268
H        2.841529     6.500581    -0.697555
H        2.816449     4.842959    -1.327575
H        2.257531     4.893596     1.127702
H        0.903775     5.984354     0.796369
H       -1.223891     5.004210    -0.295551
H       -1.973352     2.446004    -0.522156
H        2.019932     2.409422     0.491827
C        2.086123    -5.639474     1.135447
C        1.546577    -5.178706    -0.206905
N        0.687495    -4.057586    -0.083893
C       -0.713097    -4.098699     0.092035
C       -1.066998    -2.778194     0.140592
N        0.000000    -1.930000     0.000000
C        1.025756    -2.739915    -0.132913
H        1.273237    -5.933155     1.808055
H        2.748407    -6.500581     1.003559
H        2.654706    -4.842959     1.627077
H        2.367137    -4.893596    -0.874538
H        0.985303    -5.984354    -0.692957
H       -1.248839    -5.004210     0.160189
H       -2.017998    -2.465128     0.280884
H        1.988800    -2.547580    -0.280185
C       -0.707174     2.267389     5.639474
C        0.504308     1.476612     5.178706
N        0.216251     0.657968     4.057586
C       -0.229227    -0.681493     4.098699
C       -0.363401    -1.079573     2.753768
N        0.000000     0.000000     1.930000
C        0.351559     1.044296     2.710891
H       -1.525289     1.601151     5.933155
H       -0.448760     2.891277     6.500581
H       -1.078584     2.920873     4.842959
H        1.319040     2.151346     4.893596
H        0.871672     0.831385     5.984354
H       -0.400470    -1.193685     5.004210
H       -0.668305    -1.988464     2.367887
H        0.664972     1.969729     2.409422
C       -0.967903    -2.168943    -5.639474
C        0.327870    -1.525520    -5.178706
N        0.137690    -0.678770    -4.057586
C       -0.147820     0.703652    -4.098699
C       -0.234440     1.114709    -2.753768
N        0.000000     0.000000    -1.930000
C        0.226812    -1.078287    -2.710891
H       -1.702344    -1.411460    -5.933155
H       -0.784348    -2.818806    -6.500581
H       -1.413303    -2.774422    -4.842959
H        1.057956    -2.291045    -4.893596
H        0.768284    -0.927767    -5.984354
H       -0.257888     1.232377    -5.004210
H       -0.430780     2.053058    -2.367887
H        0.358028    -2.001906    -2.480492
