37
ex_0160 frame0 OC-6-chelate-1
Co       0.000000     0.000000     0.000000
C        3.827953     1.570881    -0.000080
C        2.365023     1.356427    -0.000027
N        2.083065     0.170116    -0.000000
O        2.627992    -0.994347     0.000009
N        0.170116     2.083065    -0.000000
O       -1.035508     2.611953     0.000015
C        1.399100     2.482172    -0.000026
C        2.043745     3.839647    -0.000054
H        4.124386     2.398351     0.692933
H        4.232887     1.844668    -0.991258
H        4.376205     0.670535     0.386355
H       -1.266628     3.598566    -0.061535
H        1.321270     4.646235    -0.243423
H        2.817419     3.871522    -0.797267
H        2.493363     4.070412     0.983840
N       -0.159292    -2.083921     0.000000
O        1.064667    -2.591724    -0.000019
C       -1.380376    -2.563753     0.000027
C       -2.108559    -3.859347     0.000062
C       -2.264137    -1.364877     0.000021
C       -3.762697    -1.525547     0.000046
N       -2.083921    -0.159292    -0.000000
O       -2.629302     0.948655    -0.000003
H       -1.446219    -4.716611    -0.317649
H       -3.041090    -3.832250    -0.594551
H       -2.381718    -4.066397     1.064153
H       -4.060554    -2.458535     0.525366
H       -4.237415    -0.673565     0.526833
H       -4.124400    -1.556138    -1.052534
H       -3.201443     1.270104    -0.789542
N        0.000000     0.000000     2.090000
N       -0.000000     0.000000     3.550000
N       -0.000002    -0.000005     5.010000
N        0.000000     0.000000    -2.090000
N       -0.000000     0.000000    -3.550000
N       -0.000002    -0.000005    -5.010000
37
ex_0160 frame1 OC-6-chelate-1-conf3
Co       0.000000     0.000000     0.000000
C        1.677901     3.752950     0.000030
C        1.303865     2.336289     0.000025
N        0.092894     2.087935    -0.000000
O       -1.062869     2.608318    -0.000035
N        2.087935     0.092894     0.000000
O        2.606664    -1.070205    -0.000017
C        2.351965     1.301593     0.000042
C        3.761754     1.680497     0.000110
H        0.808913     4.374976     0.365594
H        2.569593     4.019127     0.569051
H        1.813578     4.062043    -1.077997
H        3.368254    -1.397590     0.580501
H        4.372309     0.832409     0.427969
H        4.000143     2.565229     0.615572
H        4.159386     1.895038    -1.026741
N       -0.159292    -2.083921     0.000000
O        1.064667    -2.591724    -0.000019
C       -1.380376    -2.563753     0.000027
C       -2.108559    -3.859347     0.000062
C       -2.264137    -1.364877     0.000021
C       -3.762697    -1.525547     0.000046
N       -2.083921    -0.159292    -0.000000
O       -2.629302     0.948655    -0.000003
H       -1.446219    -4.716611    -0.317649
H       -3.041090    -3.832250    -0.594551
H       -2.381718    -4.066397     1.064153
H       -4.060554    -2.458535     0.525366
H       -4.237415    -0.673565     0.526833
H       -4.124400    -1.556138    -1.052534
H       -3.201443     1.270104    -0.789542
N        0.000000     0.000000     2.090000
N       -0.000000     0.000000     3.550000
N       -0.000002    -0.000005     5.010000
N        0.000000     0.000000    -2.090000
N       -0.000000     0.000000    -3.550000
N       -0.000002    -0.000005    -5.010000
37
ex_0160 frame2 OC-6-chelate-2
Co       0.000000     0.000000     0.000000
C        3.827953     1.570881    -0.000080
C        2.365023     1.356427    -0.000027
N        2.083065     0.170116    -0.000000
O        2.627992    -0.994347     0.000009
N        0.170116     2.083065    -0.000000
O       -1.035508     2.611953     0.000015
C        1.399100     2.482172    -0.000026
C        2.043745     3.839647    -0.000054
H        4.124386     2.398351     0.692933
H        4.232887     1.844668    -0.991258
H        4.376205     0.670535     0.386355
H       -1.733697     2.533839     0.732845
H        1.321270     4.646235    -0.243423
H        2.817419     3.871522    -0.797267
H        2.493363     4.070412     0.983840
N       -0.159292     0.000000     2.083921
O        1.064667    -0.000019     2.591724
C       -1.380376     0.000027     2.563753
C       -2.108559     0.000062     3.859347
C       -2.264137     0.000021     1.364877
C       -3.762697     0.000046     1.525547
N       -2.083921    -0.000000     0.159292
O       -2.629302    -0.000003    -0.948655
H       -1.446219    -0.317649     4.716611
H       -3.041090    -0.594551     3.832250
H       -2.381718     1.064153     4.066397
H       -4.060554     0.525366     2.458535
H       -4.237415     0.526833     0.673565
H       -4.124400    -1.052534     1.556138
H       -3.201443    -0.789542    -1.270104
N        0.000000    -2.090000     0.000000
N       -0.000000    -3.550000     0.000000
N       -0.000005    -5.010000     0.000000
N        0.000000     0.000000    -2.090000
N       -0.000000     0.000000    -3.550000
N       -0.000002    -0.000005    -5.010000
37
ex_0160 frame3 OC-6-chelate-2-conf3
Co       0.000000     0.000000     0.000000
C        1.677901     3.752950     0.000030
C        1.303865     2.336289     0.000025
N        0.092894     2.087935    -0.000000
O       -1.062869     2.608318    -0.000035
N        2.087935     0.092894     0.000000
O        2.606664    -1.070205    -0.000017
C        2.351965     1.301593     0.000042
C        3.761754     1.680497     0.000110
H        0.808913     4.374976     0.365594
H        2.569593     4.019127     0.569051
H        1.813578     4.062043    -1.077997
H        3.368254    -1.397590     0.580501
H        4.372309     0.832409     0.427969
H        4.000143     2.565229     0.615572
H        4.159386     1.895038    -1.026741
N       -0.159292     0.000000     2.083921
O        1.064667    -0.000019     2.591724
C       -1.380376     0.000027     2.563753
C       -2.108559     0.000062     3.859347
C       -2.264137     0.000021     1.364877
C       -3.762697     0.000046     1.525547
N       -2.083921    -0.000000     0.159292
O       -2.629302    -0.000003    -0.948655
H       -1.446219    -0.317649     4.716611
H       -3.041090    -0.594551     3.832250
H       -2.381718     1.064153     4.066397
H       -4.060554     0.525366     2.458535
H       -4.237415     0.526833     0.673565
H       -4.124400    -1.052534     1.556138
H       -3.201443    -0.789542    -1.270104
N        0.000000    -2.090000     0.000000
N       -0.000000    -3.550000     0.000000
N       -0.000005    -5.010000     0.000000
N        0.000000     0.000000    -2.090000
N       -0.000000     0.000000    -3.550000
N       -0.000002    -0.000005    -5.010000
37
ex_0160 frame4 OC-6-chelate-3
Co       0.000000     0.000000     0.000000
C        3.827953     1.570881    -0.000080
C        2.365023     1.356427    -0.000027
N        2.083065     0.170116    -0.000000
O        2.627992    -0.994347     0.000009
N        0.170116     2.083065    -0.000000
O       -1.035508     2.611953     0.000015
C        1.399100     2.482172    -0.000026
C        2.043745     3.839647    -0.000054
H        4.124386     2.398351     0.692933
H        4.232887     1.844668    -0.991258
H        4.376205     0.670535     0.386355
H       -1.733697     2.533839     0.732845
H        1.321270     4.646235    -0.243423
H        2.817419     3.871522    -0.797267
H        2.493363     4.070412     0.983840
N       -0.159292    -0.000000    -2.083921
O        1.064667     0.000019    -2.591724
C       -1.380376    -0.000027    -2.563753
C       -2.108559    -0.000062    -3.859347
C       -2.264137    -0.000021    -1.364877
C       -3.762697    -0.000046    -1.525547
N       -2.083921     0.000000    -0.159292
O       -2.629302     0.000003     0.948655
H       -1.446219     0.317649    -4.716611
H       -3.041090     0.594551    -3.832250
H       -2.381718    -1.064153    -4.066397
H       -4.060554    -0.525366    -2.458535
H       -4.237415    -0.526833    -0.673565
H       -4.124400     1.052534    -1.556138
H       -3.201443     0.789542     1.270104
N        0.000000    -2.090000     0.000000
N       -0.000000    -3.550000     0.000000
N       -0.000005    -5.010000     0.000000
N        0.000000     0.000000     2.090000
N       -0.000000     0.000000     3.550000
N       -0.000002    -0.000005     5.010000
37
ex_0160 frame5 OC-6-chelate-3-conf3
Co       0.000000     0.000000     0.000000
C        1.677901     3.752950     0.000030
C        1.303865     2.336289     0.000025
N        0.092894     2.087935    -0.000000
O       -1.062869     2.608318    -0.000035
N        2.087935     0.092894     0.000000
O        2.606664    -1.070205    -0.000017
C        2.351965     1.301593     0.000042
C        3.761754     1.680497     0.000110
H        0.808913     4.374976     0.365594
H        2.569593     4.019127     0.569051
H        1.813578     4.062043    -1.077997
H        3.368254    -1.397590     0.580501
H        4.372309     0.832409     0.427969
H        4.000143     2.565229     0.615572
H        4.159386     1.895038    -1.026741
N       -0.159292    -0.000000    -2.083921
O        1.064667     0.000019    -2.591724
C       -1.380376    -0.000027    -2.563753
C       -2.108559    -0.000062    -3.859347
C       -2.264137    -0.000021    -1.364877
C       -3.762697    -0.000046    -1.525547
N       -2.083921     0.000000    -0.159292
O       -2.629302     0.000003     0.948655
H       -1.446219     0.317649    -4.716611
H       -3.041090     0.594551    -3.832250
H       -2.381718    -1.064153    -4.066397
H       -4.060554    -0.525366    -2.458535
H       -4.237415    -0.526833    -0.673565
H       -4.124400     1.052534    -1.556138
H       -3.201443     0.789542     1.270104
N        0.000000    -2.090000     0.000000
N       -0.000000    -3.550000     0.000000
N       -0.000005    -5.010000     0.000000
N        0.000000     0.000000     2.090000
N       -0.000000     0.000000     3.550000
N       -0.000002    -0.000005     5.010000
