63
ex_0466 frame0 Isomer 1
O        1.298016    -0.572494    -3.268341
C        0.156712    -0.686343    -3.023145
O       -0.700329     0.217070    -3.280543
Ni      -0.682203     0.885243    -1.452897
N       -1.072105     1.365399     0.437511
C       -0.771656     2.664681     0.387874
O       -1.356966     3.526162     1.017274
C        0.413017     2.981028    -0.562585
C        0.211615     4.003174    -1.613693
C        1.436851     3.733876    -2.462480
C        1.437540     2.261242    -2.597127
N        1.061744     1.826991    -1.269496
C        1.981418     0.957846    -0.553654
C        2.492263     1.654398     0.636624
C        1.904252     1.458234     1.886405
C        2.415366     2.132251     2.986131
C        3.518681     2.982014     2.840771
C        4.088624     3.183164     1.583574
C        3.578154     2.515326     0.485881
C       -1.658924     0.443062     1.317567
C       -2.408272     0.939659     2.310116
C       -2.871327     0.125068     3.307532
C       -2.650998    -1.231326     3.263425
C       -1.962786    -1.770733     2.213012
C       -1.450303    -0.955825     1.192156
C       -0.840166    -1.700912     0.071192
C       -0.649709    -3.135329     0.241014
C       -1.714969    -4.020451     0.081050
C       -1.508016    -5.362530     0.348956
C       -0.229698    -5.801729     0.721185
C        0.837986    -4.908704     0.831935
C        0.629085    -3.566730     0.565513
N       -0.433894    -1.074420    -1.157865
C       -0.284363    -1.903441    -2.404625
C       -1.555751    -2.564605    -3.118509
O       -2.432978    -1.575920    -3.581617
H        1.152444     3.381353     0.100795
H       -0.717373     3.822290    -2.198387
H        0.229803     4.998312    -1.146128
H        1.421409     4.220342    -3.440382
H        2.342223     3.975610    -1.859619
H        2.417528     1.864192    -2.884688
H        0.662098     1.985858    -3.358000
H        2.821060     0.731867    -1.215238
H        1.503718    -0.002920    -0.313303
H        1.032837     0.825072     2.000048
H        1.957822     1.979244     3.946235
H        3.931500     3.490058     3.694861
H        4.930909     3.842756     1.447996
H        3.999947     2.690067    -0.492987
H       -2.569143     1.978525     2.330347
H       -3.402871     0.566729     4.112641
H       -3.016144    -1.861244     4.046877
H       -1.827080    -2.836104     2.242602
H       -2.702275    -3.642577    -0.181980
H       -2.336369    -6.050207     0.272116
H       -0.054511    -6.834081     0.926967
H        1.819423    -5.256572     1.127338
H        1.433216    -2.852371     0.670358
H        0.542593    -2.685872    -2.300300
H       -2.165977    -3.273753    -2.541178
H       -1.184579    -3.127299    -4.022161
H       -3.181120    -1.998903    -4.066593
63
ex_0466 frame1 Isomer 1
O        1.298016    -0.572494    -3.268341
C        0.156712    -0.686343    -3.023145
O       -0.700329     0.217070    -3.280543
Ni      -0.682203     0.885243    -1.452897
N       -1.072105     1.365399     0.437511
C       -0.771656     2.664681     0.387874
O       -1.356966     3.526162     1.017274
C        0.413017     2.981028    -0.562585
C        0.211615     4.003174    -1.613693
C        1.436851     3.733876    -2.462480
C        1.437540     2.261242    -2.597127
N        1.061744     1.826991    -1.269496
C        1.981418     0.957846    -0.553654
C        2.492263     1.654398     0.636624
C        1.904252     1.458234     1.886405
C        2.415366     2.132251     2.986131
C        3.518681     2.982014     2.840771
C        4.088624     3.183164     1.583574
C        3.578154     2.515326     0.485881
C       -1.654247     0.443485     1.320825
C       -2.404504     0.940200     2.312552
C       -2.873589     0.124744     3.306284
C       -2.652865    -1.231594     3.262121
C       -1.958344    -1.770095     2.215663
C       -1.441112    -0.955243     1.197002
C       -0.838134    -1.700480     0.075212
C       -0.649948    -3.135239     0.242091
C       -1.714969    -4.020451     0.081050
C       -1.508016    -5.362530     0.348956
C       -0.229698    -5.801729     0.721185
C        0.837986    -4.908704     0.831935
C        0.629085    -3.566730     0.565513
N       -0.433894    -1.074420    -1.157865
C       -0.284363    -1.903441    -2.404625
C       -1.555751    -2.564605    -3.118509
O       -2.432978    -1.575920    -3.581617
H        1.152444     3.381353     0.100795
H       -0.717373     3.822290    -2.198387
H        0.229803     4.998312    -1.146128
H        1.421409     4.220342    -3.440382
H        2.342223     3.975610    -1.859619
H        2.417528     1.864192    -2.884688
H        0.662098     1.985858    -3.358000
H        2.821060     0.731867    -1.215238
H        1.503718    -0.002920    -0.313303
H        1.032837     0.825072     2.000048
H        1.957822     1.979244     3.946235
H        3.931500     3.490058     3.694861
H        4.930909     3.842756     1.447996
H        3.999947     2.690067    -0.492987
H       -2.565514     1.979046     2.332733
H       -3.409993     0.565707     4.108404
H       -3.022670    -1.862180     4.042545
H       -1.822690    -2.835474     2.244928
H       -2.702275    -3.642577    -0.181980
H       -2.336369    -6.050207     0.272116
H       -0.054511    -6.834081     0.926967
H        1.819423    -5.256572     1.127338
H        1.433216    -2.852371     0.670358
H        0.542593    -2.685872    -2.300300
H       -2.165977    -3.273753    -2.541178
H       -1.184579    -3.127299    -4.022161
H       -3.181120    -1.998903    -4.066593
63
ex_0466 frame2 Isomer 1_mirror
O        1.298016    -0.572494     3.268341
C        0.156712    -0.686343     3.023145
O       -0.700329     0.217070     3.280543
Ni      -0.682203     0.885243     1.452897
N       -1.072105     1.365399    -0.437511
C       -0.771656     2.664681    -0.387874
O       -1.356966     3.526162    -1.017274
C        0.413017     2.981028     0.562585
C        0.211615     4.003174     1.613693
C        1.436851     3.733876     2.462480
C        1.437540     2.261242     2.597127
N        1.061744     1.826991     1.269496
C        1.981418     0.957846     0.553654
C        2.492263     1.654398    -0.636624
C        1.904252     1.458234    -1.886405
C        2.415366     2.132251    -2.986131
C        3.518681     2.982014    -2.840771
C        4.088624     3.183164    -1.583574
C        3.578154     2.515326    -0.485881
C       -1.654247     0.443485    -1.320825
C       -2.404504     0.940200    -2.312552
C       -2.873589     0.124744    -3.306284
C       -2.652865    -1.231594    -3.262121
C       -1.958344    -1.770095    -2.215663
C       -1.441112    -0.955243    -1.197002
C       -0.838134    -1.700480    -0.075212
C       -0.649948    -3.135239    -0.242091
C       -1.714969    -4.020451    -0.081050
C       -1.508016    -5.362530    -0.348956
C       -0.229698    -5.801729    -0.721185
C        0.837986    -4.908704    -0.831935
C        0.629085    -3.566730    -0.565513
N       -0.433894    -1.074420     1.157865
C       -0.284363    -1.903441     2.404625
C       -1.555751    -2.564605     3.118509
O       -2.432978    -1.575920     3.581617
H        1.152444     3.381353    -0.100795
H       -0.717373     3.822290     2.198387
H        0.229803     4.998312     1.146128
H        1.421409     4.220342     3.440382
H        2.342223     3.975610     1.859619
H        2.417528     1.864192     2.884688
H        0.662098     1.985858     3.358000
H        2.821060     0.731867     1.215238
H        1.503718    -0.002920     0.313303
H        1.032837     0.825072    -2.000048
H        1.957822     1.979244    -3.946235
H        3.931500     3.490058    -3.694861
H        4.930909     3.842756    -1.447996
H        3.999947     2.690067     0.492987
H       -2.565514     1.979046    -2.332733
H       -3.409993     0.565707    -4.108404
H       -3.022670    -1.862180    -4.042545
H       -1.822690    -2.835474    -2.244928
H       -2.702275    -3.642577     0.181980
H       -2.336369    -6.050207    -0.272116
H       -0.054511    -6.834081    -0.926967
H        1.819423    -5.256572    -1.127338
H        1.433216    -2.852371    -0.670358
H        0.542593    -2.685872     2.300300
H       -2.165977    -3.273753     2.541178
H       -1.184579    -3.127299     4.022161
H       -3.181120    -1.998903     4.066593
