101
ex_0446 frame0 linear-1
C       -2.710298    -2.432967     5.543973
C       -2.382149    -2.761521     4.132216
C       -1.625562    -3.888520     3.828398
C       -1.338827    -4.199117     2.504829
C       -0.537133    -5.424608     2.202029
C       -1.782758    -3.401349     1.481224
C       -1.435846    -3.806737     0.125094
C       -2.310378    -4.652428    -0.535734
C       -2.048984    -5.121486    -1.810687
C       -0.898576    -4.708240    -2.436591
C       -0.010964    -3.835347    -1.800521
C        1.156605    -3.424036    -2.481353
C        1.131433    -2.310017    -3.347731
C       -0.131179    -1.558417    -3.594859
C        2.281927    -1.912292    -3.971106
C        3.461402    -2.591655    -3.789231
C        4.671758    -2.122070    -4.489674
C        3.501176    -3.713795    -2.947342
C        2.346573    -4.125454    -2.297567
C        2.383390    -5.330201    -1.394928
C       -0.275743    -3.380774    -0.502744
Se       0.930469    -2.191185     0.406723
Mn       0.904841     0.193554    -0.154402
Se      -0.253074     1.838838     1.243730
C       -0.061741     3.580845     0.466482
C        1.192673     4.175534     0.272994
C        2.414974     3.521273     0.599729
C        2.949676     3.578750     1.883280
C        2.244643     4.318198     2.950345
C        4.153634     2.934972     2.156179
C        4.812924     2.235541     1.157290
C        6.096601     1.569986     1.474230
C        4.257325     2.173354    -0.117665
C        3.076495     2.817268    -0.395571
C        2.533118     2.737958    -1.782885
C        1.278870     5.471259    -0.264103
C        0.157569     6.160084    -0.643335
C       -1.061654     5.560170    -0.475539
C       -1.191105     4.296767     0.076463
C       -2.531399     3.786411     0.216858
C       -3.191802     4.041057     1.401486
C       -2.514403     4.801608     2.490032
C       -4.484084     3.595650     1.591891
C       -5.128679     2.873918     0.585695
C       -6.514679     2.393798     0.766572
C       -4.459608     2.599152    -0.609653
C       -3.165220     3.056493    -0.804890
C       -2.469799     2.772469    -2.079605
C       -2.535933    -2.253702     1.761056
C       -3.013750    -1.384881     0.675529
C       -2.829849    -1.942802     3.099232
H       -3.809105    -2.557162     5.637674
H       -2.239117    -3.172868     6.220362
H       -2.373431    -1.394678     5.792322
H       -1.262595    -4.553221     4.606092
H        0.219950    -5.251936     1.412231
H       -1.221914    -6.257217     1.935563
H       -0.008964    -5.741461     3.112680
H       -3.202003    -4.971866    -0.041635
H       -2.726350    -5.799363    -2.322727
H       -0.659762    -5.051509    -3.431781
H       -0.944011    -2.247304    -3.877875
H       -0.443952    -1.027166    -2.689950
H        0.002554    -0.888655    -4.475633
H        2.289597    -1.049965    -4.625534
H        4.461346    -2.201616    -5.580695
H        5.530936    -2.741929    -4.184581
H        4.807008    -1.049115    -4.213118
H        4.415054    -4.246480    -2.802312
H        1.575109    -5.275930    -0.637048
H        3.347608    -5.343498    -0.854402
H        2.194916    -6.252715    -1.984704
H        1.693342     3.557686     3.538066
H        2.973156     4.854170     3.566213
H        1.544865     5.056354     2.480863
H        4.549220     3.002675     3.154377
H        6.056085     1.174403     2.522485
H        6.382061     0.806676     0.730563
H        6.894444     2.344597     1.497168
H        4.772120     1.632280    -0.888929
H        2.448640     1.679640    -2.132355
H        1.586042     3.272818    -1.917280
H        3.271940     3.231078    -2.436981
H        2.237019     5.943521    -0.400875
H        0.204535     7.156523    -1.071779
H       -1.946145     6.102425    -0.773013
H       -1.415548     4.852109     2.354841
H       -2.987162     5.796998     2.521584
H       -2.718743     4.291701     3.442068
H       -4.973391     3.813918     2.533500
H       -7.023075     2.930188     1.598286
H       -7.072965     2.634230    -0.165447
H       -6.477670     1.291859     0.909934
H       -4.958114     2.044235    -1.391783
H       -2.494017     1.689775    -2.309012
H       -2.991899     3.269548    -2.913457
H       -1.453770     3.206033    -2.059613
H       -3.181945    -0.365621     1.057127
H       -2.305093    -1.396406    -0.176270
H       -3.975730    -1.787213     0.319674
H       -3.410799    -1.068153     3.336729
101
ex_0446 frame1 linear-2
C       -2.035544    -2.499335    -5.307209
C       -1.504588    -2.853174    -3.975028
C       -0.248693    -3.404511    -3.888931
C        0.261187    -3.743972    -2.664236
C        1.615648    -4.354642    -2.569493
C       -0.476108    -3.525589    -1.499911
C        0.109887    -3.884054    -0.268800
C       -0.095425    -5.168366     0.240396
C        0.475999    -5.535750     1.446054
C        1.243844    -4.619707     2.144321
C        1.453873    -3.352251     1.637502
C        2.277707    -2.442362     2.392804
C        3.636656    -2.440947     2.126877
C        4.199798    -3.358239     1.084484
C        4.486412    -1.603078     2.810629
C        3.993206    -0.749615     3.774810
C        4.945504     0.141052     4.494279
C        2.616114    -0.732736     4.061141
C        1.748703    -1.583565     3.364942
C        0.283410    -1.580547     3.649074
C        0.882742    -2.975799     0.429318
Se       1.204869    -1.202402    -0.201413
Mn      -0.289701     0.182414    -1.561944
Se      -1.526791     2.281871    -1.308197
C       -1.787573     3.551556     0.107697
C       -0.784384     4.437179     0.458717
C        0.478727     4.454797    -0.209620
C        0.613152     5.273997    -1.315782
C       -0.553172     6.106733    -1.773872
C        1.820255     5.323420    -1.995692
C        2.903165     4.535118    -1.553925
C        4.203573     4.567147    -2.268474
C        2.767745     3.720897    -0.447913
C        1.562837     3.672332     0.233451
C        1.424096     2.797884     1.422610
C       -0.989097     5.351110     1.494521
C       -2.180335     5.400609     2.172385
C       -3.177795     4.528364     1.829738
C       -2.997350     3.603755     0.796591
C       -4.085346     2.724557     0.476282
C       -5.000729     3.136172    -0.474106
C       -4.837836     4.454450    -1.132457
C       -6.069442     2.318591    -0.811742
C       -6.206881     1.074334    -0.193553
C       -7.338168     0.174295    -0.544597
C       -5.275651     0.670135     0.762167
C       -4.215883     1.498317     1.101487
C       -3.228681     1.074374     2.126810
C       -1.747440    -2.972029    -1.564837
C       -2.558886    -2.739825    -0.310434
C       -2.268650    -2.631609    -2.805584
H       -1.971058    -3.386953    -5.985581
H       -1.411927    -1.688692    -5.737769
H       -3.056827    -2.119235    -5.196119
H        0.338881    -3.585653    -4.784640
H        1.746962    -4.823582    -1.580289
H        2.429011    -3.616093    -2.694369
H        1.676170    -5.181093    -3.301200
H       -0.700638    -5.859835    -0.333249
H        0.311181    -6.531742     1.826866
H        1.688218    -4.904567     3.082923
H        5.072691    -2.843283     0.637163
H        4.487169    -4.310141     1.581580
H        3.494515    -3.542111     0.244729
H        5.550186    -1.633408     2.578684
H        5.902786    -0.420119     4.594423
H        4.575058     0.472077     5.479568
H        5.191619     1.042958     3.893322
H        2.251081    -0.070172     4.799728
H       -0.078073    -0.586307     3.974348
H        0.106202    -2.270286     4.493285
H       -0.246147    -1.936395     2.737919
H       -0.843721     5.904260    -2.816456
H       -0.248941     7.170238    -1.704497
H       -1.422302     5.899920    -1.123243
H        1.949291     5.948084    -2.854391
H        4.399483     3.576509    -2.739532
H        4.149714     5.294006    -3.089834
H        5.043466     4.774559    -1.562745
H        3.626215     3.125685    -0.129335
H        1.957130     3.305325     2.247621
H        1.919626     1.814951     1.281379
H        0.366695     2.713784     1.719306
H       -0.219251     6.050424     1.783476
H       -2.327408     6.117151     2.969212
H       -4.111295     4.577802     2.370643
H       -4.450479     5.188024    -0.385914
H       -4.138557     4.310331    -1.983241
H       -5.809556     4.773449    -1.563643
H       -6.783429     2.631727    -1.555403
H       -6.976787    -0.585373    -1.271396
H       -8.150063     0.722948    -1.054410
H       -7.782015    -0.302054     0.357370
H       -5.367016    -0.280804     1.256950
H       -3.227468    -0.023041     2.216934
H       -3.578687     1.494860     3.096366
H       -2.196287     1.443203     1.894842
H       -2.592198    -3.646180     0.323808
H       -3.600597    -2.506651    -0.598406
H       -2.189190    -1.919954     0.322607
H       -3.242041    -2.194177    -2.907603
101
ex_0446 frame2 linear-conf2
C        2.166498     6.073665    -1.400412
C        2.924483     4.814600    -1.100302
C        3.254992     3.935312    -2.137815
C        3.973028     2.758752    -1.877463
C        4.332684     1.835531    -3.014619
C        4.352281     2.447834    -0.547218
C        5.098826     1.204098    -0.253515
C        6.497055     1.215166    -0.243360
C        7.210890     0.052013     0.037508
C        6.528428    -1.134199     0.310314
C        5.128423    -1.171130     0.295811
C        4.445882    -2.445415     0.574033
C        4.112087    -2.820437     1.897786
C        4.435011    -1.925892     3.078476
C        3.469617    -4.041077     2.136699
C        3.153892    -4.896796     1.074780
C        2.474929    -6.207206     1.348758
C        3.472935    -4.526490    -0.238884
C        4.119316    -3.313643    -0.499444
C        4.466245    -2.933404    -1.916376
C        4.403195     0.007359     0.016600
Se       2.450000     0.000000     0.000000
Mn       0.000000     0.000000     0.000000
Se      -2.450000     0.000000     0.000000
C       -4.394197    -0.004786     0.079504
C       -5.101161    -1.225980     0.124871
C       -4.396891    -2.526973     0.087230
C       -4.024678    -3.187393     1.280397
C       -4.323523    -2.571717     2.622857
C       -3.371149    -4.427309     1.211713
C       -3.081075    -5.012956    -0.026446
C       -2.390477    -6.344359    -0.079874
C       -3.437253    -4.352580    -1.209465
C       -4.095831    -3.115259    -1.164232
C       -4.476971    -2.423320    -2.449079
C       -6.500672    -1.220499     0.207286
C       -7.202541    -0.016589     0.221393
C       -6.513642     1.193811     0.164529
C       -5.113520     1.210070     0.086156
C       -4.411172     2.507737     0.011425
C       -4.165219     3.097683    -1.257146
C       -4.603432     2.429327    -2.540088
C       -3.501098     4.328535    -1.330363
C       -3.073391     4.980944    -0.168622
C       -2.362485     6.299258    -0.257568
C       -3.310386     4.400129     1.081405
C       -3.979589     3.173563     1.187976
C       -4.223471     2.592450     2.560574
C        4.011518     3.335000     0.499167
C        4.403373     3.023859     1.921422
C        3.304275     4.512966     0.214679
H        1.187972     5.821849    -1.861633
H        1.979684     6.670153    -0.482517
H        2.752140     6.697382    -2.108999
H        2.958266     4.176180    -3.151988
H        5.437385     1.793338    -3.123530
H        3.945212     0.814313    -2.819910
H        3.903597     2.186416    -3.977087
H        7.038162     2.132249    -0.451258
H        8.292967     0.067698     0.044717
H        7.096375    -2.033497     0.520539
H        5.102728    -2.471238     3.778979
H        3.496140    -1.662360     3.609562
H        4.938962    -0.980661     2.800113
H        3.220528    -4.332059     3.150101
H        1.501973    -6.026218     1.852664
H        2.286132    -6.775030     0.412198
H        3.118940    -6.824899     2.008702
H        3.230396    -5.191055    -1.057758
H        3.966919    -1.981695    -2.191193
H        5.565373    -2.806841    -2.007805
H        4.145397    -3.712612    -2.639264
H       -5.417293    -2.416621     2.731411
H       -3.805129    -1.593545     2.711208
H       -3.981477    -3.220695     3.456692
H       -3.091047    -4.944246     2.121997
H       -3.012826    -7.105421     0.436576
H       -1.404702    -6.275465     0.426083
H       -2.225882    -6.679736    -1.126164
H       -3.212827    -4.807417    -2.167043
H       -4.178695    -3.016321    -3.339500
H       -5.577709    -2.281273    -2.482988
H       -3.979776    -1.432761    -2.512835
H       -7.048392    -2.154659     0.238062
H       -8.283996    -0.022314     0.266457
H       -7.071378     2.122367     0.164060
H       -3.714123     2.239547    -3.176971
H       -5.298300     3.101401    -3.086166
H       -5.120397     1.460721    -2.393414
H       -3.318961     4.776445    -2.300408
H       -2.930058     7.066346     0.310277
H       -1.344547     6.203817     0.175186
H       -2.266218     6.643150    -1.309556
H       -2.979897     4.909817     1.979075
H       -4.765797     1.626517     2.551633
H       -4.828177     3.309198     3.155418
H       -3.252496     2.430095     3.072912
H        3.938882     2.064113     2.233004
H        4.065167     3.814295     2.624244
H        5.507668     2.937186     2.003243
H        3.044663     5.192176     1.017588
101
ex_0446 frame3 linear-conf4
C        2.547011    -0.454768    -6.362448
C        3.204689    -0.291810    -5.023921
C        3.444115     0.984100    -4.500680
C        4.061441     1.141661    -3.252835
C        4.303571     2.536627    -2.728606
C        4.448404    -0.005852    -2.516884
C        5.114623     0.116358    -1.205607
C        6.512551     0.236145    -1.183922
C        7.195796     0.329738     0.026461
C        6.489556     0.314355     1.225578
C        5.093755     0.192323     1.224930
C        4.391162     0.147217     2.524347
C        3.985495     1.335379     3.180092
C        4.230717     2.696719     2.570662
C        3.341733     1.253143     4.422293
C        3.073758     0.011480     5.009734
C        2.378058    -0.052786     6.337323
C        3.456367    -1.164690     4.355343
C        4.120585    -1.113348     3.124131
C        4.532954    -2.410698     2.465087
C        4.390723     0.112771     0.004497
Se       2.450000     0.000000     0.000000
Mn       0.000000     0.000000     0.000000
Se      -2.450000     0.000000     0.000000
C       -4.395024    -0.003250     0.085804
C       -5.125760     1.197595    -0.041743
C       -4.447299     2.489660    -0.269953
C       -4.158143     2.909844    -1.594841
C       -4.522044     2.062227    -2.791836
C       -3.520003     4.139138    -1.805576
C       -3.179289     4.962415    -0.725358
C       -2.519131     6.287851    -0.962169
C       -3.456843     4.544903     0.581335
C       -4.085019     3.313364     0.820139
C       -4.368262     2.878913     2.235669
C       -6.525284     1.177218     0.047992
C       -7.202993    -0.025189     0.241757
C       -6.489998    -1.217523     0.356742
C       -5.089555    -1.217303     0.271464
C       -4.358854    -2.498687     0.378294
C       -3.944375    -3.006239     1.635643
C       -4.221974    -2.260363     2.918430
C       -3.260952    -4.227968     1.694414
C       -2.974311    -4.943096     0.525973
C       -2.239589    -6.250300     0.595296
C       -3.374017    -4.438470    -0.715281
C       -4.071646    -3.227508    -0.800433
C       -4.510408    -2.711757    -2.149920
C        4.196369    -1.295884    -3.044074
C        4.584382    -2.534431    -2.271938
C        3.580646    -1.424731    -4.294993
H        1.593879    -1.012575    -6.240099
H        2.322129     0.526203    -6.831049
H        3.215752    -1.025006    -7.041405
H        3.157971     1.861691    -5.067405
H        3.337496     3.076975    -2.648857
H        4.962560     3.079667    -3.437994
H        4.786172     2.565045    -1.731726
H        7.073680     0.234871    -2.109720
H        8.275958     0.402207     0.035260
H        7.033207     0.366312     2.162760
H        3.260412     3.231375     2.475212
H        4.682796     2.660512     1.559810
H        4.901479     3.280982     3.229423
H        3.041216     2.160596     4.931452
H        1.402163     0.471134     6.272119
H        2.190772    -1.102702     6.649789
H        3.006399     0.437428     7.110259
H        3.255950    -2.128076     4.810428
H        3.640398    -3.046993     2.291173
H        5.231382    -2.949840     3.140147
H        5.047507    -2.283050     1.491834
H       -5.209587     2.638229    -3.447525
H       -5.027027     1.110107    -2.535370
H       -3.605628     1.812924    -3.365955
H       -3.307905     4.459622    -2.818727
H       -2.336120     6.467196    -2.042918
H       -1.545904     6.324069    -0.429720
H       -3.174926     7.097886    -0.579433
H       -3.187158     5.185482     1.412329
H       -3.846983     1.920988     2.446962
H       -4.018281     3.630991     2.973618
H       -5.460503     2.737771     2.374841
H       -7.091055     2.095430    -0.053564
H       -8.284190    -0.034000     0.293271
H       -7.028944    -2.146842     0.494896
H       -3.263525    -2.070408     3.445599
H       -4.718182    -1.280526     2.770490
H       -4.874270    -2.877884     3.570099
H       -2.949491    -4.616891     2.656087
H       -1.298660    -6.182621     0.008593
H       -1.983217    -6.522631     1.640821
H       -2.874689    -7.055493     0.168607
H       -3.149028    -4.999908    -1.616094
H       -4.105115    -1.693578    -2.327348
H       -5.619843    -2.674238    -2.187436
H       -4.159823    -3.368516    -2.974599
H        3.949086    -2.633731    -1.366710
H        5.650366    -2.478194    -1.965253
H        4.460662    -3.451492    -2.886471
H        3.395572    -2.410652    -4.708041
101
ex_0446 frame4 linear-conf5
C        2.569059     1.981801    -6.072044
C        3.213892     1.541448    -4.795054
C        3.573576     2.490533    -3.825083
C        4.189012     2.101342    -2.638803
C        4.554195     3.162241    -1.628676
C        4.464612     0.730726    -2.399282
C        5.133724     0.327665    -1.157610
C        6.535497     0.297566    -1.137493
C        7.219452    -0.063484     0.022303
C        6.508672    -0.405437     1.171522
C        5.106588    -0.391974     1.167451
C        4.365647    -0.763091     2.389532
C        4.026739     0.232176     3.336712
C        4.417932     1.671290     3.112073
C        3.320775    -0.123593     4.494432
C        2.944422    -1.452117     4.722311
C        2.192208    -1.814475     5.965670
C        3.276289    -2.437265     3.780308
C        3.989765    -2.111198     2.621260
C        4.342451    -3.206724     1.643530
C        4.405322    -0.021570    -0.002778
Se       2.450000     0.000000     0.000000
Mn       0.000000     0.000000     0.000000
Se      -2.450000     0.000000     0.000000
C       -4.390289    -0.054101    -0.087839
C       -5.154840     1.127854    -0.060972
C       -4.520824     2.456685     0.052253
C       -4.254282     2.994894     1.338569
C       -4.600053     2.236521     2.599438
C       -3.657916     4.255915     1.450722
C       -3.341601     5.001012     0.308051
C       -2.725947     6.363308     0.439640
C       -3.600965     4.472423    -0.961824
C       -4.177982     3.201205    -1.101340
C       -4.427454     2.640105    -2.478458
C       -6.553676     1.052174    -0.143044
C       -7.189990    -0.187924    -0.222791
C       -6.437347    -1.361594    -0.240243
C       -5.038635    -1.301495    -0.170012
C       -4.215360    -2.524538    -0.179874
C       -3.739325    -3.088063    -1.396271
C       -4.082914    -2.465824    -2.729904
C       -2.942090    -4.233745    -1.361160
C       -2.608567    -4.837389    -0.142553
C       -1.733653    -6.059377    -0.114717
C       -3.092240    -4.300191     1.054704
C       -3.886026    -3.146309     1.053061
C       -4.383869    -2.573775     2.354195
C        4.079720    -0.234894    -3.386296
C        4.339234    -1.716093    -3.165393
C        3.463187     0.175242    -4.559305
H        2.339692     1.120979    -6.740011
H        3.254556     2.667374    -6.614189
H        1.622974     2.516405    -5.852123
H        3.374231     3.539650    -4.019111
H        5.027924     2.770898    -0.708480
H        3.637434     3.710386    -1.321036
H        5.263372     3.882112    -2.092302
H        7.102215     0.568142    -2.020797
H        8.301395    -0.073068     0.034182
H        7.048830    -0.678642     2.069537
H        4.068723     2.325933     3.939218
H        5.522245     1.759907     3.043882
H        3.963196     2.040010     2.168052
H        3.057490     0.633639     5.224333
H        1.232265    -1.257653     5.999042
H        2.799778    -1.545930     6.855340
H        1.970700    -2.902704     6.009906
H        2.985682    -3.468032     3.952648
H        3.410254    -3.613689     1.199125
H        4.873162    -4.022969     2.177928
H        4.999264    -2.875790     0.815320
H       -5.060398     1.245066     2.420005
H       -3.683963     2.077824     3.204779
H       -5.321873     2.837255     3.192535
H       -3.461119     4.664646     2.434369
H       -2.511953     6.615365     1.500744
H       -3.424541     7.124372     0.032166
H       -1.772470     6.402198    -0.127961
H       -3.349412     5.053923    -1.840298
H       -5.507291     2.421119    -2.609762
H       -4.116085     3.350070    -3.273478
H       -3.846229     1.702169    -2.608797
H       -7.150660     1.954922    -0.112931
H       -8.271017    -0.238225    -0.258528
H       -6.940899    -2.319113    -0.290838
H       -3.145062    -2.099571    -3.203744
H       -4.544236    -3.228231    -3.390984
H       -4.785703    -1.613635    -2.665808
H       -2.565487    -4.645393    -2.290197
H       -2.286278    -6.899782     0.357360
H       -1.428691    -6.367946    -1.135743
H       -0.820991    -5.846017     0.477792
H       -2.824168    -4.771482     1.994147
H       -4.005903    -1.536358     2.466760
H       -5.490353    -2.566360     2.379609
H       -4.019221    -3.163836     3.224118
H        3.376483    -2.262549    -3.194936
H        4.987254    -2.084305    -3.984011
H        4.835345    -1.952841    -2.205001
H        3.183868    -0.555584    -5.301594
101
ex_0446 frame5 linear
C        2.513031     1.050868     6.286844
C        3.169226     0.760735     4.969474
C        3.564013     1.817286     4.142937
C        4.194484     1.567022     2.916803
C        4.615792     2.722819     2.043403
C        4.433832     0.232207     2.510566
C        5.115752    -0.006876     1.223241
C        6.513100    -0.123431     1.220934
C        7.204059    -0.322357     0.027937
C        6.506300    -0.418468    -1.173218
C        5.108294    -0.303484    -1.193357
C        4.413360    -0.380210    -2.492209
C        3.980120    -1.621877    -3.027148
C        4.206870    -2.920691    -2.291246
C        3.326318    -1.648633    -4.266565
C        3.109862    -0.467857    -4.987669
C        2.425852    -0.508008    -6.321498
C        3.533507     0.755575    -4.461842
C        4.177365     0.815554    -3.220012
C        4.606590     2.167264    -2.685825
C        4.397497    -0.113415     0.011845
Se       2.450000     0.000000     0.000000
Mn       0.000000     0.000000     0.000000
Se      -2.450000     0.000000     0.000000
C       -4.383064    -0.008958     0.106555
C       -5.105963     1.193334     0.106170
C       -4.398300     2.487423    -0.012200
C       -3.987880     3.212399     1.128023
C       -4.264116     2.679021     2.508792
C       -3.321014     4.432927     0.968081
C       -3.037628     4.933122    -0.308690
C       -2.305993     6.233941    -0.457579
C       -3.439221     4.215465    -1.441189
C       -4.126369     3.005744    -1.310162
C       -4.564821     2.276319    -2.563315
C       -6.507821     1.168417     0.218798
C       -7.183699    -0.051116     0.295396
C       -6.470278    -1.251877     0.276580
C       -5.071502    -1.236729     0.177671
C       -4.317194    -2.513012     0.148041
C       -3.889025    -3.127230     1.353752
C       -4.175732    -2.503807     2.700884
C       -3.187075    -4.334290     1.298235
C       -2.890558    -4.937969     0.073078
C       -2.123952    -6.227980     0.038996
C       -3.311066    -4.334935    -1.118670
C       -4.017292    -3.126638    -1.097742
C       -4.441812    -2.507999    -2.410218
C        4.019204    -0.839624     3.340909
C        4.239576    -2.279424     2.942683
C        3.388999    -0.561963     4.562076
H        2.254752     0.118214     6.831393
H        1.582123     1.632871     6.121490
H        3.205092     1.645767     6.919996
H        3.390647     2.837528     4.464503
H        5.713079     2.686553     1.877722
H        4.097709     2.668876     1.062707
H        4.370328     3.700749     2.508708
H        7.069196    -0.032772     2.145709
H        8.284553    -0.387261     0.032133
H        7.055270    -0.553578    -2.096488
H        4.728419    -2.804133    -1.320192
H        4.825554    -3.590344    -2.924916
H        3.232459    -3.412638    -2.093018
H        3.001104    -2.598846    -4.673425
H        3.117984    -0.129800    -7.103441
H        2.116195    -1.539104    -6.593960
H        1.521062     0.135621    -6.295822
H        3.365066     1.667022    -5.022476
H        5.081534     2.128646    -1.687536
H        5.334023     2.623041    -3.389870
H        3.719246     2.828545    -2.607125
H       -5.358527     2.573867     2.669472
H       -3.780902     1.685587     2.629998
H       -3.859842     3.354032     3.297451
H       -3.003827     4.993921     1.841385
H       -2.068757     6.447732    -1.522245
H       -2.935261     7.058540    -0.064438
H       -1.352118     6.198184     0.110022
H       -3.222526     4.598985    -2.429216
H       -5.120553     1.337272    -2.370568
H       -3.673758     2.022181    -3.174170
H       -5.230350     2.938758    -3.153542
H       -7.072750     2.092190     0.215635
H       -8.263437    -0.066844     0.357284
H       -7.004855    -2.191219     0.322280
H       -4.693255    -1.528587     2.646301
H       -3.211779    -2.337882     3.228548
H       -4.802657    -3.192517     3.302476
H       -2.858885    -4.806854     2.217769
H       -2.676255    -7.007386     0.603722
H       -1.969557    -6.588121    -1.000132
H       -1.128184    -6.075454     0.507871
H       -3.079051    -4.798610    -2.071530
H       -5.092510    -3.217333    -2.962821
H       -3.538088    -2.302328    -3.022721
H       -4.996676    -1.555328    -2.303390
H        3.262760    -2.804738     2.894460
H        4.734532    -2.402665     1.959280
H        4.876464    -2.773660     3.706024
H        3.083013    -1.382070     5.200975
101
ex_0446 frame6 linear-conf3
C        2.476341     0.428908     6.345862
C        3.153716     0.345393     5.010803
C        3.459245     1.511689     4.299061
C        4.106873     1.443642     3.060132
C        4.445442     2.728990     2.340296
C        4.435593     0.178784     2.510895
C        5.116019     0.092728     1.206351
C        6.517160     0.091981     1.190710
C        7.210793     0.027358    -0.015433
C        6.509744    -0.044007    -1.215955
C        5.107768    -0.059083    -1.220439
C        4.401763    -0.150492    -2.512324
C        4.124844    -1.426791    -3.054349
C        4.527415    -2.677919    -2.313549
C        3.471570    -1.529478    -4.288872
C        3.077561    -0.381471    -4.983805
C        2.380371    -0.514453    -6.304779
C        3.336399     0.884716    -4.442051
C        4.000642     1.014687    -3.214839
C        4.271873     2.398646    -2.672455
C        4.402126     0.012430    -0.003682
Se       2.450000     0.000000     0.000000
Mn       0.000000     0.000000     0.000000
Se      -2.450000     0.000000     0.000000
C       -4.379451     0.152919    -0.076687
C       -5.023285     1.136659     0.690023
C       -4.198344     1.993663     1.562980
C       -3.893386     1.538583     2.872313
C       -4.412906     0.217092     3.393008
C       -3.093433     2.326266     3.706976
C       -2.600753     3.560511     3.267754
C       -1.725259     4.386168     4.162684
C       -2.927200     4.025184     1.987636
C       -3.705973     3.242536     1.122032
C       -4.010674     3.738752    -0.268264
C       -6.414068     1.289037     0.617057
C       -7.168834     0.434468    -0.188975
C       -6.537206    -0.557128    -0.942793
C       -5.145032    -0.714836    -0.878286
C       -4.500130    -1.794209    -1.656110
C       -4.311790    -3.052666    -1.036073
C       -4.751874    -3.280476     0.388955
C       -3.711007    -4.096389    -1.752681
C       -3.302313    -3.907765    -3.077000
C       -2.677029    -5.043770    -3.831817
C       -3.479484    -2.659098    -3.690205
C       -4.073903    -1.598017    -2.988852
C       -4.252400    -0.261527    -3.660816
C        4.108317    -1.002862     3.223601
C        4.420675    -2.370608     2.663632
C        3.482289    -0.903888     4.473214
H        3.145312     0.009868     7.126074
H        1.531472    -0.154140     6.322636
H        2.232470     1.478586     6.615305
H        3.214890     2.481050     4.716968
H        5.130319     3.324674     2.980105
H        3.522059     3.315072     2.155384
H        4.950319     2.582801     1.364815
H        7.074305     0.150830     2.119167
H        8.293502     0.029890    -0.019334
H        7.058287    -0.098310    -2.147905
H        5.621562    -2.676751    -2.125303
H        3.991953    -2.722495    -1.341237
H        4.277615    -3.594701    -2.887543
H        3.265815    -2.505274    -4.712541
H        3.041655    -1.048737    -7.019248
H        1.443190    -1.095052    -6.173093
H        2.124374     0.476500    -6.735667
H        3.032954     1.775444    -4.980205
H        3.311690     2.933902    -2.519225
H        4.883352     2.963439    -3.408002
H        4.819480     2.405262    -1.709286
H       -3.551836    -0.443945     3.624817
H       -4.997969     0.384083     4.321689
H       -5.069837    -0.323748     2.683458
H       -2.842953     1.963621     4.697150
H       -1.509384     3.862602     5.118689
H       -2.225412     5.349705     4.391662
H       -0.759609     4.586220     3.651783
H       -2.535782     4.978253     1.652471
H       -3.559611     4.735725    -0.456770
H       -3.579526     3.024541    -1.002603
H       -5.105487     3.812526    -0.432935
H       -6.914848     2.037190     1.218844
H       -8.246974     0.526849    -0.213557
H       -7.135636    -1.230840    -1.544223
H       -5.847729    -3.123408     0.472970
H       -4.229512    -2.572731     1.066604
H       -4.524118    -4.312724     0.729781
H       -3.567854    -5.063372    -1.284283
H       -1.750033    -5.371411    -3.316262
H       -3.389340    -5.895187    -3.872138
H       -2.419967    -4.753896    -4.872553
H       -3.157830    -2.514028    -4.714452
H       -3.705772     0.519726    -3.091244
H       -5.330317     0.000934    -3.697725
H       -3.859436    -0.268763    -4.699396
H        4.577422    -2.366468     1.565878
H        5.331612    -2.767489     3.157481
H        3.576089    -3.065330     2.857819
H        3.243040    -1.804550     5.026842
101
ex_0446 frame7 linear-conf6
C        1.835245     3.571083     4.965151
C        2.662125     2.837811     3.950286
C        3.056149     1.517958     4.195129
C        3.796495     0.802721     3.245790
C        4.171951    -0.629916     3.541516
C        4.168280     1.433296     2.030254
C        4.947744     0.695982     1.007926
C        6.349533     0.679919     1.026048
C        7.054257    -0.015537     0.039291
C        6.367203    -0.700473    -0.969083
C        4.964567    -0.690728    -0.995875
C        4.186984    -1.386511    -2.043522
C        3.810807    -2.744627    -1.876500
C        4.211124    -3.529299    -0.647850
C        3.052911    -3.376937    -2.866912
C        2.647577    -2.677058    -4.006921
C        1.794028    -3.357244    -5.033106
C        3.040805    -1.344242    -4.184666
C        3.808205    -0.690072    -3.216136
C        4.213402     0.747301    -3.448793
C        4.249598    -0.000749     0.000518
Se       2.450000     0.000000     0.000000
Mn       0.000000     0.000000     0.000000
Se      -2.450000     0.000000     0.000000
C       -4.242571    -0.002156    -0.004558
C       -4.960992     1.087756    -0.513390
C       -4.248483     2.264769    -1.042856
C       -3.912103     3.339128    -0.172828
C       -4.282662     3.316225     1.293256
C       -3.223013     4.444917    -0.678141
C       -2.854870     4.499998    -2.030912
C       -2.081710     5.668602    -2.558795
C       -3.211504     3.456712    -2.895189
C       -3.891526     2.329471    -2.410366
C       -4.234057     1.201138    -3.349977
C       -6.363982     1.055728    -0.517662
C       -7.047484    -0.052788    -0.006196
C       -6.335967    -1.138229     0.507505
C       -4.936273    -1.119086     0.514317
C       -4.151467    -2.255543     1.058921
C       -3.759930    -2.271363     2.423217
C       -4.132521    -1.151907     3.366266
C       -3.009534    -3.348218     2.914050
C       -2.634604    -4.402095     2.071716
C       -1.815393    -5.542252     2.601258
C       -3.026182    -4.391508     0.729139
C       -3.783600    -3.330019     0.213044
C       -4.197635    -3.344959    -1.236765
C        3.786214     2.780725     1.793762
C        4.164638     3.498753     0.518211
C        3.041484     3.467485     2.759500
H        0.897246     3.006662     5.154352
H        1.562413     4.588751     4.612987
H        2.401754     3.664871     5.914772
H        2.754585     1.032432     5.115839
H        4.762809    -0.683014     4.478717
H        4.762122    -1.116616     2.740314
H        3.239203    -1.219433     3.671586
H        6.889881     1.214328     1.796906
H        8.135561    -0.019092     0.054295
H        6.925916    -1.231795    -1.729564
H        4.774198    -4.441042    -0.933637
H        4.836531    -2.962696     0.072593
H        3.285835    -3.833481    -0.110745
H        2.743652    -4.404908    -2.727663
H        1.531280    -2.672004    -5.866612
H        0.852351    -3.703278    -4.555908
H        2.335389    -4.231596    -5.449263
H        2.726478    -0.799608    -5.066814
H        4.749034     0.839731    -4.417740
H        3.298785     1.373747    -3.481668
H        4.880049     1.163505    -2.667387
H       -3.357642     3.371504     1.905561
H       -4.924995     4.188999     1.527424
H       -4.834909     2.407432     1.607029
H       -2.948130     5.251513    -0.010082
H       -2.656699     6.162945    -3.369071
H       -1.112673     5.308911    -2.963738
H       -1.873938     6.411968    -1.761785
H       -2.922775     3.502050    -3.937447
H       -4.084829     1.494233    -4.408154
H       -5.291381     0.883872    -3.232329
H       -3.571355     0.335609    -3.129115
H       -6.934387     1.892174    -0.906653
H       -8.130690    -0.072960    -0.005332
H       -6.871627    -1.993481     0.902680
H       -4.738877    -0.351337     2.898847
H       -3.200233    -0.685514     3.749327
H       -4.710272    -1.554929     4.223924
H       -2.700196    -3.350288     3.952835
H       -2.381709    -6.490173     2.484734
H       -0.864316    -5.614770     2.032845
H       -1.572627    -5.408916     3.677008
H       -2.727277    -5.208535     0.082859
H       -3.723553    -4.185980    -1.786211
H       -5.299521    -3.450451    -1.318496
H       -3.882624    -2.400946    -1.729131
H        4.742393     2.879990    -0.196156
H        4.774174     4.394973     0.756042
H        3.235930     3.822396     0.001629
H        2.734557     4.488802     2.565881
101
ex_0446 frame8 linear-1
C       -2.710298    -2.432967     5.543973
C       -2.382149    -2.761521     4.132216
C       -1.625562    -3.888520     3.828398
C       -1.339773    -4.199721     2.504767
C       -0.537133    -5.424608     2.202029
C       -1.783374    -3.401743     1.481184
C       -1.434889    -3.808287     0.125805
C       -2.310378    -4.652428    -0.535734
C       -2.048984    -5.121486    -1.810687
C       -0.898576    -4.708240    -2.436591
C       -0.010001    -3.836863    -1.799791
C        1.156499    -3.424306    -2.481697
C        1.131401    -2.310109    -3.347848
C       -0.131179    -1.558417    -3.594859
C        2.281927    -1.912292    -3.971106
C        3.461402    -2.591655    -3.789231
C        4.671758    -2.122070    -4.489674
C        3.501176    -3.713795    -2.947342
C        2.346538    -4.125544    -2.297686
C        2.383390    -5.330201    -1.394928
C       -0.275044    -3.381889    -0.502210
Se       0.930469    -2.191185     0.406723
Mn       0.904841     0.193554    -0.154402
Se      -0.253074     1.838838     1.243730
C       -0.061784     3.581169     0.467199
C        1.192659     4.175673     0.273326
C        2.415432     3.522018     0.599506
C        2.949829     3.579005     1.883205
C        2.244643     4.318198     2.950345
C        4.153634     2.934972     2.156179
C        4.812924     2.235541     1.157290
C        6.096601     1.569986     1.474230
C        4.257325     2.173354    -0.117665
C        3.076653     2.817525    -0.395648
C        2.533118     2.737958    -1.782885
C        1.278870     5.471259    -0.264103
C        0.157569     6.160084    -0.643335
C       -1.061654     5.560170    -0.475539
C       -1.191123     4.296891     0.076742
C       -2.531941     3.787681     0.216285
C       -3.191983     4.041497     1.401291
C       -2.514403     4.801608     2.490032
C       -4.484084     3.595650     1.591891
C       -5.128679     2.873918     0.585695
C       -6.514679     2.393798     0.766572
C       -4.459608     2.599152    -0.609653
C       -3.165401     3.056923    -0.805085
C       -2.469799     2.772469    -2.079605
C       -2.536141    -2.253835     1.761041
C       -3.013750    -1.384881     0.675529
C       -2.829849    -1.942802     3.099232
H       -3.809105    -2.557162     5.637674
H       -2.239117    -3.172868     6.220362
H       -2.373431    -1.394678     5.792322
H       -1.262595    -4.553221     4.606092
H        0.219950    -5.251936     1.412231
H       -1.221914    -6.257217     1.935563
H       -0.008964    -5.741461     3.112680
H       -3.202003    -4.971866    -0.041635
H       -2.726350    -5.799363    -2.322727
H       -0.659762    -5.051509    -3.431781
H       -0.944011    -2.247304    -3.877875
H       -0.443952    -1.027166    -2.689950
H        0.002554    -0.888655    -4.475633
H        2.289597    -1.049965    -4.625534
H        4.461346    -2.201616    -5.580695
H        5.530936    -2.741929    -4.184581
H        4.807008    -1.049115    -4.213118
H        4.415054    -4.246480    -2.802312
H        1.575109    -5.275930    -0.637048
H        3.347608    -5.343498    -0.854402
H        2.194916    -6.252715    -1.984704
H        1.693342     3.557686     3.538066
H        2.973156     4.854170     3.566213
H        1.544865     5.056354     2.480863
H        4.549220     3.002675     3.154377
H        6.056085     1.174403     2.522485
H        6.382061     0.806676     0.730563
H        6.894444     2.344597     1.497168
H        4.772120     1.632280    -0.888929
H        2.448640     1.679640    -2.132355
H        1.586042     3.272818    -1.917280
H        3.271940     3.231078    -2.436981
H        2.237019     5.943521    -0.400875
H        0.204535     7.156523    -1.071779
H       -1.946145     6.102425    -0.773013
H       -1.415548     4.852109     2.354841
H       -2.987162     5.796998     2.521584
H       -2.718743     4.291701     3.442068
H       -4.973391     3.813918     2.533500
H       -7.023075     2.930188     1.598286
H       -7.072965     2.634230    -0.165447
H       -6.477670     1.291859     0.909934
H       -4.958114     2.044235    -1.391783
H       -2.494017     1.689775    -2.309012
H       -2.991899     3.269548    -2.913457
H       -1.453770     3.206033    -2.059613
H       -3.181945    -0.365621     1.057127
H       -2.305093    -1.396406    -0.176270
H       -3.975730    -1.787213     0.319674
H       -3.410799    -1.068153     3.336729
101
ex_0446 frame9 linear-2
C       -2.035544    -2.499335    -5.307209
C       -1.504588    -2.853174    -3.975028
C       -0.248693    -3.404511    -3.888931
C        0.260940    -3.744528    -2.664288
C        1.615648    -4.354642    -2.569493
C       -0.476274    -3.525975    -1.499944
C        0.110459    -3.884280    -0.269139
C       -0.095425    -5.168366     0.240396
C        0.475999    -5.535750     1.446054
C        1.243844    -4.619707     2.144321
C        1.454449    -3.352485     1.637156
C        2.277780    -2.442733     2.393172
C        3.636681    -2.441075     2.127003
C        4.199798    -3.358239     1.084484
C        4.486412    -1.603078     2.810629
C        3.993206    -0.749615     3.774810
C        4.945504     0.141052     4.494279
C        2.616114    -0.732736     4.061141
C        1.748727    -1.583691     3.365066
C        0.283410    -1.580547     3.649074
C        0.883163    -2.975964     0.429067
Se       1.204869    -1.202402    -0.201413
Mn      -0.289701     0.182414    -1.561944
Se      -1.526791     2.281871    -1.308197
C       -1.788700     3.553687     0.105571
C       -0.784780     4.437920     0.457986
C        0.479130     4.455800    -0.208830
C        0.613290     5.274339    -1.315512
C       -0.553172     6.106733    -1.773872
C        1.820255     5.323420    -1.995692
C        2.903165     4.535118    -1.553925
C        4.203573     4.567147    -2.268474
C        2.767745     3.720897    -0.447913
C        1.562974     3.672671     0.233717
C        1.424096     2.797884     1.422610
C       -0.989097     5.351110     1.494521
C       -2.180335     5.400609     2.172385
C       -3.177795     4.528364     1.829738
C       -2.997733     3.604493     0.795865
C       -4.085458     2.724643     0.476428
C       -5.000768     3.136202    -0.474056
C       -4.837836     4.454450    -1.132457
C       -6.069442     2.318591    -0.811742
C       -6.206881     1.074334    -0.193553
C       -7.338168     0.174295    -0.544597
C       -5.275651     0.670135     0.762167
C       -4.215922     1.498346     1.101536
C       -3.228681     1.074374     2.126810
C       -1.747497    -2.972161    -1.564849
C       -2.558886    -2.739825    -0.310434
C       -2.268650    -2.631609    -2.805584
H       -1.971058    -3.386953    -5.985581
H       -1.411927    -1.688692    -5.737769
H       -3.056827    -2.119235    -5.196119
H        0.338881    -3.585653    -4.784640
H        1.746962    -4.823582    -1.580289
H        2.429011    -3.616093    -2.694369
H        1.676170    -5.181093    -3.301200
H       -0.700638    -5.859835    -0.333249
H        0.311181    -6.531742     1.826866
H        1.688218    -4.904567     3.082923
H        5.072691    -2.843283     0.637163
H        4.487169    -4.310141     1.581580
H        3.494515    -3.542111     0.244729
H        5.550186    -1.633408     2.578684
H        5.902786    -0.420119     4.594423
H        4.575058     0.472077     5.479568
H        5.191619     1.042958     3.893322
H        2.251081    -0.070172     4.799728
H       -0.078073    -0.586307     3.974348
H        0.106202    -2.270286     4.493285
H       -0.246147    -1.936395     2.737919
H       -0.843721     5.904260    -2.816456
H       -0.248941     7.170238    -1.704497
H       -1.422302     5.899920    -1.123243
H        1.949291     5.948084    -2.854391
H        4.399483     3.576509    -2.739532
H        4.149714     5.294006    -3.089834
H        5.043466     4.774559    -1.562745
H        3.626215     3.125685    -0.129335
H        1.957130     3.305325     2.247621
H        1.919626     1.814951     1.281379
H        0.366695     2.713784     1.719306
H       -0.219251     6.050424     1.783476
H       -2.327408     6.117151     2.969212
H       -4.111295     4.577802     2.370643
H       -4.450479     5.188024    -0.385914
H       -4.138557     4.310331    -1.983241
H       -5.809556     4.773449    -1.563643
H       -6.783429     2.631727    -1.555403
H       -6.976787    -0.585373    -1.271396
H       -8.150063     0.722948    -1.054410
H       -7.782015    -0.302054     0.357370
H       -5.367016    -0.280804     1.256950
H       -3.227468    -0.023041     2.216934
H       -3.578687     1.494860     3.096366
H       -2.196287     1.443203     1.894842
H       -2.592198    -3.646180     0.323808
H       -3.600597    -2.506651    -0.598406
H       -2.189190    -1.919954     0.322607
H       -3.242041    -2.194177    -2.907603
101
ex_0446 frame10 linear-conf2
C        2.166498     6.073665    -1.400412
C        2.924483     4.814600    -1.100302
C        3.254992     3.935312    -2.137815
C        3.972498     2.758446    -1.877383
C        4.332684     1.835531    -3.014619
C        4.351918     2.447629    -0.547162
C        5.098825     1.204126    -0.253396
C        6.497055     1.215166    -0.243360
C        7.210890     0.052013     0.037508
C        6.528428    -1.134199     0.310314
C        5.128422    -1.171110     0.295899
C        4.446744    -2.445856     0.574126
C        4.112384    -2.820587     1.897819
C        4.435011    -1.925892     3.078476
C        3.469617    -4.041077     2.136699
C        3.153892    -4.896796     1.074780
C        2.474929    -6.207206     1.348758
C        3.472935    -4.526490    -0.238884
C        4.119608    -3.313792    -0.499413
C        4.466245    -2.933404    -1.916376
C        4.403194     0.007377     0.016677
Se       2.450000     0.000000     0.000000
Mn       0.000000     0.000000     0.000000
Se      -2.450000     0.000000     0.000000
C       -4.394289    -0.004823     0.077185
C       -5.101211    -1.225983     0.124037
C       -4.397529    -2.527318     0.087238
C       -4.024896    -3.187508     1.280401
C       -4.323523    -2.571717     2.622857
C       -3.371149    -4.427309     1.211713
C       -3.081075    -5.012956    -0.026446
C       -2.390477    -6.344359    -0.079874
C       -3.437253    -4.352580    -1.209465
C       -4.096049    -3.115375    -1.164230
C       -4.476971    -2.423320    -2.449079
C       -6.500672    -1.220499     0.207286
C       -7.202541    -0.016589     0.221393
C       -6.513642     1.193811     0.164529
C       -5.113564     1.210049     0.085373
C       -4.411421     2.507873     0.011440
C       -4.165304     3.097729    -1.257141
C       -4.603432     2.429327    -2.540088
C       -3.501098     4.328535    -1.330363
C       -3.073391     4.980944    -0.168622
C       -2.362485     6.299258    -0.257568
C       -3.310386     4.400129     1.081405
C       -3.979674     3.173610     1.187981
C       -4.223471     2.592450     2.560574
C        4.011394     3.334930     0.499186
C        4.403373     3.023859     1.921422
C        3.304275     4.512966     0.214679
H        1.187972     5.821849    -1.861633
H        1.979684     6.670153    -0.482517
H        2.752140     6.697382    -2.108999
H        2.958266     4.176180    -3.151988
H        5.437385     1.793338    -3.123530
H        3.945212     0.814313    -2.819910
H        3.903597     2.186416    -3.977087
H        7.038162     2.132249    -0.451258
H        8.292967     0.067698     0.044717
H        7.096375    -2.033497     0.520539
H        5.102728    -2.471238     3.778979
H        3.496140    -1.662360     3.609562
H        4.938962    -0.980661     2.800113
H        3.220528    -4.332059     3.150101
H        1.501973    -6.026218     1.852664
H        2.286132    -6.775030     0.412198
H        3.118940    -6.824899     2.008702
H        3.230396    -5.191055    -1.057758
H        3.966919    -1.981695    -2.191193
H        5.565373    -2.806841    -2.007805
H        4.145397    -3.712612    -2.639264
H       -5.417293    -2.416621     2.731411
H       -3.805129    -1.593545     2.711208
H       -3.981477    -3.220695     3.456692
H       -3.091047    -4.944246     2.121997
H       -3.012826    -7.105421     0.436576
H       -1.404702    -6.275465     0.426083
H       -2.225882    -6.679736    -1.126164
H       -3.212827    -4.807417    -2.167043
H       -4.178695    -3.016321    -3.339500
H       -5.577709    -2.281273    -2.482988
H       -3.979776    -1.432761    -2.512835
H       -7.048392    -2.154659     0.238062
H       -8.283996    -0.022314     0.266457
H       -7.071378     2.122367     0.164060
H       -3.714123     2.239547    -3.176971
H       -5.298300     3.101401    -3.086166
H       -5.120397     1.460721    -2.393414
H       -3.318961     4.776445    -2.300408
H       -2.930058     7.066346     0.310277
H       -1.344547     6.203817     0.175186
H       -2.266218     6.643150    -1.309556
H       -2.979897     4.909817     1.979075
H       -4.765797     1.626517     2.551633
H       -4.828177     3.309198     3.155418
H       -3.252496     2.430095     3.072912
H        3.938882     2.064113     2.233004
H        4.065167     3.814295     2.624244
H        5.507668     2.937186     2.003243
H        3.044663     5.192176     1.017588
101
ex_0446 frame11 linear-conf4
C        2.547011    -0.454768    -6.362448
C        3.204689    -0.291810    -5.023921
C        3.444115     0.984100    -4.500680
C        4.063311     1.141690    -3.253767
C        4.303571     2.536627    -2.728606
C        4.449702    -0.005838    -2.517543
C        5.114703     0.115419    -1.205561
C        6.512551     0.236145    -1.183922
C        7.195796     0.329738     0.026461
C        6.489556     0.314355     1.225578
C        5.093838     0.191381     1.224943
C        4.391535     0.147233     2.524549
C        3.985624     1.335386     3.180159
C        4.230717     2.696719     2.570662
C        3.341733     1.253143     4.422293
C        3.073758     0.011480     5.009734
C        2.378058    -0.052786     6.337323
C        3.456367    -1.164690     4.355343
C        4.120713    -1.113343     3.124200
C        4.532954    -2.410698     2.465087
C        4.390763     0.112082     0.004519
Se       2.450000     0.000000     0.000000
Mn       0.000000     0.000000     0.000000
Se      -2.450000     0.000000     0.000000
C       -4.395119    -0.003539     0.083587
C       -5.125810     1.197481    -0.042540
C       -4.447992     2.490017    -0.269992
C       -4.158381     2.909965    -1.594855
C       -4.522044     2.062227    -2.791836
C       -3.520003     4.139138    -1.805576
C       -3.179289     4.962415    -0.725358
C       -2.519131     6.287851    -0.962169
C       -3.456843     4.544903     0.581335
C       -4.085256     3.313483     0.820128
C       -4.368262     2.878913     2.235669
C       -6.525284     1.177218     0.047992
C       -7.202993    -0.025189     0.241757
C       -6.489998    -1.217523     0.356742
C       -5.089602    -1.217394     0.270702
C       -4.359068    -2.498807     0.378316
C       -3.944449    -3.006280     1.635651
C       -4.221974    -2.260363     2.918430
C       -3.260952    -4.227968     1.694414
C       -2.974311    -4.943096     0.525973
C       -2.239589    -6.250300     0.595296
C       -3.374017    -4.438470    -0.715281
C       -4.071719    -3.227549    -0.800425
C       -4.510408    -2.711757    -2.149920
C        4.196814    -1.295882    -3.044293
C        4.584382    -2.534431    -2.271938
C        3.580646    -1.424731    -4.294993
H        1.593879    -1.012575    -6.240099
H        2.322129     0.526203    -6.831049
H        3.215752    -1.025006    -7.041405
H        3.157971     1.861691    -5.067405
H        3.337496     3.076975    -2.648857
H        4.962560     3.079667    -3.437994
H        4.786172     2.565045    -1.731726
H        7.073680     0.234871    -2.109720
H        8.275958     0.402207     0.035260
H        7.033207     0.366312     2.162760
H        3.260412     3.231375     2.475212
H        4.682796     2.660512     1.559810
H        4.901479     3.280982     3.229423
H        3.041216     2.160596     4.931452
H        1.402163     0.471134     6.272119
H        2.190772    -1.102702     6.649789
H        3.006399     0.437428     7.110259
H        3.255950    -2.128076     4.810428
H        3.640398    -3.046993     2.291173
H        5.231382    -2.949840     3.140147
H        5.047507    -2.283050     1.491834
H       -5.209587     2.638229    -3.447525
H       -5.027027     1.110107    -2.535370
H       -3.605628     1.812924    -3.365955
H       -3.307905     4.459622    -2.818727
H       -2.336120     6.467196    -2.042918
H       -1.545904     6.324069    -0.429720
H       -3.174926     7.097886    -0.579433
H       -3.187158     5.185482     1.412329
H       -3.846983     1.920988     2.446962
H       -4.018281     3.630991     2.973618
H       -5.460503     2.737771     2.374841
H       -7.091055     2.095430    -0.053564
H       -8.284190    -0.034000     0.293271
H       -7.028944    -2.146842     0.494896
H       -3.263525    -2.070408     3.445599
H       -4.718182    -1.280526     2.770490
H       -4.874270    -2.877884     3.570099
H       -2.949491    -4.616891     2.656087
H       -1.298660    -6.182621     0.008593
H       -1.983217    -6.522631     1.640821
H       -2.874689    -7.055493     0.168607
H       -3.149028    -4.999908    -1.616094
H       -4.105115    -1.693578    -2.327348
H       -5.619843    -2.674238    -2.187436
H       -4.159823    -3.368516    -2.974599
H        3.949086    -2.633731    -1.366710
H        5.650366    -2.478194    -1.965253
H        4.460662    -3.451492    -2.886471
H        3.395572    -2.410652    -4.708041
101
ex_0446 frame12 linear-conf5
C        2.569059     1.981801    -6.072044
C        3.213892     1.541448    -4.795054
C        3.573576     2.490533    -3.825083
C        4.190088     2.101467    -2.639321
C        4.554195     3.162241    -1.628676
C        4.465297     0.730803    -2.399625
C        5.133739     0.328517    -1.157342
C        6.535497     0.297566    -1.137493
C        7.219452    -0.063484     0.022303
C        6.508672    -0.405437     1.171522
C        5.106596    -0.391125     1.167714
C        4.365400    -0.763046     2.389396
C        4.026655     0.232192     3.336666
C        4.417932     1.671290     3.112073
C        3.320775    -0.123593     4.494432
C        2.944422    -1.452117     4.722311
C        2.192208    -1.814475     5.965670
C        3.276289    -2.437265     3.780308
C        3.989681    -2.111183     2.621213
C        4.342451    -3.206724     1.643530
C        4.405329    -0.020947    -0.002585
Se       2.450000     0.000000     0.000000
Mn       0.000000     0.000000     0.000000
Se      -2.450000     0.000000     0.000000
C       -4.390441    -0.054270    -0.084232
C       -5.154912     1.127781    -0.059698
C       -4.521619     2.457063     0.052260
C       -4.254555     2.995023     1.338572
C       -4.600053     2.236521     2.599438
C       -3.657916     4.255915     1.450722
C       -3.341601     5.001012     0.308051
C       -2.725947     6.363308     0.439640
C       -3.600965     4.472423    -0.961824
C       -4.178255     3.201329    -1.101341
C       -4.427454     2.640105    -2.478458
C       -6.553676     1.052174    -0.143044
C       -7.189990    -0.187924    -0.222791
C       -6.437347    -1.361594    -0.240243
C       -5.038694    -1.301546    -0.168811
C       -4.213175    -2.523063    -0.179708
C       -3.738589    -3.087550    -1.396222
C       -4.082914    -2.465824    -2.729904
C       -2.942090    -4.233745    -1.361160
C       -2.608567    -4.837389    -0.142553
C       -1.733653    -6.059377    -0.114717
C       -3.092240    -4.300191     1.054704
C       -3.885291    -3.145804     1.053121
C       -4.383869    -2.573775     2.354195
C        4.079954    -0.234870    -3.386411
C        4.339234    -1.716093    -3.165393
C        3.463187     0.175242    -4.559305
H        2.339692     1.120979    -6.740011
H        3.254556     2.667374    -6.614189
H        1.622974     2.516405    -5.852123
H        3.374231     3.539650    -4.019111
H        5.027924     2.770898    -0.708480
H        3.637434     3.710386    -1.321036
H        5.263372     3.882112    -2.092302
H        7.102215     0.568142    -2.020797
H        8.301395    -0.073068     0.034182
H        7.048830    -0.678642     2.069537
H        4.068723     2.325933     3.939218
H        5.522245     1.759907     3.043882
H        3.963196     2.040010     2.168052
H        3.057490     0.633639     5.224333
H        1.232265    -1.257653     5.999042
H        2.799778    -1.545930     6.855340
H        1.970700    -2.902704     6.009906
H        2.985682    -3.468032     3.952648
H        3.410254    -3.613689     1.199125
H        4.873162    -4.022969     2.177928
H        4.999264    -2.875790     0.815320
H       -5.060398     1.245066     2.420005
H       -3.683963     2.077824     3.204779
H       -5.321873     2.837255     3.192535
H       -3.461119     4.664646     2.434369
H       -2.511953     6.615365     1.500744
H       -3.424541     7.124372     0.032166
H       -1.772470     6.402198    -0.127961
H       -3.349412     5.053923    -1.840298
H       -5.507291     2.421119    -2.609762
H       -4.116085     3.350070    -3.273478
H       -3.846229     1.702169    -2.608797
H       -7.150660     1.954922    -0.112931
H       -8.271017    -0.238225    -0.258528
H       -6.940899    -2.319113    -0.290838
H       -3.145062    -2.099571    -3.203744
H       -4.544236    -3.228231    -3.390984
H       -4.785703    -1.613635    -2.665808
H       -2.565487    -4.645393    -2.290197
H       -2.286278    -6.899782     0.357360
H       -1.428691    -6.367946    -1.135743
H       -0.820991    -5.846017     0.477792
H       -2.824168    -4.771482     1.994147
H       -4.005903    -1.536358     2.466760
H       -5.490353    -2.566360     2.379609
H       -4.019221    -3.163836     3.224118
H        3.376483    -2.262549    -3.194936
H        4.987254    -2.084305    -3.984011
H        4.835345    -1.952841    -2.205001
H        3.183868    -0.555584    -5.301594
101
ex_0446 frame13 linear
C        2.513031     1.050868     6.286844
C        3.169226     0.760735     4.969474
C        3.564013     1.817286     4.142937
C        4.195667     1.567049     2.917407
C        4.615792     2.722819     2.043403
C        4.434679     0.232223     2.511011
C        5.115903    -0.005090     1.222992
C        6.513100    -0.123431     1.220934
C        7.204059    -0.322357     0.027937
C        6.506300    -0.418468    -1.173218
C        5.108447    -0.301686    -1.193548
C        4.414113    -0.380302    -2.492606
C        3.980377    -1.621909    -3.027283
C        4.206870    -2.920691    -2.291246
C        3.326318    -1.648633    -4.266565
C        3.109862    -0.467857    -4.987669
C        2.425852    -0.508008    -6.321498
C        3.533507     0.755575    -4.461842
C        4.177625     0.815524    -3.220146
C        4.606590     2.167264    -2.685825
C        4.397574    -0.112102     0.011684
Se       2.450000     0.000000     0.000000
Mn       0.000000     0.000000     0.000000
Se      -2.450000     0.000000     0.000000
C       -4.383213    -0.009042     0.103768
C       -5.106035     1.193292     0.105271
C       -4.397553     2.487013    -0.012208
C       -3.987626     3.212260     1.128020
C       -4.264116     2.679021     2.508792
C       -3.321014     4.432927     0.968081
C       -3.037628     4.933122    -0.308690
C       -2.305993     6.233941    -0.457579
C       -3.439221     4.215465    -1.441189
C       -4.126116     3.005600    -1.310167
C       -4.564821     2.276319    -2.563315
C       -6.507821     1.168417     0.218798
C       -7.183699    -0.051116     0.295396
C       -6.470278    -1.251877     0.276580
C       -5.071567    -1.236747     0.176759
C       -4.316454    -2.512573     0.148002
C       -3.888772    -3.127082     1.353738
C       -4.175732    -2.503807     2.700884
C       -3.187075    -4.334290     1.298235
C       -2.890558    -4.937969     0.073078
C       -2.123952    -6.227980     0.038996
C       -3.311066    -4.334935    -1.118670
C       -4.017038    -3.126489    -1.097754
C       -4.441812    -2.507999    -2.410218
C        4.019495    -0.839621     3.341059
C        4.239576    -2.279424     2.942683
C        3.388999    -0.561963     4.562076
H        2.254752     0.118214     6.831393
H        1.582123     1.632871     6.121490
H        3.205092     1.645767     6.919996
H        3.390647     2.837528     4.464503
H        5.713079     2.686553     1.877722
H        4.097709     2.668876     1.062707
H        4.370328     3.700749     2.508708
H        7.069196    -0.032772     2.145709
H        8.284553    -0.387261     0.032133
H        7.055270    -0.553578    -2.096488
H        4.728419    -2.804133    -1.320192
H        4.825554    -3.590344    -2.924916
H        3.232459    -3.412638    -2.093018
H        3.001104    -2.598846    -4.673425
H        3.117984    -0.129800    -7.103441
H        2.116195    -1.539104    -6.593960
H        1.521062     0.135621    -6.295822
H        3.365066     1.667022    -5.022476
H        5.081534     2.128646    -1.687536
H        5.334023     2.623041    -3.389870
H        3.719246     2.828545    -2.607125
H       -5.358527     2.573867     2.669472
H       -3.780902     1.685587     2.629998
H       -3.859842     3.354032     3.297451
H       -3.003827     4.993921     1.841385
H       -2.068757     6.447732    -1.522245
H       -2.935261     7.058540    -0.064438
H       -1.352118     6.198184     0.110022
H       -3.222526     4.598985    -2.429216
H       -5.120553     1.337272    -2.370568
H       -3.673758     2.022181    -3.174170
H       -5.230350     2.938758    -3.153542
H       -7.072750     2.092190     0.215635
H       -8.263437    -0.066844     0.357284
H       -7.004855    -2.191219     0.322280
H       -4.693255    -1.528587     2.646301
H       -3.211779    -2.337882     3.228548
H       -4.802657    -3.192517     3.302476
H       -2.858885    -4.806854     2.217769
H       -2.676255    -7.007386     0.603722
H       -1.969557    -6.588121    -1.000132
H       -1.128184    -6.075454     0.507871
H       -3.079051    -4.798610    -2.071530
H       -5.092510    -3.217333    -2.962821
H       -3.538088    -2.302328    -3.022721
H       -4.996676    -1.555328    -2.303390
H        3.262760    -2.804738     2.894460
H        4.734532    -2.402665     1.959280
H        4.876464    -2.773660     3.706024
H        3.083013    -1.382070     5.200975
101
ex_0446 frame14 linear-conf3
C        2.476341     0.428908     6.345862
C        3.153716     0.345393     5.010803
C        3.459245     1.511689     4.299061
C        4.108614     1.443696     3.061042
C        4.445442     2.728990     2.340296
C        4.436767     0.178824     2.511503
C        5.116019     0.092659     1.206356
C        6.517160     0.091981     1.190710
C        7.210793     0.027358    -0.015433
C        6.509744    -0.044007    -1.215955
C        5.107768    -0.059126    -1.220436
C        4.402216    -0.150485    -2.512572
C        4.124999    -1.426790    -3.054431
C        4.527415    -2.677919    -2.313549
C        3.471570    -1.529478    -4.288872
C        3.077561    -0.381471    -4.983805
C        2.380371    -0.514453    -6.304779
C        3.336399     0.884716    -4.442051
C        4.000797     1.014690    -3.214923
C        4.271873     2.398646    -2.672455
C        4.402126     0.012389    -0.003679
Se       2.450000     0.000000     0.000000
Mn       0.000000     0.000000     0.000000
Se      -2.450000     0.000000     0.000000
C       -4.379836     0.149776    -0.072947
C       -5.023447     1.135715     0.691106
C       -4.196454     1.992643     1.562189
C       -3.892745     1.538223     2.872040
C       -4.412906     0.217092     3.393008
C       -3.093433     2.326266     3.706976
C       -2.600753     3.560511     3.267754
C       -1.725259     4.386168     4.162684
C       -2.927200     4.025184     1.987636
C       -3.705329     3.242189     1.121767
C       -4.010674     3.738752    -0.268264
C       -6.414068     1.289037     0.617057
C       -7.168834     0.434468    -0.188975
C       -6.537206    -0.557128    -0.942793
C       -5.145212    -0.715880    -0.876990
C       -4.500316    -1.794271    -1.656179
C       -4.311854    -3.052687    -1.036096
C       -4.751874    -3.280476     0.388955
C       -3.711007    -4.096389    -1.752681
C       -3.302313    -3.907765    -3.077000
C       -2.677029    -5.043770    -3.831817
C       -3.479484    -2.659098    -3.690205
C       -4.073966    -1.598037    -2.988875
C       -4.252400    -0.261527    -3.660816
C        4.108722    -1.002852     3.223803
C        4.420675    -2.370608     2.663632
C        3.482289    -0.903888     4.473214
H        3.145312     0.009868     7.126074
H        1.531472    -0.154140     6.322636
H        2.232470     1.478586     6.615305
H        3.214890     2.481050     4.716968
H        5.130319     3.324674     2.980105
H        3.522059     3.315072     2.155384
H        4.950319     2.582801     1.364815
H        7.074305     0.150830     2.119167
H        8.293502     0.029890    -0.019334
H        7.058287    -0.098310    -2.147905
H        5.621562    -2.676751    -2.125303
H        3.991953    -2.722495    -1.341237
H        4.277615    -3.594701    -2.887543
H        3.265815    -2.505274    -4.712541
H        3.041655    -1.048737    -7.019248
H        1.443190    -1.095052    -6.173093
H        2.124374     0.476500    -6.735667
H        3.032954     1.775444    -4.980205
H        3.311690     2.933902    -2.519225
H        4.883352     2.963439    -3.408002
H        4.819480     2.405262    -1.709286
H       -3.551836    -0.443945     3.624817
H       -4.997969     0.384083     4.321689
H       -5.069837    -0.323748     2.683458
H       -2.842953     1.963621     4.697150
H       -1.509384     3.862602     5.118689
H       -2.225412     5.349705     4.391662
H       -0.759609     4.586220     3.651783
H       -2.535782     4.978253     1.652471
H       -3.559611     4.735725    -0.456770
H       -3.579526     3.024541    -1.002603
H       -5.105487     3.812526    -0.432935
H       -6.914848     2.037190     1.218844
H       -8.246974     0.526849    -0.213557
H       -7.135636    -1.230840    -1.544223
H       -5.847729    -3.123408     0.472970
H       -4.229512    -2.572731     1.066604
H       -4.524118    -4.312724     0.729781
H       -3.567854    -5.063372    -1.284283
H       -1.750033    -5.371411    -3.316262
H       -3.389340    -5.895187    -3.872138
H       -2.419967    -4.753896    -4.872553
H       -3.157830    -2.514028    -4.714452
H       -3.705772     0.519726    -3.091244
H       -5.330317     0.000934    -3.697725
H       -3.859436    -0.268763    -4.699396
H        4.577422    -2.366468     1.565878
H        5.331612    -2.767489     3.157481
H        3.576089    -3.065330     2.857819
H        3.243040    -1.804550     5.026842
101
ex_0446 frame15 linear-conf6
C        1.835245     3.571083     4.965151
C        2.662125     2.837811     3.950286
C        3.056149     1.517958     4.195129
C        3.794022     0.801812     3.244555
C        4.171951    -0.629916     3.541516
C        4.166610     1.432679     2.029422
C        4.947742     0.695890     1.007991
C        6.349533     0.679919     1.026048
C        7.054257    -0.015537     0.039291
C        6.367203    -0.700473    -0.969083
C        4.964564    -0.690893    -0.995763
C        4.184380    -1.385630    -2.042165
C        3.809925    -2.744325    -1.876019
C        4.211124    -3.529299    -0.647850
C        3.052911    -3.376937    -2.866912
C        2.647577    -2.677058    -4.006921
C        1.794028    -3.357244    -5.033106
C        3.040805    -1.344242    -4.184666
C        3.807327    -0.689747    -3.215661
C        4.213402     0.747301    -3.448793
C        4.249598    -0.000842     0.000582
Se       2.450000     0.000000     0.000000
Mn       0.000000     0.000000     0.000000
Se      -2.450000     0.000000     0.000000
C       -4.242572    -0.001903    -0.004015
C       -4.960994     1.087833    -0.513222
C       -4.246598     2.263823    -1.042412
C       -3.911462     3.338801    -0.172671
C       -4.282662     3.316225     1.293256
C       -3.223013     4.444917    -0.678141
C       -2.854870     4.499998    -2.030912
C       -2.081710     5.668602    -2.558795
C       -3.211504     3.456712    -2.895189
C       -3.890884     2.329149    -2.410214
C       -4.234057     1.201138    -3.349977
C       -6.363982     1.055728    -0.517662
C       -7.047484    -0.052788    -0.006196
C       -6.335967    -1.138229     0.507505
C       -4.936274    -1.119027     0.514442
C       -4.149619    -2.254509     1.058406
C       -3.759299    -2.271004     2.423041
C       -4.132521    -1.151907     3.366266
C       -3.009534    -3.348218     2.914050
C       -2.634604    -4.402095     2.071716
C       -1.815393    -5.542252     2.601258
C       -3.026182    -4.391508     0.729139
C       -3.782975    -3.329663     0.212862
C       -4.197635    -3.344959    -1.236765
C        3.785643     2.780513     1.793473
C        4.164638     3.498753     0.518211
C        3.041484     3.467485     2.759500
H        0.897246     3.006662     5.154352
H        1.562413     4.588751     4.612987
H        2.401754     3.664871     5.914772
H        2.754585     1.032432     5.115839
H        4.762809    -0.683014     4.478717
H        4.762122    -1.116616     2.740314
H        3.239203    -1.219433     3.671586
H        6.889881     1.214328     1.796906
H        8.135561    -0.019092     0.054295
H        6.925916    -1.231795    -1.729564
H        4.774198    -4.441042    -0.933637
H        4.836531    -2.962696     0.072593
H        3.285835    -3.833481    -0.110745
H        2.743652    -4.404908    -2.727663
H        1.531280    -2.672004    -5.866612
H        0.852351    -3.703278    -4.555908
H        2.335389    -4.231596    -5.449263
H        2.726478    -0.799608    -5.066814
H        4.749034     0.839731    -4.417740
H        3.298785     1.373747    -3.481668
H        4.880049     1.163505    -2.667387
H       -3.357642     3.371504     1.905561
H       -4.924995     4.188999     1.527424
H       -4.834909     2.407432     1.607029
H       -2.948130     5.251513    -0.010082
H       -2.656699     6.162945    -3.369071
H       -1.112673     5.308911    -2.963738
H       -1.873938     6.411968    -1.761785
H       -2.922775     3.502050    -3.937447
H       -4.084829     1.494233    -4.408154
H       -5.291381     0.883872    -3.232329
H       -3.571355     0.335609    -3.129115
H       -6.934387     1.892174    -0.906653
H       -8.130690    -0.072960    -0.005332
H       -6.871627    -1.993481     0.902680
H       -4.738877    -0.351337     2.898847
H       -3.200233    -0.685514     3.749327
H       -4.710272    -1.554929     4.223924
H       -2.700196    -3.350288     3.952835
H       -2.381709    -6.490173     2.484734
H       -0.864316    -5.614770     2.032845
H       -1.572627    -5.408916     3.677008
H       -2.727277    -5.208535     0.082859
H       -3.723553    -4.185980    -1.786211
H       -5.299521    -3.450451    -1.318496
H       -3.882624    -2.400946    -1.729131
H        4.742393     2.879990    -0.196156
H        4.774174     4.394973     0.756042
H        3.235930     3.822396     0.001629
H        2.734557     4.488802     2.565881
