133
ex_0398 frame0 linear-conf6
C        3.486500    -3.627282    -0.710166
C        4.817004    -3.433659     0.021528
C        5.648435    -4.728143    -0.046558
C        4.610628    -2.985013     1.471078
C        4.131503    -3.907957     2.421661
C        3.991370    -3.552154     3.755098
C        4.296398    -2.263738     4.172543
C        4.719413    -1.280503     3.260605
C        4.968409     0.134520     3.807706
C        3.754501     1.025980     3.544073
C        6.279137     0.814327     3.404143
C        4.895002    -1.647530     1.878362
N        5.341391    -0.766948     0.850789
C        6.710342    -0.498139     0.526516
C        6.699764     0.416912    -0.565231
N        5.345071     0.701031    -0.894417
C        4.950835     1.574243    -1.949100
C        4.880711     3.009087    -1.838351
C        5.175047     3.780060    -0.540751
C        6.616489     3.688957    -0.030859
C        4.172828     3.442465     0.559490
C        4.524257     3.758276    -2.973212
C        4.210629     3.144150    -4.176006
C        4.240738     1.762104    -4.283751
C        4.606760     0.958571    -3.191017
C        4.628665    -0.561077    -3.356074
C        3.222312    -1.087401    -3.674532
C        5.617572    -0.977384    -4.455184
C        4.493986    -0.020568    -0.017311
Se       2.650000     0.000000     0.000000
Ag       0.000000     0.000000     0.000000
Se      -2.650000     0.000000     0.000000
C       -4.441121     0.018025    -0.016614
N       -5.302064    -0.730906    -0.860254
C       -4.930890    -1.657549    -1.873343
C       -4.494902    -1.129346    -3.126144
C       -4.414338     0.383951    -3.356680
C       -5.725011     0.877142    -3.971828
C       -3.211543     0.818485    -4.213725
C       -4.135971    -2.016903    -4.158425
C       -4.186575    -3.390327    -3.968794
C       -4.590957    -3.916239    -2.750782
C       -4.983283    -3.082581    -1.689140
C       -5.448358    -3.757685    -0.384702
C       -6.974342    -3.760312    -0.225938
C       -4.749150    -3.272557     0.887596
C       -6.650715    -0.414336    -0.543729
C       -6.634997     0.545409     0.502944
N       -5.275088     0.812068     0.814487
C       -4.820741     1.732943     1.805397
C       -4.841622     3.122753     1.497035
C       -5.357041     3.617665     0.143298
C       -4.175920     3.798397    -0.810536
C       -6.194037     4.905605     0.234625
C       -4.380570     4.045066     2.455337
C       -3.913695     3.614941     3.690996
C       -3.893562     2.261915     4.005057
C       -4.349626     1.300102     3.081321
C       -4.338411    -0.188415     3.445087
C       -5.736668    -0.619351     3.907006
C       -3.296267    -0.582822     4.507305
H        2.937335    -2.669556    -0.752777
H        3.673380    -3.947649    -1.758466
H        2.850281    -4.382201    -0.204945
H        5.380665    -2.665113    -0.542302
H        5.862531    -4.992075    -1.104254
H        5.103432    -5.588041     0.399426
H        6.613030    -4.603238     0.488397
H        3.888078    -4.924884     2.144065
H        3.645722    -4.283915     4.476661
H        4.165616    -2.022861     5.221062
H        5.023128     0.052521     4.917011
H        3.571276     1.138585     2.467585
H        3.904317     2.029028     3.997382
H        2.847933     0.573672     3.999737
H        6.261064     1.151930     2.354971
H        6.417768     1.735556     4.009340
H        7.143462     0.142151     3.590182
H        7.599500    -0.952526     0.966276
H        7.565796     0.778114    -1.107988
H        5.020888     4.860909    -0.756854
H        6.753137     4.397568     0.815209
H        6.866711     2.693483     0.359546
H        7.327535     3.971019    -0.835167
H        4.315077     4.111675     1.434762
H        4.320482     2.411729     0.897924
H        3.132945     3.566384     0.187625
H        4.477262     4.838897    -2.928020
H        3.935409     3.747457    -5.032121
H        3.985109     1.321713    -5.237471
H        4.958822    -1.059470    -2.425094
H        2.519819    -0.812919    -2.860903
H        3.236757    -2.193962    -3.761968
H        2.837026    -0.665508    -4.626930
H        5.649307    -2.084690    -4.539292
H        6.637940    -0.615330    -4.208879
H        5.323177    -0.567935    -5.444872
H       -4.300494     0.910616    -2.392801
H       -6.574289     0.635020    -3.297570
H       -5.694154     1.981006    -4.098403
H       -5.902150     0.403353    -4.960002
H       -3.291161     0.443446    -5.255261
H       -3.167773     1.926491    -4.272914
H       -2.264212     0.451922    -3.765616
H       -3.829594    -1.662157    -5.130091
H       -3.916249    -4.056596    -4.778507
H       -4.625527    -4.993447    -2.647576
H       -5.185859    -4.835675    -0.472994
H       -7.261392    -4.402813     0.634108
H       -7.387723    -2.763217    -0.029410
H       -7.449972    -4.178539    -1.138918
H       -5.074276    -2.255593     1.156638
H       -3.646425    -3.301945     0.764812
H       -5.027211    -3.925440     1.742449
H       -7.527270    -0.796634    -1.049214
H       -7.493610     1.025061     0.953134
H       -6.017827     2.860735    -0.316868
H       -4.539544     4.103887    -1.814920
H       -3.470322     4.563936    -0.426562
H       -3.634183     2.835308    -0.922216
H       -7.044102     4.766914     0.935260
H       -5.583847     5.769687     0.570128
H       -6.599945     5.165494    -0.765794
H       -4.368107     5.106083     2.258998
H       -3.565887     4.339775     4.416238
H       -3.531003     1.989802     4.983922
H       -4.050502    -0.765832     2.548452
H       -6.020023    -0.069855     4.831834
H       -6.496800    -0.410823     3.128067
H       -5.754456    -1.708651     4.124702
H       -3.295194    -1.685894     4.641775
H       -2.281031    -0.276580     4.175446
H       -3.516769    -0.132651     5.497133
133
ex_0398 frame1 linear-conf5
C        2.867012    -2.593216    -2.687806
C        4.351997    -2.222010    -2.752015
C        5.118073    -3.200905    -3.650366
C        4.527256    -0.773117    -3.203773
C        4.170636    -0.409187    -4.515156
C        4.340987     0.893285    -4.968330
C        4.851981     1.869700    -4.125523
C        5.188159     1.574835    -2.792498
C        5.694699     2.717391    -1.893060
C        4.567695     3.733627    -1.672813
C        6.943210     3.410854    -2.466390
C        5.019592     0.227673    -2.309594
N        5.371091     0.034132    -0.936978
C        6.658841     0.167459    -0.372829
C        6.546977    -0.089636     0.997238
N        5.187766    -0.369675     1.254616
C        4.624651    -0.653699     2.519750
C        4.396001     0.540108     3.287666
C        4.774547     1.937636     2.755484
C        3.508809     2.743147     2.443447
C        5.656478     2.719320     3.744808
C        3.811234     0.435236     4.559746
C        3.454566    -0.804609     5.084821
C        3.683385    -1.965366     4.357753
C        4.271983    -1.923571     3.077256
C        4.496103    -3.262830     2.361369
C        3.188382    -3.732074     1.717342
C        5.690374    -3.408304     1.400528
C        4.578256    -0.121916     0.110548
Se       2.650000     0.000000     0.000000
Ag       0.000000     0.000000     0.000000
Se      -2.650000     0.000000     0.000000
C       -4.581176     0.042571    -0.033893
N       -5.242445     1.076274    -0.565343
C       -4.770274     2.353291    -0.917490
C       -4.415065     2.408185    -2.298830
C       -4.567632     1.182103    -3.211667
C       -3.187904     0.700849    -3.683172
C       -5.472822     1.454205    -4.421128
C       -3.916509     3.611530    -2.826924
C       -3.742226     4.726912    -2.009678
C       -4.081269     4.675242    -0.656940
C       -4.618117     3.499288    -0.099991
C       -5.034590     3.453382     1.371837
C       -3.815595     3.238776     2.265692
C       -5.843390     4.683211     1.814495
C       -6.551668     0.589196    -0.698805
C       -6.618280    -0.657268    -0.069639
N       -5.330828    -0.983501     0.376268
C       -4.894145    -2.120251     1.086365
C       -4.896226    -3.270755     0.219033
C       -5.343004    -3.198051    -1.252281
C       -4.124824    -3.424639    -2.151501
C       -6.465554    -4.194589    -1.589524
C       -4.474955    -4.511287     0.730066
C       -4.031457    -4.633615     2.038160
C       -4.027077    -3.532172     2.882531
C       -4.471762    -2.272054     2.440171
C       -4.490928    -1.099692     3.419891
C       -3.058236    -0.714859     3.805726
C       -5.316685    -1.428986     4.673592
H        2.305304    -1.840025    -2.101084
H        2.746897    -3.575259    -2.183048
H        2.419083    -2.644659    -3.701308
H        4.765538    -2.364316    -1.742727
H        4.725344    -3.187950    -4.688572
H        6.196584    -2.938666    -3.672232
H        5.014899    -4.234551    -3.256626
H        3.763574    -1.139182    -5.199940
H        4.066679     1.152808    -5.982800
H        4.951661     2.875912    -4.511344
H        5.945112     2.390655    -0.877950
H        4.240531     4.197644    -2.625321
H        3.699607     3.225781    -1.200086
H        4.907723     4.539460    -0.985274
H        7.771329     2.680412    -2.589819
H        6.732413     3.881751    -3.449994
H        7.286568     4.213348    -1.777080
H        7.550625     0.427851    -0.902483
H        7.330766    -0.066034     1.723982
H        5.324911     1.884563     1.802995
H        2.913495     2.230435     1.665545
H        2.876705     2.875413     3.344726
H        3.783200     3.743411     2.044587
H        6.585171     2.156938     3.973729
H        5.120128     2.922715     4.696755
H        5.939349     3.702061     3.310221
H        3.608793     1.311641     5.151220
H        2.993669    -0.860752     6.056683
H        3.388931    -2.916460     4.794701
H        4.743413    -3.990261     3.162536
H        2.891184    -3.043441     0.901186
H        2.377206    -3.758009     2.477507
H        3.302538    -4.757559     1.304604
H        5.809095    -4.480939     1.127161
H        6.626739    -3.074657     1.893365
H        5.554347    -2.883670     0.446694
H       -5.006860     0.327800    -2.665288
H       -2.675451     1.470223    -4.295590
H       -3.294089    -0.225836    -4.288265
H       -2.547442     0.460539    -2.812021
H       -6.481926     1.770143    -4.085228
H       -5.580078     0.530586    -5.030665
H       -5.044665     2.244999    -5.073019
H       -3.627632     3.680042    -3.868697
H       -3.337371     5.638030    -2.429044
H       -3.935112     5.562451    -0.057265
H       -5.700357     2.580065     1.537302
H       -3.131288     4.109405     2.225438
H       -4.145181     3.070335     3.313394
H       -3.264405     2.332432     1.938428
H       -6.187596     4.551289     2.863229
H       -5.228144     5.606080     1.780798
H       -6.736013     4.819437     1.167920
H       -7.361847     1.098972    -1.198943
H       -7.489170    -1.291280     0.007683
H       -5.696685    -2.208542    -1.554115
H       -3.361405    -2.645154    -1.937944
H       -4.417431    -3.330014    -3.220415
H       -3.676755    -4.425956    -1.991422
H       -6.763155    -4.089918    -2.655753
H       -6.141121    -5.244786    -1.434716
H       -7.359849    -4.000859    -0.960149
H       -4.444844    -5.388421     0.097917
H       -3.681268    -5.592752     2.396874
H       -3.670509    -3.672192     3.893284
H       -4.961407    -0.205594     2.968298
H       -3.067975     0.152130     4.499138
H       -2.532659    -1.559554     4.298209
H       -2.487803    -0.424630     2.900416
H       -5.346451    -0.549424     5.351042
H       -4.879387    -2.277873     5.240660
H       -6.359018    -1.689158     4.390921
133
ex_0398 frame2 linear-conf4
C        6.102724    -4.035356    -0.059341
C        4.768763    -3.919745     0.680037
C        3.619504    -3.572932    -0.269325
C        4.709528    -3.039884     1.946114
C        4.406411    -3.689576     3.155403
C        4.256456    -2.986561     4.335268
C        4.419889    -1.613262     4.355205
C        4.772288    -0.896832     3.192448
C        4.965148     0.624661     3.264762
C        6.459468     0.965609     3.318924
C        4.223170     1.294023     4.433034
C        4.947500    -1.610014     1.960468
N        5.360000    -0.875095     0.801269
C        6.651291    -0.912795     0.258393
C        6.691541    -0.021357    -0.832593
N        5.389708     0.530329    -0.972028
C        5.031269     1.473713    -1.978352
C        4.635032     2.840858    -1.643970
C        4.603203     3.301267    -0.194768
C        5.995064     3.815447     0.191409
C        3.524043     4.352185     0.099785
C        4.287484     3.713852    -2.673909
C        4.321651     3.332362    -4.007320
C        4.693590     2.060719    -4.356235
C        5.040516     1.115257    -3.388851
C        5.428502    -0.313471    -3.907501
C        6.924020    -0.612674    -4.059993
C        4.657778    -1.455284    -3.249636
C        4.594820    -0.125472    -0.057870
Se       2.650000     0.000000     0.000000
Ag       0.000000     0.000000     0.000000
Se      -2.650000     0.000000     0.000000
C       -4.581998     0.154265     0.068732
N       -5.336690     0.587230    -0.989920
C       -4.893362     1.141461    -2.214302
C       -4.656352     0.117938    -3.204630
C       -4.973085    -1.368993    -2.948948
C       -3.708325    -2.197282    -2.708920
C       -5.740156    -1.996894    -4.138168
C       -4.115930     0.488172    -4.451346
C       -3.866505     1.814389    -4.759093
C       -4.134019     2.808882    -3.834716
C       -4.670562     2.513492    -2.569213
C       -4.986647     3.696044    -1.638458
C       -6.502189     3.900159    -1.507323
C       -4.314863     3.706424    -0.265742
C       -6.672948     0.371584    -0.622003
C       -6.681985    -0.093491     0.702381
N       -5.351510    -0.235269     1.120253
C       -4.950890    -0.697717     2.396010
C       -5.009515    -2.137441     2.397822
C       -5.385014    -2.936495     1.145886
C       -4.172136    -3.752187     0.680552
C       -6.586680    -3.867430     1.386992
C       -4.714456    -2.839047     3.581014
C       -4.350971    -2.173008     4.737857
C       -4.250052    -0.791350     4.744558
C       -4.526716    -0.024970     3.595807
C       -4.355645     1.493910     3.700624
C       -3.130433     1.989340     2.929402
C       -5.623196     2.299195     3.391521
H        6.044071    -4.871652    -0.789185
H        6.923881    -4.255880     0.654798
H        6.330367    -3.153941    -0.669069
H        4.562226    -4.965588     1.006191
H        3.734942    -2.558960    -0.678674
H        3.582078    -4.294723    -1.113804
H        2.649591    -3.625430     0.270951
H        4.236739    -4.760876     3.185841
H        3.996719    -3.512424     5.245083
H        4.288960    -1.132672     5.309657
H        4.501070     1.101874     2.388938
H        6.603754     2.060822     3.432579
H        6.976389     0.648085     2.392479
H        6.935453     0.454301     4.184021
H        4.631207     0.997851     5.419560
H        3.141679     1.039276     4.379003
H        4.314428     2.397232     4.352120
H        7.481798    -1.507041     0.634803
H        7.557984     0.188006    -1.439539
H        4.349989     2.481867     0.482710
H        6.007160     4.124507     1.257872
H        6.271706     4.686860    -0.440138
H        6.753594     3.015392     0.050968
H        3.711596     5.309995    -0.424980
H        2.526440     3.959284    -0.194326
H        3.500213     4.577197     1.186555
H        3.992919     4.729531    -2.477055
H        4.052351     4.042094    -4.779770
H        4.702173     1.802115    -5.410222
H        5.082709    -0.325575    -4.970467
H        7.417843    -0.900531    -3.129077
H        7.058356    -1.490115    -4.727364
H        7.445586     0.252349    -4.522937
H        3.567174    -1.244232    -3.254342
H        4.834212    -2.401451    -3.805677
H        5.004873    -1.610754    -2.217385
H       -5.613968    -1.480747    -2.056139
H       -3.209706    -1.873592    -1.787611
H       -3.971301    -3.267281    -2.568405
H       -2.995024    -2.106069    -3.553584
H       -6.034516    -3.041692    -3.899974
H       -6.653795    -1.418670    -4.384529
H       -5.104872    -2.059075    -5.049696
H       -3.906676    -0.243207    -5.217902
H       -3.480288     2.079638    -5.736092
H       -3.953705     3.834495    -4.131600
H       -4.610828     4.606212    -2.155529
H       -6.969170     3.123781    -0.869342
H       -6.980420     3.877834    -2.510850
H       -6.706552     4.896494    -1.057556
H       -4.434301     4.703670     0.204712
H       -4.814770     3.013777     0.423804
H       -3.232963     3.474789    -0.352774
H       -7.535398     0.525165    -1.253662
H       -7.556660    -0.363321     1.275561
H       -5.637092    -2.277929     0.300668
H       -3.852473    -4.483455     1.452213
H       -4.415117    -4.306382    -0.250634
H       -3.322538    -3.069551     0.467398
H       -6.353560    -4.644558     2.146307
H       -7.469145    -3.288915     1.729982
H       -6.854564    -4.394576     0.445800
H       -4.764896    -3.919697     3.614423
H       -4.136055    -2.736009     5.637807
H       -3.951281    -0.313114     5.668970
H       -4.104602     1.731631     4.758873
H       -3.265535     1.960578     1.850118
H       -2.915771     3.045340     3.189417
H       -2.242068     1.375730     3.197410
H       -6.425178     2.028492     4.110153
H       -5.994290     2.137034     2.364731
H       -5.410389     3.384246     3.503119
133
ex_0398 frame3 linear
C        2.964159    -0.697006    -3.690930
C        4.280917     0.021531    -4.000759
C        5.509183    -0.876819    -3.781777
C        4.310613     1.412035    -3.352747
C        3.882515     2.503746    -4.129650
C        3.845416     3.791224    -3.614666
C        4.228036     4.032746    -2.306018
C        4.679560     2.991705    -1.476846
C        5.084485     3.324641    -0.027508
C        3.840593     3.654299     0.802463
C        6.097402     4.483775     0.053713
C        4.729556     1.647510    -2.002255
N        5.206483     0.726953    -1.036103
C        6.557622     0.615821    -0.653141
C        6.624673    -0.354910     0.339552
N        5.319350    -0.835490     0.542723
C        5.022696    -1.828169     1.508532
C        4.846186    -3.222596     1.312364
C        4.982217    -3.829714    -0.085321
C        3.646223    -3.844362    -0.828735
C        5.605597    -5.237323    -0.070605
C        4.544185    -4.038758     2.422336
C        4.471204    -3.500253     3.703691
C        4.649291    -2.137857     3.905894
C        4.904846    -1.278139     2.824338
C        5.051384     0.226386     3.077364
C        3.819370     0.794258     3.801917
C        6.324463     0.533175     3.874920
C        4.571410    -0.039326    -0.181995
Se       2.650000     0.000000     0.000000
Ag       0.000000     0.000000     0.000000
Se      -2.650000     0.000000     0.000000
C       -4.557698     0.064850     0.189933
N       -5.437825    -0.411549    -0.753978
C       -5.189593    -1.186104    -1.937040
C       -4.782248    -2.560056    -1.968977
C       -4.565743    -3.359600    -0.689808
C       -3.096099    -3.782999    -0.560754
C       -5.490657    -4.583811    -0.645004
C       -4.576335    -3.189136    -3.209551
C       -4.798237    -2.523935    -4.404145
C       -5.212091    -1.201825    -4.401386
C       -5.365389    -0.488438    -3.196289
C       -5.716099     1.014936    -3.261954
C       -7.200544     1.371519    -3.431392
C       -4.939104     1.719946    -4.401361
C       -6.712440     0.030801    -0.326706
C       -6.569381     0.658913     0.918120
N       -5.205632     0.643427     1.248222
C       -4.637371     1.142168     2.463329
C       -4.228009     0.393278     3.613907
C       -4.388859    -1.128886     3.754554
C       -3.312036    -1.950383     3.040721
C       -5.812708    -1.627156     3.461887
C       -3.635362     1.080602     4.701548
C       -3.473745     2.454620     4.684381
C       -3.889111     3.195328     3.597050
C       -4.486205     2.581546     2.475113
C       -4.930315     3.538461     1.340926
C       -4.604274     3.128024    -0.091297
C       -6.377636     4.027604     1.509295
H        2.878230    -0.960839    -2.626392
H        2.107225    -0.041432    -3.963618
H        2.884503    -1.629483    -4.287537
H        4.251221     0.190548    -5.100047
H        5.590026    -1.264367    -2.752813
H        6.439788    -0.334774    -4.046267
H        5.425676    -1.773563    -4.432068
H        3.563197     2.356889    -5.153296
H        3.509266     4.611388    -4.236732
H        4.169463     5.049678    -1.941907
H        5.535671     2.471604     0.490327
H        3.302431     4.536016     0.399492
H        4.129051     3.855376     1.857455
H        3.154642     2.782687     0.804169
H        5.663073     5.434719    -0.321777
H        7.010746     4.252594    -0.532071
H        6.393583     4.659180     1.110844
H        7.367387     1.189242    -1.043192
H        7.496185    -0.674634     0.862866
H        5.694321    -3.201726    -0.663457
H        2.909075    -4.477288    -0.292105
H        3.236045    -2.820092    -0.910849
H        3.787789    -4.237578    -1.857710
H        5.795979    -5.577250    -1.110442
H        4.929196    -5.982682     0.396794
H        6.573275    -5.226276     0.475028
H        4.409333    -5.104401     2.326021
H        4.280628    -4.146654     4.551245
H        4.585482    -1.755116     4.916565
H        5.123634     0.779354     2.123715
H        3.704032     0.353892     4.814899
H        3.918785     1.894377     3.921996
H        2.898537     0.588376     3.217135
H        7.216822     0.171759     3.323197
H        6.302255     0.050989     4.874312
H        6.430052     1.631439     4.012520
H       -4.819453    -2.767970     0.200193
H       -2.432929    -2.897618    -0.650438
H       -2.813578    -4.511006    -1.350022
H       -2.920607    -4.248130     0.431813
H       -6.550216    -4.259328    -0.722368
H       -5.355978    -5.126510     0.314269
H       -5.273732    -5.288588    -1.474990
H       -4.252697    -4.220792    -3.261869
H       -4.637234    -3.032707    -5.347399
H       -5.343361    -0.728635    -5.362936
H       -5.334517     1.473918    -2.343045
H       -7.622429     0.901406    -4.341013
H       -7.812860     1.077961    -2.573353
H       -7.311868     2.475974    -3.507669
H       -5.331329     1.436347    -5.402547
H       -3.854538     1.489950    -4.358898
H       -5.061215     2.822522    -4.328223
H       -7.625067    -0.059299    -0.878226
H       -7.354155     1.147599     1.479896
H       -4.221025    -1.360782     4.828758
H       -3.408390    -3.018664     3.328183
H       -2.304506    -1.597689     3.351100
H       -3.380372    -1.906833     1.950129
H       -6.067175    -1.578263     2.388851
H       -5.903084    -2.692085     3.761798
H       -6.551136    -1.034472     4.041985
H       -3.309324     0.546647     5.581939
H       -3.028657     2.960982     5.534829
H       -3.756974     4.272319     3.632583
H       -4.336467     4.471410     1.473302
H       -4.831234     3.965209    -0.786683
H       -5.227945     2.293372    -0.403369
H       -3.531909     2.870013    -0.194009
H       -6.600816     4.827499     0.771082
H       -6.516636     4.458513     2.523598
H       -7.125183     3.238172     1.364110
133
ex_0398 frame4 linear-conf2
C        6.461980    -4.123553    -0.210403
C        4.969518    -3.799865    -0.390218
C        4.350219    -3.141063     0.843208
C        4.556634    -3.173650    -1.750979
C        4.035664    -4.054134    -2.713772
C        3.620652    -3.616839    -3.952910
C        3.716166    -2.280718    -4.286493
C        4.239234    -1.330235    -3.394288
C        4.314056     0.125293    -3.883119
C        3.107231     0.978009    -3.479860
C        5.662053     0.821663    -3.649756
C        4.663465    -1.759656    -2.085011
N        5.186268    -0.895311    -1.073380
C        6.536215    -0.864129    -0.680366
C        6.661783     0.090266     0.330960
N        5.383840     0.648125     0.556705
C        5.125906     1.673079     1.544404
C        4.645339     2.995462     1.250646
C        4.388480     3.449625    -0.191104
C        5.656970     4.154099    -0.668734
C        3.145439     4.339046    -0.386004
C        4.405088     3.893923     2.310835
C        4.645114     3.522291     3.620871
C        5.126246     2.262191     3.925462
C        5.379041     1.314514     2.922325
C        5.915013    -0.065520     3.334571
C        7.355220     0.047237     3.856245
C        5.032073    -0.724073     4.417655
C        4.558751    -0.098869    -0.197056
Se       2.650000     0.000000     0.000000
Ag       0.000000     0.000000     0.000000
Se      -2.650000     0.000000     0.000000
C       -4.536760    -0.011890     0.039721
N       -5.265334    -1.146421    -0.152691
C       -4.829620    -2.499997    -0.222611
C       -4.733352    -3.108974    -1.536217
C       -5.062740    -2.391559    -2.873311
C       -4.000400    -1.351484    -3.230783
C       -6.473891    -1.832719    -3.099507
C       -4.311508    -4.449136    -1.622410
C       -3.956131    -5.172501    -0.496518
C       -4.038561    -4.599807     0.761840
C       -4.485109    -3.277537     0.930512
C       -4.595389    -2.691443     2.345110
C       -5.941805    -3.100810     2.936363
C       -3.423929    -3.048284     3.272952
C       -6.605796    -0.721447    -0.278517
C       -6.638896     0.650544    -0.005314
N       -5.318543     1.075782     0.190047
C       -4.962157     2.404354     0.484928
C       -4.870117     3.154712    -0.735996
C       -5.089606     2.492789    -2.102803
C       -6.462614     2.852686    -2.678995
C       -3.989727     2.863987    -3.119354
C       -4.571672     4.528532    -0.675405
C       -4.330293     5.152653     0.538632
C       -4.382010     4.429428     1.722279
C       -4.705959     3.061177     1.730664
C       -4.767519     2.342000     3.084450
C       -3.548653     1.459174     3.366032
C       -6.089078     1.593669     3.321965
H        6.585854    -4.831139     0.639012
H        7.087098    -3.267174     0.054810
H        6.860461    -4.622958    -1.120045
H        4.528485    -4.822611    -0.396207
H        4.571875    -3.752386     1.746766
H        3.248232    -3.081342     0.729132
H        4.757720    -2.132659     1.014195
H        3.940022    -5.112643    -2.497096
H        3.223089    -4.327787    -4.666069
H        3.383813    -1.986307    -5.272608
H        4.225256     0.071540    -4.991983
H        2.166777     0.457050    -3.762920
H        3.077143     1.198982    -2.410155
H        3.137078     1.949448    -4.014855
H        5.682189     1.782593    -4.205474
H        5.844984     1.073296    -2.592706
H        6.490741     0.182545    -4.021276
H        7.332974    -1.472765    -1.084507
H        7.571086     0.347759     0.844227
H        4.234037     2.608247    -0.878726
H        6.512057     3.445182    -0.597543
H        5.872558     5.038743    -0.035897
H        5.555033     4.465281    -1.728391
H        3.024434     4.581170    -1.464899
H        3.239032     5.298298     0.159213
H        2.231799     3.806824    -0.044557
H        4.071829     4.897678     2.152556
H        4.468107     4.225980     4.421718
H        5.323259     2.040550     4.965253
H        5.906502    -0.768561     2.490905
H        7.741552    -0.966633     4.098981
H        7.408738     0.676532     4.762359
H        8.016017     0.483697     3.085153
H        5.039536    -0.145755     5.370660
H        3.977387    -0.816194     4.067189
H        5.408147    -1.745044     4.647741
H       -4.976451    -3.165140    -3.668626
H       -2.997271    -1.829302    -3.257719
H       -4.200975    -0.927985    -4.240465
H       -3.988606    -0.526182    -2.500375
H       -6.624904    -1.640544    -4.183343
H       -7.246354    -2.557319    -2.768812
H       -6.610369    -0.838565    -2.651226
H       -4.220356    -4.936794    -2.584590
H       -3.608776    -6.191651    -0.604149
H       -3.760426    -5.211497     1.606560
H       -4.618220    -1.598630     2.342527
H       -6.077815    -2.634996     3.935276
H       -6.757931    -2.730652     2.275517
H       -6.019708    -4.203129     3.024328
H       -2.463788    -2.715913     2.823987
H       -3.377260    -4.136221     3.479686
H       -3.549506    -2.531741     4.248771
H       -7.452655    -1.344554    -0.525433
H       -7.495167     1.302067    -0.104812
H       -5.062804     1.394259    -1.994657
H       -6.561292     3.946145    -2.833588
H       -6.611230     2.331812    -3.650245
H       -7.266867     2.518035    -1.996944
H       -4.023002     3.944252    -3.379157
H       -2.981631     2.624688    -2.721866
H       -4.137530     2.303017    -4.066965
H       -4.521708     5.130833    -1.571500
H       -4.100409     6.210297     0.563815
H       -4.195464     4.956467     2.649645
H       -4.728257     3.128652     3.869658
H       -3.483443     0.595503     2.692596
H       -2.619838     2.061007     3.265720
H       -3.597176     1.068788     4.404835
H       -6.138703     1.248029     4.375987
H       -6.186099     0.688337     2.696131
H       -6.952225     2.265719     3.131673
133
ex_0398 frame5 linear-conf3
C        6.492950     2.018627    -3.253652
C        5.013254     2.409495    -3.160927
C        4.098120     1.250002    -3.537697
C        4.697426     3.150906    -1.845750
C        4.246274     4.476794    -1.961328
C        3.984559     5.253487    -0.853523
C        4.140925     4.730659     0.414437
C        4.549671     3.403231     0.633801
C        4.653449     2.958224     2.119856
C        3.447384     2.151057     2.599344
C        5.964456     2.348590     2.615898
C        4.841098     2.567219    -0.527203
N        5.253015     1.220113    -0.296543
C        6.580936     0.865171    -0.020629
C        6.625938    -0.525988     0.130210
N        5.306838    -1.005535    -0.013086
C        5.006098    -2.389160     0.132537
C        4.893740    -3.429552    -0.847580
C        5.099799    -3.187760    -2.341274
C        3.887466    -2.534882    -2.994245
C        6.424420    -2.475183    -2.663647
C        4.580573    -4.733959    -0.428119
C        4.407832    -5.040552     0.913926
C        4.511471    -4.047844     1.877371
C        4.805013    -2.717618     1.519846
C        4.902744    -1.654899     2.615823
C        6.252760    -1.763480     3.332795
C        3.761903    -1.738410     3.650044
C        4.555837     0.097057    -0.114674
Se       2.650000     0.000000     0.000000
Ag       0.000000     0.000000     0.000000
Se      -2.650000     0.000000     0.000000
C       -4.577072    -0.010414    -0.016040
N       -5.290733    -0.965593    -0.617120
C       -4.843666    -1.961395    -1.488276
C       -4.738081    -3.184016    -0.730524
C       -5.047926    -3.235067     0.801487
C       -6.408690    -3.874396     1.087469
C       -3.952910    -3.994212     1.567332
C       -4.348646    -4.350506    -1.385910
C       -3.965452    -4.317304    -2.738965
C       -4.032584    -3.125655    -3.461235
C       -4.514010    -1.946116    -2.861718
C       -4.678863    -0.670977    -3.675827
C       -3.344305     0.057747    -3.846855
C       -5.346022    -0.921610    -5.035205
C       -6.601748    -0.753237    -0.181748
C       -6.588291     0.359575     0.667838
N       -5.304948     0.908457     0.657005
C       -4.991955     2.156704     1.258768
C       -5.071911     3.446483     0.653310
C       -5.580337     3.577103    -0.772927
C       -4.439920     3.814970    -1.749676
C       -6.667017     4.656394    -0.875948
C       -4.673553     4.574451     1.401308
C       -4.284954     4.440967     2.731468
C       -4.237119     3.191447     3.344846
C       -4.561571     2.029933     2.623360
C       -4.455314     0.648553     3.290228
C       -5.708625     0.333404     4.107915
C       -3.197856     0.497816     4.168036
H        6.721119     1.640767    -4.273356
H        7.132339     2.907085    -3.062393
H        6.755531     1.220989    -2.537454
H        4.854230     3.141532    -3.982576
H        4.276803     0.955984    -4.593237
H        3.030602     1.531634    -3.421844
H        4.331066     0.367085    -2.957258
H        4.130921     4.938361    -2.932825
H        3.667906     6.280279    -0.978513
H        3.927620     5.390037     1.246453
H        4.570376     3.897389     2.708781
H        3.465367     1.132491     2.205922
H        3.464493     2.065088     3.708049
H        2.501756     2.660030     2.311916
H        6.834438     2.947255     2.278098
H        6.064607     1.292880     2.329252
H        5.965185     2.327978     3.726770
H        7.412828     1.536632     0.052404
H        7.497715    -1.124838     0.340771
H        5.188516    -4.182206    -2.833960
H        4.068503    -2.382400    -4.079432
H        3.638996    -1.580509    -2.516655
H        3.003960    -3.197404    -2.876126
H        7.271064    -2.992503    -2.161587
H        6.421780    -1.409974    -2.377465
H        6.605202    -2.499940    -3.758662
H        4.510548    -5.540232    -1.147786
H        4.196619    -6.062314     1.207431
H        4.385235    -4.340154     2.908775
H        4.852774    -0.653900     2.160890
H        6.367165    -2.747797     3.831830
H        6.344476    -0.956717     4.091034
H        7.085573    -1.639281     2.614508
H        3.845263    -0.901194     4.375329
H        2.770736    -1.683902     3.156134
H        3.817012    -2.678105     4.241368
H       -5.049267    -2.211116     1.186313
H       -6.607931    -3.808377     2.177286
H       -6.441827    -4.934093     0.767665
H       -7.225286    -3.341151     0.573465
H       -3.953375    -5.078565     1.318813
H       -4.147001    -3.914381     2.656797
H       -2.946284    -3.578624     1.353616
H       -4.247727    -5.300138    -0.875136
H       -3.628034    -5.227635    -3.230154
H       -3.758094    -3.153462    -4.505379
H       -5.342915     0.019145    -3.119848
H       -2.865648     0.210567    -2.859492
H       -2.651572    -0.515936    -4.495132
H       -3.526723     1.060973    -4.289096
H       -4.693267    -1.522816    -5.703638
H       -5.539703     0.043534    -5.547510
H       -6.311192    -1.454373    -4.905970
H       -7.415037    -1.429024    -0.321926
H       -7.427782     0.752543     1.222123
H       -6.067141     2.626321    -1.089354
H       -3.719234     2.969837    -1.687820
H       -3.913593     4.762737    -1.520716
H       -4.838131     3.848409    -2.785751
H       -6.254105     5.665695    -0.671630
H       -7.490284     4.454033    -0.156792
H       -7.093752     4.669552    -1.900645
H       -4.727307     5.554137     0.968820
H       -4.026231     5.325498     3.298153
H       -3.928588     3.145009     4.377633
H       -4.380837    -0.133897     2.505004
H       -5.632995    -0.688595     4.538838
H       -6.606251     0.354201     3.459300
H       -5.844310     1.066273     4.928972
H       -3.121733    -0.542862     4.550216
H       -3.241229     1.163075     5.056201
H       -2.280526     0.727450     3.587479
133
ex_0398 frame6 trans-LIN Se0+Se0
C        2.964159    -0.697006    -3.690930
C        4.280917     0.021531    -4.000759
C        5.509183    -0.876819    -3.781777
C        4.304002     1.411091    -3.350495
C        3.882515     2.503746    -4.129650
C        3.845416     3.791224    -3.614666
C        4.228036     4.032746    -2.306018
C        4.673028     2.990601    -1.474734
C        5.084485     3.324641    -0.027508
C        3.840593     3.654299     0.802463
C        6.097402     4.483775     0.053713
C        4.719669     1.645871    -1.998930
N        5.203002     0.753610    -1.009337
C        6.558972     0.605625    -0.663292
C        6.626596    -0.369432     0.325094
N        5.316086    -0.809780     0.567802
C        5.022820    -1.828187     1.508551
C        4.846228    -3.222602     1.312371
C        4.982217    -3.829714    -0.085321
C        3.646223    -3.844362    -0.828735
C        5.605597    -5.237323    -0.070605
C        4.544185    -4.038758     2.422336
C        4.471204    -3.500253     3.703691
C        4.649291    -2.137857     3.905894
C        4.904888    -1.278144     2.824344
C        5.051384     0.226386     3.077364
C        3.819370     0.794258     3.801917
C        6.324463     0.533175     3.874920
C        4.584163    -0.020478    -0.163974
Se       2.650000     0.000000     0.000000
Ag       0.000000     0.000000     0.000000
Se      -2.650000     0.000000     0.000000
C       -4.557802     0.084449     0.179618
N       -5.436884    -0.404013    -0.758782
C       -5.185580    -1.184929    -1.936963
C       -4.780878    -2.559653    -1.968956
C       -4.565743    -3.359600    -0.689808
C       -3.096099    -3.782999    -0.560754
C       -5.490657    -4.583811    -0.645004
C       -4.576335    -3.189136    -3.209551
C       -4.798237    -2.523935    -4.404145
C       -5.212091    -1.201825    -4.401386
C       -5.364002    -0.488114    -3.196306
C       -5.716099     1.014936    -3.261954
C       -7.200544     1.371519    -3.431392
C       -4.939104     1.719946    -4.401361
C       -6.712440     0.030801    -0.326706
C       -6.569381     0.658913     0.918120
N       -5.204923     0.649485     1.245441
C       -4.638426     1.142276     2.463776
C       -4.228372     0.393331     3.614071
C       -4.388859    -1.128886     3.754554
C       -3.312036    -1.950383     3.040721
C       -5.812708    -1.627156     3.461887
C       -3.635362     1.080602     4.701548
C       -3.473745     2.454620     4.684381
C       -3.889111     3.195328     3.597050
C       -4.486569     2.581583     2.475287
C       -4.930315     3.538461     1.340926
C       -4.604274     3.128024    -0.091297
C       -6.377636     4.027604     1.509295
H        2.878230    -0.960839    -2.626392
H        2.107225    -0.041432    -3.963618
H        2.884503    -1.629483    -4.287537
H        4.251221     0.190548    -5.100047
H        5.590026    -1.264367    -2.752813
H        6.439788    -0.334774    -4.046267
H        5.425676    -1.773563    -4.432068
H        3.563197     2.356889    -5.153296
H        3.509266     4.611388    -4.236732
H        4.169463     5.049678    -1.941907
H        5.535671     2.471604     0.490327
H        3.302431     4.536016     0.399492
H        4.129051     3.855376     1.857455
H        3.154642     2.782687     0.804169
H        5.663073     5.434719    -0.321777
H        7.010746     4.252594    -0.532071
H        6.393583     4.659180     1.110844
H        7.392666     1.140659    -1.089822
H        7.522798    -0.728617     0.805072
H        5.694321    -3.201726    -0.663457
H        2.909075    -4.477288    -0.292105
H        3.236045    -2.820092    -0.910849
H        3.787789    -4.237578    -1.857710
H        5.795979    -5.577250    -1.110442
H        4.929196    -5.982682     0.396794
H        6.573275    -5.226276     0.475028
H        4.409333    -5.104401     2.326021
H        4.280628    -4.146654     4.551245
H        4.585482    -1.755116     4.916565
H        5.123634     0.779354     2.123715
H        3.704032     0.353892     4.814899
H        3.918785     1.894377     3.921996
H        2.898537     0.588376     3.217135
H        7.216822     0.171759     3.323197
H        6.302255     0.050989     4.874312
H        6.430052     1.631439     4.012520
H       -4.819453    -2.767970     0.200193
H       -2.432929    -2.897618    -0.650438
H       -2.813578    -4.511006    -1.350022
H       -2.920607    -4.248130     0.431813
H       -6.550216    -4.259328    -0.722368
H       -5.355978    -5.126510     0.314269
H       -5.273732    -5.288588    -1.474990
H       -4.252697    -4.220792    -3.261869
H       -4.637234    -3.032707    -5.347399
H       -5.343361    -0.728635    -5.362936
H       -5.334517     1.473918    -2.343045
H       -7.622429     0.901406    -4.341013
H       -7.812860     1.077961    -2.573353
H       -7.311868     2.475974    -3.507669
H       -5.331329     1.436347    -5.402547
H       -3.854538     1.489950    -4.358898
H       -5.061215     2.822522    -4.328223
H       -7.640273    -0.121262    -0.858122
H       -7.354155     1.147599     1.479896
H       -4.221025    -1.360782     4.828758
H       -3.408390    -3.018664     3.328183
H       -2.304506    -1.597689     3.351100
H       -3.380372    -1.906833     1.950129
H       -6.067175    -1.578263     2.388851
H       -5.903084    -2.692085     3.761798
H       -6.551136    -1.034472     4.041985
H       -3.309324     0.546647     5.581939
H       -3.028657     2.960982     5.534829
H       -3.756974     4.272319     3.632583
H       -4.336467     4.471410     1.473302
H       -4.831234     3.965209    -0.786683
H       -5.227945     2.293372    -0.403369
H       -3.531909     2.870013    -0.194009
H       -6.600816     4.827499     0.771082
H       -6.516636     4.458513     2.523598
H       -7.125183     3.238172     1.364110
133
ex_0398 frame7 linear-2
C       -1.551309     4.014896     3.022232
C       -0.982181     2.945555     2.077438
C       -1.436630     3.210373     0.641183
C        0.523033     3.000806     2.109848
C        1.212971     3.792761     1.210145
C        2.586638     3.850126     1.195894
C        3.309218     3.110413     2.115950
C        2.649516     2.310834     3.049039
C        3.437482     1.501180     4.066118
C        3.817153     0.157827     3.464614
C        4.723592     2.191964     4.506609
C        1.244071     2.268909     3.045943
N        0.526336     1.498951     3.968007
C        0.252460     1.928483     5.272924
C       -0.505994     0.935818     5.898213
N       -0.675104    -0.112853     4.981615
C       -1.411409    -1.296951     5.313595
C       -2.732248    -1.465811     4.843437
C       -3.399981    -0.438475     3.979177
C       -3.390853    -0.959222     2.536476
C       -4.852873    -0.224413     4.408892
C       -3.435986    -2.610810     5.187040
C       -2.881757    -3.582624     5.981095
C       -1.589706    -3.431459     6.424243
C       -0.834594    -2.305702     6.116966
C        0.569553    -2.234014     6.668659
C        0.580890    -1.450367     7.979807
C        1.653971    -1.853025     5.678639
C       -0.012455     0.232617     3.794258
Se       0.122171    -0.779738     2.301607
Ag       0.707900    -0.013936    -0.166787
Se      -0.815983     0.207367    -2.323476
C       -0.545710    -0.600609    -3.934148
N       -1.560071    -1.087721    -4.747649
C       -2.959190    -1.043282    -4.533404
C       -3.645143     0.055072    -5.112405
C       -2.902254     1.087829    -5.891080
C       -2.924698     0.619186    -7.337773
C       -3.564170     2.461096    -5.759772
C       -5.031147     0.172393    -4.952679
C       -5.727629    -0.780082    -4.230946
C       -5.063229    -1.849699    -3.677902
C       -3.683785    -1.999437    -3.804703
C       -3.047802    -3.197448    -3.140820
C       -2.667711    -2.839642    -1.719721
C       -1.912150    -3.930041    -3.831596
C       -0.988063    -1.674354    -5.894802
C        0.435592    -1.508477    -5.845413
N        0.672589    -0.835468    -4.589279
C        2.006517    -0.497218    -4.166733
C        2.817663    -1.472546    -3.571107
C        2.353096    -2.882319    -3.347018
C        1.869560    -3.111185    -1.912770
C        3.552765    -3.785949    -3.632274
C        4.108558    -1.117634    -3.170827
C        4.607396     0.131309    -3.388412
C        3.804121     1.079422    -3.943624
C        2.506831     0.788759    -4.355192
C        1.688176     1.877576    -4.991188
C        1.059176     2.762866    -3.904155
C        2.638511     2.731140    -5.840312
H       -0.737976     4.655824     3.434926
H       -2.243748     4.686110     2.477432
H       -2.131902     3.556951     3.843217
H       -1.351858     1.935548     2.361697
H       -0.700829     2.815858    -0.093405
H       -1.494000     4.309310     0.472593
H       -2.392753     2.715834     0.450931
H        0.706251     4.395878     0.475825
H        3.072518     4.473727     0.473487
H        4.373180     3.198730     2.071548
H        2.812952     1.314101     4.965371
H        3.109331    -0.148263     2.666536
H        3.849016    -0.595945     4.274366
H        4.836123     0.222389     3.033536
H        5.407279     2.294294     3.632546
H        5.228588     1.524799     5.220399
H        4.534968     3.183309     4.963895
H        0.528622     2.886781     5.672184
H       -0.913728     0.965139     6.876576
H       -2.901169     0.546723     4.080731
H       -3.033897    -0.182675     1.843458
H       -4.407395    -1.262398     2.221371
H       -2.756576    -1.868363     2.423942
H       -5.488116    -1.105038     4.136930
H       -4.942111     0.004698     5.491372
H       -5.229496     0.618749     3.823835
H       -4.445396    -2.760083     4.865336
H       -3.463158    -4.444425     6.255200
H       -1.181167    -4.201586     7.055030
H        0.807469    -3.287662     6.942505
H        1.187841    -1.987044     8.731280
H       -0.451861    -1.340298     8.385557
H        1.009727    -0.443785     7.844501
H        1.834364    -0.756516     5.687872
H        2.600911    -2.340236     5.955992
H        1.360299    -2.226772     4.675327
H       -1.856028     1.154542    -5.519296
H       -1.995262     0.917352    -7.848405
H       -3.103461    -0.477639    -7.409431
H       -3.787730     1.067218    -7.849894
H       -4.087017     2.536275    -4.782306
H       -2.821474     3.258890    -5.867753
H       -4.354070     2.593987    -6.530731
H       -5.566751     0.987924    -5.384333
H       -6.787144    -0.681735    -4.109869
H       -5.631439    -2.573262    -3.123102
H       -3.873421    -3.944650    -3.078781
H       -1.573380    -2.691690    -1.650416
H       -3.173311    -1.896505    -1.429614
H       -2.981068    -3.653203    -1.038479
H       -0.920882    -3.440417    -3.670734
H       -2.154694    -4.071800    -4.897855
H       -1.842219    -4.916426    -3.353437
H       -1.542404    -2.112574    -6.700581
H        1.125537    -1.797285    -6.515279
H        1.591646    -3.167748    -4.102182
H        0.765200    -3.087483    -1.853732
H        2.315344    -2.369000    -1.208814
H        2.213440    -4.102526    -1.569386
H        4.144770    -3.333955    -4.457582
H        4.198134    -3.890685    -2.722325
H        3.212121    -4.778563    -3.941472
H        4.771340    -1.835258    -2.743016
H        5.624142     0.366892    -3.129707
H        4.225515     2.041564    -4.096458
H        0.938771     1.435959    -5.687034
H        1.366198     2.413327    -2.890556
H       -0.038957     2.776452    -3.980026
H        1.402499     3.813154    -3.991079
H        3.136575     3.493691    -5.192726
H        3.446567     2.102469    -6.287637
H        2.072750     3.255074    -6.613310
133
ex_0398 frame8 linear-1
C        1.166755    -4.071140    -0.368417
C        2.705304    -4.100580    -0.286506
C        3.229536    -5.132987    -1.266005
C        3.305540    -2.729695    -0.686427
C        3.427434    -2.406198    -2.025210
C        4.008701    -1.226029    -2.413361
C        4.402084    -0.315137    -1.478454
C        4.301138    -0.569351    -0.113865
C        4.794117     0.460301     0.877139
C        3.737821     1.571781     1.076301
C        6.094760     1.042604     0.321441
C        3.742612    -1.805372     0.291773
N        3.631469    -2.098594     1.700900
C        4.766989    -2.525840     2.476696
C        4.315031    -2.718515     3.820372
N        2.921373    -2.391391     3.840133
C        2.144873    -2.442402     5.048178
C        2.034787    -1.263657     5.785309
C        2.692531     0.000955     5.324039
C        1.688470     0.893710     4.548791
C        3.205984     0.698898     6.579562
C        1.291574    -1.287709     6.973317
C        0.719507    -2.433863     7.465828
C        0.806022    -3.591499     6.747517
C        1.477673    -3.638499     5.565125
C        1.507272    -5.007354     4.789792
C        0.225142    -5.158463     3.980075
C        2.743481    -5.412073     3.924949
C        2.494388    -2.038827     2.537593
Se       0.813767    -1.606864     2.091376
Ag      -0.425571     0.082971     0.469340
Se      -1.137328     2.286492    -0.819223
C       -2.354007     2.738875    -2.076104
N       -2.311311     3.896189    -2.875263
C       -1.323998     4.939621    -2.858323
C       -0.122966     4.815855    -3.591769
C        0.166176     3.577858    -4.424636
C        1.086023     2.575524    -3.670074
C        0.828814     4.024156    -5.720535
C        0.815463     5.866790    -3.541450
C        0.566362     7.010831    -2.835411
C       -0.581498     7.115266    -2.105553
C       -1.571060     6.111231    -2.105915
C       -2.839349     6.293188    -1.329272
C       -2.707604     5.738220     0.097123
C       -3.174455     7.783124    -1.315876
C       -3.441783     3.937699    -3.787636
C       -4.239930     2.769679    -3.505124
N       -3.516453     2.034778    -2.460609
C       -3.996350     0.797877    -1.966000
C       -3.740610    -0.390279    -2.702147
C       -2.930459    -0.347420    -4.001250
C       -1.468419    -0.729148    -3.762842
C       -3.565859    -1.311388    -5.010836
C       -4.244630    -1.602251    -2.215552
C       -4.994385    -1.656458    -1.059830
C       -5.209415    -0.522827    -0.324951
C       -4.738655     0.714427    -0.756857
C       -5.030872     1.943480     0.075986
C       -4.128974     1.977310     1.309690
C       -6.533259     1.867337     0.526053
H        0.816956    -3.067743    -0.711838
H        0.711125    -4.311577     0.586041
H        0.789111    -4.827347    -1.110274
H        3.080322    -4.346387     0.714746
H        2.658818    -5.079988    -2.236805
H        4.302688    -4.946648    -1.515657
H        3.049573    -6.106909    -0.824004
H        3.156152    -3.078735    -2.782877
H        4.158413    -1.011588    -3.449686
H        4.843615     0.574332    -1.825272
H        5.007086    -0.046888     1.841112
H        4.039746     2.485029     0.524297
H        2.741891     1.302400     0.642535
H        3.658835     1.796889     2.122267
H        6.646119     0.278696    -0.272502
H        5.863098     1.867111    -0.401024
H        6.709510     1.450885     1.115405
H        5.723541    -2.571245     2.131236
H        4.868114    -2.950346     4.657111
H        3.567111    -0.234317     4.684543
H        1.921064     0.881854     3.485866
H        0.625355     0.518645     4.682317
H        1.735410     1.906201     4.934673
H        3.516560    -0.043155     7.344318
H        2.374677     1.304915     6.996478
H        4.053940     1.344078     6.335081
H        1.214460    -0.418887     7.587441
H        0.220899    -2.403426     8.393047
H        0.345580    -4.467879     7.116369
H        1.467798    -5.747790     5.584208
H        0.060412    -4.265485     3.314684
H       -0.629274    -5.298734     4.674789
H        0.342510    -6.039450     3.364069
H        2.565591    -6.440993     3.743236
H        3.632637    -5.274623     4.531349
H        2.709431    -4.858027     2.967516
H       -0.804887     3.131010    -4.662389
H        2.032737     2.515264    -4.170980
H        0.611651     1.584845    -3.700445
H        1.273785     2.887706    -2.615874
H        0.322777     4.920792    -6.147496
H        0.785023     3.176570    -6.393179
H        1.912490     4.275681    -5.533918
H        1.715141     5.830346    -4.101832
H        1.266376     7.825912    -2.844306
H       -0.717458     8.018966    -1.574607
H       -3.672144     5.775173    -1.868043
H       -2.894422     6.544963     0.841835
H       -3.445193     4.956314     0.255229
H       -1.682166     5.309416     0.301013
H       -4.227300     7.918905    -1.140890
H       -2.577600     8.271939    -0.512933
H       -2.887986     8.224615    -2.290955
H       -3.632859     4.666502    -4.450422
H       -5.070196     2.449743    -3.944675
H       -2.993628     0.663022    -4.428282
H       -1.012129    -0.026841    -3.034603
H       -0.951204    -0.642637    -4.724474
H       -1.396421    -1.767822    -3.408956
H       -3.116410    -1.101133    -5.958487
H       -3.324187    -2.375230    -4.721890
H       -4.666583    -1.171554    -5.043642
H       -4.097465    -2.492760    -2.754593
H       -5.409792    -2.585453    -0.735746
H       -5.809739    -0.602508     0.547263
H       -4.894497     2.859337    -0.527066
H       -4.705562     2.202848     2.215399
H       -3.603147     0.998766     1.448815
H       -3.387368     2.773300     1.174142
H       -6.943258     2.866184     0.605966
H       -6.613558     1.329731     1.520385
H       -7.109074     1.278711    -0.208836
133
ex_0398 frame9 linear-conf6
C        3.486500    -3.627282    -0.710166
C        4.817004    -3.433659     0.021528
C        5.648435    -4.728143    -0.046558
C        4.610685    -2.985029     1.471091
C        4.131503    -3.907957     2.421661
C        3.991370    -3.552154     3.755098
C        4.296398    -2.263738     4.172543
C        4.719472    -1.280518     3.260616
C        4.968409     0.134520     3.807706
C        3.754501     1.025980     3.544073
C        6.279137     0.814327     3.404143
C        4.895191    -1.647582     1.878400
N        5.341385    -0.768156     0.849754
C        6.710342    -0.498139     0.526516
C        6.699764     0.416912    -0.565231
N        5.345062     0.699784    -0.895449
C        4.950919     1.574249    -1.949126
C        4.880740     3.009089    -1.838359
C        5.175047     3.780060    -0.540751
C        6.616489     3.688957    -0.030859
C        4.172828     3.442465     0.559490
C        4.524257     3.758276    -2.973212
C        4.210629     3.144150    -4.176006
C        4.240738     1.762104    -4.283751
C        4.606789     0.958572    -3.191026
C        4.628665    -0.561077    -3.356074
C        3.222312    -1.087401    -3.674532
C        5.617572    -0.977384    -4.455184
C        4.493969    -0.021409    -0.018018
Se       2.650000     0.000000     0.000000
Ag       0.000000     0.000000     0.000000
Se      -2.650000     0.000000     0.000000
C       -4.441013     0.022634    -0.020862
N       -5.302027    -0.728877    -0.862104
C       -4.933121    -1.657573    -1.874134
C       -4.495662    -1.129346    -3.126409
C       -4.414338     0.383951    -3.356680
C       -5.725011     0.877142    -3.971828
C       -3.211543     0.818485    -4.213725
C       -4.135971    -2.016903    -4.158425
C       -4.186575    -3.390327    -3.968794
C       -4.590957    -3.916239    -2.750782
C       -4.984054    -3.082590    -1.689419
C       -5.448358    -3.757685    -0.384702
C       -6.974342    -3.760312    -0.225938
C       -4.749150    -3.272557     0.887596
C       -6.650715    -0.414336    -0.543729
C       -6.634997     0.545409     0.502944
N       -5.275063     0.813716     0.812948
C       -4.819881     1.732882     1.805059
C       -4.841331     3.122731     1.496916
C       -5.357041     3.617665     0.143298
C       -4.175920     3.798397    -0.810536
C       -6.194037     4.905605     0.234625
C       -4.380570     4.045066     2.455337
C       -3.913695     3.614941     3.690996
C       -3.893562     2.261915     4.005057
C       -4.349336     1.300076     3.081205
C       -4.338411    -0.188415     3.445087
C       -5.736668    -0.619351     3.907006
C       -3.296267    -0.582822     4.507305
H        2.937335    -2.669556    -0.752777
H        3.673380    -3.947649    -1.758466
H        2.850281    -4.382201    -0.204945
H        5.380665    -2.665113    -0.542302
H        5.862531    -4.992075    -1.104254
H        5.103432    -5.588041     0.399426
H        6.613030    -4.603238     0.488397
H        3.888078    -4.924884     2.144065
H        3.645722    -4.283915     4.476661
H        4.165616    -2.022861     5.221062
H        5.023128     0.052521     4.917011
H        3.571276     1.138585     2.467585
H        3.904317     2.029028     3.997382
H        2.847933     0.573672     3.999737
H        6.261064     1.151930     2.354971
H        6.417768     1.735556     4.009340
H        7.143462     0.142151     3.590182
H        7.599500    -0.952526     0.966276
H        7.565796     0.778114    -1.107988
H        5.020888     4.860909    -0.756854
H        6.753137     4.397568     0.815209
H        6.866711     2.693483     0.359546
H        7.327535     3.971019    -0.835167
H        4.315077     4.111675     1.434762
H        4.320482     2.411729     0.897924
H        3.132945     3.566384     0.187625
H        4.477262     4.838897    -2.928020
H        3.935409     3.747457    -5.032121
H        3.985109     1.321713    -5.237471
H        4.958822    -1.059470    -2.425094
H        2.519819    -0.812919    -2.860903
H        3.236757    -2.193962    -3.761968
H        2.837026    -0.665508    -4.626930
H        5.649307    -2.084690    -4.539292
H        6.637940    -0.615330    -4.208879
H        5.323177    -0.567935    -5.444872
H       -4.300494     0.910616    -2.392801
H       -6.574289     0.635020    -3.297570
H       -5.694154     1.981006    -4.098403
H       -5.902150     0.403353    -4.960002
H       -3.291161     0.443446    -5.255261
H       -3.167773     1.926491    -4.272914
H       -2.264212     0.451922    -3.765616
H       -3.829594    -1.662157    -5.130091
H       -3.916249    -4.056596    -4.778507
H       -4.625527    -4.993447    -2.647576
H       -5.185859    -4.835675    -0.472994
H       -7.261392    -4.402813     0.634108
H       -7.387723    -2.763217    -0.029410
H       -7.449972    -4.178539    -1.138918
H       -5.074276    -2.255593     1.156638
H       -3.646425    -3.301945     0.764812
H       -5.027211    -3.925440     1.742449
H       -7.527270    -0.796634    -1.049214
H       -7.493610     1.025061     0.953134
H       -6.017827     2.860735    -0.316868
H       -4.539544     4.103887    -1.814920
H       -3.470322     4.563936    -0.426562
H       -3.634183     2.835308    -0.922216
H       -7.044102     4.766914     0.935260
H       -5.583847     5.769687     0.570128
H       -6.599945     5.165494    -0.765794
H       -4.368107     5.106083     2.258998
H       -3.565887     4.339775     4.416238
H       -3.531003     1.989802     4.983922
H       -4.050502    -0.765832     2.548452
H       -6.020023    -0.069855     4.831834
H       -6.496800    -0.410823     3.128067
H       -5.754456    -1.708651     4.124702
H       -3.295194    -1.685894     4.641775
H       -2.281031    -0.276580     4.175446
H       -3.516769    -0.132651     5.497133
133
ex_0398 frame10 linear-conf5
C        2.867012    -2.593216    -2.687806
C        4.351997    -2.222010    -2.752015
C        5.118073    -3.200905    -3.650366
C        4.517786    -0.771089    -3.200713
C        4.170636    -0.409187    -4.515156
C        4.340987     0.893285    -4.968330
C        4.851981     1.869700    -4.125523
C        5.178555     1.576968    -2.789683
C        5.694699     2.717391    -1.893060
C        4.567695     3.733627    -1.672813
C        6.943210     3.410854    -2.466390
C        5.005193     0.231006    -2.305485
N        5.367079     0.067631    -0.930705
C        6.661179     0.148390    -0.376165
C        6.548880    -0.105163     0.994522
N        5.183771    -0.335937     1.260210
C        4.620420    -0.653332     2.517948
C        4.394567     0.540252     3.287021
C        4.774547     1.937636     2.755484
C        3.508809     2.743147     2.443447
C        5.656478     2.719320     3.744808
C        3.811234     0.435236     4.559746
C        3.454566    -0.804609     5.084821
C        3.683385    -1.965366     4.357753
C        4.270523    -1.923462     3.076591
C        4.496103    -3.262830     2.361369
C        3.188382    -3.732074     1.717342
C        5.690374    -3.408304     1.400528
C        4.590065    -0.098031     0.115869
Se       2.650000     0.000000     0.000000
Ag       0.000000     0.000000     0.000000
Se      -2.650000     0.000000     0.000000
C       -4.580274     0.027699    -0.066341
N       -5.240057     1.072528    -0.576111
C       -4.768027     2.352608    -0.916944
C       -4.414300     2.407950    -2.298643
C       -4.567632     1.182103    -3.211667
C       -3.187904     0.700849    -3.683172
C       -5.472822     1.454205    -4.421128
C       -3.916509     3.611530    -2.826924
C       -3.742226     4.726912    -2.009678
C       -4.081269     4.675242    -0.656940
C       -4.617365     3.499043    -0.099785
C       -5.034590     3.453382     1.371837
C       -3.815595     3.238776     2.265692
C       -5.843390     4.683211     1.814495
C       -6.551668     0.589196    -0.698805
C       -6.618280    -0.657268    -0.069639
N       -5.328666    -0.989879     0.364973
C       -4.889135    -2.119210     1.084940
C       -4.894513    -3.270384     0.218529
C       -5.343004    -3.198051    -1.252281
C       -4.124824    -3.424639    -2.151501
C       -6.465554    -4.194589    -1.589524
C       -4.474955    -4.511287     0.730066
C       -4.031457    -4.633615     2.038160
C       -4.027077    -3.532172     2.882531
C       -4.470065    -2.271625     2.439694
C       -4.490928    -1.099692     3.419891
C       -3.058236    -0.714859     3.805726
C       -5.316685    -1.428986     4.673592
H        2.305304    -1.840025    -2.101084
H        2.746897    -3.575259    -2.183048
H        2.419083    -2.644659    -3.701308
H        4.765538    -2.364316    -1.742727
H        4.725344    -3.187950    -4.688572
H        6.196584    -2.938666    -3.672232
H        5.014899    -4.234551    -3.256626
H        3.763574    -1.139182    -5.199940
H        4.066679     1.152808    -5.982800
H        4.951661     2.875912    -4.511344
H        5.945112     2.390655    -0.877950
H        4.240531     4.197644    -2.625321
H        3.699607     3.225781    -1.200086
H        4.907723     4.539460    -0.985274
H        7.771329     2.680412    -2.589819
H        6.732413     3.881751    -3.449994
H        7.286568     4.213348    -1.777080
H        7.574159     0.354063    -0.912070
H        7.356289    -0.131215     1.709249
H        5.324911     1.884563     1.802995
H        2.913495     2.230435     1.665545
H        2.876705     2.875413     3.344726
H        3.783200     3.743411     2.044587
H        6.585171     2.156938     3.973729
H        5.120128     2.922715     4.696755
H        5.939349     3.702061     3.310221
H        3.608793     1.311641     5.151220
H        2.993669    -0.860752     6.056683
H        3.388931    -2.916460     4.794701
H        4.743413    -3.990261     3.162536
H        2.891184    -3.043441     0.901186
H        2.377206    -3.758009     2.477507
H        3.302538    -4.757559     1.304604
H        5.809095    -4.480939     1.127161
H        6.626739    -3.074657     1.893365
H        5.554347    -2.883670     0.446694
H       -5.006860     0.327800    -2.665288
H       -2.675451     1.470223    -4.295590
H       -3.294089    -0.225836    -4.288265
H       -2.547442     0.460539    -2.812021
H       -6.481926     1.770143    -4.085228
H       -5.580078     0.530586    -5.030665
H       -5.044665     2.244999    -5.073019
H       -3.627632     3.680042    -3.868697
H       -3.337371     5.638030    -2.429044
H       -3.935112     5.562451    -0.057265
H       -5.700357     2.580065     1.537302
H       -3.131288     4.109405     2.225438
H       -4.145181     3.070335     3.313394
H       -3.264405     2.332432     1.938428
H       -6.187596     4.551289     2.863229
H       -5.228144     5.606080     1.780798
H       -6.736013     4.819437     1.167920
H       -7.370393     1.120748    -1.160911
H       -7.489170    -1.291280     0.007683
H       -5.696685    -2.208542    -1.554115
H       -3.361405    -2.645154    -1.937944
H       -4.417431    -3.330014    -3.220415
H       -3.676755    -4.425956    -1.991422
H       -6.763155    -4.089918    -2.655753
H       -6.141121    -5.244786    -1.434716
H       -7.359849    -4.000859    -0.960149
H       -4.444844    -5.388421     0.097917
H       -3.681268    -5.592752     2.396874
H       -3.670509    -3.672192     3.893284
H       -4.961407    -0.205594     2.968298
H       -3.067975     0.152130     4.499138
H       -2.532659    -1.559554     4.298209
H       -2.487803    -0.424630     2.900416
H       -5.346451    -0.549424     5.351042
H       -4.879387    -2.277873     5.240660
H       -6.359018    -1.689158     4.390921
133
ex_0398 frame11 linear-conf4
C        6.102724    -4.035356    -0.059341
C        4.768763    -3.919745     0.680037
C        3.619504    -3.572932    -0.269325
C        4.710755    -3.040089     1.946313
C        4.406411    -3.689576     3.155403
C        4.256456    -2.986561     4.335268
C        4.419889    -1.613262     4.355205
C        4.773482    -0.896995     3.192711
C        4.965148     0.624661     3.264762
C        6.459468     0.965609     3.318924
C        4.223170     1.294023     4.433034
C        4.947374    -1.609993     1.960438
N        5.357946    -0.883784     0.791477
C        6.657204    -0.891859     0.275265
C        6.693603    -0.014057    -0.826710
N        5.385734     0.514966    -0.983467
C        5.027664     1.472619    -1.978108
C        4.633843     2.840494    -1.643879
C        4.603203     3.301267    -0.194768
C        5.995064     3.815447     0.191409
C        3.524043     4.352185     0.099785
C        4.287484     3.713852    -2.673909
C        4.321651     3.332362    -4.007320
C        4.693590     2.060719    -4.356235
C        5.039259     1.114884    -3.388767
C        5.428502    -0.313471    -3.907501
C        6.924020    -0.612674    -4.059993
C        4.657778    -1.455284    -3.249636
C        4.603001    -0.135433    -0.064935
Se       2.650000     0.000000     0.000000
Ag       0.000000     0.000000     0.000000
Se      -2.650000     0.000000     0.000000
C       -4.584364     0.122612     0.056378
N       -5.336412     0.577211    -0.994454
C       -4.895350     1.141620    -2.214947
C       -4.657012     0.118034    -3.204888
C       -4.973085    -1.368993    -2.948948
C       -3.708325    -2.197282    -2.708920
C       -5.740156    -1.996894    -4.138168
C       -4.115930     0.488172    -4.451346
C       -3.866505     1.814389    -4.759093
C       -4.134019     2.808882    -3.834716
C       -4.671232     2.513530    -2.569489
C       -4.986647     3.696044    -1.638458
C       -6.502189     3.900159    -1.507323
C       -4.314863     3.706424    -0.265742
C       -6.672948     0.371584    -0.622003
C       -6.681985    -0.093491     0.702381
N       -5.351566    -0.245958     1.116496
C       -4.949767    -0.697764     2.395641
C       -5.009125    -2.137457     2.397715
C       -5.385014    -2.936495     1.145886
C       -4.172136    -3.752187     0.680552
C       -6.586680    -3.867430     1.386992
C       -4.714456    -2.839047     3.581014
C       -4.350971    -2.173008     4.737857
C       -4.250052    -0.791350     4.744558
C       -4.526326    -0.025006     3.595689
C       -4.355645     1.493910     3.700624
C       -3.130433     1.989340     2.929402
C       -5.623196     2.299195     3.391521
H        6.044071    -4.871652    -0.789185
H        6.923881    -4.255880     0.654798
H        6.330367    -3.153941    -0.669069
H        4.562226    -4.965588     1.006191
H        3.734942    -2.558960    -0.678674
H        3.582078    -4.294723    -1.113804
H        2.649591    -3.625430     0.270951
H        4.236739    -4.760876     3.185841
H        3.996719    -3.512424     5.245083
H        4.288960    -1.132672     5.309657
H        4.501070     1.101874     2.388938
H        6.603754     2.060822     3.432579
H        6.976389     0.648085     2.392479
H        6.935453     0.454301     4.184021
H        4.631207     0.997851     5.419560
H        3.141679     1.039276     4.379003
H        4.314428     2.397232     4.352120
H        7.494610    -1.452603     0.677610
H        7.566837     0.215170    -1.417156
H        4.349989     2.481867     0.482710
H        6.007160     4.124507     1.257872
H        6.271706     4.686860    -0.440138
H        6.753594     3.015392     0.050968
H        3.711596     5.309995    -0.424980
H        2.526440     3.959284    -0.194326
H        3.500213     4.577197     1.186555
H        3.992919     4.729531    -2.477055
H        4.052351     4.042094    -4.779770
H        4.702173     1.802115    -5.410222
H        5.082709    -0.325575    -4.970467
H        7.417843    -0.900531    -3.129077
H        7.058356    -1.490115    -4.727364
H        7.445586     0.252349    -4.522937
H        3.567174    -1.244232    -3.254342
H        4.834212    -2.401451    -3.805677
H        5.004873    -1.610754    -2.217385
H       -5.613968    -1.480747    -2.056139
H       -3.209706    -1.873592    -1.787611
H       -3.971301    -3.267281    -2.568405
H       -2.995024    -2.106069    -3.553584
H       -6.034516    -3.041692    -3.899974
H       -6.653795    -1.418670    -4.384529
H       -5.104872    -2.059075    -5.049696
H       -3.906676    -0.243207    -5.217902
H       -3.480288     2.079638    -5.736092
H       -3.953705     3.834495    -4.131600
H       -4.610828     4.606212    -2.155529
H       -6.969170     3.123781    -0.869342
H       -6.980420     3.877834    -2.510850
H       -6.706552     4.896494    -1.057556
H       -4.434301     4.703670     0.204712
H       -4.814770     3.013777     0.423804
H       -3.232963     3.474789    -0.352774
H       -7.535398     0.525165    -1.253662
H       -7.556660    -0.363321     1.275561
H       -5.637092    -2.277929     0.300668
H       -3.852473    -4.483455     1.452213
H       -4.415117    -4.306382    -0.250634
H       -3.322538    -3.069551     0.467398
H       -6.353560    -4.644558     2.146307
H       -7.469145    -3.288915     1.729982
H       -6.854564    -4.394576     0.445800
H       -4.764896    -3.919697     3.614423
H       -4.136055    -2.736009     5.637807
H       -3.951281    -0.313114     5.668970
H       -4.104602     1.731631     4.758873
H       -3.265535     1.960578     1.850118
H       -2.915771     3.045340     3.189417
H       -2.242068     1.375730     3.197410
H       -6.425178     2.028492     4.110153
H       -5.994290     2.137034     2.364731
H       -5.410389     3.384246     3.503119
133
ex_0398 frame12 linear-conf2
C        6.461980    -4.123553    -0.210403
C        4.969518    -3.799865    -0.390218
C        4.350219    -3.141063     0.843208
C        4.553756    -3.173165    -1.749875
C        4.035664    -4.054134    -2.713772
C        3.620652    -3.616839    -3.952910
C        3.716166    -2.280718    -4.286493
C        4.236377    -1.329710    -3.393183
C        4.314056     0.125293    -3.883119
C        3.107231     0.978009    -3.479860
C        5.662053     0.821663    -3.649756
C        4.656693    -1.758569    -2.082484
N        5.182701    -0.915481    -1.053002
C        6.538550    -0.851593    -0.692512
C        6.664314     0.103853     0.317795
N        5.380265     0.627523     0.575687
C        5.122313     1.671863     1.544758
C        4.644116     2.995038     1.250729
C        4.388480     3.449625    -0.191104
C        5.656970     4.154099    -0.668734
C        3.145439     4.339046    -0.386004
C        4.405088     3.893923     2.310835
C        4.645114     3.522291     3.620871
C        5.126246     2.262191     3.925462
C        5.377822     1.314073     2.922436
C        5.915013    -0.065520     3.334571
C        7.355220     0.047237     3.856245
C        5.032073    -0.724073     4.417655
C        4.569801    -0.114199    -0.183818
Se       2.650000     0.000000     0.000000
Ag       0.000000     0.000000     0.000000
Se      -2.650000     0.000000     0.000000
C       -4.536977    -0.008230     0.015958
N       -5.264430    -1.145768    -0.160621
C       -4.828666    -2.499687    -0.222686
C       -4.733019    -3.108868    -1.536242
C       -5.062740    -2.391559    -2.873311
C       -4.000400    -1.351484    -3.230783
C       -6.473891    -1.832719    -3.099507
C       -4.311508    -4.449136    -1.622410
C       -3.956131    -5.172501    -0.496518
C       -4.038561    -4.599807     0.761840
C       -4.484786    -3.277425     0.930491
C       -4.595389    -2.691443     2.345110
C       -5.941805    -3.100810     2.936363
C       -3.423929    -3.048284     3.272952
C       -6.605796    -0.721447    -0.278517
C       -6.638896     0.650544    -0.005314
N       -5.317985     1.077322     0.182630
C       -4.964178     2.404858     0.485082
C       -4.870810     3.154861    -0.735957
C       -5.089606     2.492789    -2.102803
C       -6.462614     2.852686    -2.678995
C       -3.989727     2.863987    -3.119354
C       -4.571672     4.528532    -0.675405
C       -4.330293     5.152653     0.538632
C       -4.382010     4.429428     1.722279
C       -4.706659     3.061343     1.730721
C       -4.767519     2.342000     3.084450
C       -3.548653     1.459174     3.366032
C       -6.089078     1.593669     3.321965
H        6.585854    -4.831139     0.639012
H        7.087098    -3.267174     0.054810
H        6.860461    -4.622958    -1.120045
H        4.528485    -4.822611    -0.396207
H        4.571875    -3.752386     1.746766
H        3.248232    -3.081342     0.729132
H        4.757720    -2.132659     1.014195
H        3.940022    -5.112643    -2.497096
H        3.223089    -4.327787    -4.666069
H        3.383813    -1.986307    -5.272608
H        4.225256     0.071540    -4.991983
H        2.166777     0.457050    -3.762920
H        3.077143     1.198982    -2.410155
H        3.137078     1.949448    -4.014855
H        5.682189     1.782593    -4.205474
H        5.844984     1.073296    -2.592706
H        6.490741     0.182545    -4.021276
H        7.336844    -1.424716    -1.130557
H        7.581015     0.402270     0.802041
H        4.234037     2.608247    -0.878726
H        6.512057     3.445182    -0.597543
H        5.872558     5.038743    -0.035897
H        5.555033     4.465281    -1.728391
H        3.024434     4.581170    -1.464899
H        3.239032     5.298298     0.159213
H        2.231799     3.806824    -0.044557
H        4.071829     4.897678     2.152556
H        4.468107     4.225980     4.421718
H        5.323259     2.040550     4.965253
H        5.906502    -0.768561     2.490905
H        7.741552    -0.966633     4.098981
H        7.408738     0.676532     4.762359
H        8.016017     0.483697     3.085153
H        5.039536    -0.145755     5.370660
H        3.977387    -0.816194     4.067189
H        5.408147    -1.745044     4.647741
H       -4.976451    -3.165140    -3.668626
H       -2.997271    -1.829302    -3.257719
H       -4.200975    -0.927985    -4.240465
H       -3.988606    -0.526182    -2.500375
H       -6.624904    -1.640544    -4.183343
H       -7.246354    -2.557319    -2.768812
H       -6.610369    -0.838565    -2.651226
H       -4.220356    -4.936794    -2.584590
H       -3.608776    -6.191651    -0.604149
H       -3.760426    -5.211497     1.606560
H       -4.618220    -1.598630     2.342527
H       -6.077815    -2.634996     3.935276
H       -6.757931    -2.730652     2.275517
H       -6.019708    -4.203129     3.024328
H       -2.463788    -2.715913     2.823987
H       -3.377260    -4.136221     3.479686
H       -3.549506    -2.531741     4.248771
H       -7.452655    -1.344554    -0.525433
H       -7.521040     1.272748     0.027600
H       -5.062804     1.394259    -1.994657
H       -6.561292     3.946145    -2.833588
H       -6.611230     2.331812    -3.650245
H       -7.266867     2.518035    -1.996944
H       -4.023002     3.944252    -3.379157
H       -2.981631     2.624688    -2.721866
H       -4.137530     2.303017    -4.066965
H       -4.521708     5.130833    -1.571500
H       -4.100409     6.210297     0.563815
H       -4.195464     4.956467     2.649645
H       -4.728257     3.128652     3.869658
H       -3.483443     0.595503     2.692596
H       -2.619838     2.061007     3.265720
H       -3.597176     1.068788     4.404835
H       -6.138703     1.248029     4.375987
H       -6.186099     0.688337     2.696131
H       -6.952225     2.265719     3.131673
133
ex_0398 frame13 linear-conf3
C        6.492950     2.018627    -3.253652
C        5.013254     2.409495    -3.160927
C        4.098120     1.250002    -3.537697
C        4.698498     3.151276    -1.845702
C        4.246274     4.476794    -1.961328
C        3.984559     5.253487    -0.853523
C        4.140925     4.730659     0.414437
C        4.550760     3.403572     0.633828
C        4.653449     2.958224     2.119856
C        3.447384     2.151057     2.599344
C        5.964456     2.348590     2.615898
C        4.841412     2.567316    -0.527194
N        5.250380     1.222329    -0.269307
C        6.583961     0.861932    -0.047843
C        6.626827    -0.526940     0.122211
N        5.303203    -1.001445     0.020019
C        5.008929    -2.389737     0.132817
C        4.894716    -3.429755    -0.847479
C        5.099799    -3.187760    -2.341274
C        3.887466    -2.534882    -2.994245
C        6.424420    -2.475183    -2.663647
C        4.580573    -4.733959    -0.428119
C        4.407832    -5.040552     0.913926
C        4.511471    -4.047844     1.877371
C        4.805978    -2.717806     1.519943
C        4.902744    -1.654899     2.615823
C        6.252760    -1.763480     3.332795
C        3.761903    -1.738410     3.650044
C        4.566796     0.100618    -0.093580
Se       2.650000     0.000000     0.000000
Ag       0.000000     0.000000     0.000000
Se      -2.650000     0.000000     0.000000
C       -4.582657    -0.043745     0.031371
N       -5.286834    -0.978820    -0.598698
C       -4.842027    -1.961011    -1.487881
C       -4.737516    -3.183894    -0.730406
C       -5.047926    -3.235067     0.801487
C       -6.408690    -3.874396     1.087469
C       -3.952910    -3.994212     1.567332
C       -4.348646    -4.350506    -1.385910
C       -3.965452    -4.317304    -2.738965
C       -4.032584    -3.125655    -3.461235
C       -4.513462    -1.945960    -2.861585
C       -4.678863    -0.670977    -3.675827
C       -3.344305     0.057747    -3.846855
C       -5.346022    -0.921610    -5.035205
C       -6.599014    -0.762167    -0.169020
C       -6.595576     0.383369     0.633922
N       -5.303224     0.898999     0.659958
C       -4.993230     2.156821     1.259182
C       -5.072330     3.446529     0.653463
C       -5.580337     3.577103    -0.772927
C       -4.439920     3.814970    -1.749676
C       -6.667017     4.656394    -0.875948
C       -4.673553     4.574451     1.401308
C       -4.284954     4.440967     2.731468
C       -4.237119     3.191447     3.344846
C       -4.562002     2.029967     2.623499
C       -4.455314     0.648553     3.290228
C       -5.708625     0.333404     4.107915
C       -3.197856     0.497816     4.168036
H        6.721119     1.640767    -4.273356
H        7.132339     2.907085    -3.062393
H        6.755531     1.220989    -2.537454
H        4.854230     3.141532    -3.982576
H        4.276803     0.955984    -4.593237
H        3.030602     1.531634    -3.421844
H        4.331066     0.367085    -2.957258
H        4.130921     4.938361    -2.932825
H        3.667906     6.280279    -0.978513
H        3.927620     5.390037     1.246453
H        4.570376     3.897389     2.708781
H        3.465367     1.132491     2.205922
H        3.464493     2.065088     3.708049
H        2.501756     2.660030     2.311916
H        6.834438     2.947255     2.278098
H        6.064607     1.292880     2.329252
H        5.965185     2.327978     3.726770
H        7.429302     1.531239    -0.033545
H        7.508826    -1.125311     0.291450
H        5.188516    -4.182206    -2.833960
H        4.068503    -2.382400    -4.079432
H        3.638996    -1.580509    -2.516655
H        3.003960    -3.197404    -2.876126
H        7.271064    -2.992503    -2.161587
H        6.421780    -1.409974    -2.377465
H        6.605202    -2.499940    -3.758662
H        4.510548    -5.540232    -1.147786
H        4.196619    -6.062314     1.207431
H        4.385235    -4.340154     2.908775
H        4.852774    -0.653900     2.160890
H        6.367165    -2.747797     3.831830
H        6.344476    -0.956717     4.091034
H        7.085573    -1.639281     2.614508
H        3.845263    -0.901194     4.375329
H        2.770736    -1.683902     3.156134
H        3.817012    -2.678105     4.241368
H       -5.049267    -2.211116     1.186313
H       -6.607931    -3.808377     2.177286
H       -6.441827    -4.934093     0.767665
H       -7.225286    -3.341151     0.573465
H       -3.953375    -5.078565     1.318813
H       -4.147001    -3.914381     2.656797
H       -2.946284    -3.578624     1.353616
H       -4.247727    -5.300138    -0.875136
H       -3.628034    -5.227635    -3.230154
H       -3.758094    -3.153462    -4.505379
H       -5.342915     0.019145    -3.119848
H       -2.865648     0.210567    -2.859492
H       -2.651572    -0.515936    -4.495132
H       -3.526723     1.060973    -4.289096
H       -4.693267    -1.522816    -5.703638
H       -5.539703     0.043534    -5.547510
H       -6.311192    -1.454373    -4.905970
H       -7.434538    -1.365327    -0.412717
H       -7.448788     0.821155     1.124326
H       -6.067141     2.626321    -1.089354
H       -3.719234     2.969837    -1.687820
H       -3.913593     4.762737    -1.520716
H       -4.838131     3.848409    -2.785751
H       -6.254105     5.665695    -0.671630
H       -7.490284     4.454033    -0.156792
H       -7.093752     4.669552    -1.900645
H       -4.727307     5.554137     0.968820
H       -4.026231     5.325498     3.298153
H       -3.928588     3.145009     4.377633
H       -4.380837    -0.133897     2.505004
H       -5.632995    -0.688595     4.538838
H       -6.606251     0.354201     3.459300
H       -5.844310     1.066273     4.928972
H       -3.121733    -0.542862     4.550216
H       -3.241229     1.163075     5.056201
H       -2.280526     0.727450     3.587479
133
ex_0398 frame14 trans-LIN Se0+Se0
C        2.964159    -0.697006    -3.690930
C        4.280917     0.021531    -4.000759
C        5.509183    -0.876819    -3.781777
C        4.301673     1.410758    -3.349710
C        3.882515     2.503746    -4.129650
C        3.845416     3.791224    -3.614666
C        4.228036     4.032746    -2.306018
C        4.670728     2.990220    -1.473988
C        5.084485     3.324641    -0.027508
C        3.840593     3.654299     0.802463
C        6.097402     4.483775     0.053713
C        4.717682     1.645512    -1.998237
N        5.200033     0.787134    -0.981257
C        6.557622     0.615821    -0.653141
C        6.624673    -0.354910     0.339552
N        5.312812    -0.780248     0.603384
C        5.022009    -1.828067     1.508428
C        4.845954    -3.222562     1.312326
C        4.982217    -3.829714    -0.085321
C        3.646223    -3.844362    -0.828735
C        5.605597    -5.237323    -0.070605
C        4.544185    -4.038758     2.422336
C        4.471204    -3.500253     3.703691
C        4.649291    -2.137857     3.905894
C        4.904611    -1.278111     2.824305
C        5.051384     0.226386     3.077364
C        3.819370     0.794258     3.801917
C        6.324463     0.533175     3.874920
C        4.574684     0.003188    -0.140175
Se       2.650000     0.000000     0.000000
Ag       0.000000     0.000000     0.000000
Se      -2.650000     0.000000     0.000000
C       -4.557811     0.089365     0.177035
N       -5.436647    -0.402072    -0.760022
C       -5.184433    -1.184593    -1.936941
C       -4.780487    -2.559538    -1.968950
C       -4.565743    -3.359600    -0.689808
C       -3.096099    -3.782999    -0.560754
C       -5.490657    -4.583811    -0.645004
C       -4.576335    -3.189136    -3.209551
C       -4.798237    -2.523935    -4.404145
C       -5.212091    -1.201825    -4.401386
C       -5.363605    -0.488021    -3.196311
C       -5.716099     1.014936    -3.261954
C       -7.200544     1.371519    -3.431392
C       -4.939104     1.719946    -4.401361
C       -6.712440     0.030801    -0.326706
C       -6.569381     0.658913     0.918120
N       -5.204744     0.651043     1.244730
C       -4.638578     1.142292     2.463840
C       -4.228425     0.393339     3.614095
C       -4.388859    -1.128886     3.754554
C       -3.312036    -1.950383     3.040721
C       -5.812708    -1.627156     3.461887
C       -3.635362     1.080602     4.701548
C       -3.473745     2.454620     4.684381
C       -3.889111     3.195328     3.597050
C       -4.486621     2.581588     2.475312
C       -4.930315     3.538461     1.340926
C       -4.604274     3.128024    -0.091297
C       -6.377636     4.027604     1.509295
H        2.878230    -0.960839    -2.626392
H        2.107225    -0.041432    -3.963618
H        2.884503    -1.629483    -4.287537
H        4.251221     0.190548    -5.100047
H        5.590026    -1.264367    -2.752813
H        6.439788    -0.334774    -4.046267
H        5.425676    -1.773563    -4.432068
H        3.563197     2.356889    -5.153296
H        3.509266     4.611388    -4.236732
H        4.169463     5.049678    -1.941907
H        5.535671     2.471604     0.490327
H        3.302431     4.536016     0.399492
H        4.129051     3.855376     1.857455
H        3.154642     2.782687     0.804169
H        5.663073     5.434719    -0.321777
H        7.010746     4.252594    -0.532071
H        6.393583     4.659180     1.110844
H        7.386063     1.190530    -1.040172
H        7.521299    -0.727048     0.812812
H        5.694321    -3.201726    -0.663457
H        2.909075    -4.477288    -0.292105
H        3.236045    -2.820092    -0.910849
H        3.787789    -4.237578    -1.857710
H        5.795979    -5.577250    -1.110442
H        4.929196    -5.982682     0.396794
H        6.573275    -5.226276     0.475028
H        4.409333    -5.104401     2.326021
H        4.280628    -4.146654     4.551245
H        4.585482    -1.755116     4.916565
H        5.123634     0.779354     2.123715
H        3.704032     0.353892     4.814899
H        3.918785     1.894377     3.921996
H        2.898537     0.588376     3.217135
H        7.216822     0.171759     3.323197
H        6.302255     0.050989     4.874312
H        6.430052     1.631439     4.012520
H       -4.819453    -2.767970     0.200193
H       -2.432929    -2.897618    -0.650438
H       -2.813578    -4.511006    -1.350022
H       -2.920607    -4.248130     0.431813
H       -6.550216    -4.259328    -0.722368
H       -5.355978    -5.126510     0.314269
H       -5.273732    -5.288588    -1.474990
H       -4.252697    -4.220792    -3.261869
H       -4.637234    -3.032707    -5.347399
H       -5.343361    -0.728635    -5.362936
H       -5.334517     1.473918    -2.343045
H       -7.622429     0.901406    -4.341013
H       -7.812860     1.077961    -2.573353
H       -7.311868     2.475974    -3.507669
H       -5.331329     1.436347    -5.402547
H       -3.854538     1.489950    -4.358898
H       -5.061215     2.822522    -4.328223
H       -7.640273    -0.121262    -0.858122
H       -7.354155     1.147599     1.479896
H       -4.221025    -1.360782     4.828758
H       -3.408390    -3.018664     3.328183
H       -2.304506    -1.597689     3.351100
H       -3.380372    -1.906833     1.950129
H       -6.067175    -1.578263     2.388851
H       -5.903084    -2.692085     3.761798
H       -6.551136    -1.034472     4.041985
H       -3.309324     0.546647     5.581939
H       -3.028657     2.960982     5.534829
H       -3.756974     4.272319     3.632583
H       -4.336467     4.471410     1.473302
H       -4.831234     3.965209    -0.786683
H       -5.227945     2.293372    -0.403369
H       -3.531909     2.870013    -0.194009
H       -6.600816     4.827499     0.771082
H       -6.516636     4.458513     2.523598
H       -7.125183     3.238172     1.364110
133
ex_0398 frame15 linear-2
C       -1.551309     4.014896     3.022232
C       -0.982181     2.945555     2.077438
C       -1.436630     3.210373     0.641183
C        0.522879     3.003471     2.112063
C        1.212971     3.792761     1.210145
C        2.586638     3.850126     1.195894
C        3.309218     3.110413     2.115950
C        2.649423     2.313496     3.051242
C        3.437482     1.501180     4.066118
C        3.817153     0.157827     3.464614
C        4.723592     2.191964     4.506609
C        1.244037     2.269921     3.046764
N        0.529914     1.497232     3.969337
C        0.252460     1.928483     5.272924
C       -0.505994     0.935818     5.898213
N       -0.672112    -0.114384     4.982829
C       -1.412100    -1.296064     5.315209
C       -2.732483    -1.465502     4.843986
C       -3.399981    -0.438475     3.979177
C       -3.390853    -0.959222     2.536476
C       -4.852873    -0.224413     4.408892
C       -3.435986    -2.610810     5.187040
C       -2.881757    -3.582624     5.981095
C       -1.589706    -3.431459     6.424243
C       -0.834830    -2.305391     6.117527
C        0.569553    -2.234014     6.668659
C        0.580890    -1.450367     7.979807
C        1.653971    -1.853025     5.678639
C       -0.010209     0.231530     3.795193
Se       0.122171    -0.779738     2.301607
Ag       0.707900    -0.013936    -0.166787
Se      -0.815983     0.207367    -2.323476
C       -0.546085    -0.595725    -3.936642
N       -1.560149    -1.086234    -4.748450
C       -2.959370    -1.043943    -4.534447
C       -3.645203     0.054849    -5.112758
C       -2.902254     1.087829    -5.891080
C       -2.924698     0.619186    -7.337773
C       -3.564170     2.461096    -5.759772
C       -5.031147     0.172393    -4.952679
C       -5.727629    -0.780082    -4.230946
C       -5.063229    -1.849699    -3.677902
C       -3.683844    -1.999670    -3.805067
C       -3.047802    -3.197448    -3.140820
C       -2.667711    -2.839642    -1.719721
C       -1.912150    -3.930041    -3.831596
C       -0.988063    -1.674354    -5.894802
C        0.435592    -1.508477    -5.845413
N        0.672368    -0.832886    -4.590627
C        2.008113    -0.498426    -4.170850
C        2.818218    -1.472956    -3.572527
C        2.353096    -2.882319    -3.347018
C        1.869560    -3.111185    -1.912770
C        3.552765    -3.785949    -3.632274
C        4.108558    -1.117634    -3.170827
C        4.607396     0.131309    -3.388412
C        3.804121     1.079422    -3.943624
C        2.507379     0.788341    -4.356618
C        1.688176     1.877576    -4.991188
C        1.059176     2.762866    -3.904155
C        2.638511     2.731140    -5.840312
H       -0.737976     4.655824     3.434926
H       -2.243748     4.686110     2.477432
H       -2.131902     3.556951     3.843217
H       -1.351858     1.935548     2.361697
H       -0.700829     2.815858    -0.093405
H       -1.494000     4.309310     0.472593
H       -2.392753     2.715834     0.450931
H        0.706251     4.395878     0.475825
H        3.072518     4.473727     0.473487
H        4.373180     3.198730     2.071548
H        2.812952     1.314101     4.965371
H        3.109331    -0.148263     2.666536
H        3.849016    -0.595945     4.274366
H        4.836123     0.222389     3.033536
H        5.407279     2.294294     3.632546
H        5.228588     1.524799     5.220399
H        4.534968     3.183309     4.963895
H        0.528622     2.886781     5.672184
H       -0.913728     0.965139     6.876576
H       -2.901169     0.546723     4.080731
H       -3.033897    -0.182675     1.843458
H       -4.407395    -1.262398     2.221371
H       -2.756576    -1.868363     2.423942
H       -5.488116    -1.105038     4.136930
H       -4.942111     0.004698     5.491372
H       -5.229496     0.618749     3.823835
H       -4.445396    -2.760083     4.865336
H       -3.463158    -4.444425     6.255200
H       -1.181167    -4.201586     7.055030
H        0.807469    -3.287662     6.942505
H        1.187841    -1.987044     8.731280
H       -0.451861    -1.340298     8.385557
H        1.009727    -0.443785     7.844501
H        1.834364    -0.756516     5.687872
H        2.600911    -2.340236     5.955992
H        1.360299    -2.226772     4.675327
H       -1.856028     1.154542    -5.519296
H       -1.995262     0.917352    -7.848405
H       -3.103461    -0.477639    -7.409431
H       -3.787730     1.067218    -7.849894
H       -4.087017     2.536275    -4.782306
H       -2.821474     3.258890    -5.867753
H       -4.354070     2.593987    -6.530731
H       -5.566751     0.987924    -5.384333
H       -6.787144    -0.681735    -4.109869
H       -5.631439    -2.573262    -3.123102
H       -3.873421    -3.944650    -3.078781
H       -1.573380    -2.691690    -1.650416
H       -3.173311    -1.896505    -1.429614
H       -2.981068    -3.653203    -1.038479
H       -0.920882    -3.440417    -3.670734
H       -2.154694    -4.071800    -4.897855
H       -1.842219    -4.916426    -3.353437
H       -1.542404    -2.112574    -6.700581
H        1.125537    -1.797285    -6.515279
H        1.591646    -3.167748    -4.102182
H        0.765200    -3.087483    -1.853732
H        2.315344    -2.369000    -1.208814
H        2.213440    -4.102526    -1.569386
H        4.144770    -3.333955    -4.457582
H        4.198134    -3.890685    -2.722325
H        3.212121    -4.778563    -3.941472
H        4.771340    -1.835258    -2.743016
H        5.624142     0.366892    -3.129707
H        4.225515     2.041564    -4.096458
H        0.938771     1.435959    -5.687034
H        1.366198     2.413327    -2.890556
H       -0.038957     2.776452    -3.980026
H        1.402499     3.813154    -3.991079
H        3.136575     3.493691    -5.192726
H        3.446567     2.102469    -6.287637
H        2.072750     3.255074    -6.613310
133
ex_0398 frame16 linear-1
C        1.166755    -4.071140    -0.368417
C        2.705304    -4.100580    -0.286506
C        3.229536    -5.132987    -1.266005
C        3.309132    -2.731300    -0.686499
C        3.427434    -2.406198    -2.025210
C        4.008701    -1.226029    -2.413361
C        4.402084    -0.315137    -1.478454
C        4.304686    -0.570984    -0.113918
C        4.794117     0.460301     0.877139
C        3.737821     1.571781     1.076301
C        6.094760     1.042604     0.321441
C        3.745406    -1.806649     0.291734
N        3.631149    -2.100047     1.700571
C        4.766989    -2.525840     2.476696
C        4.315031    -2.718515     3.820372
N        2.921181    -2.392203     3.839976
C        2.148959    -2.443597     5.050733
C        2.036178    -1.264063     5.786174
C        2.692531     0.000955     5.324039
C        1.688470     0.893710     4.548791
C        3.205984     0.698898     6.579562
C        1.291574    -1.287709     6.973317
C        0.719507    -2.433863     7.465828
C        0.806022    -3.591499     6.747517
C        1.479080    -3.638935     5.565944
C        1.507272    -5.007354     4.789792
C        0.225142    -5.158463     3.980075
C        2.743481    -5.412073     3.924949
C        2.494229    -2.039607     2.537434
Se       0.813767    -1.606864     2.091376
Ag      -0.425571     0.082971     0.469340
Se      -1.137328     2.286492    -0.819223
C       -2.353955     2.738826    -2.076172
N       -2.310864     3.895776    -2.875836
C       -1.326174     4.941720    -2.862273
C       -0.123706     4.816583    -3.593111
C        0.166176     3.577858    -4.424636
C        1.086023     2.575524    -3.670074
C        0.828814     4.024156    -5.720535
C        0.815463     5.866790    -3.541450
C        0.566362     7.010831    -2.835411
C       -0.581498     7.115266    -2.105553
C       -1.571780     6.111944    -2.107255
C       -2.839349     6.293188    -1.329272
C       -2.707604     5.738220     0.097123
C       -3.174455     7.783124    -1.315876
C       -3.441783     3.937699    -3.787636
C       -4.239930     2.769679    -3.505124
N       -3.516958     2.035244    -2.459932
C       -3.999850     0.798409    -1.968098
C       -3.741780    -0.390085    -2.702872
C       -2.930459    -0.347420    -4.001250
C       -1.468419    -0.729148    -3.762842
C       -3.565859    -1.311388    -5.010836
C       -4.244630    -1.602251    -2.215552
C       -4.994385    -1.656458    -1.059830
C       -5.209415    -0.522827    -0.324951
C       -4.739847     0.714629    -0.757572
C       -5.030872     1.943480     0.075986
C       -4.128974     1.977310     1.309690
C       -6.533259     1.867337     0.526053
H        0.816956    -3.067743    -0.711838
H        0.711125    -4.311577     0.586041
H        0.789111    -4.827347    -1.110274
H        3.080322    -4.346387     0.714746
H        2.658818    -5.079988    -2.236805
H        4.302688    -4.946648    -1.515657
H        3.049573    -6.106909    -0.824004
H        3.156152    -3.078735    -2.782877
H        4.158413    -1.011588    -3.449686
H        4.843615     0.574332    -1.825272
H        5.007086    -0.046888     1.841112
H        4.039746     2.485029     0.524297
H        2.741891     1.302400     0.642535
H        3.658835     1.796889     2.122267
H        6.646119     0.278696    -0.272502
H        5.863098     1.867111    -0.401024
H        6.709510     1.450885     1.115405
H        5.723541    -2.571245     2.131236
H        4.868114    -2.950346     4.657111
H        3.567111    -0.234317     4.684543
H        1.921064     0.881854     3.485866
H        0.625355     0.518645     4.682317
H        1.735410     1.906201     4.934673
H        3.516560    -0.043155     7.344318
H        2.374677     1.304915     6.996478
H        4.053940     1.344078     6.335081
H        1.214460    -0.418887     7.587441
H        0.220899    -2.403426     8.393047
H        0.345580    -4.467879     7.116369
H        1.467798    -5.747790     5.584208
H        0.060412    -4.265485     3.314684
H       -0.629274    -5.298734     4.674789
H        0.342510    -6.039450     3.364069
H        2.565591    -6.440993     3.743236
H        3.632637    -5.274623     4.531349
H        2.709431    -4.858027     2.967516
H       -0.804887     3.131010    -4.662389
H        2.032737     2.515264    -4.170980
H        0.611651     1.584845    -3.700445
H        1.273785     2.887706    -2.615874
H        0.322777     4.920792    -6.147496
H        0.785023     3.176570    -6.393179
H        1.912490     4.275681    -5.533918
H        1.715141     5.830346    -4.101832
H        1.266376     7.825912    -2.844306
H       -0.717458     8.018966    -1.574607
H       -3.672144     5.775173    -1.868043
H       -2.894422     6.544963     0.841835
H       -3.445193     4.956314     0.255229
H       -1.682166     5.309416     0.301013
H       -4.227300     7.918905    -1.140890
H       -2.577600     8.271939    -0.512933
H       -2.887986     8.224615    -2.290955
H       -3.632859     4.666502    -4.450422
H       -5.070196     2.449743    -3.944675
H       -2.993628     0.663022    -4.428282
H       -1.012129    -0.026841    -3.034603
H       -0.951204    -0.642637    -4.724474
H       -1.396421    -1.767822    -3.408956
H       -3.116410    -1.101133    -5.958487
H       -3.324187    -2.375230    -4.721890
H       -4.666583    -1.171554    -5.043642
H       -4.097465    -2.492760    -2.754593
H       -5.409792    -2.585453    -0.735746
H       -5.809739    -0.602508     0.547263
H       -4.894497     2.859337    -0.527066
H       -4.705562     2.202848     2.215399
H       -3.603147     0.998766     1.448815
H       -3.387368     2.773300     1.174142
H       -6.943258     2.866184     0.605966
H       -6.613558     1.329731     1.520385
H       -7.109074     1.278711    -0.208836
