85
ex_0434 frame0 Isomer 2
C        0.793367     0.965193     4.011899
C        0.406072     1.256450     2.620612
C       -0.695253     2.226461     2.446776
C       -1.499075     2.624835     1.414126
C       -2.317246     3.882040     1.612245
N       -1.565225     1.882057     0.191642
C       -2.399641     2.040909    -0.990509
C       -2.959562     3.406210    -1.282862
C       -2.126763     4.449999    -1.732637
C       -2.674801     5.702779    -2.034672
C       -4.043585     5.928999    -1.861727
C       -4.868387     4.902583    -1.394188
C       -4.329451     3.646983    -1.106305
Zn      -0.256465     0.318717     0.012201
N        1.065104     0.631738     1.543883
C        1.763607    -0.660362     1.642419
C        2.975435    -0.597349     2.544383
C        4.000191     0.336977     2.309250
C        5.108174     0.397691     3.164012
C        5.202110    -0.471584     4.254828
C        4.194964    -1.410168     4.487964
C        3.090676    -1.478498     3.634924
N        0.571961     0.425437    -1.856575
C        1.722276     1.319205    -1.635818
C        2.355738     1.815226    -2.916952
C        1.618647     2.565543    -3.851116
C        2.224271     3.003693    -5.037315
C        3.560989     2.689433    -5.301505
C        4.300112     1.950858    -4.376165
C        3.705941     1.524987    -3.186218
C        0.617686    -0.838013    -2.471625
C        1.599401    -1.083855    -3.542965
C       -0.259010    -1.976861    -2.128068
C       -1.200662    -2.236654    -1.168043
C       -2.133903    -3.401297    -1.409745
N       -1.300076    -1.438830     0.018720
C       -2.210715    -1.456343     1.152920
C       -3.059386    -2.665069     1.412762
C       -4.325197    -2.807864     0.818381
C       -5.113456    -3.925810     1.110027
C       -4.636956    -4.910186     1.980706
C       -3.371902    -4.780495     2.559250
C       -2.579225    -3.670077     2.264746
H        1.653423     1.670804     3.997608
H        0.080445     1.283332     4.800787
H        1.123717    -0.038973     4.317404
H       -0.692765     2.874753     3.320408
H       -2.044432     4.671969     0.891536
H       -3.389852     3.612390     1.509279
H       -2.200348     4.317211     2.627787
H       -1.781707     1.786998    -1.879071
H       -3.189782     1.263799    -0.962499
H       -1.066463     4.284779    -1.882540
H       -2.041582     6.497874    -2.408726
H       -4.467898     6.897086    -2.094810
H       -5.927781     5.075867    -1.260901
H       -4.980102     2.857175    -0.752912
H        1.053013    -1.458705     1.947589
H        2.130136    -0.925932     0.629290
H        3.938865     1.020447     1.471444
H        5.893357     1.121164     2.985129
H        6.055114    -0.419626     4.919577
H        4.266650    -2.083583     5.332393
H        2.316323    -2.209060     3.832813
H        1.360587     2.213979    -1.084635
H        2.465890     0.815741    -0.984000
H        0.581408     2.813765    -3.662768
H        1.658720     3.583388    -5.755707
H        4.026279     3.018546    -6.222291
H        5.334048     1.703712    -4.580162
H        4.292259     0.948326    -2.482142
H        1.697303    -2.135494    -3.881851
H        2.631316    -0.709633    -3.505683
H        1.014597    -0.518406    -4.303797
H       -0.308677    -2.617085    -3.006057
H       -2.028766    -4.145964    -0.594502
H       -1.917986    -3.941650    -2.356657
H       -3.173948    -3.036531    -1.485246
H       -2.873708    -0.566495     1.085337
H       -1.605427    -1.280115     2.064991
H       -4.712664    -2.041659     0.157192
H       -6.097548    -4.023881     0.670303
H       -5.250811    -5.769519     2.215507
H       -3.006550    -5.533642     3.244119
H       -1.606662    -3.572156     2.731308
85
ex_0434 frame1 Isomer 1
C       -1.169531    -3.894881     1.540630
C       -0.634724    -2.575228     1.178897
C       -0.225247    -1.701820     2.305739
C        0.196662    -0.400939     2.439851
C        0.844737    -0.002908     3.744982
N        0.032373     0.552348     1.384902
C        0.362219     1.960473     1.233642
C        1.164182     2.660711     2.290079
C        0.535527     3.274484     3.383535
C        1.297014     3.968328     4.329227
C        2.688427     4.029625     4.202570
C        3.321803     3.396712     3.130442
C        2.565272     2.703376     2.184385
Zn      -0.600622    -0.177962    -0.417793
N       -0.536559    -2.208171    -0.166758
C       -1.310124    -2.757977    -1.289048
C       -1.051389    -4.230655    -1.517269
C        0.247255    -4.714370    -1.769465
C        0.462294    -6.085835    -1.965259
C       -0.610894    -6.980026    -1.907211
C       -1.901545    -6.505872    -1.665655
C       -2.122224    -5.139838    -1.478462
N       -2.235299     0.912590    -0.991780
C       -3.393146     0.424718    -0.235794
C       -3.357205     1.065436     1.124763
C       -3.185772     0.296002     2.285543
C       -3.132230     0.914314     3.539176
C       -3.266688     2.301353     3.644820
C       -3.453699     3.074262     2.496572
C       -3.497593     2.461247     1.240821
C       -2.223789     1.329751    -2.319081
C       -3.484236     1.799310    -2.925861
C       -1.027220     1.341674    -3.190493
C        0.293119     0.998236    -3.023994
C        1.281367     1.503400    -4.051467
N        0.732427     0.192226    -1.923033
C        2.021691    -0.353099    -1.525284
C        3.257557    -0.019504    -2.308721
C        4.070760     1.047272    -1.891352
C        5.249893     1.344290    -2.575532
C        5.615564     0.593355    -3.694603
C        4.799777    -0.455259    -4.132009
C        3.614525    -0.754699    -3.450572
H       -1.454892    -4.046630     2.601423
H       -1.964954    -4.375016     0.949837
H       -0.196757    -4.404926     1.354863
H       -0.011818    -2.347527     3.154502
H        0.896522    -0.839510     4.474212
H        1.875909     0.363154     3.583069
H        0.221156     0.781487     4.220180
H        0.952038     2.040785     0.296488
H       -0.560522     2.540239     1.023038
H       -0.541506     3.250375     3.479380
H        0.807671     4.469004     5.153987
H        3.275810     4.575021     4.929120
H        4.397628     3.451973     3.024675
H        3.068382     2.231888     1.348650
H       -2.387619    -2.539418    -1.153003
H       -0.981692    -2.231834    -2.211895
H        1.090274    -4.035797    -1.815314
H        1.460195    -6.459502    -2.159010
H       -0.444933    -8.040380    -2.050774
H       -2.733722    -7.196089    -1.620253
H       -3.128606    -4.789115    -1.289539
H       -3.346250    -0.679772    -0.171031
H       -4.361369     0.701449    -0.691124
H       -3.080125    -0.777519     2.221179
H       -2.984584     0.317629     4.429442
H       -3.225186     2.777739     4.615921
H       -3.560614     4.148640     2.579333
H       -3.639105     3.073862     0.358367
H       -3.470864     1.969560    -4.022161
H       -3.416345     2.789525    -2.418865
H       -4.471821     1.352424    -2.706692
H       -1.225021     1.993892    -4.038136
H        0.808180     2.121814    -4.843845
H        2.067041     2.118998    -3.573088
H        1.728274     0.635192    -4.574123
H        1.942113    -1.457983    -1.441603
H        2.197932    -0.005873    -0.486003
H        3.807634     1.627917    -1.015822
H        5.883727     2.150097    -2.229006
H        6.535981     0.819495    -4.216443
H        5.092576    -1.042526    -4.992282
H        2.999768    -1.581065    -3.785815
