61
ex_0529 frame0 all-trans-1
C       -3.246152    -1.011003     1.631246
P       -2.544534     0.231324     0.488425
C       -3.445742     1.810611     0.847063
C       -3.067976    -0.357811    -1.088238
C       -4.227560     0.095121    -1.709105
C       -4.525615    -0.354313    -2.996065
C       -3.663991    -1.246164    -3.652702
C       -2.515784    -1.721748    -3.011046
C       -2.252315    -1.320210    -1.699858
P       -0.856894    -2.021732    -0.744999
C        0.382810    -2.774532    -1.957647
C       -1.445117    -3.520750    -0.015220
Zr       0.053069     0.064135     0.520493
Br      -0.807366    -0.298123     2.950781
Br      -0.707359     2.511705     0.051418
Br       1.347392    -2.106732     1.145103
Br       0.325652     0.148073    -2.069518
P        1.011011     1.818280     2.189598
C       -0.379531     2.935205     2.877455
C        2.043763     1.353398     3.564210
C        2.149088     2.812750     1.263421
C        2.359896     4.157637     1.550914
C        3.317927     4.868276     0.824284
C        4.062733     4.235837    -0.176089
C        3.812922     2.910865    -0.499818
C        2.852180     2.187386     0.206410
P        2.513790     0.452648    -0.237085
C        3.419993     0.174914    -1.850939
C        3.682008    -0.547572     0.743151
H       -4.273066    -1.290675     1.359410
H       -3.348855    -0.495649     2.616029
H       -2.587764    -1.870514     1.804142
H       -3.158287     2.117907     1.881901
H       -4.533757     1.651009     0.841873
H       -3.246252     2.660253     0.167308
H       -4.876642     0.809298    -1.226463
H       -5.420682     0.000336    -3.484497
H       -3.891159    -1.581254    -4.654141
H       -1.861585    -2.414837    -3.520847
H        0.447994    -2.280504    -2.955432
H        1.395159    -2.481106    -1.561700
H        0.423788    -3.865156    -2.046512
H       -0.762010    -3.861584     0.775393
H       -1.595350    -4.240031    -0.835132
H       -2.449797    -3.286650     0.366640
H       -1.061616     3.533443     2.239091
H        0.053370     3.716961     3.521472
H       -1.082905     2.337457     3.490514
H        2.205822     2.293676     4.130259
H        1.468854     0.662401     4.212077
H        2.988714     0.924573     3.226844
H        1.797411     4.650913     2.326909
H        3.498467     5.904875     1.053170
H        4.838347     4.763534    -0.709904
H        4.412642     2.452550    -1.267513
H        3.471509     1.048407    -2.529558
H        3.987539    -0.774897    -1.918918
H        2.710783    -0.305272    -2.555939
H        3.341422    -0.580015     1.792792
H        4.675204    -0.073738     0.744431
H        3.767157    -1.574240     0.329935
61
ex_0529 frame1 all-trans-1
C       -3.246152    -1.011003     1.631246
P       -2.544534     0.231324     0.488425
C       -3.445742     1.810611     0.847063
C       -3.068248    -0.358189    -1.088006
C       -4.227560     0.095121    -1.709105
C       -4.525615    -0.354313    -2.996065
C       -3.663991    -1.246164    -3.652702
C       -2.515784    -1.721748    -3.011046
C       -2.252425    -1.320343    -1.699795
P       -0.856894    -2.021732    -0.744999
C        0.382810    -2.774532    -1.957647
C       -1.445117    -3.520750    -0.015220
Zr       0.053069     0.064135     0.520493
Br      -0.807366    -0.298123     2.950781
Br      -0.707359     2.511705     0.051418
Br       1.347392    -2.106732     1.145103
Br       0.325652     0.148073    -2.069518
P        1.011011     1.818280     2.189598
C       -0.379531     2.935205     2.877455
C        2.043763     1.353398     3.564210
C        2.149971     2.812449     1.264185
C        2.359896     4.157637     1.550914
C        3.317927     4.868276     0.824284
C        4.062733     4.235837    -0.176089
C        3.812922     2.910865    -0.499818
C        2.852484     2.187255     0.206689
P        2.513790     0.452648    -0.237085
C        3.419993     0.174914    -1.850939
C        3.682008    -0.547572     0.743151
H       -4.273066    -1.290675     1.359410
H       -3.348855    -0.495649     2.616029
H       -2.587764    -1.870514     1.804142
H       -3.158287     2.117907     1.881901
H       -4.533757     1.651009     0.841873
H       -3.246252     2.660253     0.167308
H       -4.876642     0.809298    -1.226463
H       -5.420682     0.000336    -3.484497
H       -3.891159    -1.581254    -4.654141
H       -1.861585    -2.414837    -3.520847
H        0.447994    -2.280504    -2.955432
H        1.395159    -2.481106    -1.561700
H        0.423788    -3.865156    -2.046512
H       -0.762010    -3.861584     0.775393
H       -1.595350    -4.240031    -0.835132
H       -2.449797    -3.286650     0.366640
H       -1.061616     3.533443     2.239091
H        0.053370     3.716961     3.521472
H       -1.082905     2.337457     3.490514
H        2.205822     2.293676     4.130259
H        1.468854     0.662401     4.212077
H        2.988714     0.924573     3.226844
H        1.797411     4.650913     2.326909
H        3.498467     5.904875     1.053170
H        4.838347     4.763534    -0.709904
H        4.412642     2.452550    -1.267513
H        3.471509     1.048407    -2.529558
H        3.987539    -0.774897    -1.918918
H        2.710783    -0.305272    -2.555939
H        3.341422    -0.580015     1.792792
H        4.675204    -0.073738     0.744431
H        3.767157    -1.574240     0.329935
