102
ex_0296 frame0 axial
C       -2.157857     4.142528     0.718270
C       -2.975166     3.902674    -0.549946
C       -4.116540     4.930637    -0.651181
C       -2.073253     3.887636    -1.792998
C       -1.710078     5.099792    -2.405853
C       -0.946025     5.111845    -3.563324
C       -0.516059     3.921152    -4.136066
C       -0.805829     2.677371    -3.538163
C       -0.278097     1.389040    -4.174592
C       -1.207183     0.921606    -5.290925
C        1.174926     1.521779    -4.669269
C       -1.587906     2.665402    -2.344366
N       -1.914312     1.459648    -1.661094
C       -1.033999     0.853510    -0.952426
Se       0.837063     1.194846    -0.910085
Ti       0.394608    -0.221311     1.102598
N       -1.338847    -0.186677    -0.074894
N       -2.345778    -1.131613    -0.223080
C       -2.235189    -2.198620    -1.194478
C       -1.061458    -2.970426    -1.300992
C       -0.985977    -4.042271    -2.209540
C       -2.064265    -4.334931    -3.047409
C       -3.219866    -3.558168    -2.984119
C       -3.304944    -2.500951    -2.069859
C       -3.532118    -0.964149     0.561885
C       -4.513422    -1.976993     0.657964
C       -5.651179    -1.787523     1.440923
C       -5.833738    -0.587966     2.128872
C       -4.875558     0.421261     2.041403
C       -3.736939     0.239194     1.261711
N        0.173410     1.548100     2.208485
Si       1.305090     3.001448     2.108669
C        0.524560     4.293282     3.207531
C        3.053080     2.656312     2.704735
C        1.547376     3.877155     0.459736
C        0.405674     0.883017     3.524961
C       -0.338658    -0.500424     3.708308
N       -0.030556    -1.542060     2.672980
C       -1.148287    -2.482924     2.504582
C        1.296978    -2.253325     2.734793
C        2.575644    -1.521761     2.090728
N        2.366293    -0.859909     0.775310
Si       2.882195    -1.776570    -0.733704
C        2.783473    -3.646543    -0.581073
C        2.032334    -1.358072    -2.361609
C        4.667044    -1.312715    -0.988241
H       -1.603699     5.103415     0.664508
H       -1.443767     3.306860     0.851219
H       -2.820924     4.159737     1.610406
H       -3.464772     2.912365    -0.436005
H       -3.732409     5.972318    -0.640397
H       -4.798431     4.830375     0.219914
H       -4.703048     4.768520    -1.579178
H       -2.022505     6.051059    -2.001628
H       -0.687956     6.056975    -4.023979
H        0.069056     3.990354    -5.039946
H       -0.283412     0.569911    -3.436767
H       -0.846431    -0.047522    -5.698485
H       -2.226513     0.759355    -4.876554
H       -1.258979     1.669533    -6.107986
H        1.832914     1.883532    -3.850695
H        1.254865     2.222235    -5.526203
H        1.552460     0.537835    -5.017421
H       -0.225347    -2.775535    -0.649770
H       -0.095118    -4.657264    -2.261069
H       -2.008614    -5.163629    -3.746034
H       -4.054448    -3.780818    -3.638377
H       -4.216524    -1.919253    -2.044062
H       -4.400826    -2.933364     0.166400
H       -6.386568    -2.577186     1.518727
H       -6.714367    -0.444390     2.737473
H       -5.007244     1.348646     2.580465
H       -3.009311     1.038172     1.221361
H        0.811516     5.307684     2.862677
H        0.852652     4.144259     4.255131
H       -0.578146     4.189524     3.151891
H        3.537310     1.916929     2.033683
H        3.637427     3.599360     2.689146
H        3.048740     2.269573     3.743210
H        0.587255     4.069233    -0.054482
H        2.241030     3.308713    -0.188884
H        2.051248     4.846869     0.646447
H        1.476645     0.659572     3.656498
H        0.098239     1.568508     4.344076
H       -1.414788    -0.220793     3.646173
H       -0.162868    -0.908647     4.726100
H       -2.115846    -1.953823     2.444697
H       -1.022340    -3.079090     1.579847
H       -1.198129    -3.171151     3.375981
H        1.212191    -3.201905     2.162221
H        1.522584    -2.547144     3.784317
H        3.425381    -2.238595     2.044980
H        2.897808    -0.729519     2.785135
H        3.445628    -4.001521     0.232460
H        3.130589    -4.097162    -1.537773
H        1.746141    -3.982392    -0.394028
H        2.439460    -2.007055    -3.164998
H        0.940309    -1.519200    -2.306838
H        2.252174    -0.316414    -2.655383
H        4.723416    -0.210223    -1.106672
H        5.071893    -1.803814    -1.896190
H        5.251225    -1.616476    -0.096820
102
ex_0296 frame1 axial
C       -2.157857     4.142528     0.718270
C       -2.975166     3.902674    -0.549946
C       -4.116540     4.930637    -0.651181
C       -2.072346     3.887698    -1.792340
C       -1.710078     5.099792    -2.405853
C       -0.946025     5.111845    -3.563324
C       -0.516059     3.921152    -4.136066
C       -0.804892     2.677450    -3.537547
C       -0.278097     1.389040    -4.174592
C       -1.207183     0.921606    -5.290925
C        1.174926     1.521779    -4.669269
C       -1.587283     2.665465    -2.343957
N       -1.914312     1.459648    -1.661094
C       -1.033999     0.853510    -0.952426
Se       0.837063     1.194846    -0.910085
Ti       0.394608    -0.221311     1.102598
N       -1.338847    -0.186677    -0.074894
N       -2.345778    -1.131613    -0.223080
C       -2.235189    -2.198620    -1.194478
C       -1.061458    -2.970426    -1.300992
C       -0.985977    -4.042271    -2.209540
C       -2.064265    -4.334931    -3.047409
C       -3.219866    -3.558168    -2.984119
C       -3.304944    -2.500951    -2.069859
C       -3.532118    -0.964149     0.561885
C       -4.513422    -1.976993     0.657964
C       -5.651179    -1.787523     1.440923
C       -5.833738    -0.587966     2.128872
C       -4.875558     0.421261     2.041403
C       -3.736939     0.239194     1.261711
N        0.173410     1.548100     2.208485
Si       1.305090     3.001448     2.108669
C        0.524560     4.293282     3.207531
C        3.053080     2.656312     2.704735
C        1.547376     3.877155     0.459736
C        0.405674     0.883017     3.524961
C       -0.338658    -0.500424     3.708308
N       -0.030556    -1.542060     2.672980
C       -1.148287    -2.482924     2.504582
C        1.296978    -2.253325     2.734793
C        2.575644    -1.521761     2.090728
N        2.366293    -0.859909     0.775310
Si       2.882195    -1.776570    -0.733704
C        2.783473    -3.646543    -0.581073
C        2.032334    -1.358072    -2.361609
C        4.667044    -1.312715    -0.988241
H       -1.603699     5.103415     0.664508
H       -1.443767     3.306860     0.851219
H       -2.820924     4.159737     1.610406
H       -3.464772     2.912365    -0.436005
H       -3.732409     5.972318    -0.640397
H       -4.798431     4.830375     0.219914
H       -4.703048     4.768520    -1.579178
H       -2.022505     6.051059    -2.001628
H       -0.687956     6.056975    -4.023979
H        0.069056     3.990354    -5.039946
H       -0.283412     0.569911    -3.436767
H       -0.846431    -0.047522    -5.698485
H       -2.226513     0.759355    -4.876554
H       -1.258979     1.669533    -6.107986
H        1.832914     1.883532    -3.850695
H        1.254865     2.222235    -5.526203
H        1.552460     0.537835    -5.017421
H       -0.225347    -2.775535    -0.649770
H       -0.095118    -4.657264    -2.261069
H       -2.008614    -5.163629    -3.746034
H       -4.054448    -3.780818    -3.638377
H       -4.216524    -1.919253    -2.044062
H       -4.400826    -2.933364     0.166400
H       -6.386568    -2.577186     1.518727
H       -6.714367    -0.444390     2.737473
H       -5.007244     1.348646     2.580465
H       -3.009311     1.038172     1.221361
H        0.811516     5.307684     2.862677
H        0.852652     4.144259     4.255131
H       -0.578146     4.189524     3.151891
H        3.537310     1.916929     2.033683
H        3.637427     3.599360     2.689146
H        3.048740     2.269573     3.743210
H        0.587255     4.069233    -0.054482
H        2.241030     3.308713    -0.188884
H        2.051248     4.846869     0.646447
H        1.476645     0.659572     3.656498
H        0.098239     1.568508     4.344076
H       -1.414788    -0.220793     3.646173
H       -0.162868    -0.908647     4.726100
H       -2.115846    -1.953823     2.444697
H       -1.022340    -3.079090     1.579847
H       -1.198129    -3.171151     3.375981
H        1.212191    -3.201905     2.162221
H        1.522584    -2.547144     3.784317
H        3.425381    -2.238595     2.044980
H        2.897808    -0.729519     2.785135
H        3.445628    -4.001521     0.232460
H        3.130589    -4.097162    -1.537773
H        1.746141    -3.982392    -0.394028
H        2.439460    -2.007055    -3.164998
H        0.940309    -1.519200    -2.306838
H        2.252174    -0.316414    -2.655383
H        4.723416    -0.210223    -1.106672
H        5.071893    -1.803814    -1.896190
H        5.251225    -1.616476    -0.096820
102
ex_0296 frame2 axial_mirror
C       -2.157857     4.142528    -0.718270
C       -2.975166     3.902674     0.549946
C       -4.116540     4.930637     0.651181
C       -2.072346     3.887698     1.792340
C       -1.710078     5.099792     2.405853
C       -0.946025     5.111845     3.563324
C       -0.516059     3.921152     4.136066
C       -0.804892     2.677450     3.537547
C       -0.278097     1.389040     4.174592
C       -1.207183     0.921606     5.290925
C        1.174926     1.521779     4.669269
C       -1.587283     2.665465     2.343957
N       -1.914312     1.459648     1.661094
C       -1.033999     0.853510     0.952426
Se       0.837063     1.194846     0.910085
Ti       0.394608    -0.221311    -1.102598
N       -1.338847    -0.186677     0.074894
N       -2.345778    -1.131613     0.223080
C       -2.235189    -2.198620     1.194478
C       -1.061458    -2.970426     1.300992
C       -0.985977    -4.042271     2.209540
C       -2.064265    -4.334931     3.047409
C       -3.219866    -3.558168     2.984119
C       -3.304944    -2.500951     2.069859
C       -3.532118    -0.964149    -0.561885
C       -4.513422    -1.976993    -0.657964
C       -5.651179    -1.787523    -1.440923
C       -5.833738    -0.587966    -2.128872
C       -4.875558     0.421261    -2.041403
C       -3.736939     0.239194    -1.261711
N        0.173410     1.548100    -2.208485
Si       1.305090     3.001448    -2.108669
C        0.524560     4.293282    -3.207531
C        3.053080     2.656312    -2.704735
C        1.547376     3.877155    -0.459736
C        0.405674     0.883017    -3.524961
C       -0.338658    -0.500424    -3.708308
N       -0.030556    -1.542060    -2.672980
C       -1.148287    -2.482924    -2.504582
C        1.296978    -2.253325    -2.734793
C        2.575644    -1.521761    -2.090728
N        2.366293    -0.859909    -0.775310
Si       2.882195    -1.776570     0.733704
C        2.783473    -3.646543     0.581073
C        2.032334    -1.358072     2.361609
C        4.667044    -1.312715     0.988241
H       -1.603699     5.103415    -0.664508
H       -1.443767     3.306860    -0.851219
H       -2.820924     4.159737    -1.610406
H       -3.464772     2.912365     0.436005
H       -3.732409     5.972318     0.640397
H       -4.798431     4.830375    -0.219914
H       -4.703048     4.768520     1.579178
H       -2.022505     6.051059     2.001628
H       -0.687956     6.056975     4.023979
H        0.069056     3.990354     5.039946
H       -0.283412     0.569911     3.436767
H       -0.846431    -0.047522     5.698485
H       -2.226513     0.759355     4.876554
H       -1.258979     1.669533     6.107986
H        1.832914     1.883532     3.850695
H        1.254865     2.222235     5.526203
H        1.552460     0.537835     5.017421
H       -0.225347    -2.775535     0.649770
H       -0.095118    -4.657264     2.261069
H       -2.008614    -5.163629     3.746034
H       -4.054448    -3.780818     3.638377
H       -4.216524    -1.919253     2.044062
H       -4.400826    -2.933364    -0.166400
H       -6.386568    -2.577186    -1.518727
H       -6.714367    -0.444390    -2.737473
H       -5.007244     1.348646    -2.580465
H       -3.009311     1.038172    -1.221361
H        0.811516     5.307684    -2.862677
H        0.852652     4.144259    -4.255131
H       -0.578146     4.189524    -3.151891
H        3.537310     1.916929    -2.033683
H        3.637427     3.599360    -2.689146
H        3.048740     2.269573    -3.743210
H        0.587255     4.069233     0.054482
H        2.241030     3.308713     0.188884
H        2.051248     4.846869    -0.646447
H        1.476645     0.659572    -3.656498
H        0.098239     1.568508    -4.344076
H       -1.414788    -0.220793    -3.646173
H       -0.162868    -0.908647    -4.726100
H       -2.115846    -1.953823    -2.444697
H       -1.022340    -3.079090    -1.579847
H       -1.198129    -3.171151    -3.375981
H        1.212191    -3.201905    -2.162221
H        1.522584    -2.547144    -3.784317
H        3.425381    -2.238595    -2.044980
H        2.897808    -0.729519    -2.785135
H        3.445628    -4.001521    -0.232460
H        3.130589    -4.097162     1.537773
H        1.746141    -3.982392     0.394028
H        2.439460    -2.007055     3.164998
H        0.940309    -1.519200     2.306838
H        2.252174    -0.316414     2.655383
H        4.723416    -0.210223     1.106672
H        5.071893    -1.803814     1.896190
H        5.251225    -1.616476     0.096820
