51
ex_0438 frame0 SP-4-1
Pd       0.000000     0.000000     0.000000
Cl       2.410000     0.000000     0.000000
Cl       0.000000     2.410000     0.000000
C       -5.025981     2.428208     6.222915
O       -4.836493     1.118608     5.735266
C       -4.373397     0.858609     4.450288
C       -4.214282    -0.459236     4.047757
C       -3.751271    -0.696293     2.762308
C       -3.472154     0.382657     1.948641
Te      -2.770000     0.000000     0.000000
C       -3.490863    -0.394557    -2.000508
C       -2.346799    -1.044569    -2.686946
O       -2.691116    -1.363421    -4.034579
C       -3.630498     1.696685     2.349129
C       -4.093562     1.935823     3.634672
H       -5.729692     2.353897     7.099947
H       -4.084811     2.910862     6.519288
H       -5.574161     3.055299     5.486163
H       -4.438901    -1.294703     4.701513
H       -3.603289    -1.713442     2.381312
H       -3.782361     0.572493    -2.422439
H       -4.358429    -1.077683    -1.897652
H       -1.486578    -0.328863    -2.687680
H       -2.038952    -1.942551    -2.130323
H       -1.932823    -1.832455    -4.494292
H       -3.390526     2.489453     1.653820
H       -4.219595     2.956131     3.954202
C       -1.559674    -5.364813     6.446465
O       -0.355713    -4.856134     5.903894
C       -0.319244    -4.410867     4.612090
C       -1.409096    -4.416338     3.753296
C       -1.332631    -3.956986     2.451814
C       -0.124122    -3.473604     1.987941
Te       0.000000    -2.770000     0.000000
C        0.128522    -3.486154    -2.021647
C        1.555690    -3.866743    -2.266798
O        1.968219    -4.905012    -1.398727
C        0.966541    -3.453887     2.805127
C        0.884854    -3.914838     4.107154
H       -1.603120    -6.446595     6.222130
H       -2.432931    -4.781121     6.148385
H       -1.460756    -5.188772     7.557540
H       -2.348366    -4.789745     4.107022
H       -2.213316    -3.980549     1.814614
H       -0.551691    -4.349047    -2.106222
H       -0.198979    -2.718756    -2.729114
H        2.255471    -3.057467    -2.120591
H        1.651302    -4.282056    -3.295979
H        1.805613    -5.814679    -1.818200
H        1.889511    -3.065993     2.395292
H        1.736805    -3.902536     4.754682
51
ex_0438 frame1 SP-4-1-conf1
Pd       0.000000     0.000000     0.000000
Cl       2.410000     0.000000     0.000000
Cl       0.000000     2.410000     0.000000
C       -5.025981     2.428208     6.222915
O       -4.836493     1.118608     5.735266
C       -4.373397     0.858609     4.450288
C       -4.214282    -0.459236     4.047757
C       -3.751271    -0.696293     2.762308
C       -3.472154     0.382657     1.948641
Te      -2.770000     0.000000     0.000000
C       -3.490863    -0.394557    -2.000508
C       -2.346799    -1.044569    -2.686946
O       -2.691116    -1.363421    -4.034579
C       -3.630498     1.696685     2.349129
C       -4.093562     1.935823     3.634672
H       -5.729692     2.353897     7.099947
H       -4.084811     2.910862     6.519288
H       -5.574161     3.055299     5.486163
H       -4.438901    -1.294703     4.701513
H       -3.603289    -1.713442     2.381312
H       -3.782361     0.572493    -2.422439
H       -4.358429    -1.077683    -1.897652
H       -1.486578    -0.328863    -2.687680
H       -2.038952    -1.942551    -2.130323
H       -1.932823    -1.832455    -4.494292
H       -3.390526     2.489453     1.653820
H       -4.219595     2.956131     3.954202
C       -1.807822    -5.025981     6.430603
O       -0.552206    -4.836493     5.817184
C       -0.419153    -4.373397     4.512935
C        0.852995    -4.214282     3.983420
C        0.963169    -3.751271     2.680947
C       -0.190201    -3.472154     1.976727
Te       0.000000    -2.770000     0.000000
C        0.196970    -3.490863    -2.029510
C        0.776716    -2.346799    -2.776241
O        0.962210    -2.691116    -4.148602
C       -1.458750    -3.630498     2.503836
C       -1.570986    -4.093562     3.806606
H       -1.648074    -5.729692     7.296159
H       -2.259168    -4.084811     6.772768
H       -2.503976    -5.574161     5.758727
H        1.748407    -4.438901     4.552313
H        1.938170    -3.603289     2.202278
H       -0.806716    -3.782361    -2.354818
H        0.886882    -4.358429    -1.993973
H        0.037434    -1.521684    -2.721597
H        1.724841    -2.038952    -2.310131
H        1.384024    -1.932823    -4.651992
H       -2.315732    -3.390526     1.889412
H       -2.555144    -4.219595     4.224413
51
ex_0438 frame2 SP-4-1-conf4
Pd       0.000000     0.000000     0.000000
Cl       2.410000     0.000000     0.000000
Cl       0.000000     2.410000     0.000000
C       -5.025981     2.683263    -6.117268
O       -4.836493     3.264470    -4.846421
C       -4.372533     2.539457    -3.750880
C       -4.213916     3.185901    -2.537031
C       -3.752485     2.445784    -1.465368
C       -3.473344     1.107982    -1.652409
Te      -2.770000     0.000000     0.000000
C       -3.490863    -1.135579     1.693566
C       -2.338496    -1.175794     2.675385
O       -2.691116    -1.888794     3.816962
C       -3.630583     0.461587    -2.860925
C       -4.091547     1.200964    -3.931505
H       -5.729692     3.355964    -6.684878
H       -4.084811     2.551543    -6.668123
H       -5.574161     1.718880    -6.039726
H       -4.438901     4.239965    -2.408979
H       -3.603289     2.895428    -0.472255
H       -3.782361    -2.117737     1.308109
H       -4.358429    -0.579806     2.103880
H       -1.486578    -1.667935     2.133018
H       -2.038952    -0.132775     2.879957
H       -1.941126    -1.867745     4.436880
H       -3.390526    -0.590882    -2.929736
H       -4.219595     0.705743    -4.886344
C        3.735996    -5.851093     5.271105
O        3.788572    -4.650791     4.558046
C        2.921471    -4.269674     3.546071
C        1.900898    -5.101984     3.165771
C        1.051267    -4.702057     2.157426
C        1.244771    -3.473239     1.551595
Te       0.000000    -2.770000     0.000000
C       -1.263968    -3.484085    -1.575525
C       -0.417872    -3.936223    -2.759928
O       -1.224814    -4.403544    -3.793232
C        2.290485    -2.632036     1.948614
C        3.139903    -3.039582     2.961593
H        3.050754    -5.830181     6.143947
H        3.450096    -6.720903     4.618011
H        4.773422    -6.041723     5.670580
H        1.718120    -6.073050     3.617991
H        0.223112    -5.301321     1.800636
H       -1.883563    -4.321338    -1.214556
H       -1.950253    -2.696760    -1.909400
H        0.276974    -4.740712    -2.473273
H        0.143474    -3.070822    -3.153972
H       -0.752831    -5.123141    -4.262905
H        2.435305    -1.667094     1.466533
H        3.955530    -2.417008     3.292503
51
ex_0438 frame3 SP-4-1-conf5
Pd       0.000000     0.000000     0.000000
Cl       2.410000     0.000000     0.000000
Cl       0.000000     2.410000     0.000000
C       -5.364813     5.653320    -3.468353
O       -4.856134     5.507710    -2.155835
C       -4.410867     4.289861    -1.723481
C       -4.414460     3.138057    -2.490339
C       -3.956954     1.922600    -2.022530
C       -3.475422     1.855683    -0.733446
Te      -2.770000     0.000000     0.000000
C       -3.486154    -1.883915     0.744605
C       -3.906121    -1.667655     2.179951
O       -4.905012    -0.724930     2.303215
C       -3.453919     2.966378     0.055973
C       -3.916775     4.176063    -0.430436
H       -6.446595     5.426504    -3.440632
H       -4.781121     5.100899    -4.207448
H       -5.188772     6.740892    -3.716261
H       -4.789745     3.184694    -3.498596
H       -3.980549     1.045174    -2.664433
H       -4.349047    -2.173774     0.123456
H       -2.718756    -2.657844     0.650786
H       -3.057467    -1.323317     2.798730
H       -4.282056    -2.627611     2.585717
H       -5.775301    -1.184272     2.275616
H       -3.065993     2.860629     1.060417
H       -3.902536     5.058442     0.188835
C       -1.559674    -5.364813     6.446465
O       -0.355713    -4.856134     5.903894
C       -0.319244    -4.410867     4.612090
C       -1.403423    -4.414460     3.752278
C       -1.332485    -3.956954     2.451836
C       -0.126596    -3.475422     1.991350
Te       0.000000    -2.770000     0.000000
C        0.128522    -3.486154    -2.021647
C        1.560742    -3.906121    -2.257730
O        1.968219    -4.905012    -1.398727
C        0.966395    -3.453919     2.805105
C        0.875983    -3.916775     4.105781
H       -1.603120    -6.446595     6.222130
H       -2.432931    -4.781121     6.148385
H       -1.460756    -5.188772     7.557540
H       -2.348366    -4.789745     4.107022
H       -2.213316    -3.980549     1.814614
H       -0.551691    -4.349047    -2.106222
H       -0.198979    -2.718756    -2.729114
H        2.255471    -3.057467    -2.120591
H        1.651302    -4.282056    -3.295979
H        1.800561    -5.775301    -1.827268
H        1.889511    -3.065993     2.395292
H        1.736805    -3.902536     4.754682
51
ex_0438 frame4 SP-4-1-conf6
Pd       0.000000     0.000000     0.000000
Cl       2.410000     0.000000     0.000000
Cl       0.000000     2.410000     0.000000
C       -5.851093     2.817425    -5.814149
O       -4.650791     2.986652    -5.119470
C       -4.270182     2.299587    -3.980990
C       -5.101984     1.353890    -3.435477
C       -4.702830     0.678932    -2.298039
C       -3.473239     0.972403    -1.735319
Te      -2.770000     0.000000     0.000000
C       -3.475421    -1.002275     1.756185
C       -3.914717     0.043574     2.763226
O       -4.359134    -0.546116     3.950728
C       -2.630249     1.938113    -2.297213
C       -3.039582     2.609604    -3.438022
H       -5.830181     1.997860    -6.562297
H       -6.720903     2.642922    -5.122904
H       -6.041723     3.774948    -6.378934
H       -6.073050     1.099171    -3.851444
H       -5.301321    -0.076313    -1.812801
H       -4.329436    -1.649315     1.494150
H       -2.690774    -1.636026     2.176039
H       -4.740712     0.680293     2.393950
H       -3.070822     0.660656     3.087339
H       -5.132701    -0.032148     4.335554
H       -1.802459     2.197773    -1.859010
H       -2.417008     3.359639    -3.898669
C       -3.268800    -5.025981    -5.825446
O       -3.729100    -4.891136    -4.530665
C       -2.890846    -4.376705    -3.483999
C       -3.420230    -4.168054    -2.276805
C       -2.576831    -3.751368    -1.215014
C       -1.261949    -3.490338    -1.515032
Te       0.000000    -2.770000     0.000000
C        1.295801    -3.490863     1.574359
C        1.415934    -2.345850     2.516344
O        2.253119    -2.691116     3.613890
C       -0.753944    -3.595857    -2.807191
C       -1.567106    -4.122603    -3.804624
H       -3.993799    -5.729692    -6.324528
H       -3.191597    -4.084811    -6.386544
H       -2.301457    -5.574161    -5.842613
H       -4.455282    -4.438901    -1.982662
H       -2.927739    -3.603289    -0.186752
H        2.235543    -3.782361     1.094673
H        0.782832    -4.358429     2.037072
H        1.893148    -1.515902     1.952362
H        0.413862    -2.038952     2.853156
H        2.308747    -1.933772     4.264083
H        0.319693    -3.399598    -2.979714
H       -1.180352    -4.219595    -4.793871
51
ex_0438 frame5 SP-4-1-conf7
Pd       0.000000     0.000000     0.000000
Cl       2.410000     0.000000     0.000000
Cl       0.000000     2.410000     0.000000
C       -5.025981    -2.428208    -6.222915
O       -4.836493    -1.118608    -5.735266
C       -4.372533    -0.856605    -4.447940
C       -4.213916     0.458820    -4.046724
C       -3.752485     0.693258    -2.765602
C       -3.473344    -0.384969    -1.951891
Te      -2.770000     0.000000     0.000000
C       -3.490863     0.394557     2.000508
C       -2.338496     1.060371     2.723195
O       -2.691116     1.363421     4.034579
C       -3.630583    -1.696588    -2.349371
C       -4.091547    -1.930784    -3.629204
H       -5.729692    -2.353897    -7.099947
H       -4.084811    -2.910862    -6.519288
H       -5.574161    -3.055299    -5.486163
H       -4.438901     1.294703    -4.701513
H       -3.603289     1.713442    -2.381312
H       -3.782361    -0.572493     2.422439
H       -4.358429     1.077683     1.897652
H       -1.486578     0.328863     2.687680
H       -2.038952     1.942551     2.130323
H       -1.941126     1.816653     4.458043
H       -3.390526    -2.489453    -1.653820
H       -4.219595    -2.956131    -3.954202
C        0.306789    -4.791624     6.859989
O       -0.699548    -4.837465     5.867330
C       -0.515228    -4.371411     4.574888
C       -1.578237    -4.476573     3.709127
C       -1.453964    -4.029967     2.411282
C       -0.257047    -3.468823     1.959919
Te       0.000000    -2.770000     0.000000
C        0.263541    -3.486477    -2.009431
C       -0.522218    -2.526918    -2.901277
O       -0.384774    -2.945823    -4.213955
C        0.816762    -3.363497     2.837401
C        0.666876    -3.816655     4.127318
H        0.968412    -3.905453     6.763733
H        0.852450    -5.744688     6.994159
H       -0.225180    -4.641939     7.845420
H       -2.515810    -4.909704     4.041966
H       -2.247500    -4.082613     1.681710
H        1.338946    -3.507801    -2.254262
H       -0.112463    -4.507848    -2.145979
H       -0.137470    -1.503658    -2.729095
H       -1.570310    -2.555751    -2.550959
H        0.543058    -2.659392    -4.484052
H        1.755056    -2.941346     2.540759
H        1.506669    -3.731248     4.803752
51
ex_0438 frame6 SP-4-1-conf8
Pd       0.000000     0.000000     0.000000
Cl       2.410000     0.000000     0.000000
Cl       0.000000     2.410000     0.000000
C       -5.364813     6.358363    -1.886985
O       -4.856134     5.878011    -0.656876
C       -4.410867     4.589757    -0.554457
C       -4.414460     3.675678    -1.593293
C       -3.956954     2.380558    -1.456008
C       -3.475422     1.982281    -0.228168
Te      -2.770000     0.000000     0.000000
C       -3.486154    -2.012440     0.231640
C       -3.906121    -2.175044     1.674050
O       -4.905012    -1.296345     2.037109
C       -3.453919     2.850814     0.821821
C       -3.916775     4.145172     0.665076
H       -6.446595     6.132101    -1.918913
H       -4.781121     6.016058    -2.743873
H       -5.188772     7.473041    -1.844961
H       -4.789745     3.981681    -2.555125
H       -3.980549     1.699167    -2.303134
H       -4.349047    -2.131657    -0.443365
H       -2.718756    -2.735716    -0.059289
H       -3.057467    -2.002590     2.360866
H       -4.282056    -3.207310     1.817536
H       -5.775301    -1.732892     1.891564
H       -3.065993     2.488699     1.764669
H       -3.902536     4.837206     1.491622
C        3.735996    -5.851093     5.271105
O        3.788572    -4.650791     4.558046
C        2.921471    -4.269674     3.546071
C        1.900898    -5.101984     3.165771
C        1.051267    -4.702057     2.157426
C        1.244771    -3.473239     1.551595
Te       0.000000    -2.770000     0.000000
C       -1.263968    -3.484085    -1.575525
C       -0.417872    -3.936223    -2.759928
O       -1.224814    -4.403544    -3.793232
C        2.290485    -2.632036     1.948614
C        3.139903    -3.039582     2.961593
H        3.050754    -5.830181     6.143947
H        3.450096    -6.720903     4.618011
H        4.773422    -6.041723     5.670580
H        1.718120    -6.073050     3.617991
H        0.223112    -5.301321     1.800636
H       -1.883563    -4.321338    -1.214556
H       -1.950253    -2.696760    -1.909400
H        0.276974    -4.740712    -2.473273
H        0.143474    -3.070822    -3.153972
H       -0.752831    -5.123141    -4.262905
H        2.435305    -1.667094     1.466533
H        3.955530    -2.417008     3.292503
51
ex_0438 frame7 SP-4-1-conf9
Pd       0.000000     0.000000     0.000000
Cl       2.410000     0.000000     0.000000
Cl       0.000000     2.410000     0.000000
C       -5.851093     2.817425    -5.814149
O       -4.650791     2.986652    -5.119470
C       -4.269674     2.297947    -3.978575
C       -5.101984     1.353890    -3.435477
C       -4.702057     0.681820    -2.301037
C       -3.473239     0.972403    -1.735319
Te      -2.770000     0.000000     0.000000
C       -3.484085    -0.987400     1.762083
C       -3.936223     0.042107     2.791065
O       -4.403544    -0.583749     3.943097
C       -2.632036     1.938506    -2.299046
C       -3.039582     2.609604    -3.438022
H       -5.830181     1.997860    -6.562297
H       -6.720903     2.642922    -5.122904
H       -6.041723     3.774948    -6.378934
H       -6.073050     1.099171    -3.851444
H       -5.301321    -0.076313    -1.812801
H       -4.321338    -1.657959     1.508021
H       -2.696760    -1.609369     2.204366
H       -4.740712     0.680293     2.393950
H       -3.070822     0.660656     3.087339
H       -5.123141    -0.040896     4.328676
H       -1.667094     2.160700    -1.847378
H       -2.417008     3.359639    -3.898669
C       -1.559674    -5.364813     6.446465
O       -0.355713    -4.856134     5.903894
C       -0.319244    -4.410867     4.612090
C       -1.403423    -4.414460     3.752278
C       -1.332485    -3.956954     2.451836
C       -0.126596    -3.475422     1.991350
Te       0.000000    -2.770000     0.000000
C        0.128522    -3.486154    -2.021647
C        1.560742    -3.906121    -2.257730
O        1.968219    -4.905012    -1.398727
C        0.966395    -3.453919     2.805105
C        0.875983    -3.916775     4.105781
H       -1.603120    -6.446595     6.222130
H       -2.432931    -4.781121     6.148385
H       -1.460756    -5.188772     7.557540
H       -2.348366    -4.789745     4.107022
H       -2.213316    -3.980549     1.814614
H       -0.551691    -4.349047    -2.106222
H       -0.198979    -2.718756    -2.729114
H        2.255471    -3.057467    -2.120591
H        1.651302    -4.282056    -3.295979
H        1.800561    -5.775301    -1.827268
H        1.889511    -3.065993     2.395292
H        1.736805    -3.902536     4.754682
51
ex_0438 frame8 SP-4-1-conf10
Pd       0.000000     0.000000     0.000000
Cl       2.410000     0.000000     0.000000
Cl       0.000000     2.410000     0.000000
C       -4.791624     0.673994    -6.833688
O       -4.837465    -0.384096    -5.896388
C       -4.371411    -0.269306    -4.595926
C       -4.476809    -1.377997    -3.788272
C       -4.029967    -1.322647    -2.485739
C       -3.468823    -0.151640    -1.970878
Te      -2.770000     0.000000     0.000000
C       -3.486477     0.155471     2.020667
C       -2.524476    -0.695003     2.838929
O       -2.945823    -0.610058     4.187278
C       -3.363497     0.967652    -2.789551
C       -3.816419     0.887923    -4.085753
H       -3.905453     1.329508    -6.702113
H       -5.744688     1.226061    -6.938422
H       -4.641939     0.195602    -7.846213
H       -4.909704    -2.295574    -4.170987
H       -4.082613    -2.154143    -1.799743
H       -3.547441     1.150127     2.306608
H       -4.507848    -0.227310     2.136867
H       -1.503658    -0.283533     2.717805
H       -2.555751    -1.704766     2.463136
H       -2.661835     0.320012     4.536903
H       -2.941346     1.888700    -2.443050
H       -3.731248     1.761950    -4.716102
C       -3.268800    -5.025981    -5.825446
O       -3.722902    -4.836493    -4.503839
C       -2.894522    -4.372969    -3.485951
C       -3.419694    -4.214224    -2.213492
C       -2.576997    -3.751699    -1.216214
C       -1.263528    -3.472534    -1.533561
Te       0.000000    -2.770000     0.000000
C        1.295801    -3.490863     1.574359
C        1.419017    -2.344427     2.522381
O        2.253119    -2.691116     3.613890
C       -0.738988    -3.630498    -2.801972
C       -1.580463    -4.092859    -3.799962
H       -3.993799    -5.729692    -6.324528
H       -3.191597    -4.084811    -6.386544
H       -2.301457    -5.574161    -5.842613
H       -4.455282    -4.438901    -1.982662
H       -2.927739    -3.603289    -0.186752
H        2.235543    -3.782361     1.094673
H        0.782832    -4.358429     2.037072
H        1.885885    -1.507229     1.954511
H        0.413862    -2.038952     2.853156
H        2.305663    -1.935195     4.258047
H        0.293327    -3.455840    -2.930269
H       -1.180352    -4.219595    -4.793871
51
ex_0438 frame9 SP-4-1-reembed1
Pd       0.000000     0.000000     0.000000
Cl       2.410000     0.000000     0.000000
Cl       0.000000     2.410000     0.000000
C       -6.643408    -2.508742    -5.456277
O       -6.304716    -3.090107    -4.210440
C       -5.522822    -2.355890    -3.327716
C       -5.207800    -2.961725    -2.106459
C       -4.433028    -2.296140    -1.172313
C       -3.961230    -1.012157    -1.447016
Te      -2.770000     0.000000     0.000000
C       -3.905446     1.012157     1.447016
C       -5.394342     0.955892     1.204947
O       -5.729671    -0.412919     1.221290
C       -4.281151    -0.426956    -2.658411
C       -5.058765    -1.086644    -3.603991
H       -7.446920    -1.740628    -5.294306
H       -7.016455    -3.343073    -6.097551
H       -5.768993    -2.032493    -5.941949
H       -5.561352    -3.956654    -1.869191
H       -4.204818    -2.794753    -0.230245
H       -3.622844     2.095500     1.430243
H       -3.633701     0.671608     2.467042
H       -5.625577     1.397850     0.237924
H       -5.948112     1.418419     2.046456
H       -5.192537    -0.819730     1.931318
H       -3.906548     0.555492    -2.840995
H       -5.298301    -0.620048    -4.538316
C        3.181276    -6.643408    -5.093548
O        3.599737    -6.304716    -3.783974
C        2.759375    -5.522822    -3.001626
C        3.205230    -5.207800    -1.713326
C        2.426414    -4.433028    -0.871258
C        1.187707    -3.961230    -1.306778
Te       0.000000    -2.770000     0.000000
C       -1.187707    -3.905446     1.306778
C       -1.101159    -5.394342     1.073813
O        0.254496    -5.729671     1.263837
C        0.761066    -4.281151    -2.582676
C        1.535484    -5.058765    -3.436834
H        2.398812    -7.446920    -5.030424
H        4.090282    -7.016455    -5.623688
H        2.770553    -5.768993    -5.635763
H        4.161976    -5.561352    -1.351642
H        2.801367    -4.204818     0.126498
H       -2.260151    -3.622844     1.152578
H       -0.979438    -3.633701     2.361791
H       -1.416746    -5.625577     0.058498
H       -1.666798    -5.948112     1.849778
H        0.567855    -5.192537     2.019774
H       -0.190245    -3.906548    -2.888534
H        1.191307    -5.298301    -4.422845
51
ex_0438 frame10 SP-4-1-reembed2
Pd       0.000000     0.000000     0.000000
Cl       2.410000     0.000000     0.000000
Cl       0.000000     2.410000     0.000000
C       -6.643408     5.979646     0.555504
O       -6.304716     5.191401    -0.570891
C       -5.522822     4.059831    -0.376403
C       -5.207800     3.305110    -1.511699
C       -4.433028     2.163322    -1.402359
C       -3.961230     1.759231    -0.153046
Te      -2.770000     0.000000     0.000000
C       -3.905446    -1.759231     0.153046
C       -5.394342    -1.521461     0.225354
O       -5.729671    -0.851209    -0.968244
C       -4.281151     2.515729     0.959451
C       -5.058765     3.664469     0.860934
H       -7.446920     5.455318     1.139725
H       -7.016455     6.952171     0.153590
H       -5.768993     6.162125     1.210784
H       -5.561352     3.597093    -2.491967
H       -4.204818     1.596775    -2.305204
H       -3.622844    -2.286377     1.099635
H       -3.633701    -2.472325    -0.651892
H       -5.625577    -0.904973     1.091612
H       -5.948112    -2.481492     0.205159
H       -5.192537    -1.262705    -1.675566
H       -3.906548     2.182628     1.901568
H       -5.298301     4.240321     1.732181
C        3.181276    -6.643408    -5.093548
O        3.599737    -6.304716    -3.783974
C        2.759375    -5.522822    -3.001626
C        3.205230    -5.207800    -1.713326
C        2.426414    -4.433028    -0.871258
C        1.187707    -3.961230    -1.306778
Te       0.000000    -2.770000     0.000000
C       -1.187707    -3.905446     1.306778
C       -1.101159    -5.394342     1.073813
O        0.254496    -5.729671     1.263837
C        0.761066    -4.281151    -2.582676
C        1.535484    -5.058765    -3.436834
H        2.398812    -7.446920    -5.030424
H        4.090282    -7.016455    -5.623688
H        2.770553    -5.768993    -5.635763
H        4.161976    -5.561352    -1.351642
H        2.801367    -4.204818     0.126498
H       -2.260151    -3.622844     1.152578
H       -0.979438    -3.633701     2.361791
H       -1.416746    -5.625577     0.058498
H       -1.666798    -5.948112     1.849778
H        0.567855    -5.192537     2.019774
H       -0.190245    -3.906548    -2.888534
H        1.191307    -5.298301    -4.422845
51
ex_0438 frame11 SP-4-1-reembed3
Pd       0.000000     0.000000     0.000000
Cl       2.410000     0.000000     0.000000
Cl       0.000000     2.410000     0.000000
C       -6.643408    -3.470904     4.900773
O       -6.304716    -2.101295     4.781331
C       -5.522822    -1.703941     3.704118
C       -5.207800    -0.343385     3.618159
C       -4.433028     0.132818     2.574672
C       -3.961230    -0.747074     1.600062
Te      -2.770000     0.000000     0.000000
C       -3.905446     0.747074    -1.600062
C       -5.394342     0.565568    -1.430300
O       -5.729671     1.264128    -0.253047
C       -4.281151    -2.088773     1.698960
C       -5.058765    -2.577826     2.743056
H       -7.446920    -3.714690     4.154581
H       -7.016455    -3.609098     5.943962
H       -5.768993    -4.129632     4.731165
H       -5.561352     0.359560     4.361158
H       -4.204818     1.197978     2.535450
H       -3.622844     0.190877    -2.529878
H       -3.633701     1.800717    -1.815151
H       -5.625577    -0.492877    -1.329536
H       -5.948112     1.063073    -2.251615
H       -5.192537     2.082436    -0.255752
H       -3.906548    -2.738120     0.939427
H       -5.298301    -3.620273     2.806135
C        3.181276    -6.643408    -5.093548
O        3.599737    -6.304716    -3.783974
C        2.759375    -5.522822    -3.001626
C        3.205230    -5.207800    -1.713326
C        2.426414    -4.433028    -0.871258
C        1.187707    -3.961230    -1.306778
Te       0.000000    -2.770000     0.000000
C       -1.187707    -3.905446     1.306778
C       -1.101159    -5.394342     1.073813
O        0.254496    -5.729671     1.263837
C        0.761066    -4.281151    -2.582676
C        1.535484    -5.058765    -3.436834
H        2.398812    -7.446920    -5.030424
H        4.090282    -7.016455    -5.623688
H        2.770553    -5.768993    -5.635763
H        4.161976    -5.561352    -1.351642
H        2.801367    -4.204818     0.126498
H       -2.260151    -3.622844     1.152578
H       -0.979438    -3.633701     2.361791
H       -1.416746    -5.625577     0.058498
H       -1.666798    -5.948112     1.849778
H        0.567855    -5.192537     2.019774
H       -0.190245    -3.906548    -2.888534
H        1.191307    -5.298301    -4.422845
51
ex_0438 frame12 SP-4-1-reembed4
Pd       0.000000     0.000000     0.000000
Cl       2.410000     0.000000     0.000000
Cl       0.000000     2.410000     0.000000
C       -6.884593     4.918883    -3.257909
O       -6.306972     4.773420    -1.968966
C       -5.529643     3.685655    -1.595309
C       -5.045083     3.714650    -0.282967
C       -4.259992     2.642337     0.134555
C       -3.978701     1.597408    -0.724547
Te      -2.770000     0.000000     0.000000
C       -3.998431    -1.597408     0.724547
C       -5.183018    -1.842057    -0.168622
O       -5.917800    -2.896535     0.386359
C       -4.456661     1.569083    -2.018616
C       -5.239430     2.634275    -2.440934
H       -7.804927     5.536605    -3.225779
H       -6.123544     5.289214    -3.973787
H       -7.203782     3.905813    -3.641435
H       -5.272163     4.535817     0.376376
H       -3.857978     2.622229     1.155906
H       -3.426248    -2.522712     0.788908
H       -4.402395    -1.253129     1.701256
H       -5.819541    -0.955610    -0.302971
H       -4.848925    -2.174239    -1.174079
H       -6.892087    -2.732101     0.319952
H       -4.217102     0.734685    -2.665557
H       -5.623733     2.633588    -3.448132
C        3.181276    -6.643408    -5.093548
O        3.599737    -6.304716    -3.783974
C        2.759375    -5.522822    -3.001626
C        3.205230    -5.207800    -1.713326
C        2.426414    -4.433028    -0.871258
C        1.187707    -3.961230    -1.306778
Te       0.000000    -2.770000     0.000000
C       -1.187707    -3.905446     1.306778
C       -1.101159    -5.394342     1.073813
O        0.254496    -5.729671     1.263837
C        0.761066    -4.281151    -2.582676
C        1.535484    -5.058765    -3.436834
H        2.398812    -7.446920    -5.030424
H        4.090282    -7.016455    -5.623688
H        2.770553    -5.768993    -5.635763
H        4.161976    -5.561352    -1.351642
H        2.801367    -4.204818     0.126498
H       -2.260151    -3.622844     1.152578
H       -0.979438    -3.633701     2.361791
H       -1.416746    -5.625577     0.058498
H       -1.666798    -5.948112     1.849778
H        0.567855    -5.192537     2.019774
H       -0.190245    -3.906548    -2.888534
H        1.191307    -5.298301    -4.422845
51
ex_0438 frame13 SP-4-1-reembed5
Pd       0.000000     0.000000     0.000000
Cl       2.410000     0.000000     0.000000
Cl       0.000000     2.410000     0.000000
C       -6.884593     0.361990     5.888832
O       -6.306972    -0.681535     5.118386
C       -5.529643    -0.461249     3.989525
C       -5.045083    -1.612269     3.358465
C       -4.259992    -1.437696     2.221053
C       -3.978701    -0.171228     1.745669
Te      -2.770000     0.000000     0.000000
C       -3.998431     0.171228    -1.745669
C       -5.183018     1.067059    -1.510957
O       -5.917800     1.113670    -2.701653
C       -4.456661     0.963631     2.368173
C       -5.239430     0.796773     3.501816
H       -7.804927     0.025304     6.407730
H       -6.123544     0.796793     6.567487
H       -7.203782     1.200669     5.203251
H       -5.272163    -2.593860     3.739945
H       -3.857978    -2.312158     1.692964
H       -3.426248     0.578142    -2.579186
H       -4.402395    -0.846766    -1.935869
H       -5.819541     0.740185    -0.676097
H       -4.848925     2.103902    -1.295907
H       -6.892087     1.088964    -2.526044
H       -4.217102     1.941098     1.969034
H       -5.623733     1.669376     4.004820
C        3.181276    -6.643408    -5.093548
O        3.599737    -6.304716    -3.783974
C        2.759375    -5.522822    -3.001626
C        3.205230    -5.207800    -1.713326
C        2.426414    -4.433028    -0.871258
C        1.187707    -3.961230    -1.306778
Te       0.000000    -2.770000     0.000000
C       -1.187707    -3.905446     1.306778
C       -1.101159    -5.394342     1.073813
O        0.254496    -5.729671     1.263837
C        0.761066    -4.281151    -2.582676
C        1.535484    -5.058765    -3.436834
H        2.398812    -7.446920    -5.030424
H        4.090282    -7.016455    -5.623688
H        2.770553    -5.768993    -5.635763
H        4.161976    -5.561352    -1.351642
H        2.801367    -4.204818     0.126498
H       -2.260151    -3.622844     1.152578
H       -0.979438    -3.633701     2.361791
H       -1.416746    -5.625577     0.058498
H       -1.666798    -5.948112     1.849778
H        0.567855    -5.192537     2.019774
H       -0.190245    -3.906548    -2.888534
H        1.191307    -5.298301    -4.422845
51
ex_0438 frame14 SP-4-1-reembed6
Pd       0.000000     0.000000     0.000000
Cl       2.410000     0.000000     0.000000
Cl       0.000000     2.410000     0.000000
C       -6.884593    -5.280873    -2.630923
O       -6.306972    -4.091885    -3.149420
C       -5.529643    -3.224406    -2.394216
C       -5.045083    -2.102382    -3.075498
C       -4.259992    -1.204640    -2.355608
C       -3.978701    -1.426180    -1.021122
Te      -2.770000     0.000000     0.000000
C       -3.998431     1.426180     1.021122
C       -5.183018     0.774998     1.679579
O       -5.917800     1.782865     2.315293
C       -4.456661    -2.532714    -0.349558
C       -5.239430    -3.431048    -1.060882
H       -7.804927    -5.561909    -3.181951
H       -6.123544    -6.086007    -2.593701
H       -7.203782    -5.106482    -1.561816
H       -5.272163    -1.941957    -4.116321
H       -3.857978    -0.310071    -2.848870
H       -3.426248     1.944570     1.790279
H       -4.402395     2.099895     0.234613
H       -5.819541     0.215424     0.979067
H       -4.848925     0.070337     2.469986
H       -6.892087     1.643137     2.206092
H       -4.217102    -2.675782     0.696523
H       -5.623733    -4.302964    -0.556688
C        3.181276    -6.643408    -5.093548
O        3.599737    -6.304716    -3.783974
C        2.759375    -5.522822    -3.001626
C        3.205230    -5.207800    -1.713326
C        2.426414    -4.433028    -0.871258
C        1.187707    -3.961230    -1.306778
Te       0.000000    -2.770000     0.000000
C       -1.187707    -3.905446     1.306778
C       -1.101159    -5.394342     1.073813
O        0.254496    -5.729671     1.263837
C        0.761066    -4.281151    -2.582676
C        1.535484    -5.058765    -3.436834
H        2.398812    -7.446920    -5.030424
H        4.090282    -7.016455    -5.623688
H        2.770553    -5.768993    -5.635763
H        4.161976    -5.561352    -1.351642
H        2.801367    -4.204818     0.126498
H       -2.260151    -3.622844     1.152578
H       -0.979438    -3.633701     2.361791
H       -1.416746    -5.625577     0.058498
H       -1.666798    -5.948112     1.849778
H        0.567855    -5.192537     2.019774
H       -0.190245    -3.906548    -2.888534
H        1.191307    -5.298301    -4.422845
51
ex_0438 frame15 SP-4-1-reembed7
Pd       0.000000     0.000000     0.000000
Cl       2.410000     0.000000     0.000000
Cl       0.000000     2.410000     0.000000
C       -7.500006    -4.851013    -2.351092
O       -6.583695    -3.976481    -2.991697
C       -5.754938    -3.109479    -2.293208
C       -4.900203    -2.303469    -3.055378
C       -4.044328    -1.412859    -2.414120
C       -4.064473    -1.350830    -1.033764
Te      -2.770000     0.000000     0.000000
C       -4.099415     1.350830     1.033764
C       -5.099947     1.804235    -0.029513
O       -6.031838     2.683701     0.474638
C       -4.897797    -2.134796    -0.259443
C       -5.743889    -3.016551    -0.915590
H       -7.957198    -4.400138    -1.433694
H       -8.359102    -5.084282    -3.022049
H       -7.034619    -5.804494    -2.072875
H       -4.905583    -2.374059    -4.151934
H       -3.374090    -0.780345    -3.003663
H       -4.687684     0.765130     1.770464
H       -3.559174     2.193325     1.479023
H       -4.535646     2.221321    -0.884422
H       -5.627750     0.881482    -0.349918
H       -6.888063     2.522187    -0.001055
H       -4.883291    -2.055192     0.836047
H       -6.415046    -3.650208    -0.329248
C        3.181276    -6.643408    -5.093548
O        3.599737    -6.304716    -3.783974
C        2.759375    -5.522822    -3.001626
C        3.205230    -5.207800    -1.713326
C        2.426414    -4.433028    -0.871258
C        1.187707    -3.961230    -1.306778
Te       0.000000    -2.770000     0.000000
C       -1.187707    -3.905446     1.306778
C       -1.101159    -5.394342     1.073813
O        0.254496    -5.729671     1.263837
C        0.761066    -4.281151    -2.582676
C        1.535484    -5.058765    -3.436834
H        2.398812    -7.446920    -5.030424
H        4.090282    -7.016455    -5.623688
H        2.770553    -5.768993    -5.635763
H        4.161976    -5.561352    -1.351642
H        2.801367    -4.204818     0.126498
H       -2.260151    -3.622844     1.152578
H       -0.979438    -3.633701     2.361791
H       -1.416746    -5.625577     0.058498
H       -1.666798    -5.948112     1.849778
H        0.567855    -5.192537     2.019774
H       -0.190245    -3.906548    -2.888534
H        1.191307    -5.298301    -4.422845
51
ex_0438 frame16 SP-4-1-reembed8
Pd       0.000000     0.000000     0.000000
Cl       2.410000     0.000000     0.000000
Cl       0.000000     2.410000     0.000000
C       -7.500006     4.461612    -3.025555
O       -6.583695     4.579126    -1.947885
C       -5.754938     3.540716    -1.546284
C       -4.900203     3.797770    -0.467174
C       -4.044328     2.797119    -0.016512
C       -4.064473     1.570681    -0.652971
Te      -2.770000     0.000000     0.000000
C       -4.099415    -1.570681     0.652971
C       -5.099947    -0.876559     1.577270
O       -6.031838    -1.752899     2.086834
C       -4.897797     1.292082    -1.719066
C       -5.743889     2.301200    -2.154614
H       -7.957198     3.441684    -3.093784
H       -8.359102     5.159312    -2.892093
H       -7.034619     4.697409    -3.990402
H       -4.905583     4.782710     0.019972
H       -3.374090     2.991421     0.826033
H       -4.687684    -1.915832    -0.222610
H       -3.559174    -2.377534     1.159964
H       -4.535646    -0.344729     2.365931
H       -5.627750    -0.137703     0.938344
H       -6.888063    -1.260180     2.184806
H       -4.883291     0.303559    -2.197872
H       -6.415046     2.110242    -2.996549
C        3.181276    -6.643408    -5.093548
O        3.599737    -6.304716    -3.783974
C        2.759375    -5.522822    -3.001626
C        3.205230    -5.207800    -1.713326
C        2.426414    -4.433028    -0.871258
C        1.187707    -3.961230    -1.306778
Te       0.000000    -2.770000     0.000000
C       -1.187707    -3.905446     1.306778
C       -1.101159    -5.394342     1.073813
O        0.254496    -5.729671     1.263837
C        0.761066    -4.281151    -2.582676
C        1.535484    -5.058765    -3.436834
H        2.398812    -7.446920    -5.030424
H        4.090282    -7.016455    -5.623688
H        2.770553    -5.768993    -5.635763
H        4.161976    -5.561352    -1.351642
H        2.801367    -4.204818     0.126498
H       -2.260151    -3.622844     1.152578
H       -0.979438    -3.633701     2.361791
H       -1.416746    -5.625577     0.058498
H       -1.666798    -5.948112     1.849778
H        0.567855    -5.192537     2.019774
H       -0.190245    -3.906548    -2.888534
H        1.191307    -5.298301    -4.422845
51
ex_0438 frame17 SP-4-2
Pd       0.000000     0.000000     0.000000
Cl       2.410000     0.000000     0.000000
C        6.526590     5.364813     1.180305
O        5.543509     4.856134     2.062040
C        4.347285     4.410867     1.573024
C        3.999319     4.414460     0.233756
C        2.781256     3.956954    -0.227228
C        1.872469     3.475422     0.689463
Te       0.000000     2.770000     0.000000
C       -1.900957     3.486154    -0.699953
C       -2.696028     3.906121     0.514481
O       -2.075162     4.905012     1.234515
C        2.174749     3.453919     2.018167
C        3.400900     3.916775     2.461434
H        6.338982     6.446595     1.049855
H        6.607088     4.781121     0.261094
H        7.502773     5.188772     1.720063
H        4.705874     4.789745    -0.487035
H        2.554640     3.980549    -1.290506
H       -1.703250     4.349047    -1.356272
H       -2.415571     2.718756    -1.285564
H       -2.851531     3.057467     1.205332
H       -3.682225     4.282056     0.177467
H       -2.399306     5.775301     0.907885
H        1.426654     3.065993     2.696727
H        3.646289     3.902536     3.511135
Cl      -2.410000     0.000000     0.000000
C       -1.559674    -5.364813     6.446465
O       -0.355713    -4.856134     5.903894
C       -0.319244    -4.410867     4.612090
C       -1.403423    -4.414460     3.752278
C       -1.332485    -3.956954     2.451836
C       -0.126596    -3.475422     1.991350
Te       0.000000    -2.770000     0.000000
C        0.128522    -3.486154    -2.021647
C        1.560742    -3.906121    -2.257730
O        1.968219    -4.905012    -1.398727
C        0.966395    -3.453919     2.805105
C        0.875983    -3.916775     4.105781
H       -1.603120    -6.446595     6.222130
H       -2.432931    -4.781121     6.148385
H       -1.460756    -5.188772     7.557540
H       -2.348366    -4.789745     4.107022
H       -2.213316    -3.980549     1.814614
H       -0.551691    -4.349047    -2.106222
H       -0.198979    -2.718756    -2.729114
H        2.255471    -3.057467    -2.120591
H        1.651302    -4.282056    -3.295979
H        1.800561    -5.775301    -1.827268
H        1.889511    -3.065993     2.395292
H        1.736805    -3.902536     4.754682
51
ex_0438 frame18 SP-4-2-conf1
Pd       0.000000     0.000000     0.000000
Cl       2.410000     0.000000     0.000000
C       -3.529941     5.025981     5.671013
O       -3.923565     4.836493     4.330150
C       -3.049430     4.372533     3.349465
C       -3.515767     4.213916     2.055693
C       -2.630095     3.752485     1.100800
C       -1.332755     3.473344     1.477107
Te       0.000000     2.770000     0.000000
C        1.365950     3.490863    -1.513897
C        1.546065     2.338496    -2.479891
O        2.414889     2.691116    -3.507856
C       -0.865705     3.630583     2.765594
C       -1.750489     4.091547     3.719521
H       -4.276854     5.729692     6.136660
H       -3.478295     4.084811     6.235038
H       -2.564375     5.574161     5.732086
H       -4.540712     4.438901     1.778318
H       -2.933199     3.603289     0.053622
H        2.282942     3.782361    -0.992036
H        0.874520     4.358429    -1.999425
H        1.955645     1.486578    -1.872759
H        0.542987     2.038952    -2.831421
H        2.482649     1.941126    -4.124419
H        0.166128     3.390526     2.984107
H       -1.396807     4.219595     4.735331
Cl      -2.410000     0.000000     0.000000
C       -3.268800    -5.025981    -5.825446
O       -3.722902    -4.836493    -4.503839
C       -2.894197    -4.372533    -3.484474
C       -3.418799    -4.213916    -2.213211
C       -2.577399    -3.752485    -1.219088
C       -1.264310    -3.473344    -1.536099
Te       0.000000    -2.770000     0.000000
C        1.295801    -3.490863     1.574359
C        1.431867    -2.338496     2.547535
O        2.253119    -2.691116     3.613890
C       -0.739236    -3.630583    -2.802050
C       -1.579793    -4.091547    -3.795168
H       -3.993799    -5.729692    -6.324528
H       -3.191597    -4.084811    -6.386544
H       -2.301457    -5.574161    -5.842613
H       -4.455282    -4.438901    -1.982662
H       -2.927739    -3.603289    -0.186752
H        2.235543    -3.782361     1.094673
H        0.782832    -4.358429     2.037072
H        1.868592    -1.486578     1.959626
H        0.413862    -2.038952     2.853156
H        2.292813    -1.941126     4.232893
H        0.301454    -3.390526    -2.973486
H       -1.180352    -4.219595    -4.793871
51
ex_0438 frame19 SP-4-2-conf2
Pd       0.000000     0.000000     0.000000
Cl       2.410000     0.000000     0.000000
C       -3.529941     5.025981     5.671013
O       -3.923565     4.836493     4.330150
C       -3.049430     4.372533     3.349465
C       -3.515767     4.213916     2.055693
C       -2.630095     3.752485     1.100800
C       -1.332755     3.473344     1.477107
Te       0.000000     2.770000     0.000000
C        1.365950     3.490863    -1.513897
C        1.546065     2.338496    -2.479891
O        2.414889     2.691116    -3.507856
C       -0.865705     3.630583     2.765594
C       -1.750489     4.091547     3.719521
H       -4.276854     5.729692     6.136660
H       -3.478295     4.084811     6.235038
H       -2.564375     5.574161     5.732086
H       -4.540712     4.438901     1.778318
H       -2.933199     3.603289     0.053622
H        2.282942     3.782361    -0.992036
H        0.874520     4.358429    -1.999425
H        1.955645     1.486578    -1.872759
H        0.542987     2.038952    -2.831421
H        2.482649     1.941126    -4.124419
H        0.166128     3.390526     2.984107
H       -1.396807     4.219595     4.735331
Cl      -2.410000     0.000000     0.000000
C       -1.559674    -5.364813     6.446465
O       -0.355713    -4.856134     5.903894
C       -0.319244    -4.410867     4.612090
C       -1.403423    -4.414460     3.752278
C       -1.332485    -3.956954     2.451836
C       -0.126596    -3.475422     1.991350
Te       0.000000    -2.770000     0.000000
C        0.128522    -3.486154    -2.021647
C        1.560742    -3.906121    -2.257730
O        1.968219    -4.905012    -1.398727
C        0.966395    -3.453919     2.805105
C        0.875983    -3.916775     4.105781
H       -1.603120    -6.446595     6.222130
H       -2.432931    -4.781121     6.148385
H       -1.460756    -5.188772     7.557540
H       -2.348366    -4.789745     4.107022
H       -2.213316    -3.980549     1.814614
H       -0.551691    -4.349047    -2.106222
H       -0.198979    -2.718756    -2.729114
H        2.255471    -3.057467    -2.120591
H        1.651302    -4.282056    -3.295979
H        1.800561    -5.775301    -1.827268
H        1.889511    -3.065993     2.395292
H        1.736805    -3.902536     4.754682
51
ex_0438 frame20 SP-4-2-conf3
Pd       0.000000     0.000000     0.000000
Cl       2.410000     0.000000     0.000000
C        6.526590     5.364813     1.180305
O        5.543509     4.856134     2.062040
C        4.347285     4.410867     1.573024
C        4.002543     4.416338     0.228979
C        2.781294     3.956986    -0.227370
C        1.868351     3.473604     0.690347
Te       0.000000     2.770000     0.000000
C       -1.900957     3.486154    -0.699953
C       -2.702279     3.866743     0.506194
O       -2.075162     4.905012     1.234515
C        2.174711     3.453887     2.018309
C        3.398570     3.914838     2.470103
H        6.338982     6.446595     1.049855
H        6.607088     4.781121     0.261094
H        7.502773     5.188772     1.720063
H        4.705874     4.789745    -0.487035
H        2.554640     3.980549    -1.290506
H       -1.703250     4.349047    -1.356272
H       -2.415571     2.718756    -1.285564
H       -2.851531     3.057467     1.205332
H       -3.682225     4.282056     0.177467
H       -2.393055     5.814679     0.916173
H        1.426654     3.065993     2.696727
H        3.646289     3.902536     3.511135
Cl      -2.410000     0.000000     0.000000
C       -3.268800    -5.025981    -5.825446
O       -3.722902    -4.836493    -4.503839
C       -2.894741    -4.373397    -3.487513
C       -3.419862    -4.214282    -2.213545
C       -2.576779    -3.751271    -1.214652
C       -1.263265    -3.472154    -1.532250
Te       0.000000    -2.770000     0.000000
C        1.295801    -3.490863     1.574359
C        1.413878    -2.346799     2.512320
O        2.253119    -2.691116     3.613890
C       -0.738988    -3.630498    -2.801972
C       -1.580822    -4.093562    -3.802532
H       -3.993799    -5.729692    -6.324528
H       -3.191597    -4.084811    -6.386544
H       -2.301457    -5.574161    -5.842613
H       -4.455282    -4.438901    -1.982662
H       -2.927739    -3.603289    -0.186752
H        2.235543    -3.782361     1.094673
H        0.782832    -4.358429     2.037072
H        1.897990    -1.521684     1.950930
H        0.413862    -2.038952     2.853156
H        2.310803    -1.932823     4.268108
H        0.301454    -3.390526    -2.973486
H       -1.180352    -4.219595    -4.793871
51
ex_0438 frame21 SP-4-2-conf4
Pd       0.000000     0.000000     0.000000
Cl       2.410000     0.000000     0.000000
C       -3.529941     5.025981     5.671013
O       -3.923565     4.836493     4.330150
C       -3.049430     4.372533     3.349465
C       -3.515767     4.213916     2.055693
C       -2.630095     3.752485     1.100800
C       -1.332755     3.473344     1.477107
Te       0.000000     2.770000     0.000000
C        1.365950     3.490863    -1.513897
C        1.546065     2.338496    -2.479891
O        2.414889     2.691116    -3.507856
C       -0.865705     3.630583     2.765594
C       -1.750489     4.091547     3.719521
H       -4.276854     5.729692     6.136660
H       -3.478295     4.084811     6.235038
H       -2.564375     5.574161     5.732086
H       -4.540712     4.438901     1.778318
H       -2.933199     3.603289     0.053622
H        2.282942     3.782361    -0.992036
H        0.874520     4.358429    -1.999425
H        1.955645     1.486578    -1.872759
H        0.542987     2.038952    -2.831421
H        2.482649     1.941126    -4.124419
H        0.166128     3.390526     2.984107
H       -1.396807     4.219595     4.735331
Cl      -2.410000     0.000000     0.000000
C        3.735996    -5.851093     5.271105
O        3.788572    -4.650791     4.558046
C        2.921471    -4.269674     3.546071
C        1.900898    -5.101984     3.165771
C        1.051267    -4.702057     2.157426
C        1.244771    -3.473239     1.551595
Te       0.000000    -2.770000     0.000000
C       -1.263968    -3.484085    -1.575525
C       -0.417872    -3.936223    -2.759928
O       -1.224814    -4.403544    -3.793232
C        2.290485    -2.632036     1.948614
C        3.139903    -3.039582     2.961593
H        3.050754    -5.830181     6.143947
H        3.450096    -6.720903     4.618011
H        4.773422    -6.041723     5.670580
H        1.718120    -6.073050     3.617991
H        0.223112    -5.301321     1.800636
H       -1.883563    -4.321338    -1.214556
H       -1.950253    -2.696760    -1.909400
H        0.276974    -4.740712    -2.473273
H        0.143474    -3.070822    -3.153972
H       -0.752831    -5.123141    -4.262905
H        2.435305    -1.667094     1.466533
H        3.955530    -2.417008     3.292503
51
ex_0438 frame22 SP-4-2-conf6
Pd       0.000000     0.000000     0.000000
Cl       2.410000     0.000000     0.000000
C        6.409655     5.851093     0.811503
O        5.805492     4.650791     1.193870
C        4.507560     4.270245     0.906812
C        3.687997     5.101984     0.184931
C        2.393917     4.702949    -0.091387
C        1.955084     3.473239     0.366809
Te       0.000000     2.770000     0.000000
C       -1.985237     3.484085    -0.372466
C       -2.603734     3.914223     0.924253
O       -3.922863     4.403544     0.707052
C        2.795885     2.630002     1.102325
C        4.091726     3.039582     1.373975
H        6.856639     5.830181    -0.204182
H        5.698892     6.720903     0.867069
H        7.250837     6.041723     1.538308
H        4.000742     6.073050    -0.189370
H        1.693339     5.301321    -0.651669
H       -1.958805     4.321338    -1.089054
H       -2.603100     2.696760    -0.820465
H       -2.050982     4.740712     1.409705
H       -2.714282     3.070822     1.612700
H       -4.142225     5.145141     1.352314
H        2.441037     1.667094     1.456973
H        4.767920     2.417008     1.937455
Cl      -2.410000     0.000000     0.000000
C       -3.268800    -5.025981    -5.825446
O       -3.722902    -4.836493    -4.503839
C       -2.894741    -4.373397    -3.487513
C       -3.419862    -4.214282    -2.213545
C       -2.576779    -3.751271    -1.214652
C       -1.263265    -3.472154    -1.532250
Te       0.000000    -2.770000     0.000000
C        1.295801    -3.490863     1.574359
C        1.413878    -2.346799     2.512320
O        2.253119    -2.691116     3.613890
C       -0.738988    -3.630498    -2.801972
C       -1.580822    -4.093562    -3.802532
H       -3.993799    -5.729692    -6.324528
H       -3.191597    -4.084811    -6.386544
H       -2.301457    -5.574161    -5.842613
H       -4.455282    -4.438901    -1.982662
H       -2.927739    -3.603289    -0.186752
H        2.235543    -3.782361     1.094673
H        0.782832    -4.358429     2.037072
H        1.897990    -1.521684     1.950930
H        0.413862    -2.038952     2.853156
H        2.310803    -1.932823     4.268108
H        0.301454    -3.390526    -2.973486
H       -1.180352    -4.219595    -4.793871
51
ex_0438 frame23 SP-4-2-conf7
Pd       0.000000     0.000000     0.000000
Cl       2.410000     0.000000     0.000000
C       -3.529941     5.025981     5.671013
O       -3.923565     4.836493     4.330150
C       -3.049430     4.372533     3.349465
C       -3.515767     4.213916     2.055693
C       -2.630095     3.752485     1.100800
C       -1.332755     3.473344     1.477107
Te       0.000000     2.770000     0.000000
C        1.365950     3.490863    -1.513897
C        1.546065     2.338496    -2.479891
O        2.414889     2.691116    -3.507856
C       -0.865705     3.630583     2.765594
C       -1.750489     4.091547     3.719521
H       -4.276854     5.729692     6.136660
H       -3.478295     4.084811     6.235038
H       -2.564375     5.574161     5.732086
H       -4.540712     4.438901     1.778318
H       -2.933199     3.603289     0.053622
H        2.282942     3.782361    -0.992036
H        0.874520     4.358429    -1.999425
H        1.955645     1.486578    -1.872759
H        0.542987     2.038952    -2.831421
H        2.482649     1.941126    -4.124419
H        0.166128     3.390526     2.984107
H       -1.396807     4.219595     4.735331
Cl      -2.410000     0.000000     0.000000
C        5.067677    -4.791624     4.633812
O        3.654173    -4.837465     4.643484
C        2.870613    -4.371411     3.599255
C        1.506767    -4.476573     3.738731
C        0.676926    -4.029967     2.733141
C        1.204112    -3.468823     1.567632
Te       0.000000    -2.770000     0.000000
C       -1.234531    -3.486477    -1.607234
C       -2.420777    -2.526918    -1.682248
O       -3.251792    -2.945823    -2.707640
C        2.583883    -3.363497     1.428808
C        3.390007    -3.816655     2.446902
H        5.467452    -3.905453     4.097911
H        5.548390    -5.744688     4.342844
H        5.388323    -4.641939     5.706776
H        1.079155    -4.909704     4.637048
H       -0.400074    -4.082613     2.778371
H       -0.647226    -3.507801    -2.540781
H       -1.596959    -4.507848    -1.437913
H       -2.026968    -1.503658    -1.832555
H       -2.914177    -2.555751    -0.693424
H       -2.786704    -2.659392    -3.554703
H        3.037600    -2.941346     0.555576
H        4.462141    -3.731248     2.331390
51
ex_0438 frame24 SP-4-2-conf8
Pd       0.000000     0.000000     0.000000
Cl       2.410000     0.000000     0.000000
C        6.526590     5.364813     1.180305
O        5.543509     4.856134     2.062040
C        4.347285     4.410867     1.573024
C        3.999319     4.414460     0.233756
C        2.781256     3.956954    -0.227228
C        1.872469     3.475422     0.689463
Te       0.000000     2.770000     0.000000
C       -1.900957     3.486154    -0.699953
C       -2.696028     3.906121     0.514481
O       -2.075162     4.905012     1.234515
C        2.174749     3.453919     2.018167
C        3.400900     3.916775     2.461434
H        6.338982     6.446595     1.049855
H        6.607088     4.781121     0.261094
H        7.502773     5.188772     1.720063
H        4.705874     4.789745    -0.487035
H        2.554640     3.980549    -1.290506
H       -1.703250     4.349047    -1.356272
H       -2.415571     2.718756    -1.285564
H       -2.851531     3.057467     1.205332
H       -3.682225     4.282056     0.177467
H       -2.399306     5.775301     0.907885
H        1.426654     3.065993     2.696727
H        3.646289     3.902536     3.511135
Cl      -2.410000     0.000000     0.000000
C        3.735996    -5.851093     5.271105
O        3.788572    -4.650791     4.558046
C        2.921471    -4.269674     3.546071
C        1.900898    -5.101984     3.165771
C        1.051267    -4.702057     2.157426
C        1.244771    -3.473239     1.551595
Te       0.000000    -2.770000     0.000000
C       -1.263968    -3.484085    -1.575525
C       -0.417872    -3.936223    -2.759928
O       -1.224814    -4.403544    -3.793232
C        2.290485    -2.632036     1.948614
C        3.139903    -3.039582     2.961593
H        3.050754    -5.830181     6.143947
H        3.450096    -6.720903     4.618011
H        4.773422    -6.041723     5.670580
H        1.718120    -6.073050     3.617991
H        0.223112    -5.301321     1.800636
H       -1.883563    -4.321338    -1.214556
H       -1.950253    -2.696760    -1.909400
H        0.276974    -4.740712    -2.473273
H        0.143474    -3.070822    -3.153972
H       -0.752831    -5.123141    -4.262905
H        2.435305    -1.667094     1.466533
H        3.955530    -2.417008     3.292503
51
ex_0438 frame25 SP-4-2-conf9
Pd       0.000000     0.000000     0.000000
Cl       2.410000     0.000000     0.000000
C        6.409655     5.851093     0.811503
O        5.805492     4.650791     1.193870
C        4.504326     4.269674     0.905906
C        3.687997     5.101984     0.184931
C        2.398264     4.702057    -0.089334
C        1.955084     3.473239     0.366809
Te       0.000000     2.770000     0.000000
C       -1.985237     3.484085    -0.372466
C       -2.631230     3.936223     0.931904
O       -3.922863     4.403544     0.707052
C        2.798006     2.632036     1.102082
C        4.091726     3.039582     1.373975
H        6.856639     5.830181    -0.204182
H        5.698892     6.720903     0.867069
H        7.250837     6.041723     1.538308
H        4.000742     6.073050    -0.189370
H        1.693339     5.301321    -0.651669
H       -1.958805     4.321338    -1.089054
H       -2.603100     2.696760    -0.820465
H       -2.050982     4.740712     1.409705
H       -2.714282     3.070822     1.612700
H       -4.114729     5.123141     1.344663
H        2.441037     1.667094     1.456973
H        4.767920     2.417008     1.937455
Cl      -2.410000     0.000000     0.000000
C       -1.559674    -5.364813     6.446465
O       -0.355713    -4.856134     5.903894
C       -0.319244    -4.410867     4.612090
C       -1.403423    -4.414460     3.752278
C       -1.332485    -3.956954     2.451836
C       -0.126596    -3.475422     1.991350
Te       0.000000    -2.770000     0.000000
C        0.128522    -3.486154    -2.021647
C        1.560742    -3.906121    -2.257730
O        1.968219    -4.905012    -1.398727
C        0.966395    -3.453919     2.805105
C        0.875983    -3.916775     4.105781
H       -1.603120    -6.446595     6.222130
H       -2.432931    -4.781121     6.148385
H       -1.460756    -5.188772     7.557540
H       -2.348366    -4.789745     4.107022
H       -2.213316    -3.980549     1.814614
H       -0.551691    -4.349047    -2.106222
H       -0.198979    -2.718756    -2.729114
H        2.255471    -3.057467    -2.120591
H        1.651302    -4.282056    -3.295979
H        1.800561    -5.775301    -1.827268
H        1.889511    -3.065993     2.395292
H        1.736805    -3.902536     4.754682
51
ex_0438 frame26 SP-4-2-conf10
Pd       0.000000     0.000000     0.000000
Cl       2.410000     0.000000     0.000000
C        5.212264     4.791624    -4.470556
O        3.799780     4.837465    -4.525107
C        2.983456     4.371411    -3.506286
C        1.624727     4.476573    -3.688999
C        0.763373     4.029967    -2.710268
C        1.253284     3.468823    -1.528606
Te       0.000000     2.770000     0.000000
C       -1.284945     3.486477     1.567222
C       -2.472974     2.526918     1.604530
O       -3.336131     2.945823     2.603017
C        2.627951     3.363497    -1.346039
C        3.465996     3.816655    -2.338021
H        5.594821     3.905453    -3.922231
H        5.683495     5.744688    -4.164470
H        5.566820     4.641939    -5.532796
H        1.225856     4.909704    -4.600442
H       -0.311648     4.082613    -2.789674
H       -0.727580     3.507801     2.518948
H       -1.641813     4.507848     1.386478
H       -2.084137     1.503658     1.767266
H       -2.934727     2.555751     0.600537
H       -2.898175     2.659392     3.464421
H        3.053710     2.941346    -0.458840
H        4.533922     3.731248    -2.188523
Cl      -2.410000     0.000000     0.000000
C       -3.268800    -5.025981    -5.825446
O       -3.722902    -4.836493    -4.503839
C       -2.894197    -4.372533    -3.484474
C       -3.418799    -4.213916    -2.213211
C       -2.577399    -3.752485    -1.219088
C       -1.264310    -3.473344    -1.536099
Te       0.000000    -2.770000     0.000000
C        1.295801    -3.490863     1.574359
C        1.431867    -2.338496     2.547535
O        2.253119    -2.691116     3.613890
C       -0.739236    -3.630583    -2.802050
C       -1.579793    -4.091547    -3.795168
H       -3.993799    -5.729692    -6.324528
H       -3.191597    -4.084811    -6.386544
H       -2.301457    -5.574161    -5.842613
H       -4.455282    -4.438901    -1.982662
H       -2.927739    -3.603289    -0.186752
H        2.235543    -3.782361     1.094673
H        0.782832    -4.358429     2.037072
H        1.868592    -1.486578     1.959626
H        0.413862    -2.038952     2.853156
H        2.292813    -1.941126     4.232893
H        0.301454    -3.390526    -2.973486
H       -1.180352    -4.219595    -4.793871
51
ex_0438 frame27 SP-4-2-reembed1
Pd       0.000000     0.000000     0.000000
Cl       2.410000     0.000000     0.000000
C       -2.552894     6.643408    -5.435759
O       -3.124140     6.304716    -4.185250
C       -2.382791     5.522822    -3.308507
C       -2.978705     5.207800    -2.082379
C       -2.305569     4.433028    -1.153659
C       -1.023855     3.961230    -1.438763
Te       0.000000     2.770000     0.000000
C        1.023855     3.905446     1.438763
C        0.965629     5.394342     1.197158
O       -0.403004     5.729671     1.224598
C       -0.448494     4.281151    -2.654862
C       -1.115826     5.058765    -3.595063
H       -1.783493     7.446920    -5.280021
H       -3.392397     7.016455    -6.070248
H       -2.080599     5.768993    -5.925276
H       -3.971678     5.561352    -1.837052
H       -2.796528     4.204818    -0.207580
H        2.107026     3.622844     1.413208
H        0.691586     3.633701     2.461516
H        1.399733     5.625577     0.226583
H        1.434964     5.948112     2.034889
H       -0.804046     5.192537     1.937900
H        0.532442     3.906548    -2.845405
H       -0.656820     5.298301    -4.533140
Cl      -2.410000     0.000000     0.000000
C        3.181276    -6.643408    -5.093548
O        3.599737    -6.304716    -3.783974
C        2.759375    -5.522822    -3.001626
C        3.205230    -5.207800    -1.713326
C        2.426414    -4.433028    -0.871258
C        1.187707    -3.961230    -1.306778
Te       0.000000    -2.770000     0.000000
C       -1.187707    -3.905446     1.306778
C       -1.101159    -5.394342     1.073813
O        0.254496    -5.729671     1.263837
C        0.761066    -4.281151    -2.582676
C        1.535484    -5.058765    -3.436834
H        2.398812    -7.446920    -5.030424
H        4.090282    -7.016455    -5.623688
H        2.770553    -5.768993    -5.635763
H        4.161976    -5.561352    -1.351642
H        2.801367    -4.204818     0.126498
H       -2.260151    -3.622844     1.152578
H       -0.979438    -3.633701     2.361791
H       -1.416746    -5.625577     0.058498
H       -1.666798    -5.948112     1.849778
H        0.567855    -5.192537     2.019774
H       -0.190245    -3.906548    -2.888534
H        1.191307    -5.298301    -4.422845
51
ex_0438 frame28 SP-4-2-reembed2
Pd       0.000000     0.000000     0.000000
Cl       2.410000     0.000000     0.000000
C        5.983953     6.643408     0.507008
O        5.186602     6.304716    -0.612959
C        4.056646     5.522822    -0.409304
C        3.292746     5.207800    -1.538445
C        2.151882     4.433028    -1.419852
C        1.757933     3.961230    -0.167303
Te       0.000000     2.770000     0.000000
C       -1.757933     3.905446     0.167303
C       -1.519584     5.394342     0.237681
O       -0.859031     5.729671    -0.961311
C        2.523425     4.281151     0.939024
C        3.671328     5.058765     0.831198
H        5.464378     7.446920     1.095460
H        6.953188     7.016455     0.097222
H        6.171739     5.768993     1.160787
H        3.576773     5.561352    -2.521048
H        1.578034     4.204818    -2.318074
H       -2.277387     3.622844     1.118134
H       -2.477529     3.633701    -0.631827
H       -0.896093     5.625577     1.098913
H       -2.479748     5.948112     0.225270
H       -1.276248     5.192537    -1.665274
H        2.197972     3.906548     1.883811
H        4.254225     5.298301     1.697747
Cl      -2.410000     0.000000     0.000000
C        3.181276    -6.643408    -5.093548
O        3.599737    -6.304716    -3.783974
C        2.759375    -5.522822    -3.001626
C        3.205230    -5.207800    -1.713326
C        2.426414    -4.433028    -0.871258
C        1.187707    -3.961230    -1.306778
Te       0.000000    -2.770000     0.000000
C       -1.187707    -3.905446     1.306778
C       -1.101159    -5.394342     1.073813
O        0.254496    -5.729671     1.263837
C        0.761066    -4.281151    -2.582676
C        1.535484    -5.058765    -3.436834
H        2.398812    -7.446920    -5.030424
H        4.090282    -7.016455    -5.623688
H        2.770553    -5.768993    -5.635763
H        4.161976    -5.561352    -1.351642
H        2.801367    -4.204818     0.126498
H       -2.260151    -3.622844     1.152578
H       -0.979438    -3.633701     2.361791
H       -1.416746    -5.625577     0.058498
H       -1.666798    -5.948112     1.849778
H        0.567855    -5.192537     2.019774
H       -0.190245    -3.906548    -2.888534
H        1.191307    -5.298301    -4.422845
51
ex_0438 frame29 SP-4-2-reembed3
Pd       0.000000     0.000000     0.000000
Cl       2.410000     0.000000     0.000000
C       -3.431058     6.643408     4.928751
O       -2.062463     6.304716     4.798209
C       -1.673856     5.522822     3.717811
C       -0.314041     5.207800     3.620824
C        0.153686     4.433028     2.573510
C       -0.734078     3.961230     1.606066
Te       0.000000     2.770000     0.000000
C        0.734078     3.905446    -1.606066
C        0.553954     5.394342    -1.434838
O        1.262035     5.729671    -0.263287
C       -2.074931     4.281151     1.715838
C       -2.555503     5.058765     2.763865
H       -3.680886     7.446920     4.184560
H       -3.560791     7.016455     5.973026
H       -4.091140     5.768993     4.764489
H        0.394905     5.561352     4.358100
H        1.218494     4.204818     2.525654
H        0.170361     3.622844    -2.531342
H        1.785943     3.633701    -1.829690
H       -0.503640     5.625577    -1.325496
H        1.044784     5.948112    -2.260160
H        2.080294     5.192537    -0.272626
H       -2.730414     3.906548     0.961594
H       -3.597404     5.298301     2.835393
Cl      -2.410000     0.000000     0.000000
C        3.181276    -6.643408    -5.093548
O        3.599737    -6.304716    -3.783974
C        2.759375    -5.522822    -3.001626
C        3.205230    -5.207800    -1.713326
C        2.426414    -4.433028    -0.871258
C        1.187707    -3.961230    -1.306778
Te       0.000000    -2.770000     0.000000
C       -1.187707    -3.905446     1.306778
C       -1.101159    -5.394342     1.073813
O        0.254496    -5.729671     1.263837
C        0.761066    -4.281151    -2.582676
C        1.535484    -5.058765    -3.436834
H        2.398812    -7.446920    -5.030424
H        4.090282    -7.016455    -5.623688
H        2.770553    -5.768993    -5.635763
H        4.161976    -5.561352    -1.351642
H        2.801367    -4.204818     0.126498
H       -2.260151    -3.622844     1.152578
H       -0.979438    -3.633701     2.361791
H       -1.416746    -5.625577     0.058498
H       -1.666798    -5.948112     1.849778
H        0.567855    -5.192537     2.019774
H       -0.190245    -3.906548    -2.888534
H        1.191307    -5.298301    -4.422845
51
ex_0438 frame30 T-4-1
Pd       0.000000     0.000000     0.000000
Cl       1.391414     1.391414     1.391414
Cl       1.391414    -1.391414    -1.391414
C       -7.450590     3.233382     1.978716
O       -7.177392     2.227971     1.028310
C       -5.929175     2.079762     0.433991
C       -5.742869     1.064198    -0.492283
C       -4.490377     0.933989    -1.073026
C       -3.494084     1.814908    -0.704954
Te      -1.599260     1.599260    -1.599260
C       -0.486666     2.208908    -3.350777
C        0.609853     1.214755    -3.459872
O        1.431787     1.502626    -4.590310
C       -3.678972     2.827571     0.218336
C       -4.931212     2.959405     0.800359
H       -8.569669     3.362646     2.008196
H       -7.060675     2.991058     2.976634
H       -7.071104     4.221491     1.637865
H       -6.538154     0.381047    -0.769200
H       -4.275928     0.153194    -1.811958
H       -0.151742     3.234359    -3.165140
H       -1.187234     2.153103    -4.208682
H        1.230280     1.274594    -2.530515
H        0.188753     0.199878    -3.520445
H        2.155773     0.815186    -4.688334
H       -2.849007     3.479057     0.455501
H       -5.083386     3.745350     1.520183
C       -4.679357     2.452533     6.478430
O       -3.517471     1.654072     6.513653
C       -3.079990     0.921135     5.416091
C       -1.926131     0.160291     5.533510
C       -1.507432    -0.563012     4.426948
C       -2.253135    -0.492780     3.268031
Te      -1.599260    -1.599260     1.599260
C       -1.758951    -3.568308     0.719092
C       -0.590559    -3.665115    -0.190898
O       -0.573272    -4.933129    -0.845251
C       -3.403502     0.265435     3.150140
C       -3.823927     0.989679     4.256010
H       -4.996349     2.619151     7.546920
H       -4.520053     3.411021     5.966068
H       -5.531540     1.901095     6.024284
H       -1.352834     0.117369     6.452936
H       -0.604616    -1.184249     4.452215
H       -2.730001    -3.605962     0.215278
H       -1.699155    -4.296209     1.553655
H       -0.677837    -2.856759    -0.959767
H        0.337984    -3.494930     0.374624
H        0.232158    -5.017227    -1.437321
H       -3.934457     0.269914     2.208020
H       -4.718656     1.582543     4.172440
