50
ex_0431 frame0 TBP-5-1
Tc       0.000000     0.000000     0.000000
Se       0.000000     0.000000     2.700000
C       -0.000000    -0.000000     4.509349
C        0.268745     1.143486     5.240537
C        0.266261     1.133010     6.621469
C       -0.012640    -0.053625     7.256131
C       -0.289232    -1.230522     6.565158
C       -0.276161    -1.174970     5.179166
H        0.484097     2.059610     4.747362
H        0.483197     2.055944     7.165829
H       -0.015409    -0.065213     8.336124
H       -0.501168    -2.132116     7.113308
H       -0.487432    -2.073731     4.612749
Se       0.000000     0.000000    -2.700000
C       -0.000000     0.000000    -4.509349
C        0.261685     1.145123    -5.240537
C        0.259307     1.134621    -6.621469
C       -0.012239    -0.053717    -7.256131
C       -0.281575    -1.232297    -6.565158
C       -0.268875    -1.176659    -5.179166
H        0.471300     2.062576    -4.747362
H        0.470496     2.058888    -7.165829
H       -0.014849    -0.065343    -8.336124
H       -0.487866    -2.135199    -7.113308
H       -0.474517    -2.076724    -4.612749
Se       2.700000     0.000000     0.000000
C        4.509349    -0.000000     0.000000
C        5.240537    -1.172194    -0.075805
C        6.621469    -1.161448    -0.075131
C        7.256131     0.054981     0.003520
C        6.565158     1.261424     0.081544
C        5.179166     1.204473     0.077876
H        4.747362    -2.111329    -0.136496
H        7.165829    -2.107560    -0.136290
H        8.336124     0.066874     0.004244
H        7.113308     2.185665     0.141274
H        4.612749     2.125810     0.137417
Se      -1.350000     2.338269     0.000000
C       -2.254675     3.905211     0.000000
C       -1.602998     5.125760    -0.000326
C       -2.302789     6.316298    -0.000344
C       -3.675778     6.256446    -0.000021
C       -4.377284     5.053565     0.000320
C       -3.634865     3.881796     0.000319
H       -0.541399     5.169204    -0.000545
H       -1.753902     7.261771    -0.000582
H       -4.226093     7.185791    -0.000062
H       -5.453445     5.065193     0.000537
H       -4.151222     2.929635     0.000534
O       -1.080000    -1.870615     0.000000
50
ex_0431 frame1 TBP-5-1-conf2
Tc       0.000000     0.000000     0.000000
Se       0.000000     0.000000     2.700000
C       -0.000000    -0.000000     4.509349
C        0.268745     1.143486     5.240537
C        0.266261     1.133010     6.621469
C       -0.012640    -0.053625     7.256131
C       -0.289232    -1.230522     6.565158
C       -0.276161    -1.174970     5.179166
H        0.484097     2.059610     4.747362
H        0.483197     2.055944     7.165829
H       -0.015409    -0.065213     8.336124
H       -0.501168    -2.132116     7.113308
H       -0.487432    -2.073731     4.612749
Se       0.000000     0.000000    -2.700000
C       -0.000000     0.000000    -4.509349
C        0.261685     1.145123    -5.240537
C        0.259307     1.134621    -6.621469
C       -0.012239    -0.053717    -7.256131
C       -0.281575    -1.232297    -6.565158
C       -0.268875    -1.176659    -5.179166
H        0.471300     2.062576    -4.747362
H        0.470496     2.058888    -7.165829
H       -0.014849    -0.065343    -8.336124
H       -0.487866    -2.135199    -7.113308
H       -0.474517    -2.076724    -4.612749
Se       2.700000     0.000000     0.000000
C        4.509349    -0.000000     0.000000
C        5.240537    -1.172194    -0.075805
C        6.621469    -1.161448    -0.075131
C        7.256131     0.054981     0.003520
C        6.565158     1.261424     0.081544
C        5.179166     1.204473     0.077876
H        4.747362    -2.111329    -0.136496
H        7.165829    -2.107560    -0.136290
H        8.336124     0.066874     0.004244
H        7.113308     2.185665     0.141274
H        4.612749     2.125810     0.137417
Se      -1.350000     2.338269     0.000000
C       -2.266164     3.923569    -0.000011
C       -3.657291     3.873128    -0.017122
C       -4.338481     5.094685    -0.016826
C       -3.655576     6.297960    -0.000228
C       -2.279918     6.297369     0.016341
C       -1.568182     5.111726     0.016665
H       -4.198304     2.935014    -0.030171
H       -5.420335     5.076239    -0.029981
H       -4.198636     7.220813    -0.000365
H       -1.709840     7.224154     0.029658
H       -0.472759     5.096045     0.029758
O       -1.080000    -1.870615     0.000000
50
ex_0431 frame2 TBP-5-1-conf3
Tc       0.000000     0.000000     0.000000
Se       0.000000     0.000000     2.700000
C       -0.000000    -0.000000     4.509349
C        0.268745     1.143486     5.240537
C        0.266261     1.133010     6.621469
C       -0.012640    -0.053625     7.256131
C       -0.289232    -1.230522     6.565158
C       -0.276161    -1.174970     5.179166
H        0.484097     2.059610     4.747362
H        0.483197     2.055944     7.165829
H       -0.015409    -0.065213     8.336124
H       -0.501168    -2.132116     7.113308
H       -0.487432    -2.073731     4.612749
Se       0.000000     0.000000    -2.700000
C       -0.000000     0.000000    -4.509349
C        0.261685     1.145123    -5.240537
C        0.259307     1.134621    -6.621469
C       -0.012239    -0.053717    -7.256131
C       -0.281575    -1.232297    -6.565158
C       -0.268875    -1.176659    -5.179166
H        0.471300     2.062576    -4.747362
H        0.470496     2.058888    -7.165829
H       -0.014849    -0.065343    -8.336124
H       -0.487866    -2.135199    -7.113308
H       -0.474517    -2.076724    -4.612749
Se       2.700000     0.000000     0.000000
C        4.530992     0.000766     0.000089
C        5.182873     1.222674     0.141738
C        6.581367     1.201959     0.139342
C        7.281982     0.016730     0.001946
C        6.593641    -1.166519    -0.135222
C        5.210976    -1.189925    -0.137939
H        4.640949     2.154116     0.249709
H        7.106319     2.141891     0.248311
H        8.352725     0.025552     0.002955
H        7.111221    -2.117340    -0.245444
H        4.649684    -2.124581    -0.246285
Se      -1.350000     2.338269     0.000000
C       -2.254675     3.905211     0.000000
C       -1.602998     5.125760    -0.000326
C       -2.302789     6.316298    -0.000344
C       -3.675778     6.256446    -0.000021
C       -4.377284     5.053565     0.000320
C       -3.634865     3.881796     0.000319
H       -0.541399     5.169204    -0.000545
H       -1.753902     7.261771    -0.000582
H       -4.226093     7.185791    -0.000062
H       -5.453445     5.065193     0.000537
H       -4.151222     2.929635     0.000534
O       -1.080000    -1.870615     0.000000
50
ex_0431 frame3 TBP-5-1-conf4
Tc       0.000000     0.000000     0.000000
Se       0.000000     0.000000     2.700000
C       -0.000000    -0.000000     4.509349
C        0.268745     1.143486     5.240537
C        0.266261     1.133010     6.621469
C       -0.012640    -0.053625     7.256131
C       -0.289232    -1.230522     6.565158
C       -0.276161    -1.174970     5.179166
H        0.484097     2.059610     4.747362
H        0.483197     2.055944     7.165829
H       -0.015409    -0.065213     8.336124
H       -0.501168    -2.132116     7.113308
H       -0.487432    -2.073731     4.612749
Se       0.000000     0.000000    -2.700000
C        0.000034    -0.000771    -4.530992
C        0.054829    -1.229640    -5.182873
C        0.053894    -1.208808    -6.581367
C        0.000744    -0.016827    -7.281982
C       -0.052316     1.173165    -6.593641
C       -0.053362     1.196705    -5.210976
H        0.096602    -2.166388    -4.640949
H        0.096035    -2.154097    -7.106319
H        0.001153    -0.025696    -8.352725
H       -0.094955     2.129403    -7.111221
H       -0.095278     2.136685    -4.649684
Se       2.700000     0.000000     0.000000
C        4.509349    -0.000000     0.000000
C        5.240537    -1.172194    -0.075805
C        6.621469    -1.161448    -0.075131
C        7.256131     0.054981     0.003520
C        6.565158     1.261424     0.081544
C        5.179166     1.204473     0.077876
H        4.747362    -2.111329    -0.136496
H        7.165829    -2.107560    -0.136290
H        8.336124     0.066874     0.004244
H        7.113308     2.185665     0.141274
H        4.612749     2.125810     0.137417
Se      -1.350000     2.338269     0.000000
C       -2.254675     3.905211     0.000000
C       -1.602998     5.125760    -0.000326
C       -2.302789     6.316298    -0.000344
C       -3.675778     6.256446    -0.000021
C       -4.377284     5.053565     0.000320
C       -3.634865     3.881796     0.000319
H       -0.541399     5.169204    -0.000545
H       -1.753902     7.261771    -0.000582
H       -4.226093     7.185791    -0.000062
H       -5.453445     5.065193     0.000537
H       -4.151222     2.929635     0.000534
O       -1.080000    -1.870615     0.000000
50
ex_0431 frame4 TBP-5-1-conf5
Tc       0.000000     0.000000     0.000000
Se       0.000000     0.000000     2.700000
C        0.000015    -0.000771     4.530992
C        0.023614    -1.230636     5.182873
C        0.023219    -1.209786     6.581367
C        0.000330    -0.016840     7.281982
C       -0.022524     1.174115     6.593641
C       -0.022979     1.197673     5.210976
H        0.041597    -2.168142     4.640949
H        0.041380    -2.155840     7.106319
H        0.000486    -0.025718     8.352725
H       -0.040885     2.131127     7.111221
H       -0.041027     2.138415     4.649684
Se       0.000000     0.000000    -2.700000
C       -0.000000     0.000000    -4.509349
C        0.261685     1.145123    -5.240537
C        0.259307     1.134621    -6.621469
C       -0.012239    -0.053717    -7.256131
C       -0.281575    -1.232297    -6.565158
C       -0.268875    -1.176659    -5.179166
H        0.471300     2.062576    -4.747362
H        0.470496     2.058888    -7.165829
H       -0.014849    -0.065343    -8.336124
H       -0.487866    -2.135199    -7.113308
H       -0.474517    -2.076724    -4.612749
Se       2.700000     0.000000     0.000000
C        4.509349    -0.000000     0.000000
C        5.240537    -1.172194    -0.075805
C        6.621469    -1.161448    -0.075131
C        7.256131     0.054981     0.003520
C        6.565158     1.261424     0.081544
C        5.179166     1.204473     0.077876
H        4.747362    -2.111329    -0.136496
H        7.165829    -2.107560    -0.136290
H        8.336124     0.066874     0.004244
H        7.113308     2.185665     0.141274
H        4.612749     2.125810     0.137417
Se      -1.350000     2.338269     0.000000
C       -2.254675     3.905211     0.000000
C       -1.602998     5.125760    -0.000326
C       -2.302789     6.316298    -0.000344
C       -3.675778     6.256446    -0.000021
C       -4.377284     5.053565     0.000320
C       -3.634865     3.881796     0.000319
H       -0.541399     5.169204    -0.000545
H       -1.753902     7.261771    -0.000582
H       -4.226093     7.185791    -0.000062
H       -5.453445     5.065193     0.000537
H       -4.151222     2.929635     0.000534
O       -1.080000    -1.870615     0.000000
50
ex_0431 frame5 TBP-5-1-conf6
Tc       0.000000     0.000000     0.000000
Se       0.000000     0.000000     2.700000
C       -0.000000    -0.000000     4.509349
C        0.268745     1.143486     5.240537
C        0.266261     1.133010     6.621469
C       -0.012640    -0.053625     7.256131
C       -0.289232    -1.230522     6.565158
C       -0.276161    -1.174970     5.179166
H        0.484097     2.059610     4.747362
H        0.483197     2.055944     7.165829
H       -0.015409    -0.065213     8.336124
H       -0.501168    -2.132116     7.113308
H       -0.487432    -2.073731     4.612749
Se       0.000000     0.000000    -2.700000
C       -0.000000     0.000000    -4.509349
C        0.261685     1.145123    -5.240537
C        0.259307     1.134621    -6.621469
C       -0.012239    -0.053717    -7.256131
C       -0.281575    -1.232297    -6.565158
C       -0.268875    -1.176659    -5.179166
H        0.471300     2.062576    -4.747362
H        0.470496     2.058888    -7.165829
H       -0.014849    -0.065343    -8.336124
H       -0.487866    -2.135199    -7.113308
H       -0.474517    -2.076724    -4.612749
Se       2.700000     0.000000     0.000000
C        4.530992     0.000766     0.000089
C        5.182873     1.222674     0.141738
C        6.581367     1.201959     0.139342
C        7.281982     0.016730     0.001946
C        6.593641    -1.166519    -0.135222
C        5.210976    -1.189925    -0.137939
H        4.640949     2.154116     0.249709
H        7.106319     2.141891     0.248311
H        8.352725     0.025552     0.002955
H        7.111221    -2.117340    -0.245444
H        4.649684    -2.124581    -0.246285
Se      -1.350000     2.338269     0.000000
C       -2.266164     3.923569    -0.000011
C       -3.657291     3.873128    -0.017122
C       -4.338481     5.094685    -0.016826
C       -3.655576     6.297960    -0.000228
C       -2.279918     6.297369     0.016341
C       -1.568182     5.111726     0.016665
H       -4.198304     2.935014    -0.030171
H       -5.420335     5.076239    -0.029981
H       -4.198636     7.220813    -0.000365
H       -1.709840     7.224154     0.029658
H       -0.472759     5.096045     0.029758
O       -1.080000    -1.870615     0.000000
50
ex_0431 frame6 TBP-5-1-conf7
Tc       0.000000     0.000000     0.000000
Se       0.000000     0.000000     2.700000
C       -0.000000    -0.000000     4.509349
C        0.268745     1.143486     5.240537
C        0.266261     1.133010     6.621469
C       -0.012640    -0.053625     7.256131
C       -0.289232    -1.230522     6.565158
C       -0.276161    -1.174970     5.179166
H        0.484097     2.059610     4.747362
H        0.483197     2.055944     7.165829
H       -0.015409    -0.065213     8.336124
H       -0.501168    -2.132116     7.113308
H       -0.487432    -2.073731     4.612749
Se       0.000000     0.000000    -2.700000
C        0.000034    -0.000771    -4.530992
C        0.054829    -1.229640    -5.182873
C        0.053894    -1.208808    -6.581367
C        0.000744    -0.016827    -7.281982
C       -0.052316     1.173165    -6.593641
C       -0.053362     1.196705    -5.210976
H        0.096602    -2.166388    -4.640949
H        0.096035    -2.154097    -7.106319
H        0.001153    -0.025696    -8.352725
H       -0.094955     2.129403    -7.111221
H       -0.095278     2.136685    -4.649684
Se       2.700000     0.000000     0.000000
C        4.509349    -0.000000     0.000000
C        5.240537    -1.172194    -0.075805
C        6.621469    -1.161448    -0.075131
C        7.256131     0.054981     0.003520
C        6.565158     1.261424     0.081544
C        5.179166     1.204473     0.077876
H        4.747362    -2.111329    -0.136496
H        7.165829    -2.107560    -0.136290
H        8.336124     0.066874     0.004244
H        7.113308     2.185665     0.141274
H        4.612749     2.125810     0.137417
Se      -1.350000     2.338269     0.000000
C       -2.266164     3.923569    -0.000011
C       -3.657291     3.873128    -0.017122
C       -4.338481     5.094685    -0.016826
C       -3.655576     6.297960    -0.000228
C       -2.279918     6.297369     0.016341
C       -1.568182     5.111726     0.016665
H       -4.198304     2.935014    -0.030171
H       -5.420335     5.076239    -0.029981
H       -4.198636     7.220813    -0.000365
H       -1.709840     7.224154     0.029658
H       -0.472759     5.096045     0.029758
O       -1.080000    -1.870615     0.000000
50
ex_0431 frame7 TBP-5-1-conf8
Tc       0.000000     0.000000     0.000000
Se       0.000000     0.000000     2.700000
C       -0.000000    -0.000000     4.509349
C        0.268745     1.143486     5.240537
C        0.266261     1.133010     6.621469
C       -0.012640    -0.053625     7.256131
C       -0.289232    -1.230522     6.565158
C       -0.276161    -1.174970     5.179166
H        0.484097     2.059610     4.747362
H        0.483197     2.055944     7.165829
H       -0.015409    -0.065213     8.336124
H       -0.501168    -2.132116     7.113308
H       -0.487432    -2.073731     4.612749
Se       0.000000     0.000000    -2.700000
C        0.000034    -0.000771    -4.530992
C        0.054829    -1.229640    -5.182873
C        0.053894    -1.208808    -6.581367
C        0.000744    -0.016827    -7.281982
C       -0.052316     1.173165    -6.593641
C       -0.053362     1.196705    -5.210976
H        0.096602    -2.166388    -4.640949
H        0.096035    -2.154097    -7.106319
H        0.001153    -0.025696    -8.352725
H       -0.094955     2.129403    -7.111221
H       -0.095278     2.136685    -4.649684
Se       2.700000     0.000000     0.000000
C        4.530992     0.000766     0.000089
C        5.182873     1.222674     0.141738
C        6.581367     1.201959     0.139342
C        7.281982     0.016730     0.001946
C        6.593641    -1.166519    -0.135222
C        5.210976    -1.189925    -0.137939
H        4.640949     2.154116     0.249709
H        7.106319     2.141891     0.248311
H        8.352725     0.025552     0.002955
H        7.111221    -2.117340    -0.245444
H        4.649684    -2.124581    -0.246285
Se      -1.350000     2.338269     0.000000
C       -2.254675     3.905211     0.000000
C       -1.602998     5.125760    -0.000326
C       -2.302789     6.316298    -0.000344
C       -3.675778     6.256446    -0.000021
C       -4.377284     5.053565     0.000320
C       -3.634865     3.881796     0.000319
H       -0.541399     5.169204    -0.000545
H       -1.753902     7.261771    -0.000582
H       -4.226093     7.185791    -0.000062
H       -5.453445     5.065193     0.000537
H       -4.151222     2.929635     0.000534
O       -1.080000    -1.870615     0.000000
50
ex_0431 frame8 TBP-5-1-conf9
Tc       0.000000     0.000000     0.000000
Se       0.000000     0.000000     2.700000
C        0.000015    -0.000771     4.530992
C        0.023614    -1.230636     5.182873
C        0.023219    -1.209786     6.581367
C        0.000330    -0.016840     7.281982
C       -0.022524     1.174115     6.593641
C       -0.022979     1.197673     5.210976
H        0.041597    -2.168142     4.640949
H        0.041380    -2.155840     7.106319
H        0.000486    -0.025718     8.352725
H       -0.040885     2.131127     7.111221
H       -0.041027     2.138415     4.649684
Se       0.000000     0.000000    -2.700000
C       -0.000000     0.000000    -4.509349
C        0.261685     1.145123    -5.240537
C        0.259307     1.134621    -6.621469
C       -0.012239    -0.053717    -7.256131
C       -0.281575    -1.232297    -6.565158
C       -0.268875    -1.176659    -5.179166
H        0.471300     2.062576    -4.747362
H        0.470496     2.058888    -7.165829
H       -0.014849    -0.065343    -8.336124
H       -0.487866    -2.135199    -7.113308
H       -0.474517    -2.076724    -4.612749
Se       2.700000     0.000000     0.000000
C        4.509349    -0.000000     0.000000
C        5.240537    -1.172194    -0.075805
C        6.621469    -1.161448    -0.075131
C        7.256131     0.054981     0.003520
C        6.565158     1.261424     0.081544
C        5.179166     1.204473     0.077876
H        4.747362    -2.111329    -0.136496
H        7.165829    -2.107560    -0.136290
H        8.336124     0.066874     0.004244
H        7.113308     2.185665     0.141274
H        4.612749     2.125810     0.137417
Se      -1.350000     2.338269     0.000000
C       -2.266164     3.923569    -0.000011
C       -3.657291     3.873128    -0.017122
C       -4.338481     5.094685    -0.016826
C       -3.655576     6.297960    -0.000228
C       -2.279918     6.297369     0.016341
C       -1.568182     5.111726     0.016665
H       -4.198304     2.935014    -0.030171
H       -5.420335     5.076239    -0.029981
H       -4.198636     7.220813    -0.000365
H       -1.709840     7.224154     0.029658
H       -0.472759     5.096045     0.029758
O       -1.080000    -1.870615     0.000000
50
ex_0431 frame9 TBP-5-1-conf10
Tc       0.000000     0.000000     0.000000
Se       0.000000     0.000000     2.700000
C        0.000015    -0.000771     4.530992
C        0.023614    -1.230636     5.182873
C        0.023219    -1.209786     6.581367
C        0.000330    -0.016840     7.281982
C       -0.022524     1.174115     6.593641
C       -0.022979     1.197673     5.210976
H        0.041597    -2.168142     4.640949
H        0.041380    -2.155840     7.106319
H        0.000486    -0.025718     8.352725
H       -0.040885     2.131127     7.111221
H       -0.041027     2.138415     4.649684
Se       0.000000     0.000000    -2.700000
C       -0.000000     0.000000    -4.509349
C        0.261685     1.145123    -5.240537
C        0.259307     1.134621    -6.621469
C       -0.012239    -0.053717    -7.256131
C       -0.281575    -1.232297    -6.565158
C       -0.268875    -1.176659    -5.179166
H        0.471300     2.062576    -4.747362
H        0.470496     2.058888    -7.165829
H       -0.014849    -0.065343    -8.336124
H       -0.487866    -2.135199    -7.113308
H       -0.474517    -2.076724    -4.612749
Se       2.700000     0.000000     0.000000
C        4.530992     0.000766     0.000089
C        5.182873     1.222674     0.141738
C        6.581367     1.201959     0.139342
C        7.281982     0.016730     0.001946
C        6.593641    -1.166519    -0.135222
C        5.210976    -1.189925    -0.137939
H        4.640949     2.154116     0.249709
H        7.106319     2.141891     0.248311
H        8.352725     0.025552     0.002955
H        7.111221    -2.117340    -0.245444
H        4.649684    -2.124581    -0.246285
Se      -1.350000     2.338269     0.000000
C       -2.254675     3.905211     0.000000
C       -1.602998     5.125760    -0.000326
C       -2.302789     6.316298    -0.000344
C       -3.675778     6.256446    -0.000021
C       -4.377284     5.053565     0.000320
C       -3.634865     3.881796     0.000319
H       -0.541399     5.169204    -0.000545
H       -1.753902     7.261771    -0.000582
H       -4.226093     7.185791    -0.000062
H       -5.453445     5.065193     0.000537
H       -4.151222     2.929635     0.000534
O       -1.080000    -1.870615     0.000000
50
ex_0431 frame10 TBP-5-2
Tc       0.000000     0.000000     0.000000
Se       0.000000     0.000000     2.700000
C       -0.000000    -0.000000     4.509349
C        0.268745     1.143486     5.240537
C        0.266261     1.133010     6.621469
C       -0.012640    -0.053625     7.256131
C       -0.289232    -1.230522     6.565158
C       -0.276161    -1.174970     5.179166
H        0.484097     2.059610     4.747362
H        0.483197     2.055944     7.165829
H       -0.015409    -0.065213     8.336124
H       -0.501168    -2.132116     7.113308
H       -0.487432    -2.073731     4.612749
O        0.000000     0.000000    -2.160000
Se       2.700000     0.000000     0.000000
C        4.509349    -0.000000     0.000000
C        5.240537    -1.172194    -0.075805
C        6.621469    -1.161448    -0.075131
C        7.256131     0.054981     0.003520
C        6.565158     1.261424     0.081544
C        5.179166     1.204473     0.077876
H        4.747362    -2.111329    -0.136496
H        7.165829    -2.107560    -0.136290
H        8.336124     0.066874     0.004244
H        7.113308     2.185665     0.141274
H        4.612749     2.125810     0.137417
Se      -1.350000     2.338269     0.000000
C       -2.254675     3.905211     0.000000
C       -1.602998     5.125760    -0.000326
C       -2.302789     6.316298    -0.000344
C       -3.675778     6.256446    -0.000021
C       -4.377284     5.053565     0.000320
C       -3.634865     3.881796     0.000319
H       -0.541399     5.169204    -0.000545
H       -1.753902     7.261771    -0.000582
H       -4.226093     7.185791    -0.000062
H       -5.453445     5.065193     0.000537
H       -4.151222     2.929635     0.000534
Se      -1.350000    -2.338269     0.000000
C       -2.254675    -3.905211    -0.000000
C       -3.637499    -3.951140     0.010358
C       -4.318641    -5.152446     0.010242
C       -3.580355    -6.311539    -0.000522
C       -2.187916    -6.317597    -0.011178
C       -1.544342    -5.088760    -0.010659
H       -4.205891    -3.053509     0.018699
H       -5.411856    -5.149850     0.018628
H       -4.110034    -7.252798    -0.000672
H       -1.659937    -7.255375    -0.019385
H       -0.461599    -5.059839    -0.018842
50
ex_0431 frame11 TBP-5-2-conf2
Tc       0.000000     0.000000     0.000000
Se       0.000000     0.000000     2.700000
C       -0.000000    -0.000000     4.509349
C        0.268745     1.143486     5.240537
C        0.266261     1.133010     6.621469
C       -0.012640    -0.053625     7.256131
C       -0.289232    -1.230522     6.565158
C       -0.276161    -1.174970     5.179166
H        0.484097     2.059610     4.747362
H        0.483197     2.055944     7.165829
H       -0.015409    -0.065213     8.336124
H       -0.501168    -2.132116     7.113308
H       -0.487432    -2.073731     4.612749
O        0.000000     0.000000    -2.160000
Se       2.700000     0.000000     0.000000
C        4.509349    -0.000000     0.000000
C        5.240537    -1.172194    -0.075805
C        6.621469    -1.161448    -0.075131
C        7.256131     0.054981     0.003520
C        6.565158     1.261424     0.081544
C        5.179166     1.204473     0.077876
H        4.747362    -2.111329    -0.136496
H        7.165829    -2.107560    -0.136290
H        8.336124     0.066874     0.004244
H        7.113308     2.185665     0.141274
H        4.612749     2.125810     0.137417
Se      -1.350000     2.338269     0.000000
C       -2.254675     3.905211     0.000000
C       -1.602998     5.125760    -0.000326
C       -2.302789     6.316298    -0.000344
C       -3.675778     6.256446    -0.000021
C       -4.377284     5.053565     0.000320
C       -3.634865     3.881796     0.000319
H       -0.541399     5.169204    -0.000545
H       -1.753902     7.261771    -0.000582
H       -4.226093     7.185791    -0.000062
H       -5.453445     5.065193     0.000537
H       -4.151222     2.929635     0.000534
Se      -1.350000    -2.338269     0.000000
C       -2.264828    -3.924340    -0.000009
C       -1.525550    -5.103889    -0.014216
C       -2.242855    -6.304595    -0.013969
C       -3.626405    -6.314802    -0.000188
C       -4.313753    -5.123134     0.013568
C       -3.642825    -3.913930     0.013837
H       -0.442588    -5.103378    -0.025050
H       -1.685928    -7.232299    -0.024889
H       -4.154088    -7.246533    -0.000304
H       -5.401436    -5.092810     0.024625
H       -4.176981    -2.957412     0.024707
50
ex_0431 frame12 TBP-5-2-conf3
Tc       0.000000     0.000000     0.000000
Se       0.000000     0.000000     2.700000
C       -0.000000    -0.000000     4.509349
C        0.268745     1.143486     5.240537
C        0.266261     1.133010     6.621469
C       -0.012640    -0.053625     7.256131
C       -0.289232    -1.230522     6.565158
C       -0.276161    -1.174970     5.179166
H        0.484097     2.059610     4.747362
H        0.483197     2.055944     7.165829
H       -0.015409    -0.065213     8.336124
H       -0.501168    -2.132116     7.113308
H       -0.487432    -2.073731     4.612749
O        0.000000     0.000000    -2.160000
Se       2.700000     0.000000     0.000000
C        4.509349    -0.000000     0.000000
C        5.240537    -1.172194    -0.075805
C        6.621469    -1.161448    -0.075131
C        7.256131     0.054981     0.003520
C        6.565158     1.261424     0.081544
C        5.179166     1.204473     0.077876
H        4.747362    -2.111329    -0.136496
H        7.165829    -2.107560    -0.136290
H        8.336124     0.066874     0.004244
H        7.113308     2.185665     0.141274
H        4.612749     2.125810     0.137417
Se      -1.350000     2.338269     0.000000
C       -2.266164     3.923569    -0.000011
C       -3.657291     3.873128    -0.017122
C       -4.338481     5.094685    -0.016826
C       -3.655576     6.297960    -0.000228
C       -2.279918     6.297369     0.016341
C       -1.568182     5.111726     0.016665
H       -4.198304     2.935014    -0.030171
H       -5.420335     5.076239    -0.029981
H       -4.198636     7.220813    -0.000365
H       -1.709840     7.224154     0.029658
H       -0.472759     5.096045     0.029758
Se      -1.350000    -2.338269     0.000000
C       -2.254675    -3.905211    -0.000000
C       -3.637499    -3.951140     0.010358
C       -4.318641    -5.152446     0.010242
C       -3.580355    -6.311539    -0.000522
C       -2.187916    -6.317597    -0.011178
C       -1.544342    -5.088760    -0.010659
H       -4.205891    -3.053509     0.018699
H       -5.411856    -5.149850     0.018628
H       -4.110034    -7.252798    -0.000672
H       -1.659937    -7.255375    -0.019385
H       -0.461599    -5.059839    -0.018842
50
ex_0431 frame13 TBP-5-2-conf4
Tc       0.000000     0.000000     0.000000
Se       0.000000     0.000000     2.700000
C       -0.000000    -0.000000     4.509349
C        0.268745     1.143486     5.240537
C        0.266261     1.133010     6.621469
C       -0.012640    -0.053625     7.256131
C       -0.289232    -1.230522     6.565158
C       -0.276161    -1.174970     5.179166
H        0.484097     2.059610     4.747362
H        0.483197     2.055944     7.165829
H       -0.015409    -0.065213     8.336124
H       -0.501168    -2.132116     7.113308
H       -0.487432    -2.073731     4.612749
O        0.000000     0.000000    -2.160000
Se       2.700000     0.000000     0.000000
C        4.530992     0.000766     0.000089
C        5.182873     1.222674     0.141738
C        6.581367     1.201959     0.139342
C        7.281982     0.016730     0.001946
C        6.593641    -1.166519    -0.135222
C        5.210976    -1.189925    -0.137939
H        4.640949     2.154116     0.249709
H        7.106319     2.141891     0.248311
H        8.352725     0.025552     0.002955
H        7.111221    -2.117340    -0.245444
H        4.649684    -2.124581    -0.246285
Se      -1.350000     2.338269     0.000000
C       -2.254675     3.905211     0.000000
C       -1.602998     5.125760    -0.000326
C       -2.302789     6.316298    -0.000344
C       -3.675778     6.256446    -0.000021
C       -4.377284     5.053565     0.000320
C       -3.634865     3.881796     0.000319
H       -0.541399     5.169204    -0.000545
H       -1.753902     7.261771    -0.000582
H       -4.226093     7.185791    -0.000062
H       -5.453445     5.065193     0.000537
H       -4.151222     2.929635     0.000534
Se      -1.350000    -2.338269     0.000000
C       -2.254675    -3.905211    -0.000000
C       -3.637499    -3.951140     0.010358
C       -4.318641    -5.152446     0.010242
C       -3.580355    -6.311539    -0.000522
C       -2.187916    -6.317597    -0.011178
C       -1.544342    -5.088760    -0.010659
H       -4.205891    -3.053509     0.018699
H       -5.411856    -5.149850     0.018628
H       -4.110034    -7.252798    -0.000672
H       -1.659937    -7.255375    -0.019385
H       -0.461599    -5.059839    -0.018842
50
ex_0431 frame14 TBP-5-2-conf5
Tc       0.000000     0.000000     0.000000
Se       0.000000     0.000000     2.700000
C        0.000015    -0.000771     4.530992
C        0.023614    -1.230636     5.182873
C        0.023219    -1.209786     6.581367
C        0.000330    -0.016840     7.281982
C       -0.022524     1.174115     6.593641
C       -0.022979     1.197673     5.210976
H        0.041597    -2.168142     4.640949
H        0.041380    -2.155840     7.106319
H        0.000486    -0.025718     8.352725
H       -0.040885     2.131127     7.111221
H       -0.041027     2.138415     4.649684
O        0.000000     0.000000    -2.160000
Se       2.700000     0.000000     0.000000
C        4.509349    -0.000000     0.000000
C        5.240537    -1.172194    -0.075805
C        6.621469    -1.161448    -0.075131
C        7.256131     0.054981     0.003520
C        6.565158     1.261424     0.081544
C        5.179166     1.204473     0.077876
H        4.747362    -2.111329    -0.136496
H        7.165829    -2.107560    -0.136290
H        8.336124     0.066874     0.004244
H        7.113308     2.185665     0.141274
H        4.612749     2.125810     0.137417
Se      -1.350000     2.338269     0.000000
C       -2.254675     3.905211     0.000000
C       -1.602998     5.125760    -0.000326
C       -2.302789     6.316298    -0.000344
C       -3.675778     6.256446    -0.000021
C       -4.377284     5.053565     0.000320
C       -3.634865     3.881796     0.000319
H       -0.541399     5.169204    -0.000545
H       -1.753902     7.261771    -0.000582
H       -4.226093     7.185791    -0.000062
H       -5.453445     5.065193     0.000537
H       -4.151222     2.929635     0.000534
Se      -1.350000    -2.338269     0.000000
C       -2.254675    -3.905211    -0.000000
C       -3.637499    -3.951140     0.010358
C       -4.318641    -5.152446     0.010242
C       -3.580355    -6.311539    -0.000522
C       -2.187916    -6.317597    -0.011178
C       -1.544342    -5.088760    -0.010659
H       -4.205891    -3.053509     0.018699
H       -5.411856    -5.149850     0.018628
H       -4.110034    -7.252798    -0.000672
H       -1.659937    -7.255375    -0.019385
H       -0.461599    -5.059839    -0.018842
50
ex_0431 frame15 TBP-5-2-conf6
Tc       0.000000     0.000000     0.000000
Se       0.000000     0.000000     2.700000
C       -0.000000    -0.000000     4.509349
C        0.268745     1.143486     5.240537
C        0.266261     1.133010     6.621469
C       -0.012640    -0.053625     7.256131
C       -0.289232    -1.230522     6.565158
C       -0.276161    -1.174970     5.179166
H        0.484097     2.059610     4.747362
H        0.483197     2.055944     7.165829
H       -0.015409    -0.065213     8.336124
H       -0.501168    -2.132116     7.113308
H       -0.487432    -2.073731     4.612749
O        0.000000     0.000000    -2.160000
Se       2.700000     0.000000     0.000000
C        4.509349    -0.000000     0.000000
C        5.240537    -1.172194    -0.075805
C        6.621469    -1.161448    -0.075131
C        7.256131     0.054981     0.003520
C        6.565158     1.261424     0.081544
C        5.179166     1.204473     0.077876
H        4.747362    -2.111329    -0.136496
H        7.165829    -2.107560    -0.136290
H        8.336124     0.066874     0.004244
H        7.113308     2.185665     0.141274
H        4.612749     2.125810     0.137417
Se      -1.350000     2.338269     0.000000
C       -2.266164     3.923569    -0.000011
C       -3.657291     3.873128    -0.017122
C       -4.338481     5.094685    -0.016826
C       -3.655576     6.297960    -0.000228
C       -2.279918     6.297369     0.016341
C       -1.568182     5.111726     0.016665
H       -4.198304     2.935014    -0.030171
H       -5.420335     5.076239    -0.029981
H       -4.198636     7.220813    -0.000365
H       -1.709840     7.224154     0.029658
H       -0.472759     5.096045     0.029758
Se      -1.350000    -2.338269     0.000000
C       -2.264828    -3.924340    -0.000009
C       -1.525550    -5.103889    -0.014216
C       -2.242855    -6.304595    -0.013969
C       -3.626405    -6.314802    -0.000188
C       -4.313753    -5.123134     0.013568
C       -3.642825    -3.913930     0.013837
H       -0.442588    -5.103378    -0.025050
H       -1.685928    -7.232299    -0.024889
H       -4.154088    -7.246533    -0.000304
H       -5.401436    -5.092810     0.024625
H       -4.176981    -2.957412     0.024707
50
ex_0431 frame16 TBP-5-2-conf7
Tc       0.000000     0.000000     0.000000
Se       0.000000     0.000000     2.700000
C       -0.000000    -0.000000     4.509349
C        0.268745     1.143486     5.240537
C        0.266261     1.133010     6.621469
C       -0.012640    -0.053625     7.256131
C       -0.289232    -1.230522     6.565158
C       -0.276161    -1.174970     5.179166
H        0.484097     2.059610     4.747362
H        0.483197     2.055944     7.165829
H       -0.015409    -0.065213     8.336124
H       -0.501168    -2.132116     7.113308
H       -0.487432    -2.073731     4.612749
O        0.000000     0.000000    -2.160000
Se       2.700000     0.000000     0.000000
C        4.530992     0.000766     0.000089
C        5.182873     1.222674     0.141738
C        6.581367     1.201959     0.139342
C        7.281982     0.016730     0.001946
C        6.593641    -1.166519    -0.135222
C        5.210976    -1.189925    -0.137939
H        4.640949     2.154116     0.249709
H        7.106319     2.141891     0.248311
H        8.352725     0.025552     0.002955
H        7.111221    -2.117340    -0.245444
H        4.649684    -2.124581    -0.246285
Se      -1.350000     2.338269     0.000000
C       -2.254675     3.905211     0.000000
C       -1.602998     5.125760    -0.000326
C       -2.302789     6.316298    -0.000344
C       -3.675778     6.256446    -0.000021
C       -4.377284     5.053565     0.000320
C       -3.634865     3.881796     0.000319
H       -0.541399     5.169204    -0.000545
H       -1.753902     7.261771    -0.000582
H       -4.226093     7.185791    -0.000062
H       -5.453445     5.065193     0.000537
H       -4.151222     2.929635     0.000534
Se      -1.350000    -2.338269     0.000000
C       -2.264828    -3.924340    -0.000009
C       -1.525550    -5.103889    -0.014216
C       -2.242855    -6.304595    -0.013969
C       -3.626405    -6.314802    -0.000188
C       -4.313753    -5.123134     0.013568
C       -3.642825    -3.913930     0.013837
H       -0.442588    -5.103378    -0.025050
H       -1.685928    -7.232299    -0.024889
H       -4.154088    -7.246533    -0.000304
H       -5.401436    -5.092810     0.024625
H       -4.176981    -2.957412     0.024707
50
ex_0431 frame17 TBP-5-2-conf8
Tc       0.000000     0.000000     0.000000
Se       0.000000     0.000000     2.700000
C       -0.000000    -0.000000     4.509349
C        0.268745     1.143486     5.240537
C        0.266261     1.133010     6.621469
C       -0.012640    -0.053625     7.256131
C       -0.289232    -1.230522     6.565158
C       -0.276161    -1.174970     5.179166
H        0.484097     2.059610     4.747362
H        0.483197     2.055944     7.165829
H       -0.015409    -0.065213     8.336124
H       -0.501168    -2.132116     7.113308
H       -0.487432    -2.073731     4.612749
O        0.000000     0.000000    -2.160000
Se       2.700000     0.000000     0.000000
C        4.530992     0.000766     0.000089
C        5.182873     1.222674     0.141738
C        6.581367     1.201959     0.139342
C        7.281982     0.016730     0.001946
C        6.593641    -1.166519    -0.135222
C        5.210976    -1.189925    -0.137939
H        4.640949     2.154116     0.249709
H        7.106319     2.141891     0.248311
H        8.352725     0.025552     0.002955
H        7.111221    -2.117340    -0.245444
H        4.649684    -2.124581    -0.246285
Se      -1.350000     2.338269     0.000000
C       -2.266164     3.923569    -0.000011
C       -3.657291     3.873128    -0.017122
C       -4.338481     5.094685    -0.016826
C       -3.655576     6.297960    -0.000228
C       -2.279918     6.297369     0.016341
C       -1.568182     5.111726     0.016665
H       -4.198304     2.935014    -0.030171
H       -5.420335     5.076239    -0.029981
H       -4.198636     7.220813    -0.000365
H       -1.709840     7.224154     0.029658
H       -0.472759     5.096045     0.029758
Se      -1.350000    -2.338269     0.000000
C       -2.254675    -3.905211    -0.000000
C       -3.637499    -3.951140     0.010358
C       -4.318641    -5.152446     0.010242
C       -3.580355    -6.311539    -0.000522
C       -2.187916    -6.317597    -0.011178
C       -1.544342    -5.088760    -0.010659
H       -4.205891    -3.053509     0.018699
H       -5.411856    -5.149850     0.018628
H       -4.110034    -7.252798    -0.000672
H       -1.659937    -7.255375    -0.019385
H       -0.461599    -5.059839    -0.018842
50
ex_0431 frame18 TBP-5-2-conf9
Tc       0.000000     0.000000     0.000000
Se       0.000000     0.000000     2.700000
C        0.000015    -0.000771     4.530992
C        0.023614    -1.230636     5.182873
C        0.023219    -1.209786     6.581367
C        0.000330    -0.016840     7.281982
C       -0.022524     1.174115     6.593641
C       -0.022979     1.197673     5.210976
H        0.041597    -2.168142     4.640949
H        0.041380    -2.155840     7.106319
H        0.000486    -0.025718     8.352725
H       -0.040885     2.131127     7.111221
H       -0.041027     2.138415     4.649684
O        0.000000     0.000000    -2.160000
Se       2.700000     0.000000     0.000000
C        4.509349    -0.000000     0.000000
C        5.240537    -1.172194    -0.075805
C        6.621469    -1.161448    -0.075131
C        7.256131     0.054981     0.003520
C        6.565158     1.261424     0.081544
C        5.179166     1.204473     0.077876
H        4.747362    -2.111329    -0.136496
H        7.165829    -2.107560    -0.136290
H        8.336124     0.066874     0.004244
H        7.113308     2.185665     0.141274
H        4.612749     2.125810     0.137417
Se      -1.350000     2.338269     0.000000
C       -2.254675     3.905211     0.000000
C       -1.602998     5.125760    -0.000326
C       -2.302789     6.316298    -0.000344
C       -3.675778     6.256446    -0.000021
C       -4.377284     5.053565     0.000320
C       -3.634865     3.881796     0.000319
H       -0.541399     5.169204    -0.000545
H       -1.753902     7.261771    -0.000582
H       -4.226093     7.185791    -0.000062
H       -5.453445     5.065193     0.000537
H       -4.151222     2.929635     0.000534
Se      -1.350000    -2.338269     0.000000
C       -2.264828    -3.924340    -0.000009
C       -1.525550    -5.103889    -0.014216
C       -2.242855    -6.304595    -0.013969
C       -3.626405    -6.314802    -0.000188
C       -4.313753    -5.123134     0.013568
C       -3.642825    -3.913930     0.013837
H       -0.442588    -5.103378    -0.025050
H       -1.685928    -7.232299    -0.024889
H       -4.154088    -7.246533    -0.000304
H       -5.401436    -5.092810     0.024625
H       -4.176981    -2.957412     0.024707
50
ex_0431 frame19 TBP-5-2-conf10
Tc       0.000000     0.000000     0.000000
Se       0.000000     0.000000     2.700000
C        0.000015    -0.000771     4.530992
C        0.023614    -1.230636     5.182873
C        0.023219    -1.209786     6.581367
C        0.000330    -0.016840     7.281982
C       -0.022524     1.174115     6.593641
C       -0.022979     1.197673     5.210976
H        0.041597    -2.168142     4.640949
H        0.041380    -2.155840     7.106319
H        0.000486    -0.025718     8.352725
H       -0.040885     2.131127     7.111221
H       -0.041027     2.138415     4.649684
O        0.000000     0.000000    -2.160000
Se       2.700000     0.000000     0.000000
C        4.509349    -0.000000     0.000000
C        5.240537    -1.172194    -0.075805
C        6.621469    -1.161448    -0.075131
C        7.256131     0.054981     0.003520
C        6.565158     1.261424     0.081544
C        5.179166     1.204473     0.077876
H        4.747362    -2.111329    -0.136496
H        7.165829    -2.107560    -0.136290
H        8.336124     0.066874     0.004244
H        7.113308     2.185665     0.141274
H        4.612749     2.125810     0.137417
Se      -1.350000     2.338269     0.000000
C       -2.266164     3.923569    -0.000011
C       -3.657291     3.873128    -0.017122
C       -4.338481     5.094685    -0.016826
C       -3.655576     6.297960    -0.000228
C       -2.279918     6.297369     0.016341
C       -1.568182     5.111726     0.016665
H       -4.198304     2.935014    -0.030171
H       -5.420335     5.076239    -0.029981
H       -4.198636     7.220813    -0.000365
H       -1.709840     7.224154     0.029658
H       -0.472759     5.096045     0.029758
Se      -1.350000    -2.338269     0.000000
C       -2.254675    -3.905211    -0.000000
C       -3.637499    -3.951140     0.010358
C       -4.318641    -5.152446     0.010242
C       -3.580355    -6.311539    -0.000522
C       -2.187916    -6.317597    -0.011178
C       -1.544342    -5.088760    -0.010659
H       -4.205891    -3.053509     0.018699
H       -5.411856    -5.149850     0.018628
H       -4.110034    -7.252798    -0.000672
H       -1.659937    -7.255375    -0.019385
H       -0.461599    -5.059839    -0.018842
50
ex_0431 frame20 SPY-5-1
Tc       0.000000     0.000000     0.000000
Se       0.000000     0.000000     2.700000
C       -0.000000    -0.000000     4.509349
C        0.268745     1.143486     5.240537
C        0.266261     1.133010     6.621469
C       -0.012640    -0.053625     7.256131
C       -0.289232    -1.230522     6.565158
C       -0.276161    -1.174970     5.179166
H        0.484097     2.059610     4.747362
H        0.483197     2.055944     7.165829
H       -0.015409    -0.065213     8.336124
H       -0.501168    -2.132116     7.113308
H       -0.487432    -2.073731     4.612749
Se       1.890378     1.890378     0.378076
C        3.157176     3.157176     0.631435
C        4.501402     2.897254     0.431641
C        5.460617     3.871181     0.627761
C        5.041268     5.116520     1.030200
C        3.700880     5.427149     1.244459
C        2.770930     4.419256     1.035714
H        4.822926     1.933558     0.120524
H        6.513513     3.629315     0.460112
H        5.788968     5.880508     1.184452
H        3.428423     6.419526     1.559437
H        1.720181     4.629369     1.193872
Se      -1.890378     1.890378     0.378076
C       -3.157176     3.157176     0.631435
C       -2.843738     4.503644     0.688009
C       -3.818152     5.462842     0.881778
C       -5.119024     5.041168     1.018175
C       -5.484733     3.698472     0.968575
C       -4.474243     2.768629     0.772287
H       -1.837173     4.826958     0.582288
H       -3.533096     6.517544     0.921052
H       -5.883549     5.788853     1.169824
H       -6.519300     3.424253     1.081414
H       -4.726412     1.716123     0.728940
Se      -1.890378    -1.890378     0.378076
C       -3.157176    -3.157176     0.631435
C       -4.486761    -2.831619     0.833019
C       -5.446116    -3.806143     1.025459
C       -5.041963    -5.119590     1.011374
C       -3.716643    -5.497772     0.812527
C       -2.785978    -4.486695     0.623284
H       -4.796545    -1.815348     0.843477
H       -6.487189    -3.511307     1.181774
H       -5.789823    -5.884233     1.161552
H       -3.455739    -6.541891     0.811030
H       -1.746746    -4.748385     0.465960
O        1.512302    -1.512302     0.302460
50
ex_0431 frame21 SPY-5-2
Tc       0.000000     0.000000     0.000000
O        0.000000     0.000000     2.160000
Se       1.890378     1.890378     0.378076
C        3.157176     3.157176     0.631435
C        4.501402     2.897254     0.431641
C        5.460617     3.871181     0.627761
C        5.041268     5.116520     1.030200
C        3.700880     5.427149     1.244459
C        2.770930     4.419256     1.035714
H        4.822926     1.933558     0.120524
H        6.513513     3.629315     0.460112
H        5.788968     5.880508     1.184452
H        3.428423     6.419526     1.559437
H        1.720181     4.629369     1.193872
Se      -1.890378     1.890378     0.378076
C       -3.157176     3.157176     0.631435
C       -2.843738     4.503644     0.688009
C       -3.818152     5.462842     0.881778
C       -5.119024     5.041168     1.018175
C       -5.484733     3.698472     0.968575
C       -4.474243     2.768629     0.772287
H       -1.837173     4.826958     0.582288
H       -3.533096     6.517544     0.921052
H       -5.883549     5.788853     1.169824
H       -6.519300     3.424253     1.081414
H       -4.726412     1.716123     0.728940
Se      -1.890378    -1.890378     0.378076
C       -3.157176    -3.157176     0.631435
C       -4.486761    -2.831619     0.833019
C       -5.446116    -3.806143     1.025459
C       -5.041963    -5.119590     1.011374
C       -3.716643    -5.497772     0.812527
C       -2.785978    -4.486695     0.623284
H       -4.796545    -1.815348     0.843477
H       -6.487189    -3.511307     1.181774
H       -5.789823    -5.884233     1.161552
H       -3.455739    -6.541891     0.811030
H       -1.746746    -4.748385     0.465960
Se       1.890378    -1.890378     0.378076
C        3.157176    -3.157176     0.631435
C        2.887543    -4.337045     1.301978
C        3.861548    -5.297778     1.490121
C        5.116956    -5.048995     0.989382
C        5.437582    -3.877764     0.307875
C        4.429226    -2.939821     0.141414
H        1.916091    -4.526869     1.688148
H        3.611858    -6.218004     2.024943
H        5.881019    -5.798386     1.134810
H        6.437594    -3.734917    -0.063376
H        4.646948    -2.018276    -0.384502
