40
ex_0159 frame0 linear
C       -1.636757     1.860924    -0.748097
C       -1.619058     0.942726     0.517602
C       -1.923335    -0.501692     0.128141
C       -2.707883     1.517029     1.437472
P        0.072013     1.053943     1.203118
Se       1.384249    -0.831656     1.243552
C        2.350610    -1.095821    -0.389742
C        2.414634    -2.383927    -0.917585
C        3.172034    -2.625853    -2.059824
C        3.820626    -1.566905    -2.691921
C        3.703218    -0.279585    -2.157683
N        2.963269    -0.066435    -1.029948
Au       1.270568     2.795571     0.350338
Cl       2.023667     2.592452    -1.792016
C        0.129279     1.642808     2.981288
C        1.631843     1.879690     3.329821
C       -0.389421     0.484556     3.888799
C       -0.597798     2.968206     3.274412
H       -1.490196     2.935469    -0.474105
H       -0.851610     1.600547    -1.487083
H       -2.625167     1.804641    -1.247319
H       -2.519590    -0.533705    -0.804718
H       -2.475438    -1.004924     0.944598
H       -1.000478    -1.072952    -0.081687
H       -2.691226     1.001946     2.418720
H       -2.576312     2.611033     1.585409
H       -3.700767     1.378214     0.977701
H        1.932107    -3.205860    -0.403824
H        3.264244    -3.633961    -2.442496
H        4.413708    -1.746718    -3.578948
H        4.210464     0.547044    -2.638478
H        1.754876     2.223705     4.386555
H        2.236812     0.952019     3.244252
H        2.090838     2.649005     2.674013
H       -1.176483     0.805129     4.599780
H        0.425941    -0.024049     4.452348
H       -0.841238    -0.324721     3.278156
H       -0.487772     3.683701     2.436249
H       -1.663245     2.812725     3.521900
H       -0.185924     3.460142     4.190144
40
ex_0159 frame1 Cl-P-conf3
C        3.159877     1.252819     2.364865
C        2.888580    -0.052679     1.667093
C        4.179770    -0.846142     1.807872
C        1.897537    -0.779498     2.579055
P        2.280000     0.000000     0.000000
Se       3.152510    -1.698924    -1.255023
C        5.027728    -1.846228    -1.130357
C        5.593092    -3.122949    -1.231431
C        6.962269    -3.314485    -1.149858
C        7.739623    -2.205425    -0.966518
C        7.147441    -0.958723    -0.870841
N        5.815044    -0.792459    -0.952485
Au       0.000000     0.000000     0.000000
Cl      -2.280000     0.000000     0.000000
C        2.343647     1.509896    -0.981683
C        1.134492     1.596726    -1.890648
C        2.441650     2.815781    -0.253007
C        3.571973     1.458146    -1.896626
H        4.118037     1.704918     2.051527
H        2.316371     1.937202     2.429282
H        3.357657     0.958884     3.439950
H        5.045449    -0.179335     1.668995
H        4.261594    -1.207128     2.869818
H        4.120219    -1.714566     1.157763
H        0.884228    -0.324019     2.453466
H        2.235626    -0.732277     3.637256
H        1.911458    -1.839667     2.208706
H        4.956066    -3.995357    -1.377573
H        7.394546    -4.300847    -1.228280
H        8.810536    -2.276985    -0.893898
H        7.776703    -0.068807    -0.723306
H        1.415617     1.628473    -2.982309
H        0.563424     2.560072    -1.758193
H        0.443859     0.753012    -1.806761
H        2.327487     3.600257    -1.061236
H        3.434314     3.012439     0.157470
H        1.590251     3.034316     0.420581
H        3.332294     2.149356    -2.753823
H        4.480634     1.825651    -1.422145
H        3.596344     0.458555    -2.327697
40
ex_0159 frame2 Cl-P-conf5
C        1.124931    -0.568857    -2.487770
C        2.159374    -1.037980    -1.477618
C        3.430893    -1.328582    -2.188874
C        1.638702    -2.397335    -0.999228
P        2.280000     0.000000     0.000000
Se       2.856501    -1.068853     1.884522
C        4.712339    -0.924588     2.283427
C        5.616933    -1.576062     1.468060
C        6.975184    -1.462409     1.771302
C        7.358391    -0.703097     2.874290
C        6.403844    -0.066967     3.662885
N        5.082426    -0.189155     3.351617
Au       0.000000     0.000000     0.000000
Cl      -2.280000     0.000000     0.000000
C        2.984477     1.655402    -0.138523
C        2.878298     2.311100    -1.461208
C        4.440023     1.685277     0.283590
C        2.256946     2.576468     0.837224
H        1.354708    -1.117250    -3.424016
H        1.097232     0.517026    -2.616305
H        0.121699    -0.887690    -2.134323
H        3.818944    -0.523095    -2.836143
H        4.206375    -1.753937    -1.542148
H        3.181150    -2.150790    -2.923421
H        2.448844    -2.831083    -0.384287
H        0.741607    -2.291021    -0.383309
H        1.488454    -3.071703    -1.865513
H        5.254341    -2.147839     0.629607
H        7.650824    -1.971119     1.131352
H        8.429868    -0.618986     3.105752
H        6.739918     0.510999     4.507165
H        3.369896     1.800883    -2.298129
H        1.837357     2.616478    -1.719252
H        3.421014     3.298062    -1.365914
H        4.987520     0.810757    -0.121662
H        4.453790     1.721611     1.384052
H        4.894359     2.645448    -0.071303
H        2.456494     3.650870     0.572420
H        1.170604     2.441646     0.839052
H        2.665644     2.446368     1.852630
40
ex_0159 frame3 Cl-P-conf6
C        2.127318    -2.715364     0.471626
C        2.746040    -1.466260     1.009415
C        2.190124    -1.280218     2.416807
C        4.242003    -1.519300     1.138158
P        2.280000     0.000000     0.000000
Se       2.714537     1.973500     0.960275
C        3.967915     3.048318     0.024244
C        3.559279     4.283604    -0.436863
C        4.449500     5.095152    -1.124953
C        5.722067     4.593267    -1.305435
C        6.073884     3.354851    -0.823928
N        5.211372     2.566438    -0.156228
Au       0.000000     0.000000     0.000000
Cl      -2.280000     0.000000     0.000000
C        2.626754    -0.154289    -1.769640
C        3.573968     0.887599    -2.335297
C        3.167494    -1.494116    -2.207580
C        1.320452     0.046498    -2.548282
H        2.818700    -3.439499     0.030972
H        1.340334    -2.425610    -0.272658
H        1.548240    -3.297730     1.244702
H        2.322509    -2.291065     2.901895
H        1.114541    -1.079140     2.416117
H        2.794032    -0.601485     3.025705
H        4.601564    -1.315879     2.169240
H        4.748563    -0.739519     0.512583
H        4.648619    -2.505932     0.845166
H        2.539180     4.610249    -0.255619
H        4.157820     6.066066    -1.497178
H        6.480226     5.159435    -1.831050
H        7.084302     2.946823    -0.962622
H        4.583094     0.594093    -2.041735
H        3.528582     0.730697    -3.452176
H        3.264545     1.906201    -2.100425
H        2.353759    -2.211482    -2.445396
H        3.892021    -1.915898    -1.487474
H        3.731612    -1.387022    -3.168808
H        1.397525    -0.429604    -3.548989
H        0.475669    -0.388319    -1.994599
H        1.196057     1.133032    -2.730178
