55
ex_0222 frame0 pucker r0:3
C       -2.540606    -6.497168    -0.828045
C       -2.663663    -5.027157    -0.558641
C       -1.752031    -4.384841     0.293670
C       -1.875452    -3.016654     0.553316
C       -2.901848    -2.277916    -0.043628
Te      -3.082899    -0.200110     0.336623
Zn      -1.184774     0.478674    -1.233711
Te       0.924533    -0.827101    -0.692749
C        1.346436     0.278646     1.064067
C        2.484979     1.089405     1.118519
C        2.761164     1.835139     2.268406
C        1.897034     1.775758     3.372985
C        2.180141     2.590974     4.599351
C        0.765576     0.946678     3.319710
C        0.492614     0.201771     2.168620
N       -1.731799     0.252136    -3.192873
C       -0.608385    -0.319059    -3.950538
C       -2.942851    -0.559771    -3.374791
C       -1.962024     1.675624    -3.577943
C       -1.067911     2.725929    -2.818012
N       -0.948741     2.508547    -1.345408
C       -2.049556     3.166644    -0.626673
C        0.350240     2.967707    -0.835235
C       -3.811777    -2.913297    -0.894529
C       -3.691467    -4.281338    -1.156528
H       -1.482059    -6.828246    -0.765461
H       -2.920448    -6.751669    -1.840465
H       -3.137076    -7.044921    -0.068960
H       -0.958815    -4.946124     0.771920
H       -1.178885    -2.535923     1.225763
H        3.146917     1.153991     0.264750
H        3.636147     2.472973     2.289722
H        3.271840     2.747915     4.731989
H        1.683074     3.577303     4.489239
H        1.792211     2.089261     5.511397
H        0.085438     0.891673     4.160734
H       -0.389352    -0.421424     2.132782
H       -0.397002    -1.352198    -3.600851
H       -0.833031    -0.348919    -5.039837
H        0.310834     0.282352    -3.787018
H       -3.757794    -0.186942    -2.719836
H       -2.741268    -1.616406    -3.101186
H       -3.287500    -0.523754    -4.431930
H       -1.839362     1.815933    -4.675861
H       -3.015101     1.958833    -3.356176
H       -0.062470     2.666684    -3.291460
H       -1.440213     3.751639    -3.040681
H       -1.993048     4.272728    -0.733169
H       -2.008811     2.906723     0.452822
H       -3.028320     2.816253    -1.017672
H        0.514696     4.040193    -1.080850
H        0.398066     2.845190     0.267335
H        1.168848     2.365817    -1.282960
H       -4.617162    -2.349399    -1.346826
H       -4.409944    -4.761814    -1.809099
55
ex_0222 frame1 pucker r0:1
C       -0.467249    -6.013447     1.146315
C       -1.103419    -4.667511     0.966180
C       -1.113072    -3.742146     2.021467
C       -1.688060    -2.480124     1.845183
C       -2.253028    -2.131279     0.614047
Te      -3.082899    -0.200110     0.336623
Zn      -1.184774     0.478674    -1.233711
Te       0.924533    -0.827101    -0.692749
C        1.498824     0.381313     0.948259
C        2.762254     0.981359     0.959926
C        3.142134     1.795856     2.031031
C        2.264010     2.003661     3.106394
C        2.674328     2.866347     4.262326
C        0.998362     1.396852     3.090292
C        0.622730     0.582051     2.018488
N       -1.731799     0.252136    -3.192873
C       -0.959091    -0.805788    -3.859725
C       -3.172638    -0.030762    -3.268870
C       -1.436160     1.605276    -3.753578
C       -1.443909     2.806076    -2.727160
N       -0.948741     2.508547    -1.345408
C       -1.743727     3.193737    -0.315508
C        0.472308     2.865057    -1.222552
C       -2.268763    -3.059323    -0.432167
C       -1.694402    -4.322114    -0.259178
H       -0.533338    -6.348581     2.203360
H        0.601487    -5.940083     0.855670
H       -0.963792    -6.778404     0.512032
H       -0.660760    -3.990708     2.973592
H       -1.686073    -1.772591     2.663460
H        3.446109     0.823450     0.136137
H        4.124017     2.252790     2.028051
H        3.384221     3.657028     3.938424
H        1.793611     3.363420     4.722007
H        3.167410     2.226380     5.023452
H        0.308079     1.544550     3.911635
H       -0.354737     0.125019     2.012278
H       -1.166910    -1.788772    -3.384856
H       -1.212864    -0.860003    -4.941464
H        0.129224    -0.610963    -3.755739
H       -3.745677     0.762045    -2.741789
H       -3.402510    -0.996802    -2.775111
H       -3.516036    -0.082208    -4.325967
H       -0.413052     1.610045    -4.192208
H       -2.112316     1.845860    -4.605589
H       -0.904593     3.670313    -3.177475
H       -2.506099     3.136124    -2.681431
H       -1.669080     4.298122    -0.426714
H       -1.390997     2.902045     0.697375
H       -2.810740     2.895045    -0.391179
H        0.640235     3.937853    -1.464892
H        0.827034     2.697479    -0.187173
H        1.080962     2.236652    -1.906914
H       -2.706410    -2.798540    -1.385082
H       -1.692942    -5.021899    -1.085753
55
ex_0222 frame2 pucker r0:2
C       -0.422334    -5.872531     1.771910
C       -1.047640    -4.551276     1.437507
C       -1.142566    -3.546004     2.412301
C       -1.735269    -2.318586     2.101603
C       -2.220596    -2.078580     0.811928
Te      -3.082899    -0.200110     0.336623
Zn      -1.184774     0.478674    -1.233711
Te       0.924533    -0.827101    -0.692749
C        1.555361     0.409547     0.906535
C        2.776279     1.086827     0.822641
C        3.192089     1.915875     1.868904
C        2.385861     2.074891     3.006985
C        2.820286     2.979365     4.121294
C        1.169407     1.379858     3.092903
C        0.757291     0.551736     2.044908
N       -1.731799     0.252136    -3.192873
C       -0.686949    -0.511302    -3.890151
C       -3.034276    -0.417859    -3.326148
C       -1.780679     1.663991    -3.689135
C       -1.047186     2.760370    -2.816686
N       -0.948741     2.508547    -1.345408
C       -2.072401     3.140773    -0.639116
C        0.331273     2.982731    -0.800441
C       -2.135014    -3.080120    -0.160386
C       -1.543181    -4.308927     0.146918
H       -1.216545    -6.554123     2.141601
H        0.354140    -5.760067     2.558351
H        0.057516    -6.325653     0.878338
H       -0.775896    -3.719060     3.416552
H       -1.823887    -1.558228     2.866237
H        3.394930     0.983615    -0.059311
H        4.130785     2.449035     1.782489
H        2.428101     3.998102     3.920252
H        2.428544     2.626420     5.099049
H        3.928017     3.024530     4.191402
H        0.529979     1.497311     3.959069
H       -0.193612     0.046010     2.105793
H       -0.590141    -1.523359    -3.442082
H       -0.923618    -0.619229    -4.972046
H        0.293463     0.001353    -3.785331
H       -3.801393     0.114754    -2.725196
H       -2.975105    -1.458898    -2.948197
H       -3.361336    -0.439280    -4.389352
H       -1.417352     1.736144    -4.740004
H       -2.838980     2.006481    -3.744173
H       -0.022808     2.823967    -3.249178
H       -1.499060     3.757241    -3.025315
H       -2.026208     4.249561    -0.721262
H       -2.053701     2.860101     0.435698
H       -3.037017     2.787418    -1.063107
H        0.481313     4.061870    -1.025708
H        0.359718     2.846887     0.300754
H        1.169054     2.404629    -1.243507
H       -2.522542    -2.908432    -1.153874
H       -1.486532    -5.075957    -0.615567
55
ex_0222 frame3 cis
C       -2.204950    -6.121565     2.625842
C       -2.386755    -4.732292     2.090281
C       -2.694948    -3.674478     2.959959
C       -2.870176    -2.384889     2.452762
C       -2.756518    -2.147038     1.080464
Te      -3.082899    -0.200110     0.336623
Zn      -1.184774     0.478674    -1.233711
Te       0.924533    -0.827101    -0.692749
C        2.159451     0.182510     0.697700
C        3.453508    -0.292265     0.928805
C        4.288616     0.352185     1.843011
C        3.832687     1.489133     2.526929
C        4.726544     2.190974     3.505548
C        2.534054     1.967566     2.290733
C        1.696601     1.310099     1.381099
N       -1.731799     0.252136    -3.192873
C       -0.943455    -0.825842    -3.819483
C       -3.188587     0.001693    -3.320081
C       -1.348816     1.606496    -3.681951
C       -1.687041     2.713757    -2.623367
N       -0.948741     2.508547    -1.345408
C       -1.584764     3.187466    -0.198059
C        0.486393     2.842919    -1.472477
C       -2.429456    -3.191612     0.211321
C       -2.249055    -4.485392     0.715792
H       -2.363106    -6.159467     3.724799
H       -1.176441    -6.474510     2.404910
H       -2.937657    -6.803107     2.144208
H       -2.808196    -3.843441     4.023174
H       -3.121145    -1.574467     3.125474
H        3.812103    -1.166312     0.400141
H        5.286320    -0.033828     2.009832
H        4.929956     3.222425     3.149396
H        4.231810     2.236720     4.498325
H        5.696574     1.661802     3.622926
H        2.169710     2.842839     2.814354
H        0.695938     1.675076     1.211715
H       -0.924894    -1.704271    -3.141274
H       -1.365104    -1.135115    -4.800888
H        0.110261    -0.518771    -3.989796
H       -3.767645     0.927687    -3.525645
H       -3.582151    -0.438833    -2.392682
H       -3.435420    -0.712828    -4.134273
H       -0.254010     1.670466    -3.854121
H       -1.846862     1.823996    -4.652534
H       -1.482429     3.727792    -3.031027
H       -2.782077     2.658842    -2.444059
H       -1.165115     4.201326    -0.025877
H       -1.423178     2.574659     0.714093
H       -2.684459     3.280428    -0.319624
H        0.677200     3.563937    -2.297017
H        0.903871     3.289256    -0.544158
H        1.063691     1.926387    -1.692010
H       -2.337900    -3.007707    -0.850882
H       -2.014231    -5.294084     0.035220
55
ex_0222 frame4 square-planar cis-conf3
C        8.993406     0.023560    -0.003296
C        7.497428     0.006640    -0.006246
C        6.788066     1.121267    -0.474526
C        5.393300     1.112349    -0.481628
C        4.700197    -0.002886    -0.007040
Te       2.600000     0.000000     0.000000
Zn       0.000000     0.000000     0.000000
Te       0.000000     2.600000     0.000000
C        0.003805     4.704333    -0.011955
C       -1.030829     5.395059    -0.643562
C       -1.043657     6.790451    -0.640918
C       -0.011506     7.502781    -0.012622
C       -0.035118     8.999314    -0.004124
C        1.039315     6.806617     0.605549
C        1.041905     5.408723     0.612296
N       -2.043000    -0.011725     0.141048
C       -2.800406     0.111862    -1.137209
C       -2.442635     1.037460     1.095079
C       -2.268143    -1.328342     0.775234
C       -1.468517    -2.421347     0.067223
N       -0.032360    -2.047516    -0.000398
C        0.594914    -2.676934    -1.182458
C        0.663640    -2.426546     1.243869
C        5.400088    -1.118828     0.462367
C        6.797608    -1.120353     0.457768
H        9.411479    -1.003244     0.064315
H        9.364693     0.492398    -0.939292
H        9.344606     0.622985     0.862550
H        7.315445     1.991291    -0.843521
H        4.851169     1.972074    -0.853400
H       -1.827582     4.848960    -1.132150
H       -1.853718     7.314105    -1.131559
H        0.977976     9.419217     0.171626
H       -0.714694     9.334910     0.807024
H       -0.413757     9.385166    -0.974316
H        1.841680     7.342515     1.099244
H        1.845846     4.875526     1.104225
H       -3.860612    -0.204581    -1.014940
H       -2.338895    -0.500090    -1.943110
H       -2.815703     1.158370    -1.514121
H       -1.589024     1.176843     1.794667
H       -2.641045     2.004204     0.576820
H       -3.328623     0.778912     1.698758
H       -1.916041    -1.296515     1.826594
H       -3.352733    -1.585874     0.791843
H       -1.911477    -2.524867    -0.947490
H       -1.618998    -3.400530     0.573861
H        0.806767    -3.753792    -1.003153
H        1.537220    -2.168764    -1.446956
H       -0.047363    -2.585524    -2.087939
H        0.456808    -3.474563     1.542072
H        0.367351    -1.729506     2.056519
H        1.761398    -2.352568     1.134670
H        4.861679    -1.982158     0.834268
H        7.328525    -1.987547     0.831857
55
ex_0222 frame5 square-planar cis-conf5
C        8.963181     0.009163    -0.026873
C        7.471848     0.009119    -0.006040
C        6.762322     0.673450    -1.015534
C        5.370853     0.673736    -1.007098
C        4.681542     0.007280     0.004556
Te       2.600000     0.000000     0.000000
Zn       0.000000     0.000000     0.000000
Te       0.000000     2.600000     0.000000
C        0.002068     4.689829    -0.013830
C        1.193346     5.376824     0.191254
C        1.198580     6.766355     0.205232
C        0.013858     7.480942    -0.003754
C        0.048914     8.972365     0.016388
C       -1.190031     6.790529    -0.229194
C       -1.193164     5.392044    -0.229046
N       -2.048186    -0.028004    -0.030895
C       -2.613847     0.176709    -1.382587
C       -2.603820     0.943403     0.933282
C       -2.346934    -1.406680     0.409942
C       -1.410167    -2.387682    -0.311636
N       -0.017531    -2.048156     0.046793
C        0.926145    -2.625561    -0.933060
C        0.267782    -2.494561     1.430451
C        5.380331    -0.654518     1.019548
C        6.776386    -0.652384     1.018678
H        9.379582    -0.110117     0.995402
H        9.332163     0.968372    -0.446936
H        9.301847    -0.824099    -0.676218
H        7.286027     1.189304    -1.809132
H        4.827452     1.187120    -1.789477
H        2.114372     4.832547     0.349546
H        2.128418     7.290542     0.373564
H        0.852569     9.319369    -0.666777
H        0.287589     9.300595     1.049461
H       -0.915759     9.421013    -0.299781
H       -2.120993     7.325459    -0.384974
H       -2.122629     4.855866    -0.385433
H       -1.981285    -0.325167    -2.141217
H       -2.644874     1.247232    -1.663187
H       -3.651144    -0.227059    -1.453546
H       -2.812752     1.925921     0.454667
H       -3.538470     0.591919     1.414769
H       -1.845661     1.126963     1.725083
H       -2.188585    -1.492077     1.506187
H       -3.413650    -1.676306     0.237259
H       -1.652628    -3.440258    -0.039566
H       -1.570196    -2.320143    -1.409321
H        0.616871    -3.635547    -1.274234
H        1.000432    -1.948876    -1.812550
H        1.947469    -2.720071    -0.505651
H       -0.613401    -2.947614     1.939079
H        1.057916    -3.269906     1.481131
H        0.560540    -1.608750     2.028300
H        4.842333    -1.173923     1.803281
H        7.309555    -1.174765     1.804155
55
ex_0222 frame6 pucker r0:3
C       -2.540606    -6.497168    -0.828045
C       -2.663663    -5.027157    -0.558641
C       -1.752031    -4.384841     0.293670
C       -1.875452    -3.016654     0.553316
C       -2.901848    -2.277916    -0.043628
Te      -3.082899    -0.200110     0.336623
Zn      -1.184774     0.478674    -1.233711
Te       0.924533    -0.827101    -0.692749
C        1.346436     0.278645     1.064067
C        2.484979     1.089405     1.118519
C        2.761164     1.835139     2.268406
C        1.897034     1.775758     3.372985
C        2.180141     2.590974     4.599351
C        0.765576     0.946678     3.319710
C        0.492614     0.201771     2.168620
N       -1.731799     0.252136    -3.192873
C       -0.608385    -0.319059    -3.950538
C       -2.942851    -0.559771    -3.374791
C       -1.962024     1.675624    -3.577943
C       -1.067911     2.725929    -2.818012
N       -0.948741     2.508547    -1.345408
C       -2.049556     3.166644    -0.626673
C        0.350240     2.967707    -0.835235
C       -3.811777    -2.913297    -0.894529
C       -3.691467    -4.281338    -1.156528
H       -1.482059    -6.828246    -0.765461
H       -2.920448    -6.751669    -1.840465
H       -3.137076    -7.044921    -0.068960
H       -0.958815    -4.946124     0.771920
H       -1.178885    -2.535923     1.225763
H        3.146917     1.153991     0.264750
H        3.636147     2.472973     2.289722
H        3.271840     2.747915     4.731989
H        1.683074     3.577303     4.489239
H        1.792211     2.089261     5.511397
H        0.085438     0.891673     4.160734
H       -0.389352    -0.421424     2.132782
H       -0.397002    -1.352198    -3.600851
H       -0.833031    -0.348919    -5.039837
H        0.310834     0.282352    -3.787018
H       -3.757794    -0.186942    -2.719836
H       -2.741268    -1.616406    -3.101186
H       -3.287500    -0.523754    -4.431930
H       -1.839362     1.815933    -4.675861
H       -3.015101     1.958833    -3.356176
H       -0.062470     2.666684    -3.291460
H       -1.440213     3.751639    -3.040681
H       -1.993048     4.272728    -0.733169
H       -2.008811     2.906723     0.452822
H       -3.028320     2.816253    -1.017672
H        0.514696     4.040193    -1.080850
H        0.398066     2.845190     0.267335
H        1.168848     2.365817    -1.282960
H       -4.617162    -2.349399    -1.346826
H       -4.409944    -4.761814    -1.809099
55
ex_0222 frame7 pucker r0:1
C       -0.467249    -6.013447     1.146315
C       -1.103419    -4.667511     0.966180
C       -1.113072    -3.742146     2.021467
C       -1.688060    -2.480124     1.845183
C       -2.253028    -2.131279     0.614047
Te      -3.082899    -0.200110     0.336623
Zn      -1.184774     0.478674    -1.233711
Te       0.924533    -0.827101    -0.692749
C        1.498824     0.381313     0.948259
C        2.762254     0.981359     0.959926
C        3.142134     1.795856     2.031031
C        2.264010     2.003661     3.106394
C        2.674328     2.866347     4.262326
C        0.998362     1.396852     3.090292
C        0.622730     0.582051     2.018488
N       -1.731799     0.252136    -3.192873
C       -0.959091    -0.805788    -3.859725
C       -3.172638    -0.030762    -3.268870
C       -1.436160     1.605276    -3.753578
C       -1.443909     2.806076    -2.727160
N       -0.948741     2.508547    -1.345408
C       -1.743727     3.193737    -0.315508
C        0.472308     2.865057    -1.222552
C       -2.268763    -3.059323    -0.432167
C       -1.694402    -4.322114    -0.259178
H       -0.533338    -6.348581     2.203360
H        0.601487    -5.940083     0.855670
H       -0.963792    -6.778404     0.512032
H       -0.660760    -3.990708     2.973592
H       -1.686073    -1.772591     2.663460
H        3.446109     0.823450     0.136137
H        4.124017     2.252790     2.028051
H        3.384221     3.657028     3.938424
H        1.793611     3.363420     4.722007
H        3.167410     2.226380     5.023452
H        0.308079     1.544550     3.911635
H       -0.354737     0.125019     2.012278
H       -1.166910    -1.788772    -3.384856
H       -1.212864    -0.860003    -4.941464
H        0.129224    -0.610963    -3.755739
H       -3.745677     0.762045    -2.741789
H       -3.402510    -0.996802    -2.775111
H       -3.516036    -0.082208    -4.325967
H       -0.413052     1.610045    -4.192208
H       -2.112316     1.845860    -4.605589
H       -0.904593     3.670313    -3.177475
H       -2.506099     3.136124    -2.681431
H       -1.669080     4.298122    -0.426714
H       -1.390997     2.902045     0.697375
H       -2.810740     2.895045    -0.391179
H        0.640235     3.937853    -1.464892
H        0.827034     2.697479    -0.187173
H        1.080962     2.236652    -1.906914
H       -2.706410    -2.798540    -1.385082
H       -1.692942    -5.021899    -1.085753
55
ex_0222 frame8 pucker r0:2
C       -0.422334    -5.872531     1.771910
C       -1.047640    -4.551276     1.437507
C       -1.142566    -3.546004     2.412301
C       -1.735269    -2.318586     2.101603
C       -2.220596    -2.078580     0.811928
Te      -3.082899    -0.200110     0.336623
Zn      -1.184774     0.478674    -1.233711
Te       0.924533    -0.827101    -0.692749
C        1.555361     0.409547     0.906535
C        2.776279     1.086827     0.822641
C        3.192089     1.915875     1.868904
C        2.385861     2.074891     3.006985
C        2.820286     2.979365     4.121294
C        1.169407     1.379858     3.092903
C        0.757291     0.551736     2.044908
N       -1.731799     0.252136    -3.192873
C       -0.686949    -0.511302    -3.890151
C       -3.034276    -0.417859    -3.326148
C       -1.780679     1.663991    -3.689135
C       -1.047186     2.760370    -2.816686
N       -0.948741     2.508547    -1.345408
C       -2.072401     3.140773    -0.639116
C        0.331273     2.982731    -0.800441
C       -2.135014    -3.080120    -0.160386
C       -1.543181    -4.308927     0.146918
H       -1.216545    -6.554123     2.141601
H        0.354140    -5.760067     2.558351
H        0.057516    -6.325653     0.878338
H       -0.775896    -3.719060     3.416552
H       -1.823887    -1.558228     2.866237
H        3.394930     0.983615    -0.059311
H        4.130785     2.449035     1.782489
H        2.428101     3.998102     3.920252
H        2.428544     2.626420     5.099049
H        3.928017     3.024530     4.191402
H        0.529979     1.497311     3.959069
H       -0.193612     0.046010     2.105793
H       -0.590141    -1.523359    -3.442082
H       -0.923618    -0.619229    -4.972046
H        0.293463     0.001353    -3.785331
H       -3.801393     0.114754    -2.725196
H       -2.975105    -1.458898    -2.948197
H       -3.361336    -0.439280    -4.389352
H       -1.417352     1.736144    -4.740004
H       -2.838980     2.006481    -3.744173
H       -0.022808     2.823967    -3.249178
H       -1.499060     3.757241    -3.025315
H       -2.026208     4.249561    -0.721262
H       -2.053701     2.860101     0.435698
H       -3.037017     2.787418    -1.063107
H        0.481313     4.061870    -1.025708
H        0.359718     2.846887     0.300754
H        1.169054     2.404629    -1.243507
H       -2.522542    -2.908432    -1.153874
H       -1.486532    -5.075957    -0.615567
