77
ex_0320 frame0 OC-6-chelate-1
Mn       0.000000     0.000000     0.000000
C       -1.890040    -5.475724    -0.070087
O       -1.141497    -4.276335     0.164050
C       -1.091848    -3.704879     1.426815
C       -1.742565    -4.233569     2.522977
C       -1.641603    -3.594926     3.764273
C       -0.895027    -2.432520     3.917085
C       -0.254555    -1.914404     2.840687
C       -0.344322    -2.574883     1.631340
O        0.364270    -2.035038     0.625723
O        2.035294    -0.350934    -0.632473
C        2.592655     0.334199    -1.623435
C        1.951107     0.238770    -2.848259
C        2.480047     0.864215    -3.930116
C        3.649873     1.588955    -3.747554
C        4.276675     1.700237    -2.523547
C        3.738689     1.063122    -1.419925
O        4.285527     1.123797    -0.155375
C        5.473604     1.832670     0.144028
C        0.734838    -0.542827    -2.872384
N       -0.080675    -0.863258    -2.032825
C       -1.242512    -1.650764    -2.286448
C       -0.993759    -2.629693    -3.246578
C       -1.994272    -3.499178    -3.676894
C       -3.224329    -3.340024    -3.089073
C       -3.454447    -2.389554    -2.141149
C       -2.432942    -1.493876    -1.690865
C       -2.882973    -0.578062    -0.666525
N       -2.137268     0.460196    -0.323120
C       -2.229414     1.692833    -1.081657
C       -0.941863     2.509170    -1.000071
N       -0.448774     2.142480     0.304107
C       -1.685324     2.250548     1.063987
C       -2.505611     0.983685     1.002621
C        0.596767     2.875715     0.670309
C        1.561517     2.456600     1.695276
C        2.451381     3.465973     2.113873
C        3.421233     3.250139     3.054872
C        3.551385     2.010813     3.632562
C        2.676226     1.029305     3.222398
C        1.685343     1.238293     2.281445
N        0.874679     0.097546     2.027195
C        0.553811    -0.716647     2.869094
H       -1.846400    -5.703910    -1.153940
H       -1.409853    -6.344826     0.441562
H       -2.927647    -5.340352     0.311071
H       -2.325404    -5.135140     2.418962
H       -2.139279    -3.981277     4.645268
H       -0.820260    -1.939988     4.884097
H        1.995905     0.783663    -4.898121
H        4.110691     2.100410    -4.596835
H        5.191992     2.264615    -2.371019
H        5.525793     2.807636    -0.380675
H        5.463580     2.043892     1.240535
H        6.389777     1.227790    -0.053637
H        0.484466    -0.941231    -3.876503
H       -0.033597    -2.780931    -3.708748
H       -1.797738    -4.243237    -4.424269
H       -4.018710    -4.006212    -3.408735
H       -4.449730    -2.326852    -1.726019
H       -3.787774    -0.069150    -1.073575
H       -3.198884    -1.104768     0.281084
H       -2.319664     1.357256    -2.146038
H       -3.113022     2.225242    -0.791099
H       -0.245293     2.301288    -1.822735
H       -1.148113     3.563233    -0.827909
H       -1.384525     2.374400     2.139714
H       -2.193379     3.150547     0.774144
H       -2.283953     0.276888     1.802786
H       -3.553701     1.192608     0.821671
H        1.118841     3.353198    -0.214664
H        0.057739     3.763371     1.126584
H        2.396932     4.466574     1.691730
H        4.088269     4.054145     3.346243
H        4.323973     1.857300     4.374653
H        2.832099     0.052502     3.706549
H        0.970846    -0.482298     3.867856
77
ex_0320 frame1 OC-6-chelate-1-conf3
Mn       0.000000     0.000000     0.000000
C        2.112960    -1.322651     5.222732
O        1.677853    -1.340759     3.873525
C        0.524163    -2.041242     3.559152
C       -0.232819    -2.730377     4.498660
C       -1.368804    -3.399947     4.087572
C       -1.792907    -3.413104     2.754103
C       -1.043625    -2.730681     1.829198
C        0.114459    -2.088183     2.241395
O        0.822306    -1.513064     1.303859
O        1.511497    -0.870037    -1.274367
C        2.047548    -0.145517    -2.263039
C        2.667120     1.029353    -1.887990
C        3.278422     1.800132    -2.852543
C        3.243816     1.368612    -4.181315
C        2.602648     0.192073    -4.550824
C        1.996037    -0.563006    -3.564321
O        1.332612    -1.744973    -3.881169
C        1.319137    -2.152001    -5.241164
C        2.636556     1.370538    -0.511412
N        1.869296     1.099841     0.424477
C        2.021051     1.561565     1.755559
C        3.354755     1.632095     2.127292
C        3.724895     2.100022     3.402358
C        2.686661     2.467204     4.247018
C        1.383858     2.383047     3.874683
C        0.992241     1.906677     2.577420
C       -0.391794     1.877587     2.367190
N       -0.916466     1.663774     1.129622
C       -2.321306     1.093914     1.253241
C       -2.796223     1.113912    -0.170912
N       -1.643448     0.970629    -1.114028
C       -1.152851     2.366443    -1.208956
C       -1.146739     2.807974     0.232373
C       -1.887080     0.423107    -2.335134
C       -1.891648    -0.969994    -2.612984
C       -2.348272    -1.308449    -3.906851
C       -2.425718    -2.598830    -4.356276
C       -2.047522    -3.631308    -3.523259
C       -1.599105    -3.306617    -2.247995
C       -1.533634    -2.000421    -1.802660
N       -1.079515    -1.873688    -0.456115
C       -1.357034    -2.663450     0.452924
H        1.292258    -0.897869     5.823828
H        3.001169    -0.649243     5.244132
H        2.339133    -2.348769     5.518754
H        0.086800    -2.723771     5.519181
H       -1.949888    -3.934954     4.839267
H       -2.681195    -3.938668     2.441961
H        3.774608     2.709246    -2.572068
H        3.722292     1.949760    -4.961993
H        2.606171    -0.090547    -5.576195
H        1.008031    -3.232875    -5.317221
H        2.352591    -2.143033    -5.669551
H        0.714334    -1.493632    -5.872311
H        3.469054     2.022510    -0.165861
H        4.178787     1.346119     1.507272
H        4.764765     2.161189     3.683667
H        2.957307     2.825827     5.222045
H        0.636371     2.684231     4.580471
H       -0.839443     1.070804     3.031094
H       -0.972094     2.792779     2.671884
H       -2.300689     0.127843     1.712654
H       -2.718903     1.932046     1.847241
H       -3.341493     1.987537    -0.496517
H       -3.422294     0.234025    -0.315876
H       -1.990589     2.783669    -1.774468
H       -0.171492     2.448560    -1.623991
H       -0.411478     3.555811     0.431418
H       -2.114661     3.242032     0.479337
H       -1.258945     0.941850    -3.118116
H       -2.935954     0.821073    -2.518073
H       -2.658238    -0.538083    -4.603654
H       -2.774855    -2.850302    -5.348517
H       -2.108282    -4.646419    -3.877164
H       -1.308471    -4.165245    -1.648249
H       -1.997123    -3.488407     0.065164
77
ex_0320 frame2 OC-6-chelate-1-pucker r0:1
Mn       0.000000     0.000000     0.000000
C       -1.484044    -5.777810     0.260732
O       -0.912772    -4.487317     0.450913
C       -1.003209    -3.750715     1.641721
C       -1.735463    -4.209971     2.753855
C       -1.768324    -3.461104     3.932618
C       -1.060847    -2.260863     4.020983
C       -0.348784    -1.780795     2.913983
C       -0.337271    -2.518656     1.723161
O        0.364270    -2.035038     0.625723
O        2.035294    -0.350934    -0.632473
C        2.527564     0.347396    -1.728112
C        1.796988     0.355668    -2.922702
C        2.284312     1.061980    -4.030054
C        3.485055     1.768276    -3.937278
C        4.226430     1.739910    -2.753451
C        3.759377     1.012826    -1.641059
O        4.487540     0.927440    -0.444706
C        5.775575     1.501642    -0.247042
C        0.633568    -0.524694    -3.068241
N       -0.080675    -0.863258    -2.032825
C       -1.099094    -1.889663    -2.108428
C       -0.759204    -3.078884    -2.791154
C       -1.656403    -4.134052    -2.910222
C       -2.913552    -4.042584    -2.334066
C       -3.276493    -2.898658    -1.630011
C       -2.398920    -1.800794    -1.482318
C       -3.048557    -0.613710    -0.750284
N       -2.137268     0.460196    -0.323120
C       -1.796279     1.353996    -1.442236
C       -1.122725     2.540517    -0.938596
N       -0.448774     2.142480     0.304107
C       -1.342978     1.806697     1.424502
C       -2.532851     1.127801     0.925403
C        0.623691     3.057563     0.727473
C        1.805306     2.417989     1.477222
C        2.897030     3.301990     1.631797
C        4.037133     2.947125     2.346105
C        4.130806     1.691869     2.926025
C        3.081529     0.788623     2.800633
C        1.896074     1.120413     2.107376
N        0.874679     0.097546     2.027195
C        0.533425    -0.618246     3.060539
H       -1.221674    -6.145951    -0.751823
H       -1.079158    -6.489613     1.010716
H       -2.589879    -5.720829     0.343880
H       -2.274942    -5.146490     2.720523
H       -2.322846    -3.824760     4.788110
H       -1.057698    -1.713364     4.955685
H        1.742131     1.055518    -4.967814
H        3.854698     2.318703    -4.792845
H        5.163175     2.278755    -2.716389
H        5.717289     2.607060    -0.334746
H        6.136609     1.243644     0.769178
H        6.493658     1.095204    -0.990164
H        0.400029    -0.919405    -4.051186
H        0.224108    -3.195910    -3.229240
H       -1.370048    -5.031396    -3.443530
H       -3.610661    -4.865550    -2.425997
H       -4.271837    -2.866444    -1.201606
H       -3.861866    -0.201281    -1.388813
H       -3.563700    -1.036372     0.141976
H       -1.328787     0.932969    -2.326837
H       -2.749421     1.728198    -1.882358
H       -0.391169     2.883362    -1.704338
H       -1.836045     3.373138    -0.735608
H       -0.922440     1.345624     2.312719
H       -1.717759     2.762132     1.859149
H       -2.867098     0.391004     1.689855
H       -3.369393     1.838098     0.728823
H        1.055052     3.558436    -0.168741
H        0.206948     3.880477     1.350795
H        2.863163     4.295675     1.199647
H        4.855570     3.648900     2.442814
H        5.025354     1.411711     3.467264
H        3.200466    -0.192939     3.242080
H        0.924038    -0.384217     4.045002
77
ex_0320 frame3 OC-6-chelate-1_mirror
Mn       0.000000     0.000000     0.000000
C       -1.890040    -5.475724     0.070087
O       -1.141497    -4.276335    -0.164050
C       -1.091848    -3.704879    -1.426815
C       -1.742565    -4.233569    -2.522977
C       -1.641603    -3.594926    -3.764273
C       -0.895027    -2.432520    -3.917085
C       -0.254555    -1.914404    -2.840687
C       -0.344322    -2.574883    -1.631340
O        0.364270    -2.035038    -0.625723
O        2.035294    -0.350934     0.632473
C        2.592655     0.334199     1.623435
C        1.951107     0.238770     2.848259
C        2.480047     0.864215     3.930116
C        3.649873     1.588955     3.747554
C        4.276675     1.700237     2.523547
C        3.738689     1.063122     1.419925
O        4.285527     1.123797     0.155375
C        5.473604     1.832670    -0.144028
C        0.734838    -0.542827     2.872384
N       -0.080675    -0.863258     2.032825
C       -1.242512    -1.650764     2.286448
C       -0.993759    -2.629693     3.246578
C       -1.994272    -3.499178     3.676894
C       -3.224329    -3.340024     3.089073
C       -3.454447    -2.389554     2.141149
C       -2.432942    -1.493876     1.690865
C       -2.882973    -0.578062     0.666525
N       -2.137268     0.460196     0.323120
C       -2.229414     1.692833     1.081657
C       -0.941863     2.509170     1.000071
N       -0.448774     2.142480    -0.304107
C       -1.685324     2.250548    -1.063987
C       -2.505611     0.983685    -1.002621
C        0.596767     2.875715    -0.670309
C        1.561517     2.456600    -1.695276
C        2.451381     3.465973    -2.113873
C        3.421233     3.250139    -3.054872
C        3.551385     2.010813    -3.632562
C        2.676226     1.029305    -3.222398
C        1.685343     1.238293    -2.281445
N        0.874679     0.097546    -2.027195
C        0.553811    -0.716647    -2.869094
H       -1.846400    -5.703910     1.153940
H       -1.409853    -6.344826    -0.441562
H       -2.927647    -5.340352    -0.311071
H       -2.325404    -5.135140    -2.418962
H       -2.139279    -3.981277    -4.645268
H       -0.820260    -1.939988    -4.884097
H        1.995905     0.783663     4.898121
H        4.110691     2.100410     4.596835
H        5.191992     2.264615     2.371019
H        5.525793     2.807636     0.380675
H        5.463580     2.043892    -1.240535
H        6.389777     1.227790     0.053637
H        0.484466    -0.941231     3.876503
H       -0.033597    -2.780931     3.708748
H       -1.797738    -4.243237     4.424269
H       -4.018710    -4.006212     3.408735
H       -4.449730    -2.326852     1.726019
H       -3.787774    -0.069150     1.073575
H       -3.198884    -1.104768    -0.281084
H       -2.319664     1.357256     2.146038
H       -3.113022     2.225242     0.791099
H       -0.245293     2.301288     1.822735
H       -1.148113     3.563233     0.827909
H       -1.384525     2.374400    -2.139714
H       -2.193379     3.150547    -0.774144
H       -2.283953     0.276888    -1.802786
H       -3.553701     1.192608    -0.821671
H        1.118841     3.353198     0.214664
H        0.057739     3.763371    -1.126584
H        2.396932     4.466574    -1.691730
H        4.088269     4.054145    -3.346243
H        4.323973     1.857300    -4.374653
H        2.832099     0.052502    -3.706549
H        0.970846    -0.482298    -3.867856
