66
ex_0259 frame0 trans
C       -2.415935    -5.920388     0.597376
C       -1.928661    -4.573767     0.079539
C       -1.626092    -4.674533    -1.431275
P       -0.450966    -3.831474     1.015577
Se       0.182348    -1.991925    -0.136983
Cu       0.349903     0.128626     0.974407
Br       1.862248     0.368253     2.824722
Se      -0.925446     2.049512     0.308314
P        0.019610     2.831579    -1.547254
C        0.439129     1.650745    -2.939671
C        1.056625     2.263532    -4.178073
C       -0.824056     0.833141    -3.272195
C       -1.406470     3.932190    -2.201465
C       -0.803614     5.130212    -2.950081
C       -2.330385     4.494642    -1.102634
C        1.575042     3.664039    -0.841080
C        1.243308     4.582311     0.354369
C        2.662087     2.672969    -0.444432
C        1.193472    -4.825289     0.944546
C        1.457147    -5.492780    -0.401984
C        2.423436    -3.962313     1.302663
C       -1.158861    -2.962086     2.555871
C       -0.151999    -3.080120     3.710816
C       -2.487403    -3.539262     3.041073
H       -1.612950    -6.679803     0.515692
H       -2.758455    -5.858873     1.640364
H       -3.286537    -6.245118    -0.013774
H       -2.743729    -3.824445     0.146268
H       -1.252870    -3.711120    -1.836247
H       -0.892999    -5.456153    -1.678359
H       -2.550830    -4.922224    -1.990941
H        1.168023     0.934468    -2.503999
H        0.343566     2.937099    -4.683734
H        1.987757     2.798223    -3.903259
H        1.309903     1.444379    -4.885118
H       -1.600462     1.447124    -3.767706
H       -1.266701     0.407951    -2.342255
H       -0.582470    -0.013785    -3.943691
H       -2.064547     3.349335    -2.868509
H       -0.207215     5.754859    -2.248553
H       -1.606698     5.768420    -3.376047
H       -0.137619     4.824547    -3.771141
H       -2.888264     3.681182    -0.597260
H       -3.105584     5.150001    -1.556357
H       -1.773487     5.084356    -0.347540
H        1.983488     4.295256    -1.658308
H        2.148820     5.131117     0.690916
H        0.477178     5.334806     0.083884
H        0.872941     4.000016     1.224994
H        2.343649     2.062126     0.417388
H        3.582424     3.232321    -0.163471
H        2.911698     2.012896    -1.297174
H        1.121124    -5.639574     1.696766
H        1.475954    -4.746883    -1.224090
H        0.698916    -6.276055    -0.578344
H        2.434342    -6.023932    -0.381597
H        2.339406    -3.507681     2.301609
H        3.343217    -4.586422     1.315595
H        2.593272    -3.159112     0.555762
H       -1.340219    -1.892647     2.319388
H       -0.542207    -2.598023     4.632029
H        0.046499    -4.152650     3.938576
H        0.801345    -2.589744     3.470284
H       -2.840338    -2.965466     3.924748
H       -2.372402    -4.595810     3.350996
H       -3.268033    -3.436019     2.263732
66
ex_0259 frame1 cis
C       -0.389372    -4.399736     1.792502
C       -0.227255    -3.248254     0.803065
C        0.968468    -3.532437    -0.122860
P       -1.889392    -2.830252    -0.031346
Se      -1.218046    -2.028443    -1.991975
Cu      -0.313686     0.192918    -1.904280
Br      -1.439730     1.874822    -3.194715
Se       1.682200     0.754927    -0.695734
P        2.211393     2.861460    -0.114985
C        0.622746     3.201809     0.880649
C        0.284221     2.104001     1.918570
C        0.768095     4.518903     1.655153
C        2.314286     3.904963    -1.683008
C        1.254994     4.999827    -1.772034
C        3.714343     4.417144    -1.982464
C        3.986766     2.568659     0.611171
C        3.926658     2.754991     2.127850
C        4.683946     1.219365     0.291985
C       -2.961039    -4.325891    -0.417474
C       -2.155874    -5.347766    -1.252292
C       -3.706977    -4.932866     0.767543
C       -2.994724    -1.390019     0.458810
C       -4.180658    -1.157763    -0.478743
C       -3.445223    -1.536303     1.908820
H        0.570015    -4.611055     2.309305
H       -1.154364    -4.160144     2.555214
H       -0.687884    -5.318821     1.241928
H        0.053239    -2.318552     1.344716
H        1.120728    -2.729122    -0.866394
H        0.892175    -4.508273    -0.637201
H        1.896877    -3.525952     0.491981
H       -0.216949     3.255992     0.161633
H        0.176082     1.102776     1.471233
H       -0.686826     2.334560     2.406794
H        1.049845     2.031492     2.715601
H        1.499211     4.408262     2.481783
H        1.118603     5.343206     1.016522
H       -0.199558     4.807466     2.112891
H        2.062942     3.185934    -2.495075
H        1.253447     5.428298    -2.795793
H        0.243178     4.579955    -1.598098
H        1.459840     5.814774    -1.056840
H        4.424126     3.563765    -2.033555
H        4.035003     5.135446    -1.201848
H        3.722463     4.919519    -2.972743
H        4.669525     3.382994     0.299184
H        4.941891     2.668877     2.572812
H        3.268438     2.009076     2.608950
H        3.584134     3.783529     2.354157
H        5.138783     1.233775    -0.718227
H        5.510736     1.030214     1.014207
H        4.032536     0.333105     0.404729
H       -3.729319    -3.946377    -1.128066
H       -2.725691    -5.602226    -2.175834
H       -1.940708    -6.283640    -0.703568
H       -1.198497    -4.928289    -1.623215
H       -4.682521    -4.418627     0.891620
H       -3.914448    -6.009582     0.594725
H       -3.132804    -4.822292     1.702962
H       -2.345374    -0.492804     0.405581
H       -4.691847    -0.212064    -0.195645
H       -3.842825    -1.049649    -1.529089
H       -4.907586    -1.991019    -0.411592
H       -4.144962    -2.386416     2.022701
H       -2.561393    -1.704098     2.562023
H       -3.948126    -0.604447     2.244061
66
ex_0259 frame2 trans-conf5
C        4.556372    -0.556585     2.672540
C        5.040186    -1.228789     1.370075
C        4.442355    -2.639810     1.318551
P        4.633479    -0.106884    -0.132224
Se       2.400000     0.000000     0.000000
Cu       0.000000     0.000000     0.000000
Br      -1.198752     2.077112    -0.000095
Se      -1.200026    -2.078446     0.000000
P       -2.522230    -3.879073    -0.143103
C       -3.879144    -3.638935    -1.405805
C       -3.253720    -3.376550    -2.783179
C       -4.933038    -4.728295    -1.421285
C       -1.163149    -5.087378    -0.704440
C       -1.728187    -6.382266    -1.295068
C       -0.263580    -5.457522     0.491711
C       -3.427702    -3.799892     1.532672
C       -3.677071    -5.224541     2.047384
C       -2.641127    -3.039671     2.617993
C        5.448359    -0.644575    -1.739641
C        5.049543    -2.096209    -2.021955
C        4.846909     0.184773    -2.888645
C        5.034496     1.725668     0.238625
C        4.502714     2.788144    -0.727894
C        6.537754     1.902697     0.466204
H        3.452388    -0.443969     2.690228
H        4.853586    -1.161954     3.557167
H        5.022237     0.439718     2.808657
H        6.145624    -1.307090     1.456508
H        4.646881    -3.168058     2.276103
H        4.902689    -3.265184     0.546044
H        3.344492    -2.601117     1.170089
H       -4.391256    -2.696312    -1.108527
H       -2.525053    -2.537462    -2.720022
H       -4.034764    -3.088076    -3.515134
H       -2.715628    -4.259712    -3.171102
H       -5.419471    -4.777867    -0.425682
H       -4.500545    -5.709805    -1.681573
H       -5.714690    -4.455031    -2.162416
H       -0.549617    -4.596457    -1.489642
H       -0.896345    -7.071517    -1.561318
H       -2.279022    -6.180638    -2.230104
H       -2.402923    -6.891033    -0.576913
H       -0.829393    -6.055388     1.235449
H        0.588254    -6.089982     0.160734
H        0.143496    -4.561852     1.001116
H       -4.388784    -3.264206     1.394718
H       -2.715276    -5.717239     2.300391
H       -4.274707    -5.197977     2.983327
H       -4.202061    -5.848023     1.300102
H       -1.626939    -3.470488     2.763576
H       -2.551243    -1.965713     2.355422
H       -3.183519    -3.070770     3.587078
H        6.552300    -0.552897    -1.723592
H        5.568548    -2.775036    -1.334769
H        5.355329    -2.403115    -3.042563
H        3.943812    -2.225587    -1.938321
H        3.731737     0.166106    -2.849575
H        5.188492     1.220387    -2.868227
H        5.159301    -0.208237    -3.876539
H        4.521815     1.942671     1.200268
H        5.077631     2.849375    -1.661489
H        3.423364     2.637653    -0.929581
H        4.621202     3.789022    -0.257107
H        6.888584     1.218437     1.267774
H        6.764147     2.943201     0.785838
H        7.098744     1.681100    -0.464899
66
ex_0259 frame3 trans-conf6
C        5.736458     1.833102    -1.925477
C        5.381855     0.359627    -1.704494
C        6.525068    -0.535820    -2.170962
P        4.580467     0.000000     0.000000
Se       2.400000     0.000000     0.000000
Cu       0.000000     0.000000     0.000000
Br      -1.196583     2.077625     0.008498
Se      -1.200026    -2.078446     0.000000
P       -2.398795    -3.959189    -0.240244
C       -3.254651    -4.510785    -1.817979
C       -4.227556    -5.669994    -1.682591
C       -3.907048    -3.266555    -2.435712
C       -3.513043    -3.662966     1.282768
C       -3.701913    -4.960120     2.082985
C       -4.870947    -3.046712     0.953291
C       -0.950701    -5.199716    -0.059531
C       -0.043645    -4.864119     1.146674
C       -0.069392    -5.312239    -1.308209
C        4.845036    -1.874279     0.272866
C        3.980801    -2.405315     1.432885
C        6.305902    -2.185600     0.656770
C        4.803441     1.293724     1.379670
C        4.120566     2.645733     1.114707
C        6.277168     1.509147     1.726903
H        4.859338     2.479744    -1.746245
H        6.049149     1.997629    -2.978585
H        6.585097     2.129724    -1.280199
H        4.561785     0.124671    -2.420093
H        6.202675    -1.598330    -2.159182
H        7.442386    -0.369421    -1.577697
H        6.757902    -0.309550    -3.235200
H       -2.474347    -4.784000    -2.547167
H       -3.713702    -6.557507    -1.269894
H       -4.618402    -5.916919    -2.694621
H       -5.086846    -5.397820    -1.045183
H       -3.135079    -2.467470    -2.554753
H       -4.720431    -2.862371    -1.806647
H       -4.301955    -3.487478    -3.447001
H       -2.972844    -2.982586     1.974682
H       -4.201420    -5.745646     1.485429
H       -2.721598    -5.346827     2.427948
H       -4.295493    -4.759194     3.003913
H       -5.429986    -2.849139     1.895138
H       -4.750457    -2.089245     0.411757
H       -5.482668    -3.746656     0.355294
H       -1.400189    -6.196007     0.135827
H        0.706783    -5.670113     1.299473
H        0.530797    -3.928050     0.989023
H       -0.617781    -4.759974     2.087478
H        0.356334    -4.325358    -1.579846
H       -0.629870    -5.733829    -2.158964
H        0.763867    -6.022341    -1.114148
H        4.566009    -2.425623    -0.650121
H        4.204267    -1.850568     2.370645
H        2.898769    -2.332098     1.220737
H        4.185667    -3.483794     1.603565
H        7.044478    -1.890868    -0.095505
H        6.576216    -1.678756     1.605433
H        6.437307    -3.278303     0.803968
H        4.306251     0.862189     2.275780
H        4.576253     3.189396     0.271415
H        3.034781     2.523514     0.929451
H        4.215838     3.290174     2.015173
H        6.764890     0.551710     1.986118
H        6.361662     2.184643     2.605385
H        6.824653     1.974639     0.887823
66
ex_0259 frame4 trans-2
C        4.379186     1.597312    -2.238615
C        5.374395     1.373678    -1.076770
C        6.757137     1.068938    -1.624899
P        4.633098     0.060370     0.075781
Se       2.400000     0.000000     0.000000
Cu       0.000000     0.000000     0.000000
Br      -1.198719     2.079164     0.001673
Se      -1.200026    -2.078446     0.000000
P       -2.179771    -4.074728     0.103966
C       -1.006459    -5.297073    -0.714030
C       -1.267155    -6.765228    -0.459187
C       -0.913872    -4.999305    -2.217160
C       -2.025789    -4.342037     1.973635
C       -2.446787    -3.082958     2.766702
C       -2.952923    -5.479574     2.420078
C       -3.850122    -3.628311    -0.679926
C       -3.752985    -3.121221    -2.122736
C       -4.804144    -4.820724    -0.606542
C        5.034344    -1.772025    -0.294519
C        5.103439    -2.106647    -1.779583
C        4.053396    -2.745573     0.392323
C        4.815026     0.775039     1.839680
C        4.211544     2.173226     2.030181
C        4.188464    -0.174897     2.879736
H        4.729956     2.388625    -2.932911
H        3.394085     1.937854    -1.845996
H        4.207355     0.663527    -2.815707
H        5.413811     2.335747    -0.540279
H        6.715147     0.276569    -2.387815
H        7.134807     1.966403    -2.159732
H        7.450252     0.795064    -0.809611
H       -0.011067    -5.058264    -0.277083
H       -2.261768    -7.062937    -0.841882
H       -0.474936    -7.357364    -0.966674
H       -1.167972    -6.973237     0.621174
H       -1.829416    -5.338269    -2.737101
H       -0.054140    -5.534217    -2.669409
H       -0.765156    -3.911326    -2.402394
H       -0.970255    -4.586956     2.211122
H       -2.452471    -3.285985     3.857909
H       -1.746770    -2.238974     2.616548
H       -3.465913    -2.751242     2.465404
H       -2.744532    -5.742982     3.477045
H       -2.847015    -6.385164     1.803243
H       -4.013430    -5.159023     2.368243
H       -4.284671    -2.799782    -0.077158
H       -3.071279    -2.250819    -2.195306
H       -3.423112    -3.911227    -2.816045
H       -4.757474    -2.788891    -2.464832
H       -5.783594    -4.568114    -1.064845
H       -4.370220    -5.697065    -1.129974
H       -5.003712    -5.093923     0.444156
H        6.045372    -1.968187     0.124447
H        5.985386    -1.634781    -2.230578
H        5.272300    -3.196642    -1.913434
H        4.181660    -1.801469    -2.310242
H        4.379244    -3.794352     0.229498
H        3.030449    -2.659264    -0.027381
H        4.000806    -2.592218     1.482412
H        5.900675     0.844017     2.061428
H        4.429951     2.520339     3.064782
H        4.663828     2.918679     1.355864
H        3.111296     2.166483     1.892696
H        4.255656     0.250437     3.903052
H        4.730818    -1.138552     2.899644
H        3.113137    -0.362842     2.673627
66
ex_0259 frame5 trans-conf2
C        6.271870    -2.227475    -0.362124
C        4.808718    -1.774775    -0.398406
C        4.178980    -2.197605    -1.737102
P        4.629721     0.074147     0.049852
Se       2.400000     0.000000     0.000000
Cu       0.000000     0.000000     0.000000
Br      -1.200717     2.077945    -0.001930
Se      -1.200026    -2.078446     0.000000
P       -2.145816    -4.046076    -0.027896
C       -1.640271    -4.578199     1.723061
C       -2.186971    -5.968607     2.034160
C       -2.191518    -3.587986     2.779442
C       -3.985530    -3.599790    -0.252374
C       -4.762096    -4.753041    -0.881370
C       -4.303726    -2.270698    -0.950540
C       -1.608268    -5.171438    -1.408158
C       -1.584036    -4.315251    -2.697665
C       -0.176999    -5.676039    -1.146521
C        5.332593     1.372603    -1.112907
C        5.256399     0.850338    -2.546116
C        4.413238     2.620380    -1.059611
C        4.828806     0.542254     1.898040
C        5.432096     1.924124     2.150346
C        5.700496    -0.503806     2.605207
H        6.862257    -1.687629    -1.130076
H        6.731703    -2.046648     0.624268
H        6.340171    -3.319519    -0.557086
H        4.253014    -2.322941     0.395235
H        3.142300    -1.831616    -1.851649
H        4.773628    -1.865993    -2.605174
H        4.129375    -3.307577    -1.775770
H       -0.533323    -4.589252     1.807593
H       -3.291057    -5.986153     1.913188
H       -1.733774    -6.717666     1.356896
H       -1.941478    -6.249600     3.081987
H       -3.301806    -3.566693     2.777848
H       -1.829469    -2.553172     2.620389
H       -1.865170    -3.883611     3.799142
H       -4.361317    -3.455619     0.781690
H       -4.463321    -4.874109    -1.943106
H       -5.852102    -4.544380    -0.848957
H       -4.563727    -5.698947    -0.337483
H       -3.802279    -1.422176    -0.441603
H       -5.393408    -2.066409    -0.847761
H       -4.038778    -2.278854    -2.022688
H       -2.297901    -6.034533    -1.449589
H       -1.240983    -4.891254    -3.577988
H       -2.567188    -3.858295    -2.917435
H       -0.868656    -3.463573    -2.572841
H        0.596652    -4.922740    -1.419555
H        0.003611    -6.596351    -1.737961
H       -0.021660    -5.930600    -0.081122
H        6.384555     1.618586    -0.870821
H        4.213420     0.550769    -2.802685
H        5.935498    -0.012552    -2.663503
H        5.578347     1.632636    -3.263684
H        4.385374     3.111525    -0.082327
H        4.726875     3.387593    -1.794255
H        3.360878     2.347640    -1.307030
H        3.841944     0.472749     2.404614
H        5.657005     2.054687     3.230881
H        6.381036     2.041365     1.584370
H        4.714765     2.720469     1.906901
H        5.740968    -0.298539     3.697658
H        6.738435    -0.490286     2.216024
H        5.261759    -1.517743     2.487568
66
ex_0259 frame6 T-shaped Br-Se-ax/Se-eq
C        4.405121     1.560694    -2.249000
C        5.383326     1.357202    -1.069902
C        6.780024     1.073568    -1.596315
P        4.639879     0.036803     0.075636
Se       2.400000     0.000000     0.000000
Cu       0.000000     0.000000     0.000000
Br      -2.292714    -0.709329    -0.009170
Se       0.000000     2.400000     0.000000
P       -0.163447     4.629594    -0.141626
C        0.240798     5.121211    -1.911468
C       -0.132953     6.524001    -2.334065
C        1.715989     4.823002    -2.211457
C       -2.039031     4.776868     0.068379
C       -2.553469     3.897605     1.231023
C       -2.416426     6.225324     0.404810
C        1.010971     5.104969     1.271756
C        2.449939     4.661949     1.037881
C        0.979210     6.608433     1.545361
C        5.036463    -1.788445    -0.309197
C        5.093350    -2.113974    -1.795759
C        4.057691    -2.760604     0.380138
C        4.867488     0.712306     1.854975
C        4.286819     2.103214     2.093482
C        4.236364    -0.236989     2.891404
H        4.746609     2.365478    -2.932653
H        3.406498     1.872775    -1.871728
H        4.265632     0.626464    -2.832939
H        5.393598     2.323122    -0.537189
H        6.765806     0.268385    -2.347381
H        7.146215     1.971826    -2.138750
H        7.469165     0.824403    -0.770321
H       -0.359027     4.417353    -2.530141
H        0.406811     7.276340    -1.728121
H        0.125950     6.648129    -3.407885
H       -1.227672     6.649870    -2.259775
H        2.370207     5.581932    -1.745680
H        1.907434     4.847836    -3.303005
H        1.999370     3.812170    -1.844634
H       -2.526390     4.456987    -0.875029
H       -3.636022     4.069291     1.405927
H       -2.444793     2.816996     1.018633
H       -2.004278     4.127707     2.171783
H       -3.518130     6.346052     0.373156
H       -1.961342     6.957110    -0.279948
H       -2.092691     6.481496     1.433873
H        0.644927     4.575066     2.180251
H        2.466153     3.603506     0.738220
H        2.951366     5.254864     0.259283
H        3.036782     4.795107     1.973715
H        1.670576     6.866854     2.376095
H        1.277170     7.170571     0.636789
H       -0.028365     6.931332     1.855514
H        6.050746    -1.984574     0.102135
H        5.962277    -1.626619    -2.256298
H        5.272027    -3.201887    -1.933617
H        4.161544    -1.817326    -2.313186
H        4.382486    -3.809092     0.216478
H        3.034021    -2.668918    -0.036067
H        4.005954    -2.608802     1.469706
H        5.957646     0.766447     2.055361
H        4.548846     2.443560     3.119709
H        4.703768     2.855289     1.402971
H        3.183095     2.063422     2.030946
H        4.316597     0.180017     3.918004
H        4.761325    -1.208102     2.901314
H        3.154719    -0.397735     2.689554
66
ex_0259 frame7 T-shaped Br-Se-ax/Se-eq-conf3
C        6.765555     0.925481    -1.872324
C        5.360745     1.327978    -1.450387
C        4.394468     1.231699    -2.642791
P        4.623229     0.277135    -0.085045
Se       2.400000     0.000000     0.000000
Cu       0.000000     0.000000     0.000000
Br      -2.160917    -1.047924     0.010937
Se       0.000000     2.400000     0.000000
P       -0.054809     4.663475    -0.271198
C       -1.764667     4.915329     0.545198
C       -1.865086     4.232245     1.928560
C       -2.054667     6.406601     0.771086
C       -0.121506     5.127153    -2.111347
C       -1.409237     5.816413    -2.553432
C        1.117224     5.851258    -2.628163
C        1.658442     5.206259     0.399039
C        1.525682     5.764787     1.820722
C        2.697075     4.086319     0.403260
C        5.028094    -1.572191    -0.131924
C        4.669406    -2.243316    -1.454356
C        6.485060    -1.839163     0.262097
C        4.830742     1.252241     1.526841
C        4.290386     0.438645     2.721876
C        6.290375     1.613779     1.794270
H        7.102034     1.587825    -2.698355
H        7.472365     1.012715    -1.026409
H        6.765120    -0.110977    -2.264876
H        5.334133     2.390422    -1.126987
H        3.380594     1.575951    -2.334438
H        4.301051     0.189331    -3.011751
H        4.720286     1.885498    -3.476462
H       -2.541502     4.465584    -0.104363
H       -1.752985     3.134139     1.873622
H       -2.868680     4.410389     2.370524
H       -1.107940     4.629504     2.634328
H       -1.331707     6.844776     1.487800
H       -2.010757     6.996376    -0.151848
H       -3.070485     6.534912     1.201214
H       -0.134987     4.136958    -2.618779
H       -1.442581     5.859350    -3.662083
H       -2.295941     5.235615    -2.225623
H       -1.455115     6.854180    -2.182135
H        2.028964     5.257932    -2.405312
H        1.193995     6.860539    -2.175277
H        1.053516     5.958452    -3.731759
H        2.038042     6.058749    -0.194561
H        2.512491     6.119224     2.192220
H        1.140715     5.002437     2.525939
H        0.855366     6.646516     1.818286
H        2.856721     3.673109    -0.611164
H        3.667753     4.467201     0.791193
H        2.364453     3.281060     1.091306
H        4.406195    -2.048954     0.658788
H        4.801112    -3.342710    -1.350777
H        5.317150    -1.887564    -2.276503
H        3.607181    -2.054133    -1.708862
H        6.670325    -1.474231     1.293113
H        6.693092    -2.929968     0.259752
H        7.199345    -1.347302    -0.420649
H        4.265382     2.192355     1.451329
H        4.388640     1.016000     3.665765
H        3.216268     0.193309     2.610021
H        4.852073    -0.513985     2.834675
H        6.917783     0.707395     1.898607
H        6.685913     2.244473     0.974941
H        6.361591     2.197313     2.738767
66
ex_0259 frame8 T-shaped Br-Se-ax/Se-eq-conf5
C        4.567991    -0.538983     2.744264
C        5.053138    -1.207014     1.442877
C        4.473291    -2.621271     1.366247
P        4.649425    -0.099387    -0.061618
Se       2.400000     0.000000     0.000000
Cu       0.000000     0.000000     0.000000
Br      -2.304728    -0.668802     0.003328
Se       0.000000     2.400000     0.000000
P        0.003877     4.641840    -0.002726
C        1.659230     4.788304    -0.903011
C        1.658475     4.317228    -2.361193
C        2.236662     6.194979    -0.743825
C       -1.432578     5.271835    -1.048502
C       -1.225841     6.612698    -1.734123
C       -2.727000     5.241267    -0.230889
C        0.118249     5.011433     1.853800
C       -0.551752     6.336507     2.203220
C       -0.391000     3.888994     2.763788
C        5.348553    -0.627669    -1.721157
C        4.899314    -2.069654    -1.969912
C        4.685274     0.208782    -2.837134
C        5.100247     1.718866     0.285096
C        4.655612     2.753656    -0.738541
C        6.603863     1.840711     0.540931
H        3.461882    -0.471025     2.788356
H        4.919761    -1.125467     3.622386
H        5.000505     0.474972     2.862694
H        6.158581    -1.274026     1.540126
H        4.549098    -3.124196     2.354220
H        5.053891    -3.254566     0.681196
H        3.406529    -2.596129     1.066105
H        2.355449     4.143053    -0.338926
H        1.397920     3.241645    -2.424366
H        2.679385     4.434694    -2.789705
H        0.957117     4.896783    -2.983917
H        2.381033     6.410635     0.338448
H        1.575414     6.965335    -1.179000
H        3.240923     6.254465    -1.218466
H       -1.548206     4.515508    -1.857718
H       -2.157036     6.892361    -2.274400
H       -0.433252     6.524076    -2.501430
H       -0.957408     7.399250    -1.006885
H       -2.772340     6.103184     0.454888
H       -3.609430     5.321586    -0.896490
H       -2.811242     4.293977     0.346750
H        1.203881     5.113331     2.066801
H       -1.649656     6.222413     2.210136
H       -0.267036     6.642206     3.230087
H       -0.250872     7.133379     1.491969
H       -1.447154     3.637102     2.539371
H        0.243293     2.984817     2.646897
H       -0.297920     4.190838     3.827838
H        6.452533    -0.557386    -1.769171
H        5.412592    -2.753118    -1.285364
H        5.160612    -2.397395    -2.995166
H        3.793958    -2.166225    -1.844506
H        3.574866     0.209063    -2.731544
H        5.028751     1.242355    -2.858623
H        4.926784    -0.195330    -3.839565
H        4.563453     1.978262     1.223831
H        5.333026     2.807095    -1.604107
H        3.618173     2.541700    -1.054483
H        4.709860     3.764509    -0.276380
H        6.908815     1.174823     1.375061
H        6.875116     2.882827     0.815134
H        7.166966     1.548514    -0.370210
66
ex_0259 frame9 T-shaped Br-Se-ax/Se-eq-conf6
C        5.698520     1.839887    -1.924627
C        5.365835     0.363382    -1.711608
C        6.517257    -0.520513    -2.180325
P        4.580467     0.000000     0.000000
Se       2.400000     0.000000     0.000000
Cu       0.000000     0.000000     0.000000
Br      -1.742761    -1.638673     0.193808
Se       0.000000     2.400000     0.000000
P        0.000000     4.494853     0.000000
C       -0.263408     5.397230    -1.653038
C       -0.041103     6.901381    -1.668863
C        0.551282     4.679299    -2.739941
C        1.624344     4.932586     0.844225
C        1.451296     6.229902     1.642407
C        2.796476     5.062855    -0.125579
C       -1.641848     4.822590     0.918456
C       -1.681921     4.066034     2.256491
C       -2.907310     4.493567     0.114075
C        4.836361    -1.878847     0.251549
C        3.976987    -2.411699     1.415952
C        6.296658    -2.204006     0.627013
C        4.881568     1.207625     1.431508
C        4.230461     2.563769     1.212790
C        6.368305     1.399280     1.734059
H        4.814600     2.475194    -1.728788
H        6.000746     2.014233    -2.979712
H        6.547080     2.143404    -1.281794
H        4.544446     0.113871    -2.419859
H        6.204742    -1.586470    -2.171007
H        7.434605    -0.348670    -1.588696
H        6.743293    -0.290493    -3.245417
H       -1.304036     5.205435    -1.968745
H       -0.682257     7.395392    -0.915232
H       -0.313873     7.285999    -2.677127
H        1.017792     7.157608    -1.495784
H        0.282716     3.595938    -2.754848
H        1.640856     4.757424    -2.583143
H        0.305956     5.077425    -3.747726
H        1.824979     4.149728     1.602740
H        1.190954     7.083581     0.987090
H        0.643221     6.104041     2.394855
H        2.382471     6.463921     2.201304
H        3.727846     5.273718     0.441871
H        2.922095     4.137928    -0.720061
H        2.653803     5.913621    -0.814706
H       -1.669889     5.909727     1.147185
H       -2.582249     4.362677     2.835722
H       -1.736772     2.968995     2.099067
H       -0.786557     4.292849     2.868846
H       -2.914508     3.433644    -0.211052
H       -3.017071     5.159110    -0.761360
H       -3.807073     4.684803     0.738002
H        4.548469    -2.420729    -0.673720
H        4.203717    -1.857069     2.353055
H        2.894132    -2.338026     1.209067
H        4.182969    -3.489957     1.587548
H        7.037394    -1.892927    -0.116661
H        6.568561    -1.725211     1.588367
H        6.423715    -3.299943     0.751653
H        4.396124     0.757956     2.324560
H        4.706671     3.094325     0.372746
H        3.150062     2.436092     1.022924
H        4.335837     3.192401     2.122745
H        6.860078     0.437309     1.956666
H        6.488326     2.056375     2.622791
H        6.890827     1.879496     0.885386
66
ex_0259 frame10 trans-conf3
C        6.571243     0.840384    -2.005286
C        5.222753     1.300392    -1.477816
C        4.175921     1.214500    -2.611417
P        4.604524     0.281099    -0.028493
Se       2.400000     0.000000     0.000000
Cu       0.000000     0.000000     0.000000
Br      -1.199333     2.078676    -0.000329
Se      -1.200026    -2.078446     0.000000
P       -2.382567    -4.024817     0.030390
C       -2.500298    -4.475564    -1.805680
C       -1.109764    -4.415719    -2.472636
C       -3.144067    -5.828216    -2.068068
C       -4.029939    -3.159902     0.481250
C       -5.164057    -3.328807    -0.538884
C       -4.498876    -3.713579     1.831918
C       -1.417446    -5.058445     1.317467
C       -0.741909    -6.249559     0.660740
C       -0.455373    -4.284876     2.242499
C        5.053614    -1.551226    -0.017731
C        4.625681    -2.306944    -1.277942
C        6.537347    -1.761131     0.343126
C        4.707750     1.260377     1.581809
C        4.188801     0.402984     2.763931
C        6.147135     1.665451     1.882289
H        6.833621     1.418387    -2.916271
H        7.357394     0.983307    -1.243098
H        6.508667    -0.231855    -2.294250
H        5.230087     2.364587    -1.163581
H        3.158530     1.468206    -2.241490
H        4.133628     0.203234    -3.069081
H        4.402316     1.958553    -3.402743
H       -3.085255    -3.675691    -2.295185
H       -0.616135    -3.435448    -2.308427
H       -1.204106    -4.533126    -3.571794
H       -0.433372    -5.204372    -2.095284
H       -2.475699    -6.647058    -1.747535
H       -4.108474    -5.922098    -1.541980
H       -3.311982    -5.942621    -3.159462
H       -3.864541    -2.069703     0.613286
H       -6.072196    -2.798394    -0.178345
H       -4.909091    -2.873569    -1.513329
H       -5.433113    -4.394795    -0.666842
H       -3.731488    -3.529981     2.612758
H       -4.679517    -4.808261     1.757467
H       -5.442392    -3.222822     2.155690
H       -2.173872    -5.536039     1.978546
H       -0.288112    -6.900341     1.437775
H        0.033066    -5.939308    -0.059022
H       -1.520338    -6.866031     0.170395
H       -1.022528    -3.709556     3.004670
H        0.201620    -4.996027     2.789665
H        0.228047    -3.610434     1.693553
H        4.453057    -1.992263     0.809875
H        4.333814    -3.340909    -0.979837
H        5.440993    -2.379638    -2.022060
H        3.730845    -1.848854    -1.740720
H        6.668607    -1.772693     1.446574
H        6.937299    -2.712186    -0.065294
H        7.167776    -0.936579    -0.039267
H        4.083298     2.172415     1.478404
H        4.189244     0.989117     3.706879
H        3.153078     0.040883     2.613830
H        4.833321    -0.492047     2.914235
H        6.783741     0.767086     2.031968
H        6.556922     2.268481     1.049281
H        6.175876     2.275785     2.811476
66
ex_0259 frame11 trans-conf4
C        6.407823    -0.990411     1.878958
C        4.982002    -0.458299     1.690563
C        3.967405    -1.381181     2.402007
P        4.595122     0.048961    -0.129702
Se       2.400000     0.000000     0.000000
Cu       0.000000     0.000000     0.000000
Br      -1.196551     2.080294     0.002499
Se      -1.200026    -2.078446     0.000000
P       -2.302148    -4.011006     0.106029
C       -3.927398    -3.861176    -0.831791
C       -3.628912    -3.557792    -2.312013
C       -4.896479    -5.015622    -0.684161
C       -2.629213    -3.928367     1.972782
C       -3.375240    -2.671912     2.432841
C       -3.341514    -5.193610     2.455999
C       -0.986814    -5.259979    -0.523048
C       -1.143862    -5.633706    -1.988972
C        0.462146    -4.792613    -0.268392
C        4.779249     1.931202    -0.437222
C        4.557808     2.345885    -1.888844
C        3.838445     2.758976     0.475535
C        5.411210    -1.044529    -1.426618
C        6.779127    -0.585290    -1.899672
C        5.343790    -2.529344    -1.027284
H        7.106688    -0.532642     1.157576
H        6.446700    -2.094601     1.777627
H        6.762186    -0.765967     2.906524
H        4.923702     0.505790     2.237739
H        3.883355    -2.368168     1.906378
H        4.271489    -1.535751     3.460898
H        2.961580    -0.916569     2.458347
H       -4.416061    -2.939475    -0.447804
H       -4.544178    -3.197342    -2.821492
H       -2.859693    -2.758509    -2.407973
H       -3.289224    -4.444349    -2.869234
H       -5.374447    -4.970976     0.306685
H       -5.721752    -4.899192    -1.417061
H       -4.382160    -5.983476    -0.839893
H       -1.629159    -3.923585     2.461927
H       -2.785728    -1.758517     2.218053
H       -3.515048    -2.703277     3.535038
H       -4.364823    -2.594044     1.942951
H       -2.806813    -6.099649     2.100538
H       -3.373683    -5.216872     3.564949
H       -4.383650    -5.230147     2.110418
H       -1.149609    -6.202261     0.042528
H       -2.134993    -6.110612    -2.129186
H       -1.015368    -4.750098    -2.645908
H       -0.388644    -6.399861    -2.269427
H        1.187637    -5.568920    -0.596959
H        0.697136    -3.881604    -0.861078
H        0.639447    -4.584358     0.806254
H        5.815828     2.215679    -0.154061
H        3.626935     1.903199    -2.292585
H        5.416286     2.046617    -2.508647
H        4.507971     3.453761    -1.967311
H        4.067055     3.842260     0.388757
H        3.945714     2.478288     1.543050
H        2.772566     2.649983     0.184533
H        4.789278    -0.953385    -2.347220
H        7.503493    -0.460824    -1.083787
H        7.152431    -1.304896    -2.660552
H        6.670930     0.366439    -2.448852
H        6.178685    -3.106732    -1.473115
H        4.386567    -2.978069    -1.368826
H        5.374488    -2.681089     0.058560
66
ex_0259 frame12 T-shaped Se-Se-ax/Br-eq-conf4
C        6.509827    -0.668370     1.849309
C        5.015387    -0.582031     1.543620
C        4.298570    -1.848786     2.030882
P        4.640137    -0.099314    -0.272099
Se       2.400000     0.000000     0.000000
Cu       0.000000     0.000000     0.000000
Br      -0.002390     2.390194    -0.136505
Se      -2.400000     0.000000     0.000000
P       -4.642259     0.276896    -0.095769
C       -5.732322     1.141351    -1.369098
C       -5.255734     0.721581    -2.772880
C       -7.239447     0.956607    -1.228789
C       -4.706665     1.272757     1.520178
C       -4.118667     2.675198     1.366848
C       -6.107667     1.336695     2.131035
C       -5.207944    -1.554539     0.067112
C       -5.278811    -2.341091    -1.240206
C       -4.328579    -2.333782     1.065980
C        4.957558     1.716832    -0.748520
C        4.480363     2.037626    -2.164753
C        4.303036     2.686934     0.254566
C        5.793562    -1.026101    -1.446601
C        7.268960    -0.616291    -1.438489
C        5.611552    -2.530198    -1.259523
H        7.029304     0.258175     1.527091
H        6.954872    -1.556804     1.363551
H        6.669125    -0.790050     2.942241
H        4.609531     0.248302     2.162574
H        4.593981    -2.744773     1.458846
H        4.531898    -2.016806     3.105409
H        3.199100    -1.729533     1.972327
H       -5.488815     2.222419    -1.301897
H       -5.737601     1.345903    -3.551128
H       -4.154901     0.858603    -2.858372
H       -5.475061    -0.326773    -3.019073
H       -7.620363     1.372724    -0.287006
H       -7.743982     1.510311    -2.049937
H       -7.518056    -0.112770    -1.295704
H       -4.083177     0.714281     2.252766
H       -3.071842     2.622014     1.006912
H       -4.111719     3.188908     2.352438
H       -4.718298     3.276891     0.655619
H       -6.532750     0.315586     2.234339
H       -6.052638     1.786362     3.146001
H       -6.779319     1.976085     1.537092
H       -6.236037    -1.537994     0.489237
H       -6.094269    -1.952602    -1.872494
H       -4.305811    -2.326200    -1.772886
H       -5.560064    -3.397215    -1.032481
H       -4.749347    -3.346311     1.247717
H       -3.302878    -2.488179     0.670009
H       -4.268505    -1.808138     2.041034
H        6.047185     1.907582    -0.684288
H        3.387463     1.867073    -2.257745
H        5.015482     1.414812    -2.906386
H        4.694738     3.102533    -2.401480
H        4.572253     3.736447     0.008135
H        4.658225     2.482555     1.286151
H        3.196952     2.623063     0.239144
H        5.414771    -0.790000    -2.463734
H        7.778298    -0.830879    -0.487890
H        7.799574    -1.179204    -2.234777
H        7.378579     0.457998    -1.676887
H        6.143435    -3.086875    -2.056758
H        4.529066    -2.788879    -1.322089
H        6.002858    -2.863557    -0.280938
66
ex_0259 frame13 T-shaped Br-Se-ax/Se-eq-conf2
C        6.276803    -2.231625    -0.375187
C        4.814486    -1.777007    -0.413228
C        4.179540    -2.206000    -1.746997
P        4.634887     0.072149     0.036570
Se       2.400000     0.000000     0.000000
Cu       0.000000     0.000000     0.000000
Br      -2.295120    -0.701395    -0.002675
Se       0.000000     2.400000     0.000000
P        0.088467     4.600281    -0.133233
C        0.634981     5.076457    -1.866735
C        0.824762     6.555409    -2.101912
C       -0.308691     4.429975    -2.904202
C       -1.739967     5.096369     0.002473
C       -1.788316     6.467529     0.691436
C       -2.605192     4.121479     0.818680
C        1.268473     5.031611     1.279774
C        0.918446     4.275584     2.582189
C        2.734915     4.841259     0.933696
C        5.388919     1.316914    -1.153510
C        5.278706     0.798399    -2.583900
C        4.523197     2.592935    -1.095892
C        4.848884     0.528019     1.889708
C        5.480984     1.894682     2.150072
C        5.705013    -0.530267     2.596467
H        6.869527    -1.693487    -1.142008
H        6.735357    -2.051776     0.611591
H        6.343376    -3.324125    -0.567522
H        4.259796    -2.324057     0.381985
H        3.139729    -1.846092    -1.852880
H        4.764010    -1.876692    -2.621123
H        4.138788    -3.316138    -1.784393
H        1.617580     4.576091    -2.014221
H       -0.121217     7.101433    -1.935434
H        1.620345     6.927899    -1.425304
H        1.158036     6.704601    -3.152717
H       -1.311110     4.895736    -2.917456
H       -0.434626     3.342404    -2.700071
H        0.113520     4.516883    -3.925112
H       -2.195989     5.145806    -0.998141
H       -1.395729     6.377526     1.731365
H       -2.829642     6.844360     0.756870
H       -1.165773     7.213081     0.160547
H       -2.623227     3.117267     0.350679
H       -3.658224     4.478682     0.821187
H       -2.261378     4.032607     1.869122
H        1.116608     6.121139     1.422489
H        1.551544     4.615944     3.427835
H       -0.145938     4.408986     2.857713
H        1.103348     3.183263     2.464194
H        3.050982     3.822950     1.203011
H        3.343443     5.568606     1.516358
H        2.925857     5.034831    -0.138546
H        6.450375     1.529669    -0.921989
H        4.225484     0.524275    -2.826082
H        5.943479    -0.072668    -2.711805
H        5.608238     1.575375    -3.304344
H        4.592143     3.075794    -0.124788
H        4.834255     3.345986    -1.845292
H        3.448333     2.360537    -1.291676
H        3.860609     0.474321     2.396255
H        5.698249     2.021062     3.232896
H        6.433349     1.996282     1.587827
H        4.789040     2.704163     1.903835
H        5.745804    -0.325299     3.689314
H        6.744546    -0.524194     2.211621
H        5.255945    -1.538857     2.477303
66
ex_0259 frame14 T-shaped Se-Se-ax/Br-eq-conf2
C        6.348500    -2.055597    -0.514341
C        4.877050    -1.615912    -0.566364
C        4.236322    -2.057497    -1.894461
P        4.622447     0.232488    -0.097824
Se       2.400000     0.000000     0.000000
Cu       0.000000     0.000000     0.000000
Br      -0.000215     2.400100     0.000514
Se      -2.400000     0.000000     0.000000
P       -4.623821    -0.319885    -0.228057
C       -5.473880    -1.587967    -1.331812
C       -6.992247    -1.591568    -1.361134
C       -4.917348    -2.972132    -0.966461
C       -5.103439    -0.728340     1.582823
C       -6.534385    -0.237555     1.873072
C       -4.189720    -0.046104     2.623087
C       -5.067686     1.352211    -1.020743
C       -4.567249     2.535878    -0.169860
C       -4.540135     1.495375    -2.452029
C        5.757635     1.298614    -1.164082
C        5.726986     0.844589    -2.624638
C        5.155930     2.725577    -1.168065
C        4.840717     0.622775     1.769829
C        5.163142     2.078760     2.096302
C        5.888748    -0.288456     2.412623
H        6.963776    -1.535861    -1.268978
H        6.799511    -1.874253     0.474117
H        6.420191    -3.149300    -0.700715
H        4.343704    -2.194469     0.221928
H        3.152728    -1.831621    -1.918817
H        4.704489    -1.612158    -2.783984
H        4.331386    -3.160742    -1.996777
H       -5.119048    -1.372507    -2.359413
H       -7.416430    -1.953556    -0.411446
H       -7.378254    -0.584340    -1.620594
H       -7.329016    -2.304879    -2.143308
H       -5.238527    -3.277479     0.048865
H       -3.804971    -2.949501    -0.990094
H       -5.258978    -3.735448    -1.693032
H       -5.015685    -1.813665     1.756373
H       -6.597305     0.864550     1.748076
H       -6.822723    -0.484039     2.917352
H       -7.289384    -0.685827     1.220475
H       -3.153669    -0.431580     2.558890
H       -4.536540    -0.287122     3.651109
H       -4.181574     1.056015     2.507969
H       -6.175187     1.424429    -1.051522
H       -4.905789     3.498143    -0.607580
H       -4.974087     2.479092     0.859994
H       -3.459861     2.569456    -0.115451
H       -3.433502     1.429096    -2.474537
H       -4.845271     2.480376    -2.865727
H       -4.973096     0.717270    -3.107372
H        6.804375     1.294051    -0.798524
H        4.677034     0.768511    -2.993441
H        6.242151    -0.119232    -2.753394
H        6.267962     1.565725    -3.272124
H        5.168944     3.218544    -0.192319
H        5.705635     3.392970    -1.861451
H        4.091666     2.686823    -1.505377
H        3.897923     0.355475     2.293963
H        5.268141     2.208051     3.194901
H        6.133159     2.361948     1.634664
H        4.340979     2.740504     1.764223
H        5.943505    -0.102906     3.507219
H        6.892421    -0.127112     1.971217
H        5.578028    -1.349460     2.295078
66
ex_0259 frame15 T-shaped Se-Se-ax/Br-eq-conf5
C        4.623370    -0.619927     2.508063
C        5.029085    -1.297866     1.178676
C        4.352587    -2.678007     1.147023
P        4.609447    -0.152163    -0.304613
Se       2.400000     0.000000     0.000000
Cu       0.000000     0.000000     0.000000
Br       0.000560     2.404874    -0.002245
Se      -2.400000     0.000000     0.000000
P       -4.610407     0.257417    -0.374199
C       -5.290603     0.871244    -2.014617
C       -4.761951    -0.041808    -3.126616
C       -6.795105     1.100066    -2.109655
C       -4.997523    -1.602100    -0.160518
C       -6.453491    -1.957818    -0.471120
C       -4.703412    -2.051868     1.285321
C       -5.030260     1.667008     0.844540
C       -6.442557     1.470649     1.421173
C       -4.061515     1.746934     2.039640
C        5.660085    -0.683718    -1.774527
C        5.388836    -2.158497    -2.081700
C        5.194669     0.112361    -3.002675
C        5.015509     1.671933     0.102635
C        4.454042     2.741920    -0.841043
C        6.517116     1.864000     0.329081
H        3.527214    -0.455060     2.569395
H        4.915357    -1.250510     3.375925
H        5.135379     0.353318     2.640411
H        6.132557    -1.422984     1.214169
H        4.640516    -3.250062     2.057489
H        4.647219    -3.296818     0.292588
H        3.248436    -2.577127     1.143835
H       -4.814023     1.862895    -2.172164
H       -3.653578    -0.117318    -3.052233
H       -5.005752     0.380027    -4.122066
H       -5.180394    -1.063376    -3.054622
H       -7.100989     1.890232    -1.402110
H       -7.386555     0.188263    -1.936893
H       -7.034915     1.485590    -3.122578
H       -4.356477    -2.181493    -0.858875
H       -6.624133    -3.042355    -0.292885
H       -6.675837    -1.794318    -1.538083
H       -7.153486    -1.375976     0.163746
H       -5.363881    -1.520456     2.003236
H       -4.889024    -3.142309     1.398383
H       -3.653987    -1.869681     1.583962
H       -4.953470     2.634101     0.305169
H       -6.483826     0.539099     2.024815
H       -6.703318     2.318797     2.090621
H       -7.223240     1.395215     0.651564
H       -4.036352     0.791921     2.606828
H       -3.037478     2.006339     1.704656
H       -4.366662     2.562613     2.730404
H        6.747151    -0.540915    -1.608325
H        5.859822    -2.794666    -1.316629
H        5.845422    -2.454156    -3.048258
H        4.291998    -2.353733    -2.140364
H        4.086864     0.044823    -3.117063
H        5.490427     1.162642    -2.930742
H        5.662601    -0.268803    -3.932144
H        4.510468     1.869732     1.072992
H        4.966267     2.790566    -1.809751
H        3.365015     2.601570    -0.991184
H        4.600957     3.741537    -0.375500
H        6.882690     1.158431     1.105176
H        6.724118     2.895979     0.687328
H        7.080699     1.690774    -0.609452
66
ex_0259 frame16 T-shaped Se-Se-ax/Br-eq
C        4.903025     1.587342    -2.395785
C        5.652819     1.380904    -1.069234
C        7.102871     0.962437    -1.267730
P        4.627929     0.199319    -0.034722
Se       2.400000     0.000000     0.000000
Cu       0.000000     0.000000     0.000000
Br       0.007060     2.395537     0.109308
Se      -2.400000     0.000000     0.000000
P       -4.646913     0.075146    -0.191957
C       -4.930451    -0.763305     1.502523
C       -6.314120    -0.484960     2.092868
C       -4.628851    -2.261697     1.522493
C       -4.795292     1.973439    -0.239824
C       -4.026145     2.610954    -1.399562
C       -6.243103     2.469704    -0.254341
C       -5.661745    -0.606999    -1.630026
C       -5.110208    -2.000691    -1.971471
C       -7.170468    -0.672646    -1.443018
C        5.077934    -1.602688    -0.524560
C        4.857179    -1.922444    -2.000347
C        4.298379    -2.649055     0.308968
C        4.892934     0.912466     1.717112
C        4.203687     2.272561     1.904379
C        4.389498    -0.045634     2.810891
H        5.397351     2.363008    -3.012996
H        3.869044     1.942686    -2.175783
H        4.807485     0.666403    -2.990901
H        5.632707     2.374260    -0.588303
H        7.170875     0.002232    -1.811212
H        7.618028     1.739122    -1.872698
H        7.611757     0.873049    -0.287654
H       -4.209657    -0.280065     2.200261
H       -7.121626    -0.917047     1.478059
H       -6.385931    -0.923408     3.112364
H       -6.470516     0.604665     2.205376
H       -5.385910    -2.828027     0.952739
H       -4.664848    -2.631738     2.570999
H       -3.612729    -2.465171     1.128011
H       -4.328763     2.334357     0.704726
H       -4.105458     3.718384    -1.334507
H       -2.947949     2.365766    -1.344716
H       -4.428755     2.275056    -2.375282
H       -6.264582     3.571621    -0.113745
H       -6.840538     2.018212     0.558445
H       -6.714993     2.258364    -1.232250
H       -5.422173     0.037724    -2.502171
H       -4.007008    -1.959401    -2.103805
H       -5.335552    -2.736913    -1.182479
H       -5.553251    -2.375409    -2.917351
H       -7.627441    -1.057361    -2.381005
H       -7.436814    -1.372309    -0.630257
H       -7.615178     0.313103    -1.241510
H        6.157021    -1.743513    -0.299221
H        5.520552    -1.317768    -2.639066
H        5.129272    -2.982799    -2.198308
H        3.795826    -1.766863    -2.285123
H        4.650618    -3.675130     0.068829
H        3.211274    -2.625183     0.089376
H        4.437298    -2.514890     1.392314
H        5.984412     1.039280     1.879562
H        4.396346     2.653629     2.930264
H        4.587052     3.029280     1.197479
H        3.105518     2.182921     1.774038
H        4.553178     0.392940     3.818439
H        4.963063    -0.990496     2.791512
H        3.305639    -0.261850     2.706665
66
ex_0259 frame17 T-shaped Br-Se-ax/Se-eq-conf4
C        6.422101    -1.011675     1.891890
C        4.994359    -0.491763     1.696407
C        3.977973    -1.410946     2.404253
P        4.607936     0.009155    -0.125203
Se       2.400000     0.000000     0.000000
Cu       0.000000     0.000000     0.000000
Br      -2.294073    -0.704615     0.006412
Se       0.000000     2.400000     0.000000
P       -0.258005     4.608951     0.101406
C        1.386286     5.125275    -0.715139
C        1.531705     4.750085    -2.194640
C        1.719671     6.598149    -0.477691
C       -0.424793     4.717002     1.988105
C        0.760571     4.006959     2.690381
C       -0.412028     6.182457     2.431988
C       -1.796168     5.342151    -0.692672
C       -1.565680     5.684470    -2.161656
C       -2.859755     4.219412    -0.657087
C        4.868268     1.876086    -0.426657
C        4.589528     2.324829    -1.859818
C        4.003673     2.706332     0.546323
C        5.433983    -1.069749    -1.425021
C        6.808436    -0.610059    -1.879076
C        5.357004    -2.555299    -1.035386
H        7.125064    -0.519478     1.196780
H        6.476669    -2.110510     1.758953
H        6.756392    -0.812509     2.931647
H        4.932987     0.467177     2.248559
H        3.894885    -2.397215     1.908767
H        4.277547    -1.561477     3.465159
H        2.973826    -0.941068     2.454575
H        2.169426     4.556845    -0.195519
H        2.589509     4.897910    -2.501563
H        1.282701     3.681719    -2.356110
H        0.934612     5.386945    -2.864802
H        1.952967     6.760455     0.591164
H        2.637770     6.885231    -1.033046
H        0.883008     7.257298    -0.780211
H       -1.376444     4.244907     2.306832
H        0.771932     2.915011     2.509912
H        0.702793     4.133174     3.791876
H        1.733352     4.422294     2.343757
H       -1.214737     6.757150     1.934506
H       -0.548819     6.250637     3.531621
H        0.560103     6.657438     2.204266
H       -2.136574     6.255087    -0.169534
H       -0.840456     6.517193    -2.235435
H       -1.208525     4.794534    -2.725910
H       -2.509174     6.026079    -2.634350
H       -3.796482     4.520980    -1.168766
H       -2.483539     3.319166    -1.204123
H       -3.093873     3.900718     0.378309
H        5.925672     2.119626    -0.186050
H        3.619581     1.932515    -2.221411
H        5.397606     1.999077    -2.532944
H        4.583786     3.435218    -1.916039
H        4.247805     3.785604     0.459904
H        4.155053     2.422126     1.604705
H        2.930337     2.588602     0.318142
H        4.822378    -0.967665    -2.351215
H        7.527519    -0.501930    -1.056252
H        7.182970    -1.321361    -2.647445
H        6.709831     0.351362    -2.414774
H        6.171866    -3.139583    -1.507812
H        4.384197    -2.986768    -1.353709
H        5.415665    -2.714121     0.048391
66
ex_0259 frame18 T-shaped Se-Se-ax/Br-eq-conf3
C        6.922796     0.999261    -1.784153
C        5.474104     1.383135    -1.509801
C        4.630563     1.266325    -2.785808
P        4.612255     0.361470    -0.194495
Se       2.400000     0.000000     0.000000
Cu       0.000000     0.000000     0.000000
Br      -0.001336     2.398193     0.014522
Se      -2.400000     0.000000     0.000000
P       -4.645810     0.107098    -0.350042
C       -4.950904    -1.788808    -0.338732
C       -4.285015    -2.481854     0.873894
C       -6.446571    -2.133580    -0.257551
C       -5.217169     0.857644    -2.003452
C       -5.916426    -0.114100    -2.950824
C       -5.990468     2.168342    -1.883161
C       -5.147887     1.363476     1.010755
C       -5.539292     0.638435     2.303104
C       -4.063836     2.404983     1.326186
C        5.041200    -1.491133    -0.231113
C        4.706870    -2.160904    -1.562202
C        6.486490    -1.776899     0.192637
C        4.826155     1.409014     1.380751
C        4.290756     0.659077     2.619453
C        6.291346     1.766850     1.640470
H        7.343834     1.687270    -2.546944
H        7.539997     1.062903    -0.868714
H        6.972608    -0.023726    -2.205741
H        5.406975     2.448956    -1.204380
H        3.587580     1.594446    -2.572072
H        4.586812     0.224675    -3.158162
H        5.031937     1.920102    -3.585827
H       -4.508430    -2.229715    -1.255096
H       -3.184546    -2.384729     0.875368
H       -4.484897    -3.574799     0.850237
H       -4.678919    -2.086258     1.832219
H       -6.892539    -1.742521     0.679186
H       -7.028085    -1.745155    -1.097932
H       -6.581007    -3.237102    -0.263081
H       -4.255209     1.108790    -2.502108
H       -5.998964     0.347157    -3.957030
H       -5.327959    -1.047878    -3.063954
H       -6.945732    -0.325018    -2.615128
H       -5.403549     2.912204    -1.306751
H       -6.974395     1.997277    -1.400749
H       -6.159512     2.597029    -2.893509
H       -6.076981     1.875797     0.699044
H       -5.888253     1.371470     3.063949
H       -4.691131     0.064893     2.725812
H       -6.389688    -0.046250     2.107873
H       -3.741004     2.943928     0.415308
H       -4.446674     3.141309     2.065372
H       -3.181343     1.921135     1.798090
H        4.411617    -1.970795     0.551743
H        4.881104    -3.256073    -1.482698
H        5.344927    -1.767541    -2.375076
H        3.638128    -2.004821    -1.815250
H        6.674978    -1.361262     1.203049
H        6.651470    -2.874296     0.253564
H        7.229526    -1.365983    -0.508586
H        4.255888     2.353430     1.258621
H        4.418586     1.275068     3.532018
H        3.209025     0.434043     2.542524
H        4.836238    -0.300760     2.761197
H        6.910557     0.856426     1.771320
H        6.699406     2.379041     0.816507
H        6.371370     2.375647     2.568988
66
ex_0259 frame19 T-shaped Se-Se-ax/Br-eq-conf6
C        5.683980     1.838468    -1.938688
C        5.406408     0.355165    -1.696655
C        6.609869    -0.487118    -2.103998
P        4.580467     0.000000     0.000000
Se       2.400000     0.000000     0.000000
Cu       0.000000     0.000000     0.000000
Br      -0.010379     2.398327    -0.097452
Se      -2.400000     0.000000     0.000000
P       -4.494853     0.000000     0.000000
C       -5.460868     0.554990    -1.536543
C       -6.959674     0.733151    -1.361641
C       -4.790526     1.808599    -2.126728
C       -4.806201     1.077569     1.521342
C       -6.099107     0.630609     2.208168
C       -4.848563     2.573579     1.214908
C       -4.829614    -1.878179     0.032080
C       -4.084115    -2.549461     1.196505
C       -4.482327    -2.607147    -1.274771
C        4.851616    -1.876041     0.270382
C        3.970890    -2.410497     1.423982
C        6.299861    -2.199205     0.668304
C        4.822400     1.290809     1.376482
C        4.167626     2.653191     1.095533
C        6.300962     1.481866     1.726870
H        4.765149     2.437043    -1.796802
H        6.019244     1.998395    -2.985959
H        6.492719     2.197691    -1.273750
H        4.621956     0.054023    -2.426591
H        6.331992    -1.562824    -2.102454
H        7.491283    -0.278096    -1.470146
H        6.875836    -0.260403    -3.160431
H       -5.294822    -0.199797    -2.323449
H       -7.418112    -0.211606    -1.010489
H       -7.403506     0.996596    -2.347783
H       -7.182374     1.555186    -0.657194
H       -3.708251     1.605433    -2.299855
H       -4.869227     2.693152    -1.474879
H       -5.232439     2.062220    -3.112679
H       -3.991584     0.877973     2.251022
H       -6.978811     0.746655     1.546989
H       -6.016282    -0.438437     2.498623
H       -6.260720     1.213953     3.139574
H       -4.981331     3.147847     2.156280
H       -3.909745     2.903948     0.727186
H       -5.716633     2.812078     0.568644
H       -5.917954    -2.010294     0.213292
H       -4.378700    -3.618096     1.271424
H       -2.985196    -2.517962     1.046585
H       -4.327206    -2.056392     2.158608
H       -3.415600    -2.464486    -1.542884
H       -5.124745    -2.280044    -2.111613
H       -4.679716    -3.694927    -1.160972
H        4.572475    -2.423207    -0.655814
H        4.195103    -1.858919     2.366423
H        2.894635    -2.334074     1.208517
H        4.175758    -3.489510     1.592771
H        7.057552    -1.904508    -0.069820
H        6.566513    -1.700769     1.623211
H        6.425724    -3.291984     0.808052
H        4.312741     0.875285     2.271420
H        4.641716     3.181258     0.251636
H        3.081704     2.544897     0.897935
H        4.264668     3.301739     1.991630
H        6.764120     0.515283     2.002627
H        6.393528     2.163662     2.597640
H        6.861257     1.919675     0.883422
