65
ex_0451 frame0 T-4-1
Hg       0.000000     0.000000     0.000000
C        4.652351     1.337409     2.058840
N        3.841319     2.370861     2.690821
C        4.304836     3.356159     3.562538
C        3.159922     4.132355     3.920681
N        2.098850     3.566062     3.246764
C        0.737080     4.061619     3.338198
C        2.483035     2.482928     2.482952
Se       1.454923     1.454923     1.454923
H        5.503982     1.087538     2.722876
H        4.966768     1.602442     1.036300
H        4.064637     0.394139     1.996292
H        5.304976     3.491980     3.886421
H        3.166712     4.952073     4.563460
H        0.603491     5.025821     2.815116
H        0.019898     3.338507     2.925686
H        0.450692     4.198891     4.412447
C        3.063130    -4.204697    -0.780772
N        3.136314    -3.642760    -2.123928
C        3.849955    -4.176745    -3.196833
C        3.626077    -3.291251    -4.295629
N        2.802258    -2.296981    -3.812436
C        2.330992    -1.186006    -4.619899
C        2.482985    -2.483020    -2.482910
Se       1.454923    -1.454923    -1.454923
H        4.004723    -4.747262    -0.562411
H        2.163688    -4.821180    -0.620641
H        3.041391    -3.377938    -0.035739
H        4.435693    -5.060176    -3.187507
H        4.022575    -3.407824    -5.251845
H        1.579301    -1.497521    -5.367606
H        1.894514    -0.394471    -3.995106
H        3.191169    -0.712096    -5.158765
C       -0.740735     4.112584    -3.195280
N       -2.106147     3.601851    -3.195003
C       -3.185344     4.150313    -3.887876
C       -4.307358     3.318234    -3.587366
N       -3.830161     2.337761    -2.743754
C       -4.660089     1.278472    -2.198336
C       -2.482909     2.483018    -2.482987
Se      -1.454923     1.454923    -1.454923
H       -0.764170     5.211454    -3.338772
H       -0.088749     3.597442    -3.919319
H       -0.295377     3.975294    -2.184397
H       -3.165565     5.009691    -4.508121
H       -5.273384     3.457379    -3.951482
H       -4.948696     0.533721    -2.962011
H       -4.152261     0.756041    -1.375789
H       -5.593492     1.712285    -1.756253
C       -2.127654    -1.284743     4.636203
N       -2.721415    -2.347447     3.834140
C       -3.582331    -3.341010     4.300192
C       -3.900547    -4.147764     3.164647
N       -3.216292    -3.589383     2.106001
C       -3.269064    -4.114530     0.753303
C       -2.482953    -2.482927     2.483035
Se      -1.454923    -1.454923     1.454923
H       -1.992783    -1.646307     5.675306
H       -2.688676    -0.337814     4.579020
H       -1.093285    -1.085245     4.276537
H       -3.924205    -3.463062     5.296109
H       -4.526476    -4.980378     3.175391
H       -4.244847    -3.931592     0.267989
H       -2.479655    -3.679872     0.124564
H       -3.080043    -5.218633     0.763355
65
ex_0451 frame1 T-4-1-conf2
Hg       0.000000     0.000000     0.000000
C        4.652351     1.337409     2.058840
N        3.843299     2.365740     2.687245
C        4.327911     3.363339     3.573176
C        3.165110     4.149919     3.935551
N        2.085280     3.567345     3.244815
C        0.737080     4.061619     3.338198
C        2.460567     2.460102     2.460206
Se       1.454923     1.454923     1.454923
H        5.503982     1.087538     2.722876
H        4.966768     1.602442     1.036300
H        4.064637     0.394139     1.996292
H        5.304976     3.491980     3.886421
H        3.166712     4.952073     4.563460
H        0.603491     5.025821     2.815116
H        0.019898     3.338507     2.925686
H        0.450692     4.198891     4.412447
C        3.063130    -4.204697    -0.780772
N        3.134889    -3.643782    -2.117614
C        3.865408    -4.197674    -3.201344
C        3.637198    -3.298110    -4.315272
N        2.795810    -2.285417    -3.816214
C        2.330992    -1.186006    -4.619899
C        2.460347    -2.460504    -2.460025
Se       1.454923    -1.454923    -1.454923
H        4.004723    -4.747262    -0.562411
H        2.163688    -4.821180    -0.620641
H        3.041391    -3.377938    -0.035739
H        4.435693    -5.060176    -3.187507
H        4.022575    -3.407824    -5.251845
H        1.579301    -1.497521    -5.367606
H        1.894514    -0.394471    -3.995106
H        3.191169    -0.712096    -5.158765
C       -0.740735     4.112584    -3.195280
N       -2.099747     3.602675    -3.193862
C       -3.189663     4.170798    -3.903964
C       -4.327149     3.325437    -3.597994
N       -3.834118     2.326610    -2.736713
C       -4.660089     1.278472    -2.198336
C       -2.460020     2.460493    -2.460362
Se      -1.454923     1.454923    -1.454923
H       -0.764170     5.211454    -3.338772
H       -0.088749     3.597442    -3.919319
H       -0.295377     3.975294    -2.184397
H       -3.165565     5.009691    -4.508121
H       -5.273384     3.457379    -3.951482
H       -4.948696     0.533721    -2.962011
H       -4.152261     0.756041    -1.375789
H       -5.593492     1.712285    -1.756253
C       -1.487981    -4.689153     1.914358
N       -2.404758    -3.837201     2.595551
C       -3.389367    -4.308148     3.511720
C       -4.099403    -3.123168     3.969340
N       -3.487454    -2.026048     3.292776
C       -3.899826    -0.661974     3.468429
C       -2.440538    -2.440269     2.440503
Se      -1.454923    -1.454923     1.454923
H       -1.947433    -5.688975     1.730393
H       -0.545645    -4.828571     2.482789
H       -1.201757    -4.209104     0.935308
H       -3.543310    -5.278328     3.774386
H       -4.868390    -3.098520     4.632581
H       -3.305485    -0.018945     2.802969
H       -3.864916    -0.315159     4.506350
H       -4.969723    -0.565579     3.144895
65
ex_0451 frame2 T-4-1-conf3
Hg       0.000000     0.000000     0.000000
C        4.652351     1.337409     2.058840
N        3.843299     2.365740     2.687245
C        4.327911     3.363339     3.573176
C        3.165110     4.149919     3.935551
N        2.085280     3.567345     3.244815
C        0.737080     4.061619     3.338198
C        2.460567     2.460102     2.460206
Se       1.454923     1.454923     1.454923
H        5.503982     1.087538     2.722876
H        4.966768     1.602442     1.036300
H        4.064637     0.394139     1.996292
H        5.304976     3.491980     3.886421
H        3.166712     4.952073     4.563460
H        0.603491     5.025821     2.815116
H        0.019898     3.338507     2.925686
H        0.450692     4.198891     4.412447
C        3.063130    -4.204697    -0.780772
N        3.134889    -3.643782    -2.117614
C        3.865408    -4.197674    -3.201344
C        3.637198    -3.298110    -4.315272
N        2.795810    -2.285417    -3.816214
C        2.330992    -1.186006    -4.619899
C        2.460347    -2.460504    -2.460025
Se       1.454923    -1.454923    -1.454923
H        4.004723    -4.747262    -0.562411
H        2.163688    -4.821180    -0.620641
H        3.041391    -3.377938    -0.035739
H        4.435693    -5.060176    -3.187507
H        4.022575    -3.407824    -5.251845
H        1.579301    -1.497521    -5.367606
H        1.894514    -0.394471    -3.995106
H        3.191169    -0.712096    -5.158765
C       -4.704306     1.695091    -1.692096
N       -3.843981     2.497434    -2.496094
C       -4.312495     3.448787    -3.447952
C       -3.118545     4.036208    -4.037159
N       -2.019129     3.392877    -3.394273
C       -0.646638     3.690209    -3.693382
C       -2.440268     2.440522    -2.440520
Se      -1.454923     1.454923    -1.454923
H       -5.654606     1.477664    -2.234532
H       -4.948335     2.182644    -0.726026
H       -4.174782     0.732628    -1.438759
H       -5.286539     3.655545    -3.653940
H       -3.090137     4.753811    -4.755543
H        0.001326     3.028405    -3.100321
H       -0.379471     4.743964    -3.562990
H       -0.454593     3.452706    -4.772898
C       -2.127654    -1.284743     4.636203
N       -2.717986    -2.342213     3.836086
C       -3.593300    -3.347937     4.323188
C       -3.915161    -4.165524     3.169895
N       -3.214035    -3.590903     2.092503
C       -3.269064    -4.114530     0.753303
C       -2.460212    -2.460097     2.460566
Se      -1.454923    -1.454923     1.454923
H       -1.992783    -1.646307     5.675306
H       -2.688676    -0.337814     4.579020
H       -1.093285    -1.085245     4.276537
H       -3.924205    -3.463062     5.296109
H       -4.526476    -4.980378     3.175391
H       -4.244847    -3.931592     0.267989
H       -2.479655    -3.679872     0.124564
H       -3.080043    -5.218633     0.763355
65
ex_0451 frame3 T-4-1-conf4
Hg       0.000000     0.000000     0.000000
C        4.652351     1.337409     2.058840
N        3.843299     2.365740     2.687245
C        4.327911     3.363339     3.573176
C        3.165110     4.149919     3.935551
N        2.085280     3.567345     3.244815
C        0.737080     4.061619     3.338198
C        2.460567     2.460102     2.460206
Se       1.454923     1.454923     1.454923
H        5.503982     1.087538     2.722876
H        4.966768     1.602442     1.036300
H        4.064637     0.394139     1.996292
H        5.304976     3.491980     3.886421
H        3.166712     4.952073     4.563460
H        0.603491     5.025821     2.815116
H        0.019898     3.338507     2.925686
H        0.450692     4.198891     4.412447
C        1.600817    -1.789322    -4.701354
N        2.455249    -2.539600    -3.842660
C        3.421729    -3.475858    -4.311647
C        4.064958    -4.007509    -3.119444
N        3.435915    -3.349887    -2.020475
C        3.785564    -3.595045    -0.649620
C        2.440530    -2.440512    -2.440268
Se       1.454923    -1.454923    -1.454923
H        1.371394    -2.368717    -5.626691
H        2.049026    -0.816856    -4.991122
H        0.647715    -1.549256    -4.149199
H        3.604449    -3.706637    -5.284938
H        4.805933    -4.701791    -3.091767
H        3.125548    -3.002362     0.000510
H        4.842401    -3.423175    -0.420848
H        3.589189    -4.674697    -0.416310
C       -0.740735     4.112584    -3.195280
N       -2.099747     3.602675    -3.193862
C       -3.189663     4.170798    -3.903964
C       -4.327149     3.325437    -3.597994
N       -3.834118     2.326610    -2.736713
C       -4.660089     1.278472    -2.198336
C       -2.460020     2.460493    -2.460362
Se      -1.454923     1.454923    -1.454923
H       -0.764170     5.211454    -3.338772
H       -0.088749     3.597442    -3.919319
H       -0.295377     3.975294    -2.184397
H       -3.165565     5.009691    -4.508121
H       -5.273384     3.457379    -3.951482
H       -4.948696     0.533721    -2.962011
H       -4.152261     0.756041    -1.375789
H       -5.593492     1.712285    -1.756253
C       -2.127654    -1.284743     4.636203
N       -2.717986    -2.342213     3.836086
C       -3.593300    -3.347937     4.323188
C       -3.915161    -4.165524     3.169895
N       -3.214035    -3.590903     2.092503
C       -3.269064    -4.114530     0.753303
C       -2.460212    -2.460097     2.460566
Se      -1.454923    -1.454923     1.454923
H       -1.992783    -1.646307     5.675306
H       -2.688676    -0.337814     4.579020
H       -1.093285    -1.085245     4.276537
H       -3.924205    -3.463062     5.296109
H       -4.526476    -4.980378     3.175391
H       -4.244847    -3.931592     0.267989
H       -2.479655    -3.679872     0.124564
H       -3.080043    -5.218633     0.763355
65
ex_0451 frame4 T-4-1-conf5
Hg       0.000000     0.000000     0.000000
C        0.880075     4.344021     2.867397
N        2.132736     3.682763     3.022011
C        3.214882     4.209095     3.785257
C        4.284781     3.228428     3.678702
N        3.764968     2.183615     2.857696
C        4.514656     1.011092     2.504481
C        2.440589     2.440298     2.440423
Se       1.454923     1.454923     1.454923
H        1.016585     5.450783     2.899433
H        0.153223     4.051213     3.652569
H        0.425234     4.038896     1.882039
H        3.213823     5.091272     4.290929
H        5.204468     3.289354     4.105670
H        3.909656     0.388238     1.829507
H        4.882181     0.440571     3.363673
H        5.424728     1.326341     1.929127
C        3.063130    -4.204697    -0.780772
N        3.134889    -3.643782    -2.117614
C        3.865408    -4.197674    -3.201344
C        3.637198    -3.298110    -4.315272
N        2.795810    -2.285417    -3.816214
C        2.330992    -1.186006    -4.619899
C        2.460347    -2.460504    -2.460025
Se       1.454923    -1.454923    -1.454923
H        4.004723    -4.747262    -0.562411
H        2.163688    -4.821180    -0.620641
H        3.041391    -3.377938    -0.035739
H        4.435693    -5.060176    -3.187507
H        4.022575    -3.407824    -5.251845
H        1.579301    -1.497521    -5.367606
H        1.894514    -0.394471    -3.995106
H        3.191169    -0.712096    -5.158765
C       -0.740735     4.112584    -3.195280
N       -2.099747     3.602675    -3.193862
C       -3.189663     4.170798    -3.903964
C       -4.327149     3.325437    -3.597994
N       -3.834118     2.326610    -2.736713
C       -4.660089     1.278472    -2.198336
C       -2.460020     2.460493    -2.460362
Se      -1.454923     1.454923    -1.454923
H       -0.764170     5.211454    -3.338772
H       -0.088749     3.597442    -3.919319
H       -0.295377     3.975294    -2.184397
H       -3.165565     5.009691    -4.508121
H       -5.273384     3.457379    -3.951482
H       -4.948696     0.533721    -2.962011
H       -4.152261     0.756041    -1.375789
H       -5.593492     1.712285    -1.756253
C       -2.127654    -1.284743     4.636203
N       -2.717986    -2.342213     3.836086
C       -3.593300    -3.347937     4.323188
C       -3.915161    -4.165524     3.169895
N       -3.214035    -3.590903     2.092503
C       -3.269064    -4.114530     0.753303
C       -2.460212    -2.460097     2.460566
Se      -1.454923    -1.454923     1.454923
H       -1.992783    -1.646307     5.675306
H       -2.688676    -0.337814     4.579020
H       -1.093285    -1.085245     4.276537
H       -3.924205    -3.463062     5.296109
H       -4.526476    -4.980378     3.175391
H       -4.244847    -3.931592     0.267989
H       -2.479655    -3.679872     0.124564
H       -3.080043    -5.218633     0.763355
65
ex_0451 frame5 T-4-1-conf6
Hg       0.000000     0.000000     0.000000
C        4.652351     1.337409     2.058840
N        3.841319     2.370861     2.690821
C        4.304836     3.356159     3.562538
C        3.159922     4.132355     3.920681
N        2.098850     3.566062     3.246764
C        0.737080     4.061619     3.338198
C        2.483035     2.482928     2.482952
Se       1.454923     1.454923     1.454923
H        5.503982     1.087538     2.722876
H        4.966768     1.602442     1.036300
H        4.064637     0.394139     1.996292
H        5.304976     3.491980     3.886421
H        3.166712     4.952073     4.563460
H        0.603491     5.025821     2.815116
H        0.019898     3.338507     2.925686
H        0.450692     4.198891     4.412447
C        3.063130    -4.204697    -0.780772
N        3.136314    -3.642760    -2.123928
C        3.849955    -4.176745    -3.196833
C        3.626077    -3.291251    -4.295629
N        2.802258    -2.296981    -3.812436
C        2.330992    -1.186006    -4.619899
C        2.482985    -2.483020    -2.482910
Se       1.454923    -1.454923    -1.454923
H        4.004723    -4.747262    -0.562411
H        2.163688    -4.821180    -0.620641
H        3.041391    -3.377938    -0.035739
H        4.435693    -5.060176    -3.187507
H        4.022575    -3.407824    -5.251845
H        1.579301    -1.497521    -5.367606
H        1.894514    -0.394471    -3.995106
H        3.191169    -0.712096    -5.158765
C       -0.740735     4.112584    -3.195280
N       -2.106147     3.601851    -3.195003
C       -3.185344     4.150313    -3.887876
C       -4.307358     3.318234    -3.587366
N       -3.830161     2.337761    -2.743754
C       -4.660089     1.278472    -2.198336
C       -2.482909     2.483018    -2.482987
Se      -1.454923     1.454923    -1.454923
H       -0.764170     5.211454    -3.338772
H       -0.088749     3.597442    -3.919319
H       -0.295377     3.975294    -2.184397
H       -3.165565     5.009691    -4.508121
H       -5.273384     3.457379    -3.951482
H       -4.948696     0.533721    -2.962011
H       -4.152261     0.756041    -1.375789
H       -5.593492     1.712285    -1.756253
C       -0.726520    -3.990548     3.418344
N       -2.089371    -3.533599     3.280427
C       -3.156586    -4.110360     3.943185
C       -4.292901    -3.362339     3.525498
N       -3.843904    -2.396057     2.649880
C       -4.673102    -1.408183     1.980568
C       -2.476495    -2.478291     2.477976
Se      -1.454923    -1.454923     1.454923
H       -0.454195    -4.058454     4.506787
H       -0.018696    -3.240510     3.006257
H       -0.581052    -4.961297     2.908160
H       -3.209015    -4.905322     4.608035
H       -5.278988    -3.542493     3.846933
H       -5.577226    -1.928940     1.639541
H       -4.101920    -0.933515     1.165645
H       -4.992026    -0.657460     2.755482
65
ex_0451 frame6 T-4-1-conf7
Hg       0.000000     0.000000     0.000000
C        4.652351     1.337409     2.058840
N        3.843299     2.365740     2.687245
C        4.327911     3.363339     3.573176
C        3.165110     4.149919     3.935551
N        2.085280     3.567345     3.244815
C        0.737080     4.061619     3.338198
C        2.460567     2.460102     2.460206
Se       1.454923     1.454923     1.454923
H        5.503982     1.087538     2.722876
H        4.966768     1.602442     1.036300
H        4.064637     0.394139     1.996292
H        5.304976     3.491980     3.886421
H        3.166712     4.952073     4.563460
H        0.603491     5.025821     2.815116
H        0.019898     3.338507     2.925686
H        0.450692     4.198891     4.412447
C        3.063130    -4.204697    -0.780772
N        3.134889    -3.643782    -2.117614
C        3.865408    -4.197674    -3.201344
C        3.637198    -3.298110    -4.315272
N        2.795810    -2.285417    -3.816214
C        2.330992    -1.186006    -4.619899
C        2.460347    -2.460504    -2.460025
Se       1.454923    -1.454923    -1.454923
H        4.004723    -4.747262    -0.562411
H        2.163688    -4.821180    -0.620641
H        3.041391    -3.377938    -0.035739
H        4.435693    -5.060176    -3.187507
H        4.022575    -3.407824    -5.251845
H        1.579301    -1.497521    -5.367606
H        1.894514    -0.394471    -3.995106
H        3.191169    -0.712096    -5.158765
C       -4.704306     1.695091    -1.692096
N       -3.843981     2.497434    -2.496094
C       -4.312495     3.448787    -3.447952
C       -3.118545     4.036208    -4.037159
N       -2.019129     3.392877    -3.394273
C       -0.646638     3.690209    -3.693382
C       -2.440268     2.440522    -2.440520
Se      -1.454923     1.454923    -1.454923
H       -5.654606     1.477664    -2.234532
H       -4.948335     2.182644    -0.726026
H       -4.174782     0.732628    -1.438759
H       -5.286539     3.655545    -3.653940
H       -3.090137     4.753811    -4.755543
H        0.001326     3.028405    -3.100321
H       -0.379471     4.743964    -3.562990
H       -0.454593     3.452706    -4.772898
C       -1.487981    -4.689153     1.914358
N       -2.404758    -3.837201     2.595551
C       -3.389367    -4.308148     3.511720
C       -4.099403    -3.123168     3.969340
N       -3.487454    -2.026048     3.292776
C       -3.899826    -0.661974     3.468429
C       -2.440538    -2.440269     2.440503
Se      -1.454923    -1.454923     1.454923
H       -1.947433    -5.688975     1.730393
H       -0.545645    -4.828571     2.482789
H       -1.201757    -4.209104     0.935308
H       -3.543310    -5.278328     3.774386
H       -4.868390    -3.098520     4.632581
H       -3.305485    -0.018945     2.802969
H       -3.864916    -0.315159     4.506350
H       -4.969723    -0.565579     3.144895
65
ex_0451 frame7 T-4-1-conf8
Hg       0.000000     0.000000     0.000000
C        4.652351     1.337409     2.058840
N        3.841319     2.370861     2.690821
C        4.304836     3.356159     3.562538
C        3.159922     4.132355     3.920681
N        2.098850     3.566062     3.246764
C        0.737080     4.061619     3.338198
C        2.483035     2.482928     2.482952
Se       1.454923     1.454923     1.454923
H        5.503982     1.087538     2.722876
H        4.966768     1.602442     1.036300
H        4.064637     0.394139     1.996292
H        5.304976     3.491980     3.886421
H        3.166712     4.952073     4.563460
H        0.603491     5.025821     2.815116
H        0.019898     3.338507     2.925686
H        0.450692     4.198891     4.412447
C        3.063130    -4.204697    -0.780772
N        3.136314    -3.642760    -2.123928
C        3.849955    -4.176745    -3.196833
C        3.626077    -3.291251    -4.295629
N        2.802258    -2.296981    -3.812436
C        2.330992    -1.186006    -4.619899
C        2.482985    -2.483020    -2.482910
Se       1.454923    -1.454923    -1.454923
H        4.004723    -4.747262    -0.562411
H        2.163688    -4.821180    -0.620641
H        3.041391    -3.377938    -0.035739
H        4.435693    -5.060176    -3.187507
H        4.022575    -3.407824    -5.251845
H        1.579301    -1.497521    -5.367606
H        1.894514    -0.394471    -3.995106
H        3.191169    -0.712096    -5.158765
C       -2.169930     1.304155    -4.661326
N       -2.728042     2.344953    -3.830401
C       -3.578385     3.325368    -4.306377
C       -3.881413     4.128212    -3.171113
N       -3.203646     3.587676    -2.098518
C       -3.229319     4.095301    -0.737232
C       -2.477289     2.476813    -2.478660
Se      -1.454923     1.454923    -1.454923
H       -2.989442     0.793365    -5.236629
H       -1.731514     0.497462    -4.036487
H       -1.397970     1.711605    -5.340934
H       -3.959226     3.509187    -5.253958
H       -4.511099     4.971674    -3.185641
H       -3.154294     5.188452    -0.802961
H       -2.419030     3.630604    -0.151447
H       -4.241404     3.854931    -0.308632
C       -2.127654    -1.284743     4.636203
N       -2.721415    -2.347447     3.834140
C       -3.582331    -3.341010     4.300192
C       -3.900547    -4.147764     3.164647
N       -3.216292    -3.589383     2.106001
C       -3.269064    -4.114530     0.753303
C       -2.482953    -2.482927     2.483035
Se      -1.454923    -1.454923     1.454923
H       -1.992783    -1.646307     5.675306
H       -2.688676    -0.337814     4.579020
H       -1.093285    -1.085245     4.276537
H       -3.924205    -3.463062     5.296109
H       -4.526476    -4.980378     3.175391
H       -4.244847    -3.931592     0.267989
H       -2.479655    -3.679872     0.124564
H       -3.080043    -5.218633     0.763355
65
ex_0451 frame8 T-4-1-conf9
Hg       0.000000     0.000000     0.000000
C        4.652351     1.337409     2.058840
N        3.843299     2.365740     2.687245
C        4.327911     3.363339     3.573176
C        3.165110     4.149919     3.935551
N        2.085280     3.567345     3.244815
C        0.737080     4.061619     3.338198
C        2.460567     2.460102     2.460206
Se       1.454923     1.454923     1.454923
H        5.503982     1.087538     2.722876
H        4.966768     1.602442     1.036300
H        4.064637     0.394139     1.996292
H        5.304976     3.491980     3.886421
H        3.166712     4.952073     4.563460
H        0.603491     5.025821     2.815116
H        0.019898     3.338507     2.925686
H        0.450692     4.198891     4.412447
C        1.600817    -1.789322    -4.701354
N        2.455249    -2.539600    -3.842660
C        3.421729    -3.475858    -4.311647
C        4.064958    -4.007509    -3.119444
N        3.435915    -3.349887    -2.020475
C        3.785564    -3.595045    -0.649620
C        2.440530    -2.440512    -2.440268
Se       1.454923    -1.454923    -1.454923
H        1.371394    -2.368717    -5.626691
H        2.049026    -0.816856    -4.991122
H        0.647715    -1.549256    -4.149199
H        3.604449    -3.706637    -5.284938
H        4.805933    -4.701791    -3.091767
H        3.125548    -3.002362     0.000510
H        4.842401    -3.423175    -0.420848
H        3.589189    -4.674697    -0.416310
C       -0.740735     4.112584    -3.195280
N       -2.099747     3.602675    -3.193862
C       -3.189663     4.170798    -3.903964
C       -4.327149     3.325437    -3.597994
N       -3.834118     2.326610    -2.736713
C       -4.660089     1.278472    -2.198336
C       -2.460020     2.460493    -2.460362
Se      -1.454923     1.454923    -1.454923
H       -0.764170     5.211454    -3.338772
H       -0.088749     3.597442    -3.919319
H       -0.295377     3.975294    -2.184397
H       -3.165565     5.009691    -4.508121
H       -5.273384     3.457379    -3.951482
H       -4.948696     0.533721    -2.962011
H       -4.152261     0.756041    -1.375789
H       -5.593492     1.712285    -1.756253
C       -1.487981    -4.689153     1.914358
N       -2.404758    -3.837201     2.595551
C       -3.389367    -4.308148     3.511720
C       -4.099403    -3.123168     3.969340
N       -3.487454    -2.026048     3.292776
C       -3.899826    -0.661974     3.468429
C       -2.440538    -2.440269     2.440503
Se      -1.454923    -1.454923     1.454923
H       -1.947433    -5.688975     1.730393
H       -0.545645    -4.828571     2.482789
H       -1.201757    -4.209104     0.935308
H       -3.543310    -5.278328     3.774386
H       -4.868390    -3.098520     4.632581
H       -3.305485    -0.018945     2.802969
H       -3.864916    -0.315159     4.506350
H       -4.969723    -0.565579     3.144895
65
ex_0451 frame9 T-4-1-conf10
Hg       0.000000     0.000000     0.000000
C        4.652351     1.337409     2.058840
N        3.843299     2.365740     2.687245
C        4.327911     3.363339     3.573176
C        3.165110     4.149919     3.935551
N        2.085280     3.567345     3.244815
C        0.737080     4.061619     3.338198
C        2.460567     2.460102     2.460206
Se       1.454923     1.454923     1.454923
H        5.503982     1.087538     2.722876
H        4.966768     1.602442     1.036300
H        4.064637     0.394139     1.996292
H        5.304976     3.491980     3.886421
H        3.166712     4.952073     4.563460
H        0.603491     5.025821     2.815116
H        0.019898     3.338507     2.925686
H        0.450692     4.198891     4.412447
C        1.600817    -1.789322    -4.701354
N        2.455249    -2.539600    -3.842660
C        3.421729    -3.475858    -4.311647
C        4.064958    -4.007509    -3.119444
N        3.435915    -3.349887    -2.020475
C        3.785564    -3.595045    -0.649620
C        2.440530    -2.440512    -2.440268
Se       1.454923    -1.454923    -1.454923
H        1.371394    -2.368717    -5.626691
H        2.049026    -0.816856    -4.991122
H        0.647715    -1.549256    -4.149199
H        3.604449    -3.706637    -5.284938
H        4.805933    -4.701791    -3.091767
H        3.125548    -3.002362     0.000510
H        4.842401    -3.423175    -0.420848
H        3.589189    -4.674697    -0.416310
C       -4.704306     1.695091    -1.692096
N       -3.843981     2.497434    -2.496094
C       -4.312495     3.448787    -3.447952
C       -3.118545     4.036208    -4.037159
N       -2.019129     3.392877    -3.394273
C       -0.646638     3.690209    -3.693382
C       -2.440268     2.440522    -2.440520
Se      -1.454923     1.454923    -1.454923
H       -5.654606     1.477664    -2.234532
H       -4.948335     2.182644    -0.726026
H       -4.174782     0.732628    -1.438759
H       -5.286539     3.655545    -3.653940
H       -3.090137     4.753811    -4.755543
H        0.001326     3.028405    -3.100321
H       -0.379471     4.743964    -3.562990
H       -0.454593     3.452706    -4.772898
C       -2.127654    -1.284743     4.636203
N       -2.717986    -2.342213     3.836086
C       -3.593300    -3.347937     4.323188
C       -3.915161    -4.165524     3.169895
N       -3.214035    -3.590903     2.092503
C       -3.269064    -4.114530     0.753303
C       -2.460212    -2.460097     2.460566
Se      -1.454923    -1.454923     1.454923
H       -1.992783    -1.646307     5.675306
H       -2.688676    -0.337814     4.579020
H       -1.093285    -1.085245     4.276537
H       -3.924205    -3.463062     5.296109
H       -4.526476    -4.980378     3.175391
H       -4.244847    -3.931592     0.267989
H       -2.479655    -3.679872     0.124564
H       -3.080043    -5.218633     0.763355
65
ex_0451 frame10 SP-4-1
Hg       0.000000     0.000000     0.000000
C        4.646861    -2.321946    -0.828915
N        5.140150    -1.029979    -0.367740
C        6.479910    -0.664498    -0.237288
C        6.473804     0.681140     0.243125
N        5.145158     1.027706     0.366892
C        4.697840     2.328666     0.831396
C        4.300633    -0.000075    -0.000026
Se       2.520000     0.000000     0.000000
H        5.377669    -3.108741    -0.554091
H        4.391043    -2.327170    -1.900932
H        3.726835    -2.589165    -0.262149
H        7.322751    -1.269907    -0.453447
H        7.322098     1.250555     0.446385
H        4.875393     3.125849     0.087003
H        3.628122     2.317516     1.082366
H        5.231965     2.602139     1.777332
C       -2.482201     4.550593     0.080761
N       -1.129326     5.084143     0.036747
C       -0.774861     6.423493     0.025317
C        0.638513     6.461967    -0.020614
N        1.056497     5.144776    -0.034280
C        2.432223     4.744964    -0.078994
C        0.001240     4.264443    -0.000043
Se       0.000000     2.520000     0.000000
H       -2.606428     3.771113    -0.719411
H       -3.195361     5.367993    -0.218695
H       -2.776595     4.184573     1.063090
H       -1.451740     7.230791     0.047424
H        1.247915     7.330207    -0.040440
H        2.709155     4.031907     0.726387
H        3.106652     5.625097    -0.001240
H        2.713146     4.295976    -1.075635
C       -4.646861     2.464322     0.075161
N       -5.140150     1.093151     0.033297
C       -6.479910     0.705268     0.021447
C       -6.473804    -0.722893    -0.022082
N       -5.145158    -1.090726    -0.033258
C       -4.697840    -2.471484    -0.075302
C       -4.300633     0.000079     0.000004
Se      -2.520000     0.000000     0.000000
H       -5.377669     3.096660     0.618044
H       -4.391043     2.860220    -0.921088
H       -3.726835     2.506394     0.700348
H       -7.322751     1.347811     0.041013
H       -7.322098    -1.327216    -0.040529
H       -4.875393    -2.942213    -1.059190
H       -3.628122    -2.552648     0.162444
H       -5.231965    -3.071159     0.705706
C        1.696738    -4.646861     1.788746
N        0.752625    -5.140150     0.793501
C        0.485544    -6.479910     0.511966
C       -0.497752    -6.473804    -0.524694
N       -0.750981    -5.145158    -0.791717
C       -1.701612    -4.697840    -1.793996
C        0.000055    -4.300633     0.000057
Se       0.000000    -2.520000     0.000000
H        2.522805    -5.377669     1.899141
H        1.216949    -4.391043     2.747417
H        2.191240    -3.726835     1.403912
H        0.927926    -7.322751     0.978382
H       -0.913854    -7.322098    -0.963337
H       -2.749147    -4.875393    -1.490199
H       -1.578250    -3.628122    -2.012840
H       -1.518094    -5.231965    -2.761417
