83
ex_0592 frame0 Isomer 1
C       -3.009604     0.718296    -3.187550
N       -1.783403     0.132576    -2.624443
C       -0.636859     0.228989    -3.527256
C        0.574442     0.617260    -2.684149
C        0.089589     0.747562    -1.189494
C        0.476602     1.970776    -0.689944
O        1.425768     2.622617    -1.094386
O       -0.319951     2.348449     0.291215
Ni       0.651853     1.379695     1.661180
N        1.843011     0.252892     2.792545
C        1.844748     1.102902     3.862855
O        2.800581     1.298666     4.615915
C        0.532966     1.834014     4.087168
C        0.609355     3.330259     3.797344
C       -0.640811     3.655192     2.963490
C       -1.484755     2.432225     3.086330
N       -0.552318     1.398691     3.245667
C       -1.231370     0.102177     3.392156
C       -0.504664    -1.164908     3.770603
C       -0.268818    -2.204193     2.854916
C        0.320718    -3.397351     3.272852
C        0.719275    -3.553590     4.589440
C        0.532662    -2.508588     5.489967
C       -0.047698    -1.314294     5.079022
C        2.566113    -0.825624     2.356605
C        3.452313    -1.311028     3.231559
C        4.093620    -2.491064     2.994248
C        3.933573    -3.134596     1.795290
C        3.118610    -2.590992     0.851861
C        2.407339    -1.408032     1.093923
C        1.574366    -0.939255    -0.025151
C        1.681458    -1.694610    -1.254867
C        0.590072    -2.379414    -1.767483
C        0.781017    -3.158532    -2.890050
C        2.038535    -3.217624    -3.487445
C        3.117573    -2.492026    -2.987638
C        2.928741    -1.692383    -1.883444
N        0.711253     0.178569     0.065898
C       -1.460790     0.772973    -1.360036
C       -2.341930     0.118862    -0.332619
O       -2.259754    -1.048772     0.027455
N       -3.252391     0.994906     0.153138
C       -3.051754     2.260323    -0.436695
C       -3.754000     3.438728    -0.233042
C       -3.352522     4.604300    -0.901515
C       -2.253171     4.585454    -1.752067
C       -1.587215     3.401740    -1.985150
C       -2.018440     2.238367    -1.299049
H       -3.782683     0.840990    -2.378333
H       -3.403884     0.049773    -3.908129
H       -2.787257     1.716016    -3.652337
H       -0.480793    -0.736734    -4.045300
H       -0.815671     0.977251    -4.329792
H        0.763329     1.638001    -3.068282
H        1.475698     0.079306    -2.952153
H        0.168881     1.620319     5.051071
H        0.531470     3.816268     4.772142
H        1.542563     3.661892     3.293259
H       -0.377363     3.873908     1.910700
H       -1.220805     4.487071     3.362032
H       -2.225943     2.254683     2.279537
H       -1.942891     2.411515     4.060817
H       -1.873155     0.299673     4.231512
H       -1.885992    -0.067202     2.511245
H       -0.572858    -2.130437     1.833575
H        0.464306    -4.207704     2.580637
H        1.169336    -4.487492     4.893413
H        0.829427    -2.621746     6.511960
H       -0.201034    -0.540872     5.808002
H        3.514216    -0.826670     4.159279
H        4.702686    -2.907516     3.755855
H        4.436768    -4.057869     1.601148
H        3.017515    -3.171413    -0.039298
H       -0.378911    -2.346953    -1.294059
H       -0.033425    -3.727410    -3.300390
H        2.169474    -3.828270    -4.344238
H        4.090614    -2.557416    -3.449076
H        3.749172    -1.137483    -1.433852
H       -4.014634     0.778667     0.802017
H       -4.594075     3.481896     0.412394
H       -3.887086     5.528333    -0.761576
H       -1.940322     5.481709    -2.242579
H       -0.708205     3.419724    -2.618397
83
ex_0592 frame1 Isomer 1
C       -3.009604     0.718296    -3.187550
N       -1.783403     0.132576    -2.624443
C       -0.636859     0.228989    -3.527256
C        0.574442     0.617260    -2.684149
C        0.089589     0.747562    -1.189494
C        0.476602     1.970776    -0.689944
O        1.425768     2.622617    -1.094386
O       -0.319951     2.348449     0.291215
Ni       0.651853     1.379695     1.661180
N        1.843011     0.252892     2.792545
C        1.844748     1.102902     3.862855
O        2.800581     1.298666     4.615915
C        0.532966     1.834014     4.087168
C        0.609355     3.330259     3.797344
C       -0.640811     3.655192     2.963490
C       -1.484755     2.432225     3.086330
N       -0.552318     1.398691     3.245667
C       -1.231370     0.102177     3.392156
C       -0.504664    -1.164908     3.770603
C       -0.268818    -2.204193     2.854916
C        0.320718    -3.397351     3.272852
C        0.719275    -3.553590     4.589440
C        0.532662    -2.508588     5.489967
C       -0.047698    -1.314294     5.079022
C        2.564208    -0.827302     2.357612
C        3.452313    -1.311028     3.231559
C        4.093620    -2.491064     2.994248
C        3.933573    -3.134596     1.795290
C        3.118610    -2.590992     0.851861
C        2.404538    -1.409984     1.095178
C        1.573369    -0.940056    -0.024747
C        1.681508    -1.694763    -1.254769
C        0.590072    -2.379414    -1.767483
C        0.781017    -3.158532    -2.890050
C        2.038535    -3.217624    -3.487445
C        3.117573    -2.492026    -2.987638
C        2.928741    -1.692383    -1.883444
N        0.711253     0.178569     0.065898
C       -1.460790     0.772973    -1.360036
C       -2.341930     0.118862    -0.332619
O       -2.259754    -1.048772     0.027455
N       -3.252391     0.994906     0.153138
C       -3.050977     2.260628    -0.435773
C       -3.754000     3.438728    -0.233042
C       -3.352522     4.604300    -0.901515
C       -2.253171     4.585454    -1.752067
C       -1.587215     3.401740    -1.985150
C       -2.018189     2.238450    -1.298751
H       -3.782683     0.840990    -2.378333
H       -3.403884     0.049773    -3.908129
H       -2.787257     1.716016    -3.652337
H       -0.480793    -0.736734    -4.045300
H       -0.815671     0.977251    -4.329792
H        0.763329     1.638001    -3.068282
H        1.475698     0.079306    -2.952153
H        0.168881     1.620319     5.051071
H        0.531470     3.816268     4.772142
H        1.542563     3.661892     3.293259
H       -0.377363     3.873908     1.910700
H       -1.220805     4.487071     3.362032
H       -2.225943     2.254683     2.279537
H       -1.942891     2.411515     4.060817
H       -1.873155     0.299673     4.231512
H       -1.885992    -0.067202     2.511245
H       -0.572858    -2.130437     1.833575
H        0.464306    -4.207704     2.580637
H        1.169336    -4.487492     4.893413
H        0.829427    -2.621746     6.511960
H       -0.201034    -0.540872     5.808002
H        3.514216    -0.826670     4.159279
H        4.702686    -2.907516     3.755855
H        4.436768    -4.057869     1.601148
H        3.017515    -3.171413    -0.039298
H       -0.378911    -2.346953    -1.294059
H       -0.033425    -3.727410    -3.300390
H        2.169474    -3.828270    -4.344238
H        4.090614    -2.557416    -3.449076
H        3.749172    -1.137483    -1.433852
H       -4.014634     0.778667     0.802017
H       -4.594075     3.481896     0.412394
H       -3.887086     5.528333    -0.761576
H       -1.940322     5.481709    -2.242579
H       -0.708205     3.419724    -2.618397
83
ex_0592 frame2 Isomer 1_mirror
C       -3.009604     0.718296     3.187550
N       -1.783403     0.132576     2.624443
C       -0.636859     0.228989     3.527256
C        0.574442     0.617260     2.684149
C        0.089589     0.747562     1.189494
C        0.476602     1.970776     0.689944
O        1.425768     2.622617     1.094386
O       -0.319951     2.348449    -0.291215
Ni       0.651853     1.379695    -1.661180
N        1.843011     0.252892    -2.792545
C        1.844748     1.102902    -3.862855
O        2.800581     1.298666    -4.615915
C        0.532966     1.834014    -4.087168
C        0.609355     3.330259    -3.797344
C       -0.640811     3.655192    -2.963490
C       -1.484755     2.432225    -3.086330
N       -0.552318     1.398691    -3.245667
C       -1.231370     0.102177    -3.392156
C       -0.504664    -1.164908    -3.770603
C       -0.268818    -2.204193    -2.854916
C        0.320718    -3.397351    -3.272852
C        0.719275    -3.553590    -4.589440
C        0.532662    -2.508588    -5.489967
C       -0.047698    -1.314294    -5.079022
C        2.564208    -0.827302    -2.357612
C        3.452313    -1.311028    -3.231559
C        4.093620    -2.491064    -2.994248
C        3.933573    -3.134596    -1.795290
C        3.118610    -2.590992    -0.851861
C        2.404538    -1.409984    -1.095178
C        1.573369    -0.940056     0.024747
C        1.681508    -1.694763     1.254769
C        0.590072    -2.379414     1.767483
C        0.781017    -3.158532     2.890050
C        2.038535    -3.217624     3.487445
C        3.117573    -2.492026     2.987638
C        2.928741    -1.692383     1.883444
N        0.711253     0.178569    -0.065898
C       -1.460790     0.772973     1.360036
C       -2.341930     0.118862     0.332619
O       -2.259754    -1.048772    -0.027455
N       -3.252391     0.994906    -0.153138
C       -3.050977     2.260628     0.435773
C       -3.754000     3.438728     0.233042
C       -3.352522     4.604300     0.901515
C       -2.253171     4.585454     1.752067
C       -1.587215     3.401740     1.985150
C       -2.018189     2.238450     1.298751
H       -3.782683     0.840990     2.378333
H       -3.403884     0.049773     3.908129
H       -2.787257     1.716016     3.652337
H       -0.480793    -0.736734     4.045300
H       -0.815671     0.977251     4.329792
H        0.763329     1.638001     3.068282
H        1.475698     0.079306     2.952153
H        0.168881     1.620319    -5.051071
H        0.531470     3.816268    -4.772142
H        1.542563     3.661892    -3.293259
H       -0.377363     3.873908    -1.910700
H       -1.220805     4.487071    -3.362032
H       -2.225943     2.254683    -2.279537
H       -1.942891     2.411515    -4.060817
H       -1.873155     0.299673    -4.231512
H       -1.885992    -0.067202    -2.511245
H       -0.572858    -2.130437    -1.833575
H        0.464306    -4.207704    -2.580637
H        1.169336    -4.487492    -4.893413
H        0.829427    -2.621746    -6.511960
H       -0.201034    -0.540872    -5.808002
H        3.514216    -0.826670    -4.159279
H        4.702686    -2.907516    -3.755855
H        4.436768    -4.057869    -1.601148
H        3.017515    -3.171413     0.039298
H       -0.378911    -2.346953     1.294059
H       -0.033425    -3.727410     3.300390
H        2.169474    -3.828270     4.344238
H        4.090614    -2.557416     3.449076
H        3.749172    -1.137483     1.433852
H       -4.014634     0.778667    -0.802017
H       -4.594075     3.481896    -0.412394
H       -3.887086     5.528333     0.761576
H       -1.940322     5.481709     2.242579
H       -0.708205     3.419724     2.618397
