75
ex_0152 frame0 
Br       1.055581     4.944147     4.667103
Co       0.817781     2.650844     3.698961
Br      -0.998039     1.622708     4.971591
Br       2.936893     1.536348     4.186076
N        0.451959     3.022695     1.791201
C        0.288150     1.954608     1.090822
C        0.130042     0.845754     0.429415
As      -1.690408     0.230946     0.282925
C       -1.910907    -1.205083    -0.960616
C       -1.891094    -2.529923    -0.559557
C       -2.060876    -3.562136    -1.471743
C       -2.248883    -3.268510    -2.802767
C       -2.258844    -1.945172    -3.166814
C       -2.094708    -0.897623    -2.296589
C       -2.834644     1.697904    -0.344266
C       -2.285923     2.932053    -0.635830
C       -3.058383     3.988889    -1.079682
C       -4.431634     3.802421    -1.237236
C       -4.995197     2.558593    -0.944980
C       -4.190714     1.505712    -0.497344
C       -2.368173    -0.300596     2.047291
C       -3.496069     0.277171     2.589917
C       -3.994905    -0.085614     3.830794
C       -3.333385    -1.073202     4.568516
C       -2.196483    -1.656428     4.028847
C       -1.726208    -1.272038     2.790239
As       1.687017     0.026374    -0.272060
C        2.524422    -1.215689     0.934261
C        2.159134    -1.393337     2.244497
C        2.780063    -2.290967     3.079096
C        3.827727    -3.056727     2.576376
C        4.224359    -2.904621     1.257908
C        3.565320    -1.985681     0.458299
C        2.989620     1.440535    -0.697445
C        4.329709     1.277486    -0.430214
C        5.210654     2.292006    -0.743353
C        4.703337     3.453652    -1.323769
C        3.353293     3.590217    -1.580856
C        2.470652     2.586625    -1.272731
C        1.363052    -0.895715    -1.939230
C        1.319143    -2.273887    -1.971668
C        1.096245    -2.873049    -3.177672
C        0.915222    -2.132692    -4.330232
C        0.953911    -0.764954    -4.298264
C        1.177420    -0.137004    -3.093275
H       -1.748154    -2.807234     0.463696
H       -2.051895    -4.604920    -1.178396
H       -2.388599    -4.001530    -3.577805
H       -2.406282    -1.686654    -4.217415
H       -2.110555     0.127990    -2.634691
H       -1.242286     3.096143    -0.523044
H       -2.600162     4.953159    -1.303026
H       -5.028613     4.635760    -1.585381
H       -6.075509     2.419597    -1.071332
H       -4.640738     0.546103    -0.274247
H       -4.008894     1.049294     2.007614
H       -4.881749     0.391090     4.216733
H       -3.717106    -1.365761     5.544841
H       -1.686020    -2.423938     4.607169
H       -0.842021    -1.758867     2.424479
H        1.349597    -0.799282     2.626814
H        2.516679    -2.452581     4.109315
H        4.356266    -3.775219     3.170582
H        5.051261    -3.508847     0.860864
H        3.918075    -1.905198    -0.574220
H        4.691981     0.363737     0.020890
H        6.261431     2.246064    -0.569570
H        5.359877     4.284775    -1.589939
H        2.958330     4.498557    -2.034490
H        1.416499     2.719873    -1.485088
H        1.464580    -2.837793    -1.049373
H        1.066366    -3.954804    -3.198225
H        0.744852    -2.694765    -5.238016
H        0.805441    -0.234731    -5.231538
H        1.204500     0.944856    -3.087820
75
ex_0152 frame1 Isomer 2
Br       1.374094     1.374094     1.374094
Co       0.000000     0.000000     0.000000
Br      -1.374094    -1.374094     1.374094
Br      -1.374094     1.374094    -1.374094
N        1.154701    -1.154701    -1.154701
C        1.820174    -1.908906    -1.839148
C        2.578203    -2.682453    -2.588386
As       2.104703    -2.759939    -4.403513
C        1.628736    -1.078352    -5.245244
C        1.999619    -0.821388    -6.578920
C        1.664658     0.355128    -7.208050
C        0.952548     1.350688    -6.562045
C        0.597342     1.104886    -5.260969
C        0.931408    -0.077999    -4.620882
C        3.670585    -3.391132    -5.407270
C        3.866333    -4.729502    -5.577383
C        4.966342    -5.199041    -6.302399
C        5.853272    -4.283484    -6.834817
C        5.688850    -2.906597    -6.673500
C        4.578946    -2.509506    -5.945324
C        0.618770    -3.966807    -4.789348
C        0.556641    -5.256271    -4.330262
C       -0.512215    -6.084522    -4.615276
C       -1.574660    -5.656890    -5.381790
C       -1.530336    -4.353929    -5.860077
C       -0.468225    -3.550324    -5.569953
As       3.991522    -3.540545    -1.606573
C        5.488774    -2.263501    -1.667184
C        5.359793    -1.012116    -2.176324
C        6.361575    -0.074414    -2.248257
C        7.600301    -0.444194    -1.758350
C        7.758850    -1.701626    -1.238755
C        6.744950    -2.644720    -1.169200
C        4.622361    -5.172307    -2.386314
C        3.799981    -6.306697    -2.403301
C        4.283847    -7.469337    -2.956735
C        5.540113    -7.569914    -3.503639
C        6.348520    -6.462229    -3.497357
C        5.867089    -5.297978    -2.944470
C        3.487503    -3.832169     0.267641
C        4.392849    -3.714499     1.292492
C        4.009788    -3.928441     2.613853
C        2.683554    -4.257587     2.802684
C        1.762255    -4.380492     1.799139
C        2.148976    -4.165095     0.471043
H        2.546279    -1.546378    -7.164099
H        1.952810     0.549816    -8.251896
H        0.690797     2.273737    -7.058199
H        0.031890     1.899166    -4.756915
H        0.604810    -0.174512    -3.601636
H        3.173807    -5.436199    -5.154466
H        5.099278    -6.278090    -6.430132
H        6.682601    -4.672540    -7.385773
H        6.395406    -2.209109    -7.098842
H        4.469686    -1.420235    -5.821851
H        1.336684    -5.664546    -3.721232
H       -0.550655    -7.093728    -4.246775
H       -2.381589    -6.327810    -5.579074
H       -2.364779    -3.989322    -6.473962
H       -0.483932    -2.539207    -5.968151
H        4.389150    -0.711558    -2.564296
H        6.218701     0.926834    -2.669279
H        8.435115     0.265317    -1.790285
H        8.737728    -1.995514    -0.849689
H        6.925920    -3.607247    -0.756046
H        2.812019    -6.215646    -1.961433
H        3.649915    -8.351204    -2.964484
H        5.911010    -8.484725    -3.937383
H        7.343307    -6.538951    -3.927309
H        6.560966    -4.447488    -2.970698
H        5.421142    -3.450566     1.088898
H        4.725958    -3.833985     3.414357
H        2.340311    -4.432484     3.814699
H        0.714939    -4.640284     1.961146
H        1.443812    -4.253779    -0.342292
75
ex_0152 frame2 conf2
Br       1.374094     1.374094     1.374094
Co       0.000000     0.000000     0.000000
Br      -1.374094    -1.374094     1.374094
Br      -1.374094     1.374094    -1.374094
N        1.154701    -1.154701    -1.154701
C        1.888908    -1.882995    -1.898494
C        2.670284    -2.626786    -2.613994
As       3.919400    -1.748593    -3.757890
C        4.587837    -0.057956    -3.063709
C        3.708522     0.878271    -2.566822
C        4.158299     2.105639    -2.069214
C        5.499998     2.417719    -2.055393
C        6.388131     1.484714    -2.546771
C        5.923003     0.264206    -3.040145
C        2.993923    -1.214965    -5.408394
C        3.753063    -0.976022    -6.533648
C        3.176706    -0.592931    -7.728486
C        1.811423    -0.448068    -7.800110
C        1.042436    -0.689703    -6.671109
C        1.651184    -1.072220    -5.489489
C        5.398034    -2.898751    -4.267787
C        6.512044    -3.082123    -3.475281
C        7.571050    -3.895262    -3.836557
C        7.519201    -4.568662    -5.055469
C        6.396152    -4.387581    -5.853091
C        5.348737    -3.569263    -5.471709
As       2.447961    -4.530302    -2.410324
C        1.582599    -5.363528    -3.935297
C        0.808189    -4.681131    -4.839030
C        0.189807    -5.270774    -5.922424
C        0.376620    -6.629390    -6.087620
C        1.156741    -7.321041    -5.180718
C        1.769887    -6.715649    -4.099914
C        1.254031    -4.941366    -0.900545
C        1.573308    -5.846026     0.056236
C        0.693134    -6.105136     1.091256
C       -0.536658    -5.453549     1.194474
C       -0.844443    -4.519337     0.199092
C        0.049586    -4.272393    -0.830613
C        4.147138    -5.427971    -2.166261
C        4.785724    -6.120349    -3.174530
C        5.992112    -6.749285    -2.947220
C        6.625150    -6.722967    -1.724001
C        5.996253    -6.029699    -0.710626
C        4.775966    -5.390764    -0.931331
H        2.639288     0.738240    -2.534060
H        3.462163     2.845508    -1.680428
H        5.826567     3.376159    -1.664424
H        7.434221     1.724962    -2.537317
H        6.655639    -0.406783    -3.409136
H        4.814822    -1.093648    -6.439825
H        3.794879    -0.410328    -8.593909
H        1.315312    -0.150639    -8.711699
H       -0.024854    -0.588304    -6.683892
H        1.041928    -1.255633    -4.621198
H        6.591362    -2.588985    -2.522615
H        8.445865    -4.034199    -3.211243
H        8.322808    -5.217673    -5.385350
H        6.311450    -4.895336    -6.816734
H        4.465218    -3.420434    -6.077465
H        0.678909    -3.623564    -4.674822
H       -0.400369    -4.667971    -6.582870
H       -0.099263    -7.131104    -6.936879
H        1.272958    -8.382443    -5.352553
H        2.373514    -7.274616    -3.398553
H        2.498124    -6.368031     0.019645
H        0.942462    -6.830175     1.855897
H       -1.220058    -5.664048     2.010100
H       -1.805736    -3.993169     0.257741
H       -0.267834    -3.532946    -1.560218
H        4.347106    -6.174563    -4.147150
H        6.453965    -7.283322    -3.768677
H        7.570231    -7.207813    -1.521452
H        6.468475    -5.984679     0.279845
H        4.367602    -4.874658    -0.072965
75
ex_0152 frame3 conf3
Br       1.374094     1.374094     1.374094
Co       0.000000     0.000000     0.000000
Br      -1.374094    -1.374094     1.374094
Br      -1.374094     1.374094    -1.374094
N        1.154701    -1.154701    -1.154701
C        1.890475    -1.892459    -1.882698
C        2.599350    -2.687874    -2.620535
As       3.846040    -3.835119    -1.750017
C        5.654878    -3.187349    -1.963647
C        6.678046    -4.100641    -1.840612
C        7.997615    -3.671962    -1.985927
C        8.299892    -2.363874    -2.249362
C        7.284268    -1.434015    -2.376915
C        5.995181    -1.888432    -2.228151
C        3.539633    -3.828715     0.198219
C        3.386650    -2.631660     0.864180
C        3.174633    -2.566828     2.241702
C        3.112185    -3.744300     2.964382
C        3.261805    -4.943490     2.297738
C        3.472359    -4.977830     0.921581
C        3.743816    -5.660168    -2.400091
C        2.724184    -6.514258    -1.962071
C        2.631557    -7.817195    -2.400241
C        3.529528    -8.338310    -3.288005
C        4.539087    -7.516751    -3.736949
C        4.633743    -6.197907    -3.294352
As       2.268609    -2.576771    -4.516571
C        2.875227    -4.137387    -5.448106
C        2.148191    -5.297521    -5.599607
C        2.627212    -6.402484    -6.290119
C        3.892689    -6.369155    -6.861653
C        4.628991    -5.223805    -6.715960
C        4.141037    -4.134877    -6.028374
C        0.438512    -2.091042    -4.932495
C       -0.394668    -2.812390    -5.732850
C       -1.697320    -2.407071    -6.013117
C       -2.172580    -1.237524    -5.456517
C       -1.348356    -0.486164    -4.629026
C       -0.049192    -0.928872    -4.373833
C        3.291003    -1.033351    -5.206895
C        3.625799    -1.012240    -6.547683
C        4.331694     0.027660    -7.117879
C        4.711136     1.075497    -6.297855
C        4.371024     1.040664    -4.949734
C        3.666891     0.000592    -4.386943
H        6.459229    -5.131413    -1.623480
H        8.819895    -4.369054    -1.893222
H        9.308353    -1.996497    -2.368067
H        7.495611    -0.386531    -2.586297
H        5.201076    -1.171078    -2.313355
H        3.427919    -1.676050     0.361348
H        3.058748    -1.614487     2.751335
H        2.950827    -3.755230     4.028776
H        3.209861    -5.870786     2.883493
H        3.587264    -5.943102     0.450971
H        1.964817    -6.187284    -1.262866
H        1.837084    -8.472428    -2.051007
H        3.511189    -9.349297    -3.668572
H        5.283240    -7.898952    -4.453476
H        5.439822    -5.601401    -3.688225
H        1.181532    -5.379137    -5.169678
H        2.043687    -7.306938    -6.403640
H        4.252198    -7.236593    -7.396569
H        5.624643    -5.185919    -7.160027
H        4.738790    -3.256128    -5.919538
H       -0.068951    -3.720718    -6.195066
H       -2.325203    -3.015164    -6.666460
H       -3.190907    -0.881829    -5.650854
H       -1.706177     0.434489    -4.184531
H        0.533484    -0.295809    -3.726806
H        3.286503    -1.858755    -7.132311
H        4.559944    -0.013635    -8.172642
H        5.263365     1.888326    -6.744021
H        4.671442     1.870787    -4.300622
H        3.398687    -0.022396    -3.339895
75
ex_0152 frame4 conf4
Br       1.374094     1.374094     1.374094
Co       0.000000     0.000000     0.000000
Br      -1.374094    -1.374094     1.374094
Br      -1.374094     1.374094    -1.374094
N        1.154701    -1.154701    -1.154701
C        1.895109    -1.864630    -1.906544
C        2.615325    -2.620188    -2.688523
As       2.870456    -2.040390    -4.474659
C        4.504492    -0.954289    -4.523029
C        5.364737    -0.881334    -3.459570
C        6.483481    -0.095211    -3.585968
C        6.739237     0.606265    -4.754639
C        5.886252     0.541902    -5.826521
C        4.761572    -0.250015    -5.695033
C        1.438898    -0.942678    -5.167721
C        0.971732     0.133792    -4.436919
C       -0.054501     0.933226    -4.917707
C       -0.636490     0.668190    -6.149465
C       -0.180021    -0.409148    -6.897289
C        0.843970    -1.198322    -6.404166
C        3.202167    -3.565870    -5.626769
C        4.479831    -3.901824    -6.042775
C        4.746526    -4.973074    -6.865444
C        3.701077    -5.781017    -7.316864
C        2.415656    -5.469844    -6.912384
C        2.176616    -4.372344    -6.074072
As       3.302443    -4.222349    -1.865119
C        4.090535    -3.771487    -0.122284
C        4.599650    -4.765963     0.686579
C        5.165930    -4.501854     1.928330
C        5.214124    -3.186467     2.354827
C        4.710061    -2.189375     1.554402
C        4.149395    -2.466355     0.321390
C        1.874894    -5.503471    -1.554513
C        1.609377    -6.034930    -0.309137
C        0.585485    -6.952992    -0.094083
C       -0.198848    -7.351409    -1.162567
C        0.066132    -6.819270    -2.407116
C        1.078590    -5.916943    -2.601169
C        4.681949    -5.092747    -2.886693
C        4.447601    -6.322787    -3.497845
C        5.403414    -6.984866    -4.230713
C        6.639761    -6.387367    -4.357380
C        6.929611    -5.161017    -3.773835
C        5.935657    -4.535901    -3.047516
H        5.111275    -1.450398    -2.572387
H        7.163308    -0.041968    -2.738465
H        7.619708     1.229193    -4.867300
H        6.049094     1.079657    -6.765089
H        4.062249    -0.320765    -6.532670
H        1.376796     0.406957    -3.459807
H       -0.431814     1.790304    -4.349187
H       -1.441143     1.298141    -6.519183
H       -0.639749    -0.611002    -7.865185
H        1.225283    -2.057496    -6.974785
H        5.267866    -3.235849    -5.656827
H        5.777182    -5.193203    -7.164428
H        3.947208    -6.606812    -7.955370
H        1.585877    -6.088156    -7.255526
H        1.150152    -4.163178    -5.777794
H        4.582396    -5.812220     0.394702
H        5.560835    -5.328129     2.540739
H        5.658741    -3.001508     3.324639
H        4.762863    -1.154191     1.920662
H        3.763314    -1.662216    -0.280830
H        2.192275    -5.749052     0.530163
H        0.419509    -7.342284     0.903184
H       -0.994155    -8.069239    -0.987748
H       -0.558584    -7.148268    -3.229704
H        1.231955    -5.539159    -3.596242
H        3.457377    -6.780804    -3.385817
H        5.238486    -7.939419    -4.707192
H        7.452689    -6.848778    -4.923059
H        7.905439    -4.708145    -3.883046
H        6.194164    -3.583187    -2.606167
75
ex_0152 frame5 conf5
Br       1.374094     1.374094     1.374094
Co       0.000000     0.000000     0.000000
Br      -1.374094    -1.374094     1.374094
Br      -1.374094     1.374094    -1.374094
N        1.154701    -1.154701    -1.154701
C        1.910158    -1.907893    -1.877456
C        2.639698    -2.686612    -2.636215
As       3.004707    -4.427401    -1.977088
C        1.383274    -5.383589    -1.444280
C        0.647809    -5.964806    -2.467465
C       -0.514788    -6.669178    -2.210060
C       -0.905503    -6.762866    -0.890646
C       -0.170241    -6.179770     0.131647
C        0.989220    -5.477768    -0.129653
C        3.978074    -5.603171    -3.100679
C        5.116716    -5.166717    -3.738392
C        5.872723    -5.966736    -4.568471
C        5.513417    -7.271319    -4.802822
C        4.377063    -7.742677    -4.179930
C        3.625468    -6.938158    -3.351287
C        4.084868    -4.211711    -0.371004
C        4.604021    -5.355908     0.232881
C        5.378130    -5.237064     1.379283
C        5.652634    -4.001285     1.946454
C        5.133890    -2.865165     1.341845
C        4.355674    -2.982696     0.189874
As       3.218127    -1.931027    -4.293349
C        5.100514    -1.377885    -4.272558
C        5.637806    -1.035329    -5.497191
C        6.968972    -0.628302    -5.588642
C        7.713362    -0.579264    -4.449776
C        7.155122    -0.929301    -3.216214
C        5.833165    -1.334571    -3.118499
C        2.349463    -0.220766    -4.645759
C        2.395823     0.769444    -3.680945
C        1.798287     2.007403    -3.877113
C        1.129290     2.287854    -5.059351
C        1.078217     1.295658    -6.031937
C        1.689754     0.057462    -5.806171
C        2.840019    -3.072213    -5.801960
C        3.796182    -3.724121    -6.516582
C        3.415497    -4.512671    -7.574860
C        2.090768    -4.669115    -7.941941
C        1.129523    -4.019846    -7.230855
C        1.515170    -3.229979    -6.170311
H        0.938011    -5.900484    -3.510840
H       -1.091923    -7.126244    -3.002454
H       -1.797038    -7.301160    -0.672908
H       -0.517838    -6.281840     1.145817
H        1.592004    -5.008684     0.629035
H        5.431237    -4.168650    -3.585591
H        6.767323    -5.572003    -5.049527
H        6.082848    -7.920020    -5.445599
H        4.073237    -8.777324    -4.352208
H        2.751250    -7.329148    -2.880957
H        4.416873    -6.348126    -0.174303
H        5.766393    -6.157492     1.822348
H        6.263783    -3.910752     2.851096
H        5.325311    -1.881231     1.753863
H        3.940829    -2.094590    -0.296110
H        5.047928    -1.071069    -6.420401
H        7.340555    -0.371382    -6.568268
H        8.753278    -0.259686    -4.532675
H        7.783525    -0.874988    -2.339840
H        5.379726    -1.610487    -2.171272
H        2.915391     0.544915    -2.768550
H        1.842735     2.775148    -3.113845
H        0.651168     3.244842    -5.246083
H        0.561876     1.503415    -6.952122
H        1.639856    -0.699898    -6.571810
H        4.830565    -3.588051    -6.212603
H        4.169263    -5.040505    -8.156180
H        1.798910    -5.297872    -8.784224
H        0.101546    -4.133357    -7.505670
H        0.712276    -2.723004    -5.621517
75
ex_0152 frame6 conf6
Br       1.374094     1.374094     1.374094
Co       0.000000     0.000000     0.000000
Br      -1.374094    -1.374094     1.374094
Br      -1.374094     1.374094    -1.374094
N        1.154701    -1.154701    -1.154701
C        1.891410    -1.891410    -1.891410
C        2.661006    -2.630685    -2.654679
As       4.277040    -3.412972    -2.052349
C        5.833388    -2.849319    -3.095922
C        6.784900    -3.751170    -3.525476
C        7.874540    -3.290699    -4.267037
C        7.977466    -1.938420    -4.555947
C        7.021928    -1.020650    -4.126641
C        5.940585    -1.501851    -3.386662
C        4.283249    -5.330828    -1.932465
C        5.386553    -5.945480    -1.373810
C        5.450513    -7.310551    -1.260349
C        4.393452    -8.081285    -1.712683
C        3.284482    -7.485562    -2.272871
C        3.235306    -6.109630    -2.379997
C        4.601053    -2.801092    -0.219360
C        5.838347    -2.408783     0.212246
C        6.010637    -1.984711     1.520426
C        4.964156    -1.941783     2.421332
C        3.717107    -2.341178     1.972819
C        3.526499    -2.767444     0.670434
As       2.069753    -2.904823    -4.479592
C        2.141541    -1.256887    -5.518263
C        2.006831    -1.354204    -6.874637
C        2.048670    -0.224961    -7.665969
C        2.230001     0.998767    -7.046030
C        2.365420     1.089594    -5.674958
C        2.324697    -0.032780    -4.879044
C        0.206131    -3.481739    -4.378092
C       -0.646482    -3.289749    -5.454178
C       -1.971465    -3.712473    -5.351057
C       -2.445182    -4.318273    -4.194768
C       -1.599411    -4.510083    -3.123994
C       -0.285393    -4.094696    -3.216821
C        3.156524    -4.146575    -5.443255
C        2.750925    -5.444796    -5.679149
C        3.514695    -6.361558    -6.371337
C        4.738911    -5.977804    -6.854292
C        5.163198    -4.677722    -6.627099
C        4.377417    -3.766692    -5.925829
H        6.684793    -4.801432    -3.288822
H        8.635479    -3.959754    -4.619244
H        8.801691    -1.527649    -5.127348
H        7.089105     0.026358    -4.342703
H        5.204310    -0.767325    -3.060415
H        6.244166    -5.387250    -1.002723
H        6.293959    -7.820403    -0.830808
H        4.439306    -9.165330    -1.624894
H        2.454114    -8.066972    -2.629656
H        2.397899    -5.606998    -2.806123
H        6.685754    -2.430772    -0.474153
H        7.003514    -1.676268     1.845362
H        5.089985    -1.610552     3.449459
H        2.875384    -2.318478     2.657539
H        2.530692    -3.074200     0.353398
H        1.863554    -2.298793    -7.389015
H        1.940091    -0.317666    -8.743036
H        2.257805     1.860660    -7.695177
H        2.507797     2.057124    -5.196472
H        2.429457     0.010820    -3.788937
H       -0.291862    -2.815589    -6.370622
H       -2.652579    -3.572782    -6.176830
H       -3.470163    -4.654653    -4.091915
H       -1.939001    -4.981914    -2.202627
H        0.361634    -4.257429    -2.358255
H        1.781947    -5.735229    -5.292368
H        3.112132    -7.374832    -6.512432
H        5.343899    -6.701514    -7.401721
H        6.126304    -4.383887    -7.009717
H        4.790099    -2.786175    -5.800929
75
ex_0152 frame7 square-planar trans
Br       2.380000     0.000000     0.000000
Co       0.000000     0.000000     0.000000
Br      -2.380000     0.000000     0.000000
Br       0.000000     2.380000     0.000000
N        0.000000    -2.000000     0.000000
C        0.056011    -3.214818    -0.035061
C        0.063454    -4.531647    -0.050796
As       0.832846    -5.350972     1.453077
C        0.377788    -4.591281     3.178934
C        0.194522    -5.427050     4.297049
C       -0.114516    -4.917627     5.536878
C       -0.268831    -3.558732     5.749374
C       -0.098107    -2.744391     4.659836
C        0.213262    -3.250649     3.407925
C        0.172482    -7.198973     1.535115
C        0.841318    -8.182912     0.869522
C        0.396698    -9.507679     0.928168
C       -0.735096    -9.798542     1.664920
C       -1.449494    -8.815530     2.352087
C       -0.955007    -7.525054     2.252281
C        2.784328    -5.412615     1.416828
C        3.504283    -5.856164     0.338743
C        4.885957    -5.881804     0.341113
C        5.615511    -5.464054     1.433101
C        4.905283    -5.013519     2.538101
C        3.542437    -4.995265     2.519301
As      -0.729121    -5.276196    -1.636740
C       -2.644156    -5.438327    -1.209386
C       -3.182120    -4.935324    -0.069471
C       -4.506436    -5.013851     0.288367
C       -5.354576    -5.659675    -0.591837
C       -4.838255    -6.177204    -1.750210
C       -3.500798    -6.096167    -2.106440
C       -0.109950    -7.032693    -2.083893
C        1.206987    -7.222640    -2.523251
C        1.620778    -8.492776    -2.851397
C        0.801493    -9.591905    -2.761325
C       -0.486663    -9.415489    -2.325368
C       -0.903206    -8.146146    -1.996434
C       -0.526026    -4.071492    -3.172709
C       -1.504167    -3.934559    -4.125759
C       -1.334335    -3.074030    -5.207031
C       -0.137248    -2.389339    -5.239825
C        0.852348    -2.507783    -4.302985
C        0.680096    -3.373474    -3.216386
H        0.307166    -6.499091     4.226890
H       -0.252490    -5.574254     6.408861
H       -0.511614    -3.161143     6.723889
H       -0.221124    -1.668334     4.837753
H        0.328257    -2.529347     2.619672
H        1.718813    -7.946922     0.293169
H        0.953619   -10.281165     0.389752
H       -1.048790   -10.820072     1.692784
H       -2.332085    -9.066337     2.921959
H       -1.535688    -6.761795     2.794442
H        3.015279    -6.190617    -0.552935
H        5.439662    -6.229522    -0.512274
H        6.682037    -5.499432     1.394934
H        5.463626    -4.675674     3.421392
H        3.035819    -4.632327     3.409683
H       -2.523111    -4.425392     0.629588
H       -4.903114    -4.596369     1.220315
H       -6.421204    -5.750457    -0.356459
H       -5.507866    -6.687408    -2.448249
H       -3.155291    -6.517830    -3.018979
H        1.841961    -6.344559    -2.596667
H        2.639279    -8.640395    -3.198506
H        1.134450   -10.584631    -3.018642
H       -1.137750   -10.282358    -2.254867
H       -1.943596    -8.070867    -1.653786
H       -2.426368    -4.493408    -4.050051
H       -2.106918    -2.970806    -5.952072
H        0.038422    -1.707857    -6.062809
H        1.795096    -1.959572    -4.339030
H        1.443140    -3.487128    -2.460422
75
ex_0152 frame8 square-planar trans-conf2
Br       2.380000     0.000000     0.000000
Co       0.000000     0.000000     0.000000
Br      -2.380000     0.000000     0.000000
Br       0.000000     2.380000     0.000000
N        0.000000    -2.000000     0.000000
C       -0.000914    -3.273805     0.011024
C       -0.037804    -4.567455    -0.017670
As      -1.237793    -5.442036     1.180306
C       -2.873864    -4.451083     1.538403
C       -2.811555    -3.116001     1.870499
C       -3.969461    -2.379765     2.141707
C       -5.214493    -2.966237     2.080982
C       -5.286960    -4.301367     1.744972
C       -4.121642    -5.022337     1.477312
C       -0.390201    -5.552540     2.950844
C       -0.851384    -6.502542     3.836502
C       -0.310635    -6.638444     5.099714
C        0.715143    -5.807913     5.484564
C        1.184743    -4.851618     4.596112
C        0.621099    -4.741715     3.337802
C       -1.656514    -7.254159     0.623437
C       -2.637430    -7.545649    -0.301518
C       -2.944136    -8.835115    -0.697015
C       -2.232393    -9.897707    -0.143641
C       -1.241753    -9.605275     0.785524
C       -0.952072    -8.307902     1.166423
As       1.140158    -5.420503    -1.282184
C        2.663529    -6.282394    -0.442455
C        3.125585    -5.963076     0.809204
C        4.209435    -6.571981     1.407805
C        4.850932    -7.559611     0.685936
C        4.388655    -7.885739    -0.574770
C        3.300921    -7.266213    -1.160950
C        1.948654    -4.096845    -2.493851
C        1.959038    -4.251087    -3.839911
C        2.549934    -3.294946    -4.645979
C        3.145178    -2.149139    -4.116434
C        3.118783    -2.006756    -2.724565
C        2.522255    -2.974851    -1.932411
C        0.221516    -6.778882    -2.313435
C        0.341807    -8.129440    -2.057873
C       -0.328289    -9.057827    -2.827074
C       -1.147151    -8.701892    -3.876108
C       -1.276907    -7.353467    -4.136828
C       -0.602871    -6.407468    -3.364291
H       -1.890069    -2.560611     1.950182
H       -3.918277    -1.326222     2.407399
H       -6.099624    -2.375699     2.295273
H       -6.255660    -4.761163     1.696807
H       -4.244788    -6.045757     1.231179
H       -1.655717    -7.129291     3.504530
H       -0.692042    -7.389573     5.774083
H        1.169800    -5.876069     6.461410
H        1.982580    -4.184255     4.856184
H        0.995143    -3.994547     2.659132
H       -3.206320    -6.756708    -0.760850
H       -3.717958    -9.059381    -1.422637
H       -2.433823   -10.926834    -0.419587
H       -0.657816   -10.405884     1.245565
H       -0.181566    -8.061609     1.884306
H        2.604643    -5.183044     1.340518
H        4.508960    -6.264523     2.389447
H        5.715290    -8.064844     1.129837
H        4.923996    -8.664847    -1.100136
H        2.956452    -7.532506    -2.150468
H        1.519019    -5.107535    -4.289347
H        2.564014    -3.416031    -5.721926
H        3.606175    -1.405207    -4.757246
H        3.580172    -1.114108    -2.283341
H        2.545909    -2.785906    -0.863018
H        0.959690    -8.469046    -1.255252
H       -0.200317   -10.107073    -2.590428
H       -1.682439    -9.410518    -4.493031
H       -1.920874    -7.028263    -4.964838
H       -0.772625    -5.378148    -3.649951
75
ex_0152 frame9 square-planar trans-conf3
Br       2.380000     0.000000     0.000000
Co       0.000000     0.000000     0.000000
Br      -2.380000     0.000000     0.000000
Br       0.000000     2.380000     0.000000
N        0.000000    -2.000000     0.000000
C        0.003543    -3.271054    -0.006378
C        0.065356    -4.565547     0.001381
As       0.519087    -5.445092    -1.626113
C       -1.040930    -6.238775    -2.446816
C       -0.840041    -7.285756    -3.318358
C       -1.940402    -7.884009    -3.932722
C       -3.216571    -7.455398    -3.688692
C       -3.435951    -6.405816    -2.815395
C       -2.330834    -5.838030    -2.226578
C        1.172089    -4.139676    -2.952395
C        0.467526    -2.975738    -3.173049
C        0.878549    -2.020587    -4.103353
C        2.034937    -2.247107    -4.827275
C        2.742873    -3.410730    -4.604415
C        2.308643    -4.346643    -3.669092
C        1.868663    -6.815087    -1.369963
C        3.218457    -6.466619    -1.237268
C        4.199215    -7.418370    -1.062623
C        3.900849    -8.750231    -1.006383
C        2.579790    -9.117970    -1.130026
C        1.586334    -8.155651    -1.306630
As      -0.319987    -5.405126     1.693512
C        0.360005    -7.194201     1.783436
C        1.645767    -7.531719     2.144463
C        2.092354    -8.844899     2.202147
C        1.229943    -9.886256     1.884312
C       -0.050542    -9.565976     1.519660
C       -0.480177    -8.258585     1.466935
C        0.187971    -4.308216     3.209081
C        1.017986    -4.705735     4.213150
C        1.335945    -3.881450     5.289807
C        0.802008    -2.610467     5.344847
C       -0.040242    -2.174783     4.330243
C       -0.332752    -3.033117     3.268809
C       -2.285286    -5.502870     1.872476
C       -2.822817    -6.458080     2.714426
C       -4.182742    -6.594445     2.906287
C       -5.020447    -5.735106     2.217691
C       -4.467205    -4.780515     1.370932
C       -3.109971    -4.649541     1.183725
H        0.157389    -7.629177    -3.529818
H       -1.809964    -8.707695    -4.622071
H       -4.091187    -7.894062    -4.145498
H       -4.440688    -6.043956    -2.602577
H       -2.490967    -5.014581    -1.556691
H       -0.444756    -2.738154    -2.644816
H        0.309753    -1.109609    -4.266752
H        2.399915    -1.545729    -5.557994
H        3.659261    -3.577929    -5.185759
H        2.898128    -5.241991    -3.537610
H        3.548593    -5.435734    -1.264164
H        5.244754    -7.136349    -0.963650
H        4.622363    -9.543056    -0.871818
H        2.297711   -10.181958    -1.089853
H        0.570105    -8.504051    -1.387970
H        2.347706    -6.772519     2.382848
H        3.105047    -9.095728     2.490181
H        1.591378   -10.903467     1.934065
H       -0.736972   -10.375325     1.267228
H       -1.481302    -8.033515     1.169535
H        1.448854    -5.685072     4.219966
H        2.000297    -4.247231     6.074479
H        1.025784    -1.929375     6.173891
H       -0.467863    -1.180026     4.358757
H       -0.993918    -2.630465     2.520709
H       -2.108550    -7.088458     3.230126
H       -4.540163    -7.359034     3.580069
H       -6.083800    -5.842242     2.367741
H       -5.130889    -4.099924     0.825934
H       -2.681317    -3.903453     0.529219
75
ex_0152 frame10 square-planar trans-conf4
Br       2.380000     0.000000     0.000000
Co       0.000000     0.000000     0.000000
Br      -2.380000     0.000000     0.000000
Br       0.000000     2.380000     0.000000
N        0.000000    -2.000000     0.000000
C       -0.000817    -3.271430    -0.030629
C       -0.044101    -4.574944    -0.037490
As      -0.784427    -5.418724    -1.564413
C        0.679234    -5.763001    -2.825840
C        1.994811    -5.603555    -2.479251
C        2.950179    -5.868569    -3.429300
C        2.598036    -6.285966    -4.704074
C        1.284856    -6.449505    -5.063891
C        0.326710    -6.181470    -4.105017
C       -2.101942    -4.358588    -2.499790
C       -1.828061    -3.045441    -2.834060
C       -2.760649    -2.268975    -3.505466
C       -3.994645    -2.797138    -3.858283
C       -4.287117    -4.114438    -3.530500
C       -3.347021    -4.876565    -2.859750
C       -1.500181    -7.156145    -1.081148
C       -0.809102    -8.327949    -1.341220
C       -1.293295    -9.575380    -1.017245
C       -2.536109    -9.698883    -0.393003
C       -3.244881    -8.543562    -0.118020
C       -2.724682    -7.287911    -0.460286
As       0.668575    -5.421268     1.541393
C        2.401592    -4.609741     1.988514
C        3.084280    -5.010843     3.117892
C        4.311672    -4.468376     3.480672
C        4.856618    -3.490524     2.667466
C        4.183375    -3.085957     1.539627
C        2.963033    -3.634050     1.190709
C       -0.516511    -5.157400     3.058492
C       -0.093747    -4.591923     4.243995
C       -0.948133    -4.406660     5.327113
C       -2.270430    -4.800741     5.218462
C       -2.692995    -5.365038     4.033010
C       -1.838251    -5.540659     2.976842
C        0.978572    -7.310057     1.339846
C        0.195411    -8.237768     2.023537
C        0.383955    -9.594980     1.916534
C        1.394693   -10.036951     1.089083
C        2.204373    -9.159352     0.380062
C        1.974880    -7.805241     0.521379
H        2.208534    -5.273552    -1.469008
H        3.993159    -5.741022    -3.147903
H        3.342977    -6.499702    -5.462586
H        0.963706    -6.774932    -6.057656
H       -0.729142    -6.302173    -4.362511
H       -0.881321    -2.557457    -2.591164
H       -2.554651    -1.228064    -3.777922
H       -4.720983    -2.182326    -4.383102
H       -5.257416    -4.524369    -3.812269
H       -3.551528    -5.922207    -2.587731
H        0.165706    -8.175593    -1.831133
H       -0.704354   -10.470139    -1.246711
H       -2.880129   -10.686401    -0.154958
H       -4.217912    -8.619585     0.367798
H       -3.314063    -6.403464    -0.224612
H        2.695277    -5.773453     3.786656
H        4.821698    -4.819850     4.391751
H        5.812916    -3.080516     2.967162
H        4.641947    -2.307318     0.913550
H        2.461630    -3.294569     0.300926
H        0.913631    -4.278838     4.358391
H       -0.565972    -3.959819     6.237016
H       -2.930407    -4.655079     6.067913
H       -3.731687    -5.669226     3.971790
H       -2.231242    -5.985596     2.080182
H       -0.603888    -7.865819     2.675954
H       -0.211829   -10.325966     2.441993
H        1.608799   -11.099285     0.949987
H        2.993046    -9.524334    -0.263400
H        2.622958    -7.149628    -0.043816
75
ex_0152 frame11 square-planar trans-conf5
Br       2.380000     0.000000     0.000000
Co       0.000000     0.000000     0.000000
Br      -2.380000     0.000000     0.000000
Br       0.000000     2.380000     0.000000
N        0.000000    -2.000000     0.000000
C       -0.025647    -3.288303    -0.003038
C       -0.015705    -4.597166    -0.036574
As      -1.216898    -5.432401    -1.243861
C       -1.051518    -4.740706    -3.066341
C       -0.001000    -5.242387    -3.821561
C        0.212533    -4.829217    -5.124529
C       -0.666768    -3.895965    -5.632621
C       -1.715945    -3.393597    -4.875952
C       -1.925345    -3.808572    -3.576190
C       -1.151904    -7.321913    -1.377507
C       -1.120984    -8.095505    -0.239846
C       -1.073588    -9.473123    -0.262856
C       -1.054446   -10.154181    -1.455228
C       -1.084272    -9.410619    -2.616133
C       -1.131606    -8.033778    -2.586706
C       -3.018297    -5.004232    -0.640199
C       -4.092405    -5.615914    -1.284808
C       -5.389519    -5.332356    -0.878981
C       -5.650156    -4.449907     0.159064
C       -4.577904    -3.843542     0.797823
C       -3.273785    -4.127186     0.391264
As       1.217834    -5.451632     1.146579
C        0.359021    -6.207068     2.740797
C        1.153227    -7.026541     3.517621
C        0.635539    -7.612892     4.672710
C       -0.659029    -7.356829     5.007470
C       -1.451400    -6.524426     4.210548
C       -0.943126    -5.938761     3.061628
C        2.430272    -4.166152     1.971988
C        1.903152    -3.064185     2.621097
C        2.716932    -2.117719     3.229404
C        4.097163    -2.252120     3.201220
C        4.632471    -3.357001     2.548786
C        3.787453    -4.294598     1.944689
C        2.315492    -6.763192     0.254314
C        2.205161    -8.104200     0.452915
C        3.039434    -8.950678    -0.235669
C        3.991004    -8.488102    -1.127110
C        4.106134    -7.147726    -1.330389
C        3.267782    -6.302044    -0.638032
H        0.701568    -5.975191    -3.438963
H        1.028177    -5.217385    -5.719452
H       -0.518856    -3.566309    -6.633348
H       -2.375120    -2.666310    -5.319037
H       -2.724154    -3.447735    -2.951133
H       -1.135285    -7.612640     0.700923
H       -1.051087   -10.039459     0.667893
H       -1.017335   -11.228578    -1.505450
H       -1.070037    -9.932023    -3.575517
H       -1.155228    -7.483242    -3.500320
H       -3.939424    -6.315809    -2.104602
H       -6.203740    -5.832125    -1.409563
H       -6.674774    -4.228189     0.476989
H       -4.739304    -3.148106     1.613204
H       -2.419938    -3.655510     0.886718
H        2.196599    -7.239625     3.257776
H        1.296895    -8.244680     5.244724
H       -1.053805    -7.820578     5.912741
H       -2.472388    -6.349902     4.515502
H       -1.540445    -5.289385     2.428779
H        0.834003    -2.967018     2.638665
H        2.291524    -1.259450     3.735754
H        4.762991    -1.531368     3.666501
H        5.701558    -3.470212     2.521473
H        4.220501    -5.145094     1.443278
H        1.452039    -8.447338     1.157137
H        2.963061   -10.026235    -0.087182
H        4.648807    -9.168903    -1.669110
H        4.838651    -6.778423    -2.017541
H        3.390495    -5.228944    -0.828391
75
ex_0152 frame12 square-planar trans-conf6
Br       2.380000     0.000000     0.000000
Co       0.000000     0.000000     0.000000
Br      -2.380000     0.000000     0.000000
Br       0.000000     2.380000     0.000000
N        0.000000    -2.000000     0.000000
C       -0.000000    -3.276019     0.000000
C        0.021918    -4.587839    -0.005598
As       0.500419    -5.624754     1.505091
C        2.028568    -6.800394     1.171029
C        2.033394    -8.118438     1.578420
C        3.152384    -8.909829     1.312293
C        4.234005    -8.355317     0.644960
C        4.238187    -7.025902     0.229873
C        3.109645    -6.252183     0.505875
C       -0.913285    -6.666399     2.285476
C       -0.654812    -7.335722     3.465465
C       -1.622575    -8.095267     4.071195
C       -2.875274    -8.191111     3.490183
C       -3.151398    -7.530330     2.313053
C       -2.166056    -6.769393     1.715426
C        1.057777    -4.400278     2.929604
C        2.155015    -4.638942     3.710755
C        2.503732    -3.738298     4.704783
C        1.774445    -2.589190     4.942030
C        0.666440    -2.358745     4.145141
C        0.303397    -3.246735     3.148188
As      -0.467845    -5.458366    -1.666126
C        0.855761    -5.148054    -3.063071
C        0.775662    -5.909568    -4.194905
C        1.682531    -5.738630    -5.220340
C        2.667309    -4.778881    -5.066038
C        2.742220    -4.013037    -3.919610
C        1.840878    -4.178007    -2.892366
C       -2.155877    -4.656886    -2.235688
C       -2.524636    -4.675062    -3.571898
C       -3.735891    -4.094606    -3.947184
C       -4.571348    -3.503280    -3.008701
C       -4.206751    -3.484116    -1.680025
C       -3.008916    -4.056535    -1.298797
C       -0.589314    -7.359111    -1.510943
C       -1.803538    -8.010660    -1.429231
C       -1.920414    -9.380551    -1.316709
C       -0.782747   -10.144625    -1.283204
C        0.445985    -9.507815    -1.364070
C        0.543239    -8.123283    -1.477285
H        1.178987    -8.530377     2.097429
H        3.195142    -9.938783     1.612522
H        5.127008    -8.923923     0.412988
H        5.066729    -6.584940    -0.286354
H        3.133261    -5.214656     0.172636
H        0.311936    -7.294324     3.963971
H       -1.454526    -8.628598     4.989440
H       -3.646996    -8.792773     3.967059
H       -4.117681    -7.592584     1.846935
H       -2.335548    -6.241745     0.805298
H        2.752344    -5.537181     3.549227
H        3.380836    -3.945855     5.316449
H        2.040534    -1.877011     5.719584
H        0.073572    -1.464347     4.307663
H       -0.574923    -3.031952     2.541010
H        0.015463    -6.669182    -4.344721
H        1.606493    -6.351311    -6.114375
H        3.359431    -4.672105    -5.887372
H        3.520865    -3.260381    -3.807565
H        1.877429    -3.583944    -1.972062
H       -1.880932    -5.135155    -4.323173
H       -4.042595    -4.097474    -4.982199
H       -5.516644    -3.046333    -3.276900
H       -4.838898    -3.028513    -0.918658
H       -2.744152    -4.028356    -0.244583
H       -2.694494    -7.395594    -1.456791
H       -2.928764    -9.814606    -1.257432
H       -0.873566   -11.227808    -1.194249
H        1.335228   -10.115123    -1.337026
H        1.535309    -7.723332    -1.533482
75
ex_0152 frame13 see-saw Br-Br-ax
Br       0.000000     0.000000     2.380000
Co       0.000000     0.000000     0.000000
Br       0.000000     0.000000    -2.380000
Br       2.333782     0.000000     0.466756
N       -1.961161     0.000000     0.392232
C       -3.139528    -0.008139     0.694781
C       -4.428158    -0.019262     0.966162
As      -5.219290     1.668837     1.188259
C       -4.698135     3.041280    -0.079648
C       -5.642824     3.977521    -0.541486
C       -5.300880     4.971006    -1.429323
C       -4.013401     5.098497    -1.920960
C       -3.094320     4.182868    -1.477897
C       -3.431746     3.179414    -0.583608
C       -7.155600     1.464440     0.929709
C       -7.946418     1.143403     1.992738
C       -9.329361     1.008875     1.833035
C       -9.876787     1.198987     0.579025
C       -9.096763     1.520347    -0.533255
C       -7.735172     1.638614    -0.305462
C       -4.929791     2.459776     2.950076
C       -5.147476     1.786381     4.123316
C       -4.927173     2.371791     5.355570
C       -4.478236     3.669686     5.470141
C       -4.254199     4.371585     4.293036
C       -4.477037     3.779230     3.085770
As      -5.167860    -1.791546     1.064130
C       -5.702687    -2.212551    -0.783299
C       -5.399466    -1.406280    -1.832016
C       -5.741537    -1.640937    -3.141959
C       -6.452735    -2.796903    -3.404882
C       -6.772519    -3.629043    -2.364915
C       -6.425784    -3.387381    -1.044448
C       -6.743148    -1.935527     2.144101
C       -6.658900    -1.777885     3.533881
C       -7.803638    -1.900682     4.286638
C       -9.034537    -2.164881     3.736627
C       -9.126654    -2.313457     2.376492
C       -7.983248    -2.191108     1.621118
C       -3.823283    -3.098213     1.644208
C       -3.784006    -4.375096     1.142367
C       -2.820476    -5.283608     1.572156
C       -1.933543    -4.807998     2.515573
C       -1.951310    -3.540976     3.030682
C       -2.920773    -2.628655     2.597548
H       -6.668212     3.961471    -0.202067
H       -6.041475     5.703241    -1.784148
H       -3.747374     5.879436    -2.618143
H       -2.075759     4.292224    -1.871930
H       -2.638749     2.513383    -0.296554
H       -7.511289     0.991348     2.965062
H       -9.944239     0.755883     2.702664
H      -10.936556     1.091823     0.488978
H       -9.546790     1.664376    -1.504521
H       -7.134856     1.884969    -1.195756
H       -5.488550     0.771620     4.123323
H       -5.099047     1.831911     6.269220
H       -4.320154     4.085310     6.440941
H       -3.896776     5.408014     4.357474
H       -4.284930     4.372523     2.195678
H       -4.840149    -0.494368    -1.635582
H       -5.479840    -0.963552    -3.962225
H       -6.750871    -3.033793    -4.432665
H       -7.334074    -4.544506    -2.571141
H       -6.702285    -4.068773    -0.276883
H       -5.678904    -1.576391     3.956510
H       -7.738580    -1.785396     5.364644
H       -9.927487    -2.257593     4.333805
H      -10.098280    -2.524396     1.938547
H       -8.122765    -2.319678     0.539688
H       -4.502223    -4.695763     0.400859
H       -2.794930    -6.285150     1.173548
H       -1.165929    -5.479900     2.878751
H       -1.243154    -3.175679     3.776123
H       -2.959146    -1.621238     2.985201
75
ex_0152 frame14 see-saw Br-Br-ax-conf2
Br       0.000000     0.000000     2.380000
Co       0.000000     0.000000     0.000000
Br       0.000000     0.000000    -2.380000
Br       2.333782     0.000000     0.466756
N       -1.961161     0.000000     0.392232
C       -3.208649    -0.007578     0.649948
C       -4.475569     0.038432     0.911695
As      -5.001065    -0.048384     2.743724
C       -3.743967     0.780677     3.976327
C       -2.400295     0.492240     3.887075
C       -1.474044     1.065794     4.764252
C       -1.875692     1.944274     5.746439
C       -3.218445     2.242416     5.840532
C       -4.130340     1.661266     4.957291
C       -5.000501    -1.931134     3.310008
C       -5.748597    -2.280437     4.413604
C       -5.794827    -3.580886     4.875424
C       -5.079364    -4.553415     4.217843
C       -4.326689    -4.207671     3.105048
C       -4.301975    -2.895539     2.668222
C       -6.790089     0.645609     3.038653
C       -7.054415     1.989380     3.203337
C       -8.326070     2.488506     3.420077
C       -9.399088     1.600973     3.473160
C       -9.134703     0.247568     3.303970
C       -7.854731    -0.229318     3.088501
As      -5.649679     0.189426    -0.609143
C       -6.606561    -1.454118    -0.998757
C       -6.196461    -2.693311    -0.576466
C       -6.872884    -3.863516    -0.853760
C       -8.029564    -3.756593    -1.601214
C       -8.447496    -2.510531    -2.027947
C       -7.758463    -1.346954    -1.741753
C       -4.628582     0.548461    -2.253020
C       -4.958040     1.541560    -3.113827
C       -4.212376     1.744907    -4.260886
C       -3.106035     0.953056    -4.571674
C       -2.779859    -0.063360    -3.666811
C       -3.538252    -0.252600    -2.522437
C       -6.983203     1.570484    -0.350361
C       -8.291513     1.300099    -0.005390
C       -9.205209     2.320103     0.159991
C       -8.874582     3.647585    -0.001795
C       -7.567662     3.928138    -0.342838
C       -6.636832     2.903019    -0.512353
H       -1.979494    -0.183758     3.159135
H       -0.413539     0.834139     4.694734
H       -1.139525     2.377531     6.416110
H       -3.534491     2.926602     6.604808
H       -5.148254     1.926557     5.086165
H       -6.289559    -1.495418     4.904599
H       -6.387271    -3.826610     5.743219
H       -5.084210    -5.583484     4.541140
H       -3.754394    -4.934924     2.563627
H       -3.712906    -2.641691     1.803746
H       -6.258203     2.711426     3.161575
H       -8.528484     3.545563     3.551538
H      -10.415104     1.940814     3.640615
H       -9.944456    -0.485077     3.337523
H       -7.631249    -1.278406     2.950057
H       -5.285928    -2.739355    -0.001197
H       -6.486177    -4.793310    -0.487963
H       -8.592654    -4.664947    -1.840474
H       -9.358441    -2.478544    -2.609983
H       -8.099289    -0.381226    -2.088050
H       -5.792742     2.169994    -2.920291
H       -4.474401     2.534853    -4.953597
H       -2.527839     1.120575    -5.474014
H       -1.913853    -0.699997    -3.888404
H       -3.216043    -1.062933    -1.874825
H       -8.609191     0.290214     0.137876
H      -10.221661     2.058630     0.427858
H       -9.572438     4.464221     0.122226
H       -7.263638     4.974345    -0.480941
H       -5.640265     3.228872    -0.778045
75
ex_0152 frame15 see-saw Br-Br-ax-conf3
Br       0.000000     0.000000     2.380000
Co       0.000000     0.000000     0.000000
Br       0.000000     0.000000    -2.380000
Br       2.333782     0.000000     0.466756
N       -1.961161     0.000000     0.392232
C       -3.208940    -0.001303     0.634467
C       -4.480754    -0.062325     0.876041
As      -5.674055     0.031691    -0.605648
C       -6.506288     1.772810    -0.719804
C       -7.707448     1.863008    -1.387030
C       -8.338734     3.102525    -1.492955
C       -7.792610     4.232327    -0.947830
C       -6.587406     4.159072    -0.273651
C       -5.991040     2.923271    -0.186970
C       -4.681468    -0.159880    -2.299053
C       -3.536650     0.578214    -2.509903
C       -2.798729     0.488356    -3.690630
C       -3.228239    -0.373636    -4.683152
C       -4.372551    -1.115632    -4.471378
C       -5.089213    -1.005416    -3.282443
C       -7.055037    -1.328540    -0.524923
C       -6.773865    -2.649258    -0.895906
C       -7.736587    -3.634059    -0.856522
C       -9.013314    -3.369651    -0.448976
C       -9.313516    -2.079052    -0.074874
C       -8.339994    -1.081599    -0.114144
As      -4.965506    -0.241889     2.733313
C       -6.746045    -0.914657     2.953140
C       -7.091100    -2.248210     2.948884
C       -8.396246    -2.689611     3.119084
C       -9.421982    -1.770796     3.300299
C       -9.094838    -0.441073     3.302905
C       -7.795517    -0.017319     3.133097
C       -3.640524    -1.210451     3.765056
C       -3.896251    -2.319377     4.513378
C       -2.908113    -2.966829     5.251026
C       -1.617901    -2.478990     5.221317
C       -1.325934    -1.355089     4.459589
C       -2.346240    -0.736632     3.734725
C       -4.904114     1.561336     3.538667
C       -5.650518     1.799401     4.677286
C       -5.662800     3.025290     5.311200
C       -4.895157     4.039999     4.767633
C       -4.151245     3.788606     3.619714
C       -4.143214     2.563767     2.992027
H       -8.146401     0.986646    -1.830684
H       -9.282659     3.200811    -2.012589
H       -8.252393     5.207409    -1.009988
H       -6.129659     5.041916     0.169954
H       -5.049087     2.859364     0.324010
H       -3.148030     1.272038    -1.778249
H       -1.899893     1.079480    -3.841546
H       -2.699196    -0.484109    -5.614280
H       -4.702274    -1.796257    -5.267442
H       -5.979954    -1.605860    -3.170753
H       -5.788824    -2.953187    -1.227205
H       -7.507636    -4.655849    -1.149793
H       -9.811282    -4.096096    -0.396183
H      -10.331584    -1.824898     0.260082
H       -8.632610    -0.093234     0.199270
H       -6.346668    -2.989524     2.799867
H       -8.652618    -3.741129     3.116207
H      -10.433007    -2.129020     3.431956
H       -9.892032     0.290076     3.443823
H       -7.566874     1.026261     3.128681
H       -4.882491    -2.729530     4.575837
H       -3.163005    -3.848314     5.841690
H       -0.810211    -2.957600     5.786866
H       -0.318218    -0.959379     4.425884
H       -2.048603     0.130070     3.169780
H       -6.217963     0.957193     5.054370
H       -6.264876     3.146927     6.199479
H       -4.905255     4.998537     5.263431
H       -3.543194     4.592346     3.189623
H       -3.560196     2.368482     2.102801
75
ex_0152 frame16 see-saw Br-Br-ax-conf4
Br       0.000000     0.000000     2.380000
Co       0.000000     0.000000     0.000000
Br       0.000000     0.000000    -2.380000
Br       2.333782     0.000000     0.466756
N       -1.961161     0.000000     0.392232
C       -3.212512     0.019647     0.618525
C       -4.486501     0.057848     0.895227
As      -5.458626     1.585900     0.337047
C       -6.168335     1.220880    -1.456022
C       -6.118784    -0.025841    -2.021285
C       -6.641026    -0.185488    -3.281178
C       -7.203510     0.881693    -3.965290
C       -7.259401     2.134743    -3.410855
C       -6.732503     2.291092    -2.143077
C       -4.402594     3.199502     0.211560
C       -3.199685     3.192155    -0.469659
C       -2.428060     4.340102    -0.570755
C       -2.850054     5.526713     0.012389
C       -4.055771     5.552665     0.700747
C       -4.814348     4.399237     0.793958
C       -7.000881     1.847301     1.484914
C       -8.274028     1.466753     1.094233
C       -9.388486     1.645411     1.882618
C       -9.262342     2.232641     3.143081
C       -8.000913     2.617812     3.559227
C       -6.885588     2.422267     2.733256
As      -5.160301    -1.480767     1.841643
C       -4.506672    -3.117220     0.971796
C       -4.809378    -4.353385     1.503495
C       -4.371023    -5.541000     0.929224
C       -3.603541    -5.463717    -0.219455
C       -3.298350    -4.235913    -0.756397
C       -3.740950    -3.062428    -0.174654
C       -4.524021    -1.492852     3.677575
C       -3.838655    -2.560017     4.221028
C       -3.386441    -2.562132     5.537440
C       -3.628661    -1.457789     6.335770
C       -4.312886    -0.390812     5.792004
C       -4.751544    -0.405702     4.494206
C       -7.081132    -1.598794     1.868457
C       -7.790376    -1.408905     3.052661
C       -9.160633    -1.490360     3.121826
C       -9.844278    -1.769503     1.957218
C       -9.191298    -1.964469     0.747227
C       -7.813820    -1.872197     0.729973
H       -5.665833    -0.820327    -1.439221
H       -6.599605    -1.177990    -3.724445
H       -7.620405     0.768204    -4.959916
H       -7.692258     3.003245    -3.915778
H       -6.761969     3.278854    -1.674941
H       -2.799037     2.299014    -0.954659
H       -1.474333     4.347630    -1.109746
H       -2.239501     6.421960    -0.069783
H       -4.382993     6.488401     1.154883
H       -5.772963     4.390811     1.332633
H       -8.318605     1.006332     0.094481
H      -10.372831     1.325965     1.523287
H      -10.152209     2.354701     3.729124
H       -7.882331     3.079380     4.539778
H       -5.910347     2.738206     3.099651
H       -5.406989    -4.463325     2.404004
H       -4.637623    -6.506306     1.388391
H       -3.271782    -6.399599    -0.651301
H       -2.686924    -4.207016    -1.669557
H       -3.483882    -2.117099    -0.620339
H       -3.636651    -3.420971     3.634621
H       -2.854851    -3.426438     5.916942
H       -3.274872    -1.467359     7.361976
H       -4.494177     0.461700     6.436609
H       -5.277913     0.458881     4.131103
H       -7.228042    -1.186955     3.967752
H       -9.724108    -1.349221     4.031761
H      -10.933430    -1.851087     1.928321
H       -9.744128    -2.183644    -0.155879
H       -7.336729    -2.029687    -0.227555
75
ex_0152 frame17 see-saw Br-Br-ax-conf5
Br       0.000000     0.000000     2.380000
Co       0.000000     0.000000     0.000000
Br       0.000000     0.000000    -2.380000
Br       2.333782     0.000000     0.466756
N       -1.961161     0.000000     0.392232
C       -3.220707     0.017421     0.663584
C       -4.509572     0.038872     0.893180
As      -5.275241     1.720066     1.323713
C       -4.831716     3.104310     0.014370
C       -5.577392     3.105396    -1.155927
C       -5.355254     4.039490    -2.151996
C       -4.358119     4.964951    -1.924993
C       -3.611817     4.961907    -0.755071
C       -3.836751     4.028007     0.236228
C       -7.153697     1.790752     1.566091
C       -7.787109     0.848436     2.343589
C       -9.148158     0.839497     2.562848
C       -9.955380     1.797075     1.999469
C       -9.354246     2.757637     1.213701
C       -7.993236     2.761327     0.998213
C       -4.499339     2.279903     3.019983
C       -5.001707     3.429857     3.627121
C       -4.470578     3.856409     4.836898
C       -3.445044     3.165014     5.464942
C       -2.948263     2.020895     4.856982
C       -3.480676     1.590854     3.641222
As      -5.408704    -1.641575     0.754457
C       -5.830345    -2.436073     2.498237
C       -6.671623    -3.530251     2.470351
C       -7.032027    -4.166868     3.658150
C       -6.536391    -3.684063     4.830661
C       -5.685023    -2.574625     4.843059
C       -5.323087    -1.937532     3.666422
C       -4.246991    -3.019071     0.008340
C       -3.008213    -3.239107     0.583272
C       -2.140234    -4.207787     0.097119
C       -2.495166    -4.989614    -0.992224
C       -3.738484    -4.771649    -1.575008
C       -4.592308    -3.788177    -1.063300
C       -6.971713    -1.556631    -0.372915
C       -8.246391    -1.653658     0.091519
C       -9.288093    -1.580631    -0.800786
C       -9.088048    -1.411183    -2.159241
C       -7.815288    -1.313155    -2.630047
C       -6.773285    -1.386868    -1.732181
H       -6.364161     2.384933    -1.353189
H       -5.933868     4.047283    -3.065794
H       -4.172858     5.691750    -2.679611
H       -2.844289     5.706213    -0.625877
H       -3.284174     3.985917     1.159202
H       -7.203773     0.092450     2.798135
H       -9.600657     0.070194     3.188112
H      -11.020568     1.816240     2.151898
H       -9.977492     3.528786     0.756123
H       -7.554092     3.517361     0.386737
H       -5.806123     4.006703     3.173819
H       -4.891577     4.762199     5.280235
H       -3.028023     3.504106     6.419503
H       -2.147382     1.452544     5.315343
H       -3.097555     0.690500     3.151744
H       -7.076525    -3.927464     1.532361
H       -7.691517    -5.017193     3.582200
H       -6.824722    -4.189378     5.753672
H       -5.316341    -2.227111     5.796569
H       -4.663511    -1.075118     3.653126
H       -2.740574    -2.630027     1.426017
H       -1.172953    -4.371140     0.557194
H       -1.841298    -5.755831    -1.398011
H       -4.022961    -5.372776    -2.420129
H       -5.552620    -3.633290    -1.528165
H       -8.382345    -1.786702     1.161416
H      -10.313617    -1.656741    -0.444116
H       -9.922412    -1.354360    -2.859645
H       -7.648443    -1.181965    -3.678902
H       -5.762343    -1.303758    -2.149225
75
ex_0152 frame18 see-saw Br-Br-ax-conf6
Br       0.000000     0.000000     2.380000
Co       0.000000     0.000000     0.000000
Br       0.000000     0.000000    -2.380000
Br       2.333782     0.000000     0.466756
N       -1.961161     0.000000     0.392232
C       -3.212401    -0.000000     0.642480
C       -4.497547     0.021779     0.905744
As      -5.808301     0.535782    -0.360773
C       -6.888544     2.055626     0.232619
C       -8.260844     2.070060     0.091852
C       -8.979514     3.182462     0.533825
C       -8.299927     4.248041     1.104286
C       -6.914927     4.242430     1.250577
C       -6.215567     3.120712     0.802167
C       -6.989261    -0.859120    -0.954207
C       -7.875741    -0.572886    -1.973715
C       -8.743773    -1.526091    -2.440943
C       -8.729637    -2.792146    -1.881551
C       -7.852176    -3.095961    -0.863577
C       -6.984286    -2.124990    -0.404160
C       -4.884317     1.126587    -1.984483
C       -5.266425     2.241946    -2.678065
C       -4.576547     2.614013    -3.821083
C       -3.499643     1.890525    -4.295886
C       -3.122560     0.764031    -3.585511
C       -3.799520     0.377573    -2.442439
As      -5.027869    -0.507016     2.692968
C       -4.443573     0.783271     4.032162
C       -4.968761     0.676496     5.289201
C       -4.595899     1.558924     6.281895
C       -3.680484     2.547067     5.965188
C       -3.153936     2.649000     4.692873
C       -3.521275     1.772140     3.697364
C       -4.138092    -2.208013     3.055087
C       -3.895642    -2.608188     4.360020
C       -3.258483    -3.827958     4.586062
C       -2.866505    -4.641046     3.530767
C       -3.106529    -4.245210     2.232930
C       -3.737035    -3.038715     1.999176
C       -6.922690    -0.624790     2.910799
C       -7.583224    -1.836749     2.930390
C       -8.949114    -1.950938     3.086038
C       -9.699658    -0.812798     3.229355
C       -9.053675     0.413685     3.212160
C       -7.673382     0.508242     3.053866
H       -8.770494     1.228134    -0.355911
H      -10.047151     3.232289     0.442291
H       -8.807880     5.135323     1.463858
H       -6.377483     5.058565     1.689322
H       -5.132744     3.136461     0.925915
H       -7.928412     0.405353    -2.448162
H       -9.446002    -1.336430    -3.232624
H       -9.416682    -3.552405    -2.248890
H       -7.826303    -4.072969    -0.416779
H       -6.289227    -2.315903     0.380645
H       -6.112787     2.835298    -2.329742
H       -4.895940     3.505301    -4.359711
H       -2.952512     2.174881    -5.191643
H       -2.280137     0.175161    -3.933952
H       -3.473927    -0.514825    -1.909655
H       -5.687767    -0.087025     5.567456
H       -5.021747     1.461819     7.276722
H       -3.411547     3.219624     6.765416
H       -2.434261     3.430072     4.453437
H       -3.119016     1.830389     2.679522
H       -4.196527    -1.982385     5.201621
H       -3.059787    -4.158992     5.594164
H       -2.370222    -5.592406     3.682205
H       -2.811973    -4.859221     1.382583
H       -3.914869    -2.749158     0.966319
H       -6.978821    -2.728108     2.816175
H       -9.391027    -2.957610     3.089730
H      -10.779666    -0.901493     3.352480
H       -9.650378     1.303318     3.325320
H       -7.265591     1.498710     3.053467
75
ex_0152 frame19 see-saw Br-N-ax
Br       0.000000     0.000000     2.380000
Co       0.000000     0.000000     0.000000
Br       2.333782     0.000000     0.466756
Br      -2.333782     0.000000     0.466756
N        0.000000     0.000000    -2.000000
C        0.033859     0.056745    -3.214818
C        0.033308     0.074143    -4.531647
As       1.403838    -0.913403    -5.350972
C        1.785872    -2.656879    -4.591281
C        2.132652    -3.735541    -5.427050
C        2.423002    -4.979879    -4.917627
C        2.382568    -5.239364    -3.558732
C        2.037659    -4.191855    -2.744391
C        1.743873    -2.935701    -3.250649
C        0.853544    -1.287552    -7.198973
C        1.145266    -0.390192    -8.182912
C        0.776311    -0.645141    -9.507679
C        0.105021    -1.816946    -9.798542
C       -0.217412    -2.754283    -8.815530
C        0.177154    -2.439964    -7.525054
C        3.124068     0.008770    -5.412615
C        3.273180     1.296547    -5.856164
C        4.503910     1.924506    -5.881804
C        5.651158     1.285359    -5.464054
C        5.522977    -0.021935    -5.013519
C        4.301512    -0.626687    -4.995265
As      -1.395280     1.124157    -5.276196
C       -2.904722    -0.129467    -5.438327
C       -2.863673    -1.389279    -4.935324
C       -3.879094    -2.311656    -5.013851
C       -5.035303    -1.915068    -5.659675
C       -5.104032    -0.648699    -6.177204
C       -4.076182     0.278241    -6.096167
C       -1.048145     1.804464    -7.032693
C       -0.076466     2.796027    -7.222640
C        0.142154     3.276763    -8.492776
C       -0.545910     2.822993    -9.591905
C       -1.493526     1.847581    -9.415489
C       -1.714237     1.364889    -8.146146
C       -1.914962     2.583738    -4.071492
C       -3.220086     2.985875    -3.934559
C       -3.562020     4.025622    -3.074030
C       -2.511604     4.600701    -2.389339
C       -1.203676     4.218216    -2.507783
C       -0.861466     3.172624    -3.373474
H        2.200908    -3.621733    -6.499091
H        2.697850    -5.818837    -5.574254
H        2.610897    -6.217367    -3.161143
H        2.009310    -4.406293    -1.668334
H        1.486757    -2.181740    -2.529347
H        1.663384     0.522899    -7.946922
H        1.026427     0.088000   -10.281165
H       -0.161451    -1.984795   -10.820072
H       -0.743020    -3.663930    -9.066337
H       -0.092400    -3.187272    -6.761795
H        2.431360     1.867118    -6.190617
H        4.607531     2.936495    -6.229522
H        6.582930     1.805682    -5.499432
H        6.422683    -0.553423    -4.675674
H        4.256667    -1.650127    -4.632327
H       -1.958391    -1.710900    -4.425392
H       -3.807140    -3.321954    -4.596369
H       -5.877233    -2.610950    -5.750457
H       -6.018284    -0.332819    -6.687408
H       -4.184825     1.247931    -6.517830
H        0.455162     3.150925    -6.344559
H        0.890302     4.050135    -8.640395
H       -0.366930     3.203832   -10.584631
H       -2.040825     1.487930   -10.282358
H       -2.483899     0.585505    -8.070867
H       -4.006293     2.497957    -4.493408
H       -4.589349     4.336375    -2.970806
H       -2.730558     5.413241    -1.707857
H       -0.381095     4.680205    -1.959572
H        0.162354     2.847801    -3.487128
75
ex_0152 frame20 see-saw Br-N-ax-conf2
Br       0.000000     0.000000     2.380000
Co       0.000000     0.000000     0.000000
Br       2.333782     0.000000     0.466756
Br      -2.333782     0.000000     0.466756
N        0.000000     0.000000    -2.000000
C       -0.009546     0.005590    -3.273805
C        0.032275     0.026452    -4.567455
As      -0.529305     1.626373    -5.442036
C       -0.145024     3.256493    -4.451083
C       -0.471426     3.343854    -3.116001
C       -0.215481     4.505230    -2.379765
C        0.377446     5.601692    -2.966237
C        0.711767     5.521798    -4.301367
C        0.449419     4.355274    -5.022337
C       -2.492266     1.627374    -5.552540
C       -3.091563     2.426075    -6.502542
C       -4.464408     2.484480    -6.638444
C       -5.254843     1.725833    -5.807913
C       -4.656665     0.918335    -4.851618
C       -3.278343     0.882695    -4.741715
C        0.153845     1.763248    -7.254159
C        1.411930     2.247978    -7.545649
C        1.901144     2.353596    -8.835115
C        1.094485     1.950977    -9.897707
C       -0.171598     1.459298    -9.605275
C       -0.640290     1.362723    -8.307902
As       0.663377    -1.582368    -5.420503
C       -0.752332    -2.593096    -6.282394
C       -2.080743    -2.468724    -5.963076
C       -3.089030    -3.187342    -6.571981
C       -2.715371    -4.077844    -7.559611
C       -1.378706    -4.205927    -7.885739
C       -0.379941    -3.478438    -7.266213
C        1.406527    -2.835177    -4.096845
C        2.615852    -3.426378    -4.251087
C        3.087309    -4.307646    -3.294946
C        2.352495    -4.615511    -2.149139
C        1.108782    -3.990071    -2.006756
C        0.652306    -3.109740    -2.974851
C        1.990396    -1.199740    -6.778882
C        1.707946    -1.197746    -8.129440
C        2.691225    -0.925974    -9.057827
C        3.991149    -0.641010    -8.701892
C        4.282342    -0.636699    -7.353467
C        3.294351    -0.910582    -6.407468
H       -0.941595     2.547345    -2.560611
H       -0.477194     4.573921    -1.326222
H        0.566808     6.492490    -2.375699
H        1.173924     6.374507    -4.761163
H        0.724600     4.359930    -6.045757
H       -2.444532     3.007888    -7.129291
H       -4.907658     3.119912    -7.389573
H       -6.332243     1.738089    -5.876069
H       -5.236051     0.311300    -4.184255
H       -2.828032     0.252043    -3.994547
H        2.072038     2.562428    -6.756708
H        2.889962     2.737740    -9.059381
H        1.430389     2.013339   -10.926834
H       -0.838850     1.131585   -10.405884
H       -1.620696     0.978223    -8.061609
H       -2.334679    -1.769302    -5.183044
H       -4.103699    -3.033122    -6.264523
H       -3.489281    -4.665404    -8.064844
H       -1.136358    -4.915763    -8.664847
H        0.661257    -3.595534    -7.532506
H        3.211331    -3.223860    -5.107535
H        4.051461    -4.785422    -3.416031
H        2.731082    -5.308208    -1.405207
H        0.511471    -4.215409    -1.114108
H       -0.322246    -2.668822    -2.785906
H        0.717098    -1.407988    -8.469046
H        2.422513    -0.939083   -10.107073
H        4.778841    -0.424979    -9.410518
H        5.307358    -0.413909    -7.028263
H        3.625322    -0.880983    -5.378148
75
ex_0152 frame21 see-saw Br-N-ax-conf3
Br       0.000000     0.000000     2.380000
Co       0.000000     0.000000     0.000000
Br       2.333782     0.000000     0.466756
Br      -2.333782     0.000000     0.466756
N        0.000000     0.000000    -2.000000
C        0.004009    -0.006096    -3.271054
C       -0.031517    -0.057271    -4.565547
As       1.200283    -1.213678    -5.445092
C        2.650584    -0.211765    -6.238775
C        3.329737    -0.793739    -7.285756
C        4.384148    -0.103482    -7.884009
C        4.759432     1.140431    -7.455398
C        4.087296     1.739604    -6.405816
C        3.053317     1.033291    -5.838030
C        2.072817    -2.407043    -4.139676
C        2.594909    -1.885011    -2.975738
C        3.228731    -2.680420    -2.020587
C        3.334194    -4.040631    -2.247107
C        2.808584    -4.564629    -3.410730
C        2.181072    -3.746330    -4.346643
C        0.347769    -2.290798    -6.815087
C       -0.395454    -3.425334    -6.466619
C       -1.004797    -4.213426    -7.418370
C       -0.916335    -3.922979    -8.750231
C       -0.194452    -2.809708    -9.117970
C        0.422512    -2.011273    -8.155651
As      -1.352290     1.068498    -5.405126
C       -1.747154     0.507643    -7.194201
C       -2.663020    -0.464321    -7.531719
C       -2.921131    -0.833300    -8.844899
C       -2.239765    -0.216445    -9.886256
C       -1.323132     0.749163    -9.565976
C       -1.077272     1.105420    -8.258585
C       -2.930666     1.320881    -4.308216
C       -4.205084     1.050809    -4.705735
C       -5.306478     1.268109    -3.881450
C       -5.107763     1.766738    -2.610467
C       -3.818339     2.042769    -2.174783
C       -2.742231     1.809974    -3.033117
C       -0.599933     2.892885    -5.502869
C       -1.096827     3.759438    -6.458080
C       -0.636494     5.053386    -6.594445
C        0.361950     5.476498    -5.735106
C        0.855823     4.593794    -4.780515
C        0.392613     3.304388    -4.649541
H        3.054791    -1.775567    -7.629177
H        4.934515    -0.538582    -8.707695
H        5.569597     1.703686    -7.894062
H        4.364425     2.728536    -6.043956
H        2.533959     1.485684    -5.014581
H        2.549698    -0.831804    -2.738154
H        3.637159    -2.252152    -1.109609
H        3.812507    -4.702731    -1.545729
H        2.898954    -5.646092    -3.577929
H        1.791336    -4.207725    -5.241991
H       -0.524643    -3.730331    -5.435734
H       -1.577114    -5.093994    -7.136349
H       -1.370001    -4.499934    -9.543056
H       -0.099303    -2.541140   -10.181958
H        0.965619    -1.148504    -8.504051
H       -3.199607    -0.975809    -6.772519
H       -3.645749    -1.597132    -9.095728
H       -2.451378    -0.513648   -10.903467
H       -0.781286     1.240398   -10.375325
H       -0.349717     1.854661    -8.033515
H       -4.410836     0.672179    -5.685072
H       -6.309703     1.043136    -4.247231
H       -5.946095     1.952722    -1.929375
H       -3.645399     2.434897    -1.180026
H       -1.772889     2.049076    -2.630465
H       -1.884854     3.365565    -7.088458
H       -1.067859     5.682398    -7.359034
H        0.721867     6.488276    -5.842242
H        1.646366     4.929266    -4.099924
H        0.773880     2.621191    -3.903453
75
ex_0152 frame22 see-saw Br-N-ax-conf4
Br       0.000000     0.000000     2.380000
Co       0.000000     0.000000     0.000000
Br       2.333782     0.000000     0.466756
Br      -2.333782     0.000000     0.466756
N        0.000000     0.000000    -2.000000
C        0.011387     0.028446    -3.271430
C       -0.025635     0.051898    -4.574944
As      -0.100263     1.747186    -5.418724
C        1.743444     2.325324    -5.763001
C        2.813970     1.485776    -5.603555
C        4.067606     1.979453    -5.868569
C        4.249458     3.289409    -6.285966
C        3.186375     4.140153    -6.449505
C        1.926691     3.639473    -6.181470
C       -0.939245     3.128087    -4.358588
C       -0.555323     3.326458    -3.045441
C       -1.145496     4.312460    -2.268975
C       -2.138651     5.125398    -2.797138
C       -2.537073     4.940351    -4.114438
C       -1.939746     3.951975    -4.876565
C       -0.948926     1.587125    -7.156145
C       -0.211365     1.552045    -8.327949
C       -0.784302     1.446468    -9.575380
C       -2.172740     1.365833    -9.698883
C       -2.932456     1.394234    -8.543562
C       -2.319212     1.502335    -7.287911
As       0.003018    -1.680142    -5.421268
C        1.416970    -2.777414    -4.609741
C        1.596219    -4.084865    -5.010843
C        2.579363    -4.904333    -4.468376
C        3.401951    -4.373654    -3.490524
C        3.230763    -3.071359    -3.085957
C        2.248599    -2.267411    -3.634050
C       -1.686239    -2.603413    -5.157400
C       -1.767875    -3.859391    -4.591923
C       -2.981529    -4.515260    -4.406660
C       -4.152514    -3.891507    -4.800741
C       -4.070715    -2.635654    -5.365038
C       -2.867412    -2.004671    -5.540659
C        0.367505    -1.617940    -7.310057
C       -0.622471    -1.935308    -8.237768
C       -0.406960    -1.911781    -9.594980
C        0.848930    -1.552607   -10.036951
C        1.873292    -1.222491    -9.159352
C        1.606587    -1.261296    -7.805241
H        2.609859     0.473547    -5.273552
H        4.913686     1.307783    -5.741022
H        5.233993     3.690617    -6.499702
H        3.285325     5.179823    -6.774932
H        1.059321     4.294297    -6.302173
H        0.217654     2.728275    -2.557457
H       -0.848395     4.480978    -1.228064
H       -2.597550     5.895082    -2.182326
H       -3.316275     5.583559    -4.524369
H       -2.235304     3.783267    -5.922207
H        0.877778     1.615553    -8.175593
H       -0.152645     1.423764   -10.470139
H       -2.582927     1.283604   -10.686401
H       -4.018344     1.333781    -8.619585
H       -2.953733     1.519514    -6.403464
H        0.974047    -4.544724    -5.773453
H        2.686592    -5.942934    -4.819850
H        4.161194    -5.027774    -3.080516
H        3.899893    -2.678260    -2.307318
H        2.140847    -1.251780    -3.294569
H       -0.888303    -4.363624    -4.278838
H       -2.991230    -5.502112    -3.959819
H       -5.095078    -4.409880    -4.655079
H       -5.000110    -2.167835    -5.669226
H       -2.872902    -1.025686    -5.985596
H       -1.614870    -2.217567    -7.865819
H       -1.162195    -2.158125   -10.325966
H        1.100628    -1.509744   -11.099285
H        2.852387    -0.944243    -9.524334
H        2.425581    -0.999193    -7.149628
75
ex_0152 frame23 see-saw Br-N-ax-conf5
Br       0.000000     0.000000     2.380000
Co       0.000000     0.000000     0.000000
Br       2.333782     0.000000     0.466756
Br      -2.333782     0.000000     0.466756
N        0.000000     0.000000    -2.000000
C        0.023591     0.010509    -3.288303
C        0.032204    -0.023394    -4.597166
As       1.681916    -0.446309    -5.432401
C        2.472081    -2.096890    -4.740706
C        1.955739    -3.283202    -5.242387
C        2.438778    -4.512021    -4.829217
C        3.454235    -4.498807    -3.895965
C        3.968685    -3.311936    -3.393597
C        3.483734    -2.087986    -3.808572
C        1.694434    -0.594392    -7.321913
C        1.085907     0.367338    -8.095505
C        1.056952     0.323321    -9.473123
C        1.650450    -0.711028   -10.154181
C        2.269927    -1.693290    -9.410619
C        2.295546    -1.643791    -8.033778
C        2.920988     0.993881    -5.004232
C        4.173669     0.989444    -5.615914
C        5.080630     2.001679    -5.332356
C        4.773584     3.026956    -4.449907
C        3.525491     3.027317    -3.843542
C        2.612885     2.010868    -4.127186
As      -1.632956     0.362238    -5.451632
C       -1.710519     2.171403    -6.207068
C       -2.790324     2.432629    -7.026541
C       -2.936369     3.689968    -7.612892
C       -1.995242     4.639837    -7.356829
C       -0.906732     4.360402    -6.524426
C       -0.755754     3.113180    -5.938761
C       -3.096985     0.451270    -4.166152
C       -2.976097     1.278666    -3.064185
C       -3.986518     1.385079    -2.117719
C       -5.158078     0.654819    -2.252120
C       -5.284300    -0.179623    -3.357001
C       -4.249191    -0.266439    -4.294598
C       -2.119700    -0.965945    -6.763192
C       -2.126490    -0.738855    -8.104200
C       -2.491109    -1.757292    -8.950678
C       -2.852748    -3.010037    -8.488102
C       -2.847689    -3.243599    -7.147726
C       -2.481495    -2.219836    -6.302044
H        1.156337    -3.313842    -5.975191
H        2.042255    -5.440448    -5.217385
H        3.839052    -5.434354    -3.566309
H        4.761743    -3.355467    -2.666310
H        3.850377    -1.142277    -3.447735
H        0.616954     1.183018    -7.612640
H        0.561503     1.111566   -10.039459
H        1.644252    -0.773165   -11.228578
H        2.748458    -2.524931    -9.932023
H        2.783193    -2.416740    -7.483242
H        4.461576     0.206772    -6.315809
H        6.051671     1.962278    -5.832125
H        5.491365     3.824268    -4.228189
H        3.247075     3.810503    -3.148106
H        1.625764     1.999816    -3.655510
H       -3.553930     1.675628    -7.239625
H       -3.797254     3.843166    -8.244680
H       -2.119109     5.619643    -7.820578
H       -0.185434     5.144714    -6.349902
H        0.081225     2.874951    -5.289385
H       -2.066407     1.840672    -2.967018
H       -3.880000     2.037777    -1.259450
H       -5.968207     0.714019    -1.531368
H       -6.188953    -0.749972    -3.470212
H       -4.364800    -0.918803    -5.145094
H       -1.839600     0.251506    -8.447338
H       -2.501442    -1.590635   -10.026235
H       -3.140716    -3.812248    -9.168903
H       -3.125606    -4.208753    -6.778423
H       -2.489561    -2.446176    -5.228944
75
ex_0152 frame24 see-saw Br-N-ax-conf6
Br       0.000000     0.000000     2.380000
Co       0.000000     0.000000     0.000000
Br       2.333782     0.000000     0.466756
Br      -2.333782     0.000000     0.466756
N        0.000000     0.000000    -2.000000
C       -0.000000    -0.000000    -3.276019
C        0.000720     0.022610    -4.587839
As       1.584891     0.061981    -5.624754
C        1.689115     1.622741    -6.800394
C        2.081768     1.514049    -8.118438
C        2.137426     2.662902    -8.909829
C        1.797319     3.887469    -8.355317
C        1.399779     4.006955    -7.025902
C        1.350949     2.846179    -6.252183
C        1.941209    -1.513010    -6.666399
C        3.146523    -1.592989    -7.335722
C        3.459133    -2.691056    -8.095267
C        2.552578    -3.732683    -8.191111
C        1.345098    -3.670455    -7.530330
C        1.045163    -2.557757    -6.769393
C        3.108223     0.201068    -4.400278
C        4.163770     1.037696    -4.638942
C        5.215569     1.096130    -3.738298
C        5.240578     0.329632    -2.589190
C        4.166918    -0.512961    -2.358745
C        3.108325    -0.584342    -3.246735
As      -1.730507     0.014104    -5.458366
C       -2.704113     1.674069    -5.148054
C       -3.813554     1.911985    -5.909568
C       -4.546241     3.068314    -5.738630
C       -4.124084     3.971298    -4.778881
C       -3.002068     3.724339    -4.013037
C       -2.266106     2.572815    -4.178007
C       -2.747165    -1.448858    -4.656886
C       -4.133215    -1.431354    -4.675062
C       -4.830635    -2.490403    -4.094606
C       -4.161603    -3.553951    -3.503280
C       -2.783947    -3.573357    -3.484116
C       -2.084552    -2.528851    -4.056535
C       -1.615240    -0.145739    -7.359111
C       -1.874527    -1.334767    -8.010660
C       -1.798958    -1.478330    -9.380551
C       -1.450300    -0.394889   -10.144625
C       -1.186164     0.807838    -9.507815
C       -1.267856     0.932748    -8.123283
H        2.342612     0.548988    -8.530377
H        2.437699     2.620454    -9.938783
H        1.822919     4.809755    -8.923923
H        1.134412     4.946398    -6.584940
H        1.037432     2.961564    -5.214656
H        3.894283    -0.803074    -7.294324
H        4.387881    -2.785078    -8.628598
H        2.795953    -4.606602    -8.792773
H        0.628577    -4.468932    -7.592584
H        0.123809    -2.467380    -6.241745
H        4.174782     1.656381    -5.537181
H        6.047084     1.768461    -3.945855
H        6.061462     0.368918    -1.877011
H        4.158101    -1.127639    -1.464347
H        2.280781    -1.259089    -3.031952
H       -4.168928     1.223468    -6.669182
H       -5.426139     3.243981    -6.351311
H       -4.720464     4.864581    -4.672105
H       -2.677842     4.441082    -3.260381
H       -1.371959     2.351913    -3.583944
H       -4.675771    -0.604069    -5.135155
H       -5.910116    -2.497081    -4.097474
H       -4.682178    -4.387328    -3.046333
H       -2.228483    -4.392349    -3.028513
H       -0.998297    -2.567800    -4.028356
H       -2.148844    -2.182889    -7.395594
H       -2.022524    -2.463370    -9.814606
H       -1.390119    -0.506869   -11.227808
H       -0.912818     1.654459   -10.115123
H       -1.045862     1.901293    -7.723332
75
ex_0152 frame25 
Br       1.055581     4.944147     4.667103
Co       0.817781     2.650844     3.698961
Br      -0.998039     1.622708     4.971591
Br       2.936893     1.536348     4.186076
N        0.451959     3.022695     1.791201
C        0.288150     1.954608     1.090822
C        0.130042     0.845754     0.429415
As      -1.690408     0.230946     0.282925
C       -1.910907    -1.205083    -0.960616
C       -1.891094    -2.529923    -0.559557
C       -2.060876    -3.562136    -1.471743
C       -2.248883    -3.268510    -2.802767
C       -2.258844    -1.945172    -3.166814
C       -2.094708    -0.897623    -2.296589
C       -2.834644     1.697904    -0.344266
C       -2.285923     2.932053    -0.635830
C       -3.058383     3.988889    -1.079682
C       -4.431634     3.802421    -1.237236
C       -4.995197     2.558593    -0.944980
C       -4.190714     1.505712    -0.497344
C       -2.368173    -0.300596     2.047291
C       -3.496069     0.277171     2.589917
C       -3.994905    -0.085614     3.830794
C       -3.333385    -1.073202     4.568516
C       -2.196483    -1.656428     4.028847
C       -1.726208    -1.272038     2.790239
As       1.687017     0.026374    -0.272060
C        2.524422    -1.215689     0.934261
C        2.159134    -1.393337     2.244497
C        2.780063    -2.290967     3.079096
C        3.827727    -3.056727     2.576376
C        4.224359    -2.904621     1.257908
C        3.565320    -1.985681     0.458299
C        2.989620     1.440535    -0.697445
C        4.329709     1.277486    -0.430214
C        5.210654     2.292006    -0.743353
C        4.703337     3.453652    -1.323769
C        3.353293     3.590217    -1.580856
C        2.470652     2.586625    -1.272731
C        1.363052    -0.895715    -1.939230
C        1.319143    -2.273887    -1.971668
C        1.096245    -2.873049    -3.177672
C        0.915222    -2.132692    -4.330232
C        0.953911    -0.764954    -4.298264
C        1.177420    -0.137004    -3.093275
H       -1.748154    -2.807234     0.463696
H       -2.051895    -4.604920    -1.178396
H       -2.388599    -4.001530    -3.577805
H       -2.406282    -1.686654    -4.217415
H       -2.110555     0.127990    -2.634691
H       -1.242286     3.096143    -0.523044
H       -2.600162     4.953159    -1.303026
H       -5.028613     4.635760    -1.585381
H       -6.075509     2.419597    -1.071332
H       -4.640738     0.546103    -0.274247
H       -4.008894     1.049294     2.007614
H       -4.881749     0.391090     4.216733
H       -3.717106    -1.365761     5.544841
H       -1.686020    -2.423938     4.607169
H       -0.842021    -1.758867     2.424479
H        1.349597    -0.799282     2.626814
H        2.516679    -2.452581     4.109315
H        4.356266    -3.775219     3.170582
H        5.051261    -3.508847     0.860864
H        3.918075    -1.905198    -0.574220
H        4.691981     0.363737     0.020890
H        6.261431     2.246064    -0.569570
H        5.359877     4.284775    -1.589939
H        2.958330     4.498557    -2.034490
H        1.416499     2.719873    -1.485088
H        1.464580    -2.837793    -1.049373
H        1.066366    -3.954804    -3.198225
H        0.744852    -2.694765    -5.238016
H        0.805441    -0.234731    -5.231538
H        1.204500     0.944856    -3.087820
75
ex_0152 frame26 Isomer 2
Br       1.374094     1.374094     1.374094
Co       0.000000     0.000000     0.000000
Br      -1.374094    -1.374094     1.374094
Br      -1.374094     1.374094    -1.374094
N        1.154701    -1.154701    -1.154701
C        1.820174    -1.908906    -1.839148
C        2.578203    -2.682453    -2.588386
As       2.104703    -2.759939    -4.403513
C        1.628736    -1.078352    -5.245244
C        1.999619    -0.821388    -6.578920
C        1.664658     0.355128    -7.208050
C        0.952548     1.350688    -6.562045
C        0.597342     1.104886    -5.260969
C        0.931408    -0.077999    -4.620882
C        3.670585    -3.391132    -5.407270
C        3.866333    -4.729502    -5.577383
C        4.966342    -5.199041    -6.302399
C        5.853272    -4.283484    -6.834817
C        5.688850    -2.906597    -6.673500
C        4.578946    -2.509506    -5.945324
C        0.618770    -3.966807    -4.789348
C        0.556641    -5.256271    -4.330262
C       -0.512215    -6.084522    -4.615276
C       -1.574660    -5.656890    -5.381790
C       -1.530336    -4.353929    -5.860077
C       -0.468225    -3.550324    -5.569953
As       3.991522    -3.540545    -1.606573
C        5.488774    -2.263501    -1.667184
C        5.359793    -1.012116    -2.176324
C        6.361575    -0.074414    -2.248257
C        7.600301    -0.444194    -1.758350
C        7.758850    -1.701626    -1.238755
C        6.744950    -2.644720    -1.169200
C        4.622361    -5.172307    -2.386314
C        3.799981    -6.306697    -2.403301
C        4.283847    -7.469337    -2.956735
C        5.540113    -7.569914    -3.503639
C        6.348520    -6.462229    -3.497357
C        5.867089    -5.297978    -2.944470
C        3.487503    -3.832169     0.267641
C        4.392849    -3.714499     1.292492
C        4.009788    -3.928441     2.613853
C        2.683554    -4.257587     2.802684
C        1.762255    -4.380492     1.799139
C        2.148976    -4.165095     0.471043
H        2.546279    -1.546378    -7.164099
H        1.952810     0.549816    -8.251896
H        0.690797     2.273737    -7.058199
H        0.031890     1.899166    -4.756915
H        0.604810    -0.174512    -3.601636
H        3.173807    -5.436199    -5.154466
H        5.099278    -6.278090    -6.430132
H        6.682601    -4.672540    -7.385773
H        6.395406    -2.209109    -7.098842
H        4.469686    -1.420235    -5.821851
H        1.336684    -5.664546    -3.721232
H       -0.550655    -7.093728    -4.246775
H       -2.381589    -6.327810    -5.579074
H       -2.364779    -3.989322    -6.473962
H       -0.483932    -2.539207    -5.968151
H        4.389150    -0.711558    -2.564296
H        6.218701     0.926834    -2.669279
H        8.435115     0.265317    -1.790285
H        8.737728    -1.995514    -0.849689
H        6.925920    -3.607247    -0.756046
H        2.812019    -6.215646    -1.961433
H        3.649915    -8.351204    -2.964484
H        5.911010    -8.484725    -3.937383
H        7.343307    -6.538951    -3.927309
H        6.560966    -4.447488    -2.970698
H        5.421142    -3.450566     1.088898
H        4.725958    -3.833985     3.414357
H        2.340311    -4.432484     3.814699
H        0.714939    -4.640284     1.961146
H        1.443812    -4.253779    -0.342292
75
ex_0152 frame27 conf2
Br       1.374094     1.374094     1.374094
Co       0.000000     0.000000     0.000000
Br      -1.374094    -1.374094     1.374094
Br      -1.374094     1.374094    -1.374094
N        1.154701    -1.154701    -1.154701
C        1.888908    -1.882995    -1.898494
C        2.670284    -2.626786    -2.613994
As       3.919400    -1.748593    -3.757890
C        4.587837    -0.057956    -3.063709
C        3.708522     0.878271    -2.566822
C        4.158299     2.105639    -2.069214
C        5.499998     2.417719    -2.055393
C        6.388131     1.484714    -2.546771
C        5.923003     0.264206    -3.040145
C        2.993923    -1.214965    -5.408394
C        3.753063    -0.976022    -6.533648
C        3.176706    -0.592931    -7.728486
C        1.811423    -0.448068    -7.800110
C        1.042436    -0.689703    -6.671109
C        1.651184    -1.072220    -5.489489
C        5.398034    -2.898751    -4.267787
C        6.512044    -3.082123    -3.475281
C        7.571050    -3.895262    -3.836557
C        7.519201    -4.568662    -5.055469
C        6.396152    -4.387581    -5.853091
C        5.348737    -3.569263    -5.471709
As       2.447961    -4.530302    -2.410324
C        1.582599    -5.363528    -3.935297
C        0.808189    -4.681131    -4.839030
C        0.189807    -5.270774    -5.922424
C        0.376620    -6.629390    -6.087620
C        1.156741    -7.321041    -5.180718
C        1.769887    -6.715649    -4.099914
C        1.254031    -4.941366    -0.900545
C        1.573308    -5.846026     0.056236
C        0.693134    -6.105136     1.091256
C       -0.536658    -5.453549     1.194474
C       -0.844443    -4.519337     0.199092
C        0.049586    -4.272393    -0.830613
C        4.147138    -5.427971    -2.166261
C        4.785724    -6.120349    -3.174530
C        5.992112    -6.749285    -2.947220
C        6.625150    -6.722967    -1.724001
C        5.996253    -6.029699    -0.710626
C        4.775966    -5.390764    -0.931331
H        2.639288     0.738240    -2.534060
H        3.462163     2.845508    -1.680428
H        5.826567     3.376159    -1.664424
H        7.434221     1.724962    -2.537317
H        6.655639    -0.406783    -3.409136
H        4.814822    -1.093648    -6.439825
H        3.794879    -0.410328    -8.593909
H        1.315312    -0.150639    -8.711699
H       -0.024854    -0.588304    -6.683892
H        1.041928    -1.255633    -4.621198
H        6.591362    -2.588985    -2.522615
H        8.445865    -4.034199    -3.211243
H        8.322808    -5.217673    -5.385350
H        6.311450    -4.895336    -6.816734
H        4.465218    -3.420434    -6.077465
H        0.678909    -3.623564    -4.674822
H       -0.400369    -4.667971    -6.582870
H       -0.099263    -7.131104    -6.936879
H        1.272958    -8.382443    -5.352553
H        2.373514    -7.274616    -3.398553
H        2.498124    -6.368031     0.019645
H        0.942462    -6.830175     1.855897
H       -1.220058    -5.664048     2.010100
H       -1.805736    -3.993169     0.257741
H       -0.267834    -3.532946    -1.560218
H        4.347106    -6.174563    -4.147150
H        6.453965    -7.283322    -3.768677
H        7.570231    -7.207813    -1.521452
H        6.468475    -5.984679     0.279845
H        4.367602    -4.874658    -0.072965
75
ex_0152 frame28 conf3
Br       1.374094     1.374094     1.374094
Co       0.000000     0.000000     0.000000
Br      -1.374094    -1.374094     1.374094
Br      -1.374094     1.374094    -1.374094
N        1.154701    -1.154701    -1.154701
C        1.890475    -1.892459    -1.882698
C        2.599350    -2.687874    -2.620535
As       3.846040    -3.835119    -1.750017
C        5.654878    -3.187349    -1.963647
C        6.678046    -4.100641    -1.840612
C        7.997615    -3.671962    -1.985927
C        8.299892    -2.363874    -2.249362
C        7.284268    -1.434015    -2.376915
C        5.995181    -1.888432    -2.228151
C        3.539633    -3.828715     0.198219
C        3.386650    -2.631660     0.864180
C        3.174633    -2.566828     2.241702
C        3.112185    -3.744300     2.964382
C        3.261805    -4.943490     2.297738
C        3.472359    -4.977830     0.921581
C        3.743816    -5.660168    -2.400091
C        2.724184    -6.514258    -1.962071
C        2.631557    -7.817195    -2.400241
C        3.529528    -8.338310    -3.288005
C        4.539087    -7.516751    -3.736949
C        4.633743    -6.197907    -3.294352
As       2.268609    -2.576771    -4.516571
C        2.875227    -4.137387    -5.448106
C        2.148191    -5.297521    -5.599607
C        2.627212    -6.402484    -6.290119
C        3.892689    -6.369155    -6.861653
C        4.628991    -5.223805    -6.715960
C        4.141037    -4.134877    -6.028374
C        0.438512    -2.091042    -4.932495
C       -0.394668    -2.812390    -5.732850
C       -1.697320    -2.407071    -6.013117
C       -2.172580    -1.237524    -5.456517
C       -1.348356    -0.486164    -4.629026
C       -0.049192    -0.928872    -4.373833
C        3.291003    -1.033351    -5.206895
C        3.625799    -1.012240    -6.547683
C        4.331694     0.027660    -7.117879
C        4.711136     1.075497    -6.297855
C        4.371024     1.040664    -4.949734
C        3.666891     0.000592    -4.386943
H        6.459229    -5.131413    -1.623480
H        8.819895    -4.369054    -1.893222
H        9.308353    -1.996497    -2.368067
H        7.495611    -0.386531    -2.586297
H        5.201076    -1.171078    -2.313355
H        3.427919    -1.676050     0.361348
H        3.058748    -1.614487     2.751335
H        2.950827    -3.755230     4.028776
H        3.209861    -5.870786     2.883493
H        3.587264    -5.943102     0.450971
H        1.964817    -6.187284    -1.262866
H        1.837084    -8.472428    -2.051007
H        3.511189    -9.349297    -3.668572
H        5.283240    -7.898952    -4.453476
H        5.439822    -5.601401    -3.688225
H        1.181532    -5.379137    -5.169678
H        2.043687    -7.306938    -6.403640
H        4.252198    -7.236593    -7.396569
H        5.624643    -5.185919    -7.160027
H        4.738790    -3.256128    -5.919538
H       -0.068951    -3.720718    -6.195066
H       -2.325203    -3.015164    -6.666460
H       -3.190907    -0.881829    -5.650854
H       -1.706177     0.434489    -4.184531
H        0.533484    -0.295809    -3.726806
H        3.286503    -1.858755    -7.132311
H        4.559944    -0.013635    -8.172642
H        5.263365     1.888326    -6.744021
H        4.671442     1.870787    -4.300622
H        3.398687    -0.022396    -3.339895
75
ex_0152 frame29 conf4
Br       1.374094     1.374094     1.374094
Co       0.000000     0.000000     0.000000
Br      -1.374094    -1.374094     1.374094
Br      -1.374094     1.374094    -1.374094
N        1.154701    -1.154701    -1.154701
C        1.895109    -1.864630    -1.906544
C        2.615325    -2.620188    -2.688523
As       2.870456    -2.040390    -4.474659
C        4.504492    -0.954289    -4.523029
C        5.364737    -0.881334    -3.459570
C        6.483481    -0.095211    -3.585968
C        6.739237     0.606265    -4.754639
C        5.886252     0.541902    -5.826521
C        4.761572    -0.250015    -5.695033
C        1.438898    -0.942678    -5.167721
C        0.971732     0.133792    -4.436919
C       -0.054501     0.933226    -4.917707
C       -0.636490     0.668190    -6.149465
C       -0.180021    -0.409148    -6.897289
C        0.843970    -1.198322    -6.404166
C        3.202167    -3.565870    -5.626769
C        4.479831    -3.901824    -6.042775
C        4.746526    -4.973074    -6.865444
C        3.701077    -5.781017    -7.316864
C        2.415656    -5.469844    -6.912384
C        2.176616    -4.372344    -6.074072
As       3.302443    -4.222349    -1.865119
C        4.090535    -3.771487    -0.122284
C        4.599650    -4.765963     0.686579
C        5.165930    -4.501854     1.928330
C        5.214124    -3.186467     2.354827
C        4.710061    -2.189375     1.554402
C        4.149395    -2.466355     0.321390
C        1.874894    -5.503471    -1.554513
C        1.609377    -6.034930    -0.309137
C        0.585485    -6.952992    -0.094083
C       -0.198848    -7.351409    -1.162567
C        0.066132    -6.819270    -2.407116
C        1.078590    -5.916943    -2.601169
C        4.681949    -5.092747    -2.886693
C        4.447601    -6.322787    -3.497845
C        5.403414    -6.984866    -4.230713
C        6.639761    -6.387367    -4.357380
C        6.929611    -5.161017    -3.773835
C        5.935657    -4.535901    -3.047516
H        5.111275    -1.450398    -2.572387
H        7.163308    -0.041968    -2.738465
H        7.619708     1.229193    -4.867300
H        6.049094     1.079657    -6.765089
H        4.062249    -0.320765    -6.532670
H        1.376796     0.406957    -3.459807
H       -0.431814     1.790304    -4.349187
H       -1.441143     1.298141    -6.519183
H       -0.639749    -0.611002    -7.865185
H        1.225283    -2.057496    -6.974785
H        5.267866    -3.235849    -5.656827
H        5.777182    -5.193203    -7.164428
H        3.947208    -6.606812    -7.955370
H        1.585877    -6.088156    -7.255526
H        1.150152    -4.163178    -5.777794
H        4.582396    -5.812220     0.394702
H        5.560835    -5.328129     2.540739
H        5.658741    -3.001508     3.324639
H        4.762863    -1.154191     1.920662
H        3.763314    -1.662216    -0.280830
H        2.192275    -5.749052     0.530163
H        0.419509    -7.342284     0.903184
H       -0.994155    -8.069239    -0.987748
H       -0.558584    -7.148268    -3.229704
H        1.231955    -5.539159    -3.596242
H        3.457377    -6.780804    -3.385817
H        5.238486    -7.939419    -4.707192
H        7.452689    -6.848778    -4.923059
H        7.905439    -4.708145    -3.883046
H        6.194164    -3.583187    -2.606167
75
ex_0152 frame30 conf5
Br       1.374094     1.374094     1.374094
Co       0.000000     0.000000     0.000000
Br      -1.374094    -1.374094     1.374094
Br      -1.374094     1.374094    -1.374094
N        1.154701    -1.154701    -1.154701
C        1.910158    -1.907893    -1.877456
C        2.639698    -2.686612    -2.636215
As       3.004707    -4.427401    -1.977088
C        1.383274    -5.383590    -1.444280
C        0.647809    -5.964806    -2.467465
C       -0.514788    -6.669178    -2.210060
C       -0.905503    -6.762866    -0.890646
C       -0.170241    -6.179770     0.131647
C        0.989220    -5.477768    -0.129653
C        3.978074    -5.603171    -3.100679
C        5.116716    -5.166717    -3.738392
C        5.872723    -5.966736    -4.568471
C        5.513417    -7.271319    -4.802822
C        4.377063    -7.742677    -4.179930
C        3.625468    -6.938158    -3.351287
C        4.084868    -4.211711    -0.371004
C        4.604021    -5.355908     0.232881
C        5.378130    -5.237064     1.379283
C        5.652634    -4.001285     1.946454
C        5.133890    -2.865165     1.341845
C        4.355674    -2.982696     0.189874
As       3.218127    -1.931027    -4.293349
C        5.100514    -1.377885    -4.272558
C        5.637806    -1.035329    -5.497191
C        6.968972    -0.628302    -5.588642
C        7.713362    -0.579264    -4.449776
C        7.155122    -0.929301    -3.216214
C        5.833165    -1.334571    -3.118499
C        2.349462    -0.220766    -4.645759
C        2.395823     0.769444    -3.680945
C        1.798287     2.007403    -3.877113
C        1.129290     2.287854    -5.059351
C        1.078217     1.295658    -6.031937
C        1.689754     0.057462    -5.806171
C        2.840019    -3.072213    -5.801960
C        3.796182    -3.724121    -6.516582
C        3.415497    -4.512671    -7.574860
C        2.090768    -4.669115    -7.941941
C        1.129523    -4.019846    -7.230855
C        1.515170    -3.229979    -6.170311
H        0.938011    -5.900484    -3.510840
H       -1.091923    -7.126244    -3.002454
H       -1.797038    -7.301160    -0.672908
H       -0.517838    -6.281840     1.145817
H        1.592004    -5.008684     0.629035
H        5.431237    -4.168650    -3.585591
H        6.767323    -5.572003    -5.049527
H        6.082848    -7.920020    -5.445599
H        4.073237    -8.777324    -4.352208
H        2.751250    -7.329148    -2.880957
H        4.416873    -6.348126    -0.174303
H        5.766393    -6.157492     1.822348
H        6.263783    -3.910752     2.851096
H        5.325311    -1.881231     1.753863
H        3.940829    -2.094590    -0.296110
H        5.047928    -1.071069    -6.420401
H        7.340555    -0.371382    -6.568268
H        8.753278    -0.259686    -4.532675
H        7.783525    -0.874988    -2.339840
H        5.379726    -1.610487    -2.171272
H        2.915391     0.544915    -2.768550
H        1.842735     2.775148    -3.113845
H        0.651168     3.244842    -5.246083
H        0.561876     1.503415    -6.952122
H        1.639856    -0.699898    -6.571810
H        4.830565    -3.588051    -6.212603
H        4.169263    -5.040505    -8.156180
H        1.798910    -5.297872    -8.784224
H        0.101546    -4.133357    -7.505670
H        0.712276    -2.723004    -5.621517
