63
ex_0364 frame0 T-4-1
Zn       0.000000     0.000000     0.000000
Te       1.501111     1.501111     1.501111
Si       2.940836     2.940836     2.940836
C        2.394726     2.875378     4.719103
C        2.707376     4.700751     2.321921
C        4.707763     2.400575     2.827107
H        2.085892     3.885693     5.094220
H        1.593655     2.118071     4.870958
H        3.232592     2.570502     5.393589
H        1.637283     4.954045     2.525604
H        3.361946     5.375806     2.897919
H        2.838378     4.740922     1.239184
H        5.274781     3.135105     2.203612
H        5.159653     2.283030     3.832240
H        4.784599     1.391900     2.344876
Te       1.501111    -1.501111    -1.501111
Si       2.940836    -2.940836    -2.940836
C        4.177472    -1.922750    -3.888986
C        1.788703    -3.762919    -4.178426
C        3.841859    -4.185334    -1.908252
H        4.039266    -2.030226    -4.996313
H        4.153343    -0.855920    -3.573420
H        5.223311    -2.271016    -3.702355
H        1.377003    -2.933870    -4.806059
H        2.371970    -4.450760    -4.812941
H        0.940661    -4.215876    -3.661946
H        3.371449    -5.189112    -2.052937
H        4.923593    -4.202516    -2.148815
H        3.781394    -3.918468    -0.821513
C       -3.260458     4.204387    -0.753686
C       -2.558807     3.040785    -1.377571
C       -2.728632     2.728637    -2.728636
C       -2.092632     1.610659    -3.273873
C       -2.218562     1.274634    -4.725336
C       -1.291188     0.852745    -2.427996
N       -1.114286     1.114286    -1.114286
C       -1.756764     2.195208    -0.619957
H       -2.677812     4.611997     0.079164
H       -3.397690     5.012673    -1.479669
H       -4.241468     3.894979    -0.380290
H       -3.356578     3.356584    -3.356584
H       -1.436371     1.782863    -5.297542
H       -2.129263     0.195101    -4.886263
H       -3.195674     1.580661    -5.113679
H       -0.751799    -0.017625    -2.792280
H       -1.599173     2.368592     0.441311
C       -4.757641    -1.375851     2.085038
C       -3.297446    -1.684518     1.995200
C       -2.728635    -2.728638     2.728632
C       -1.353997    -2.966927     2.656240
C       -0.721379    -4.103170     3.393982
C       -0.602976    -2.142004     1.826950
N       -1.114286    -1.114286     1.114286
C       -2.444977    -0.905949     1.221003
H       -5.123046    -0.936971     1.150627
H       -5.338919    -2.286362     2.264751
H       -4.942913    -0.671781     2.902044
H       -3.356582    -3.356586     3.356579
H       -0.734930    -5.006053     2.775792
H        0.315957    -3.870133     3.656450
H       -1.254422    -4.306977     4.328616
H        0.467849    -2.285445     1.708857
H       -2.818817    -0.065521     0.642114
63
ex_0364 frame1 T-4-1-conf2
Zn       0.000000     0.000000     0.000000
Te       1.501111     1.501111     1.501111
Si       2.940836     2.940836     2.940836
C        2.394726     2.875378     4.719103
C        2.707376     4.700751     2.321921
C        4.707763     2.400575     2.827107
H        2.085892     3.885693     5.094220
H        1.593655     2.118071     4.870958
H        3.232592     2.570502     5.393589
H        1.637283     4.954045     2.525604
H        3.361946     5.375806     2.897919
H        2.838378     4.740922     1.239184
H        5.274781     3.135105     2.203612
H        5.159653     2.283030     3.832240
H        4.784599     1.391900     2.344876
Te       1.501111    -1.501111    -1.501111
Si       2.929913    -2.929913    -2.929913
C        2.503418    -2.597935    -4.734887
C        2.559177    -4.709984    -2.516953
C        4.743865    -2.606918    -2.662903
H        3.388666    -2.885821    -5.320274
H        1.659091    -3.296305    -4.983696
H        2.153343    -1.573083    -4.893191
H        1.580743    -4.795729    -2.011023
H        3.385903    -5.122081    -1.903766
H        2.540366    -5.273696    -3.476795
H        5.187024    -3.448542    -2.061634
H        4.951023    -1.693623    -2.090488
H        5.269443    -2.612790    -3.638715
C       -3.260458     4.204387    -0.753686
C       -2.558807     3.040785    -1.377571
C       -2.728632     2.728637    -2.728636
C       -2.092632     1.610659    -3.273873
C       -2.218562     1.274634    -4.725336
C       -1.291188     0.852745    -2.427996
N       -1.114286     1.114286    -1.114286
C       -1.756764     2.195208    -0.619957
H       -2.677812     4.611997     0.079164
H       -3.397690     5.012673    -1.479669
H       -4.241468     3.894979    -0.380290
H       -3.356578     3.356584    -3.356584
H       -1.436371     1.782863    -5.297542
H       -2.129263     0.195101    -4.886263
H       -3.195674     1.580661    -5.113679
H       -0.751799    -0.017625    -2.792280
H       -1.599173     2.368592     0.441311
C       -4.757641    -1.375851     2.085038
C       -3.297446    -1.684518     1.995200
C       -2.728635    -2.728638     2.728632
C       -1.353997    -2.966927     2.656240
C       -0.721379    -4.103170     3.393982
C       -0.602976    -2.142004     1.826950
N       -1.114286    -1.114286     1.114286
C       -2.444977    -0.905949     1.221003
H       -5.123046    -0.936971     1.150627
H       -5.338919    -2.286362     2.264751
H       -4.942913    -0.671781     2.902044
H       -3.356582    -3.356586     3.356579
H       -0.734930    -5.006053     2.775792
H        0.315957    -3.870133     3.656450
H       -1.254422    -4.306977     4.328616
H        0.467849    -2.285445     1.708857
H       -2.818817    -0.065521     0.642114
63
ex_0364 frame2 T-4-1-conf3
Zn       0.000000     0.000000     0.000000
Te       1.501111     1.501111     1.501111
Si       2.929913     2.929913     2.929913
C        1.974485     4.493609     3.368147
C        4.452641     3.380673     1.952801
C        3.444482     2.070178     4.499026
H        2.419249     4.878066     4.297446
H        2.180348     5.221472     2.537273
H        0.894656     4.319030     3.405931
H        4.275820     3.240406     0.871268
H        5.311251     2.782030     2.318468
H        4.675276     4.450653     2.164928
H        4.522557     1.758531     4.416111
H        2.884954     1.148033     4.702147
H        3.391926     2.782269     5.346753
Te       1.501111    -1.501111    -1.501111
Si       2.940836    -2.940836    -2.940836
C        4.177472    -1.922750    -3.888986
C        1.788703    -3.762919    -4.178426
C        3.841859    -4.185334    -1.908252
H        4.039266    -2.030226    -4.996313
H        4.153343    -0.855920    -3.573420
H        5.223311    -2.271016    -3.702355
H        1.377003    -2.933870    -4.806059
H        2.371970    -4.450760    -4.812941
H        0.940661    -4.215876    -3.661946
H        3.371449    -5.189112    -2.052937
H        4.923593    -4.202516    -2.148815
H        3.781394    -3.918468    -0.821513
C       -3.260458     4.204387    -0.753686
C       -2.558807     3.040785    -1.377571
C       -2.728632     2.728637    -2.728636
C       -2.092632     1.610659    -3.273873
C       -2.218562     1.274634    -4.725336
C       -1.291188     0.852745    -2.427996
N       -1.114286     1.114286    -1.114286
C       -1.756764     2.195208    -0.619957
H       -2.677812     4.611997     0.079164
H       -3.397690     5.012673    -1.479669
H       -4.241468     3.894979    -0.380290
H       -3.356578     3.356584    -3.356584
H       -1.436371     1.782863    -5.297542
H       -2.129263     0.195101    -4.886263
H       -3.195674     1.580661    -5.113679
H       -0.751799    -0.017625    -2.792280
H       -1.599173     2.368592     0.441311
C       -4.757641    -1.375851     2.085038
C       -3.297446    -1.684518     1.995200
C       -2.728635    -2.728638     2.728632
C       -1.353997    -2.966927     2.656240
C       -0.721379    -4.103170     3.393982
C       -0.602976    -2.142004     1.826950
N       -1.114286    -1.114286     1.114286
C       -2.444977    -0.905949     1.221003
H       -5.123046    -0.936971     1.150627
H       -5.338919    -2.286362     2.264751
H       -4.942913    -0.671781     2.902044
H       -3.356582    -3.356586     3.356579
H       -0.734930    -5.006053     2.775792
H        0.315957    -3.870133     3.656450
H       -1.254422    -4.306977     4.328616
H        0.467849    -2.285445     1.708857
H       -2.818817    -0.065521     0.642114
63
ex_0364 frame3 T-4-1-conf4
Zn       0.000000     0.000000     0.000000
Te       1.501111     1.501111     1.501111
Si       2.940836     2.940836     2.940836
C        2.394726     2.875378     4.719103
C        2.707376     4.700751     2.321921
C        4.707763     2.400575     2.827107
H        2.085892     3.885693     5.094220
H        1.593655     2.118071     4.870958
H        3.232592     2.570502     5.393589
H        1.637283     4.954045     2.525604
H        3.361946     5.375806     2.897919
H        2.838378     4.740922     1.239184
H        5.274781     3.135105     2.203612
H        5.159653     2.283030     3.832240
H        4.784599     1.391900     2.344876
Te       1.501111    -1.501111    -1.501111
Si       2.942982    -2.942982    -2.942982
C        4.542126    -3.211705    -2.043443
C        3.348848    -2.071305    -4.550465
C        2.028529    -4.518610    -3.281616
H        4.841307    -2.224562    -1.607629
H        4.466347    -3.902011    -1.193289
H        5.362114    -3.483157    -2.754506
H        2.588046    -2.380817    -5.279843
H        4.330879    -2.433614    -4.948444
H        3.432809    -0.973226    -4.422376
H        2.683332    -5.342361    -3.621045
H        1.419223    -4.860387    -2.426018
H        1.320504    -4.333231    -4.128891
C       -3.260458     4.204387    -0.753686
C       -2.558807     3.040785    -1.377571
C       -2.728632     2.728637    -2.728636
C       -2.092632     1.610659    -3.273873
C       -2.218562     1.274634    -4.725336
C       -1.291188     0.852745    -2.427996
N       -1.114286     1.114286    -1.114286
C       -1.756764     2.195208    -0.619957
H       -2.677812     4.611997     0.079164
H       -3.397690     5.012673    -1.479669
H       -4.241468     3.894979    -0.380290
H       -3.356578     3.356584    -3.356584
H       -1.436371     1.782863    -5.297542
H       -2.129263     0.195101    -4.886263
H       -3.195674     1.580661    -5.113679
H       -0.751799    -0.017625    -2.792280
H       -1.599173     2.368592     0.441311
C       -4.757641    -1.375851     2.085038
C       -3.297446    -1.684518     1.995200
C       -2.728635    -2.728638     2.728632
C       -1.353997    -2.966927     2.656240
C       -0.721379    -4.103170     3.393982
C       -0.602976    -2.142004     1.826950
N       -1.114286    -1.114286     1.114286
C       -2.444977    -0.905949     1.221003
H       -5.123046    -0.936971     1.150627
H       -5.338919    -2.286362     2.264751
H       -4.942913    -0.671781     2.902044
H       -3.356582    -3.356586     3.356579
H       -0.734930    -5.006053     2.775792
H        0.315957    -3.870133     3.656450
H       -1.254422    -4.306977     4.328616
H        0.467849    -2.285445     1.708857
H       -2.818817    -0.065521     0.642114
63
ex_0364 frame4 T-4-1-conf5
Zn       0.000000     0.000000     0.000000
Te       1.501111     1.501111     1.501111
Si       2.929913     2.929913     2.929913
C        1.974485     4.493609     3.368147
C        4.452641     3.380673     1.952801
C        3.444482     2.070178     4.499026
H        2.419249     4.878066     4.297446
H        2.180348     5.221472     2.537273
H        0.894656     4.319030     3.405931
H        4.275820     3.240406     0.871268
H        5.311251     2.782030     2.318468
H        4.675276     4.450653     2.164928
H        4.522557     1.758531     4.416111
H        2.884954     1.148033     4.702147
H        3.391926     2.782269     5.346753
Te       1.501111    -1.501111    -1.501111
Si       2.929913    -2.929913    -2.929913
C        2.503418    -2.597935    -4.734887
C        2.559177    -4.709984    -2.516953
C        4.743865    -2.606918    -2.662903
H        3.388666    -2.885821    -5.320274
H        1.659091    -3.296305    -4.983696
H        2.153343    -1.573083    -4.893191
H        1.580743    -4.795729    -2.011023
H        3.385903    -5.122081    -1.903766
H        2.540366    -5.273696    -3.476795
H        5.187024    -3.448542    -2.061634
H        4.951023    -1.693623    -2.090488
H        5.269443    -2.612790    -3.638715
C       -3.260458     4.204387    -0.753686
C       -2.558807     3.040785    -1.377571
C       -2.728632     2.728637    -2.728636
C       -2.092632     1.610659    -3.273873
C       -2.218562     1.274634    -4.725336
C       -1.291188     0.852745    -2.427996
N       -1.114286     1.114286    -1.114286
C       -1.756764     2.195208    -0.619957
H       -2.677812     4.611997     0.079164
H       -3.397690     5.012673    -1.479669
H       -4.241468     3.894979    -0.380290
H       -3.356578     3.356584    -3.356584
H       -1.436371     1.782863    -5.297542
H       -2.129263     0.195101    -4.886263
H       -3.195674     1.580661    -5.113679
H       -0.751799    -0.017625    -2.792280
H       -1.599173     2.368592     0.441311
C       -4.757641    -1.375851     2.085038
C       -3.297446    -1.684518     1.995200
C       -2.728635    -2.728638     2.728632
C       -1.353997    -2.966927     2.656240
C       -0.721379    -4.103170     3.393982
C       -0.602976    -2.142004     1.826950
N       -1.114286    -1.114286     1.114286
C       -2.444977    -0.905949     1.221003
H       -5.123046    -0.936971     1.150627
H       -5.338919    -2.286362     2.264751
H       -4.942913    -0.671781     2.902044
H       -3.356582    -3.356586     3.356579
H       -0.734930    -5.006053     2.775792
H        0.315957    -3.870133     3.656450
H       -1.254422    -4.306977     4.328616
H        0.467849    -2.285445     1.708857
H       -2.818817    -0.065521     0.642114
63
ex_0364 frame5 T-4-1-conf6
Zn       0.000000     0.000000     0.000000
Te       1.501111     1.501111     1.501111
Si       2.942982     2.942982     2.942982
C        4.019017     1.822594     3.955663
C        1.896604     3.937349     4.136665
C        3.910729     4.076254     1.841773
H        3.369020     0.986051     4.318426
H        4.828280     1.346092     3.387276
H        4.380294     2.339995     4.879488
H        1.693812     4.902310     3.652584
H        2.482002     4.167876     5.063059
H        0.986108     3.389414     4.452889
H        4.798859     4.514189     2.333690
H        4.211554     3.604899     0.889174
H        3.256862     4.946393     1.579372
Te       1.501111    -1.501111    -1.501111
Si       2.940836    -2.940836    -2.940836
C        4.177472    -1.922750    -3.888986
C        1.788703    -3.762919    -4.178426
C        3.841859    -4.185334    -1.908252
H        4.039266    -2.030226    -4.996313
H        4.153343    -0.855920    -3.573420
H        5.223311    -2.271016    -3.702355
H        1.377003    -2.933870    -4.806059
H        2.371970    -4.450760    -4.812941
H        0.940661    -4.215876    -3.661946
H        3.371449    -5.189112    -2.052937
H        4.923593    -4.202516    -2.148815
H        3.781394    -3.918468    -0.821513
C       -3.260458     4.204387    -0.753686
C       -2.558807     3.040785    -1.377571
C       -2.728632     2.728637    -2.728636
C       -2.092632     1.610659    -3.273873
C       -2.218562     1.274634    -4.725336
C       -1.291188     0.852745    -2.427996
N       -1.114286     1.114286    -1.114286
C       -1.756764     2.195208    -0.619957
H       -2.677812     4.611997     0.079164
H       -3.397690     5.012673    -1.479669
H       -4.241468     3.894979    -0.380290
H       -3.356578     3.356584    -3.356584
H       -1.436371     1.782863    -5.297542
H       -2.129263     0.195101    -4.886263
H       -3.195674     1.580661    -5.113679
H       -0.751799    -0.017625    -2.792280
H       -1.599173     2.368592     0.441311
C       -4.757641    -1.375851     2.085038
C       -3.297446    -1.684518     1.995200
C       -2.728635    -2.728638     2.728632
C       -1.353997    -2.966927     2.656240
C       -0.721379    -4.103170     3.393982
C       -0.602976    -2.142004     1.826950
N       -1.114286    -1.114286     1.114286
C       -2.444977    -0.905949     1.221003
H       -5.123046    -0.936971     1.150627
H       -5.338919    -2.286362     2.264751
H       -4.942913    -0.671781     2.902044
H       -3.356582    -3.356586     3.356579
H       -0.734930    -5.006053     2.775792
H        0.315957    -3.870133     3.656450
H       -1.254422    -4.306977     4.328616
H        0.467849    -2.285445     1.708857
H       -2.818817    -0.065521     0.642114
63
ex_0364 frame6 T-4-1-conf7
Zn       0.000000     0.000000     0.000000
Te       1.501111     1.501111     1.501111
Si       2.940836     2.940836     2.940836
C        2.394726     2.875378     4.719103
C        2.707376     4.700751     2.321921
C        4.707763     2.400575     2.827107
H        2.085892     3.885693     5.094220
H        1.593655     2.118071     4.870958
H        3.232592     2.570502     5.393589
H        1.637283     4.954045     2.525604
H        3.361946     5.375806     2.897919
H        2.838378     4.740922     1.239184
H        5.274781     3.135105     2.203612
H        5.159653     2.283030     3.832240
H        4.784599     1.391900     2.344876
Te       1.501111    -1.501111    -1.501111
Si       2.944332    -2.944332    -2.944332
C        3.085003    -2.128477    -4.610471
C        4.590710    -3.072643    -2.110312
C        2.106587    -4.579469    -3.171618
H        3.258250    -1.054569    -4.462546
H        3.851560    -2.614685    -5.229823
H        2.091608    -2.270393    -5.105961
H        4.482432    -3.143843    -0.998991
H        5.200865    -3.914959    -2.479607
H        5.120565    -2.099329    -2.268642
H        2.302315    -5.301418    -2.355350
H        2.352203    -5.057368    -4.153103
H        1.007459    -4.370364    -3.221005
C       -3.260458     4.204387    -0.753686
C       -2.558807     3.040785    -1.377571
C       -2.728632     2.728637    -2.728636
C       -2.092632     1.610659    -3.273873
C       -2.218562     1.274634    -4.725336
C       -1.291188     0.852745    -2.427996
N       -1.114286     1.114286    -1.114286
C       -1.756764     2.195208    -0.619957
H       -2.677812     4.611997     0.079164
H       -3.397690     5.012673    -1.479669
H       -4.241468     3.894979    -0.380290
H       -3.356578     3.356584    -3.356584
H       -1.436371     1.782863    -5.297542
H       -2.129263     0.195101    -4.886263
H       -3.195674     1.580661    -5.113679
H       -0.751799    -0.017625    -2.792280
H       -1.599173     2.368592     0.441311
C       -4.757641    -1.375851     2.085038
C       -3.297446    -1.684518     1.995200
C       -2.728635    -2.728638     2.728632
C       -1.353997    -2.966927     2.656240
C       -0.721379    -4.103170     3.393982
C       -0.602976    -2.142004     1.826950
N       -1.114286    -1.114286     1.114286
C       -2.444977    -0.905949     1.221003
H       -5.123046    -0.936971     1.150627
H       -5.338919    -2.286362     2.264751
H       -4.942913    -0.671781     2.902044
H       -3.356582    -3.356586     3.356579
H       -0.734930    -5.006053     2.775792
H        0.315957    -3.870133     3.656450
H       -1.254422    -4.306977     4.328616
H        0.467849    -2.285445     1.708857
H       -2.818817    -0.065521     0.642114
63
ex_0364 frame7 T-4-1-conf8
Zn       0.000000     0.000000     0.000000
Te       1.501111     1.501111     1.501111
Si       2.929913     2.929913     2.929913
C        1.974485     4.493609     3.368147
C        4.452641     3.380673     1.952801
C        3.444482     2.070178     4.499026
H        2.419249     4.878066     4.297446
H        2.180348     5.221472     2.537273
H        0.894656     4.319030     3.405931
H        4.275820     3.240406     0.871268
H        5.311251     2.782030     2.318468
H        4.675276     4.450653     2.164928
H        4.522557     1.758531     4.416111
H        2.884954     1.148033     4.702147
H        3.391926     2.782269     5.346753
Te       1.501111    -1.501111    -1.501111
Si       2.942982    -2.942982    -2.942982
C        4.542126    -3.211705    -2.043443
C        3.348848    -2.071305    -4.550465
C        2.028529    -4.518610    -3.281616
H        4.841307    -2.224562    -1.607629
H        4.466347    -3.902011    -1.193289
H        5.362114    -3.483157    -2.754506
H        2.588046    -2.380817    -5.279843
H        4.330879    -2.433614    -4.948444
H        3.432809    -0.973226    -4.422376
H        2.683332    -5.342361    -3.621045
H        1.419223    -4.860387    -2.426018
H        1.320504    -4.333231    -4.128891
C       -3.260458     4.204387    -0.753686
C       -2.558807     3.040785    -1.377571
C       -2.728632     2.728637    -2.728636
C       -2.092632     1.610659    -3.273873
C       -2.218562     1.274634    -4.725336
C       -1.291188     0.852745    -2.427996
N       -1.114286     1.114286    -1.114286
C       -1.756764     2.195208    -0.619957
H       -2.677812     4.611997     0.079164
H       -3.397690     5.012673    -1.479669
H       -4.241468     3.894979    -0.380290
H       -3.356578     3.356584    -3.356584
H       -1.436371     1.782863    -5.297542
H       -2.129263     0.195101    -4.886263
H       -3.195674     1.580661    -5.113679
H       -0.751799    -0.017625    -2.792280
H       -1.599173     2.368592     0.441311
C       -4.757641    -1.375851     2.085038
C       -3.297446    -1.684518     1.995200
C       -2.728635    -2.728638     2.728632
C       -1.353997    -2.966927     2.656240
C       -0.721379    -4.103170     3.393982
C       -0.602976    -2.142004     1.826950
N       -1.114286    -1.114286     1.114286
C       -2.444977    -0.905949     1.221003
H       -5.123046    -0.936971     1.150627
H       -5.338919    -2.286362     2.264751
H       -4.942913    -0.671781     2.902044
H       -3.356582    -3.356586     3.356579
H       -0.734930    -5.006053     2.775792
H        0.315957    -3.870133     3.656450
H       -1.254422    -4.306977     4.328616
H        0.467849    -2.285445     1.708857
H       -2.818817    -0.065521     0.642114
63
ex_0364 frame8 T-4-1-conf9
Zn       0.000000     0.000000     0.000000
Te       1.501111     1.501111     1.501111
Si       2.942982     2.942982     2.942982
C        4.019017     1.822594     3.955663
C        1.896604     3.937349     4.136665
C        3.910729     4.076254     1.841773
H        3.369020     0.986051     4.318426
H        4.828280     1.346092     3.387276
H        4.380294     2.339995     4.879488
H        1.693812     4.902310     3.652584
H        2.482002     4.167876     5.063059
H        0.986108     3.389414     4.452889
H        4.798859     4.514189     2.333690
H        4.211554     3.604899     0.889174
H        3.256862     4.946393     1.579372
Te       1.501111    -1.501111    -1.501111
Si       2.929913    -2.929913    -2.929913
C        2.503418    -2.597935    -4.734887
C        2.559177    -4.709984    -2.516953
C        4.743865    -2.606918    -2.662903
H        3.388666    -2.885821    -5.320274
H        1.659091    -3.296305    -4.983696
H        2.153343    -1.573083    -4.893191
H        1.580743    -4.795729    -2.011023
H        3.385903    -5.122081    -1.903766
H        2.540366    -5.273696    -3.476795
H        5.187024    -3.448542    -2.061634
H        4.951023    -1.693623    -2.090488
H        5.269443    -2.612790    -3.638715
C       -3.260458     4.204387    -0.753686
C       -2.558807     3.040785    -1.377571
C       -2.728632     2.728637    -2.728636
C       -2.092632     1.610659    -3.273873
C       -2.218562     1.274634    -4.725336
C       -1.291188     0.852745    -2.427996
N       -1.114286     1.114286    -1.114286
C       -1.756764     2.195208    -0.619957
H       -2.677812     4.611997     0.079164
H       -3.397690     5.012673    -1.479669
H       -4.241468     3.894979    -0.380290
H       -3.356578     3.356584    -3.356584
H       -1.436371     1.782863    -5.297542
H       -2.129263     0.195101    -4.886263
H       -3.195674     1.580661    -5.113679
H       -0.751799    -0.017625    -2.792280
H       -1.599173     2.368592     0.441311
C       -4.757641    -1.375851     2.085038
C       -3.297446    -1.684518     1.995200
C       -2.728635    -2.728638     2.728632
C       -1.353997    -2.966927     2.656240
C       -0.721379    -4.103170     3.393982
C       -0.602976    -2.142004     1.826950
N       -1.114286    -1.114286     1.114286
C       -2.444977    -0.905949     1.221003
H       -5.123046    -0.936971     1.150627
H       -5.338919    -2.286362     2.264751
H       -4.942913    -0.671781     2.902044
H       -3.356582    -3.356586     3.356579
H       -0.734930    -5.006053     2.775792
H        0.315957    -3.870133     3.656450
H       -1.254422    -4.306977     4.328616
H        0.467849    -2.285445     1.708857
H       -2.818817    -0.065521     0.642114
63
ex_0364 frame9 T-4-1-conf10
Zn       0.000000     0.000000     0.000000
Te       1.501111     1.501111     1.501111
Si       2.944332     2.944332     2.944332
C        1.859939     4.238898     3.725114
C        3.711919     1.843766     4.217980
C        4.184910     3.801993     1.870771
H        0.938076     3.758815     4.078474
H        2.396631     4.788529     4.510907
H        1.603350     4.957867     2.906745
H        3.989326     0.849427     3.786513
H        4.591286     2.294716     4.709430
H        2.918475     1.600727     4.969335
H        5.092149     3.201533     1.665400
H        4.487531     4.800769     2.274374
H        3.667460     4.027809     0.903559
Te       1.501111    -1.501111    -1.501111
Si       2.940836    -2.940836    -2.940836
C        4.177472    -1.922750    -3.888986
C        1.788703    -3.762919    -4.178426
C        3.841859    -4.185334    -1.908252
H        4.039266    -2.030226    -4.996313
H        4.153343    -0.855920    -3.573420
H        5.223311    -2.271016    -3.702355
H        1.377003    -2.933870    -4.806059
H        2.371970    -4.450760    -4.812941
H        0.940661    -4.215876    -3.661946
H        3.371449    -5.189112    -2.052937
H        4.923593    -4.202516    -2.148815
H        3.781394    -3.918468    -0.821513
C       -3.260458     4.204387    -0.753686
C       -2.558807     3.040785    -1.377571
C       -2.728632     2.728637    -2.728636
C       -2.092632     1.610659    -3.273873
C       -2.218562     1.274634    -4.725336
C       -1.291188     0.852745    -2.427996
N       -1.114286     1.114286    -1.114286
C       -1.756764     2.195208    -0.619957
H       -2.677812     4.611997     0.079164
H       -3.397690     5.012673    -1.479669
H       -4.241468     3.894979    -0.380290
H       -3.356578     3.356584    -3.356584
H       -1.436371     1.782863    -5.297542
H       -2.129263     0.195101    -4.886263
H       -3.195674     1.580661    -5.113679
H       -0.751799    -0.017625    -2.792280
H       -1.599173     2.368592     0.441311
C       -4.757641    -1.375851     2.085038
C       -3.297446    -1.684518     1.995200
C       -2.728635    -2.728638     2.728632
C       -1.353997    -2.966927     2.656240
C       -0.721379    -4.103170     3.393982
C       -0.602976    -2.142004     1.826950
N       -1.114286    -1.114286     1.114286
C       -2.444977    -0.905949     1.221003
H       -5.123046    -0.936971     1.150627
H       -5.338919    -2.286362     2.264751
H       -4.942913    -0.671781     2.902044
H       -3.356582    -3.356586     3.356579
H       -0.734930    -5.006053     2.775792
H        0.315957    -3.870133     3.656450
H       -1.254422    -4.306977     4.328616
H        0.467849    -2.285445     1.708857
H       -2.818817    -0.065521     0.642114
63
ex_0364 frame10 T-4-1-reembed1
Zn       0.000000     0.000000     0.000000
Te       1.501111     1.501111     1.501111
Si       2.930944     2.930944     2.930944
C        1.901540     3.623428     4.323433
C        4.334120     1.913741     3.636510
C        3.699818     4.301824     1.932644
H        0.878878     3.782239     3.939486
H        1.945001     2.882664     5.150523
H        2.381961     4.543002     4.696505
H        3.928681     1.017370     4.127634
H        4.905624     2.540589     4.352134
H        5.013758     1.655346     2.796851
H        3.088735     5.216415     1.917040
H        3.898709     3.936638     0.915852
H        4.683145     4.580313     2.385372
Te       1.501111    -1.501111    -1.501111
Si       2.930944    -2.930944    -2.930944
C        4.644357    -3.005798    -2.198246
C        2.211515    -4.656199    -3.016657
C        2.985336    -2.275877    -4.673073
H        4.848712    -2.032399    -1.719492
H        4.646458    -3.852757    -1.478973
H        5.360146    -3.265800    -2.995522
H        2.040107    -5.034895    -1.998682
H        2.913607    -5.309088    -3.575651
H        1.268959    -4.595834    -3.601163
H        3.811934    -1.569619    -4.840637
H        2.015353    -1.820606    -4.915239
H        3.140908    -3.126254    -5.381667
C       -1.983290     1.458477    -4.776264
C       -1.944856     1.726610    -3.305837
C       -2.735475     2.722692    -2.727605
C       -2.697661     2.932652    -1.346990
C       -3.552022     3.971694    -0.694315
C       -1.881588     2.096895    -0.593450
N       -1.114286     1.114286    -1.114286
C       -1.166367     0.951060    -2.454505
H       -1.022582     1.067821    -5.127953
H       -2.183749     2.378280    -5.335724
H       -2.766198     0.728758    -5.004534
H       -3.380193     3.336025    -3.353000
H       -3.075316     4.356458     0.213411
H       -3.710258     4.823832    -1.363673
H       -4.524555     3.545768    -0.429151
H       -1.820598     2.193159     0.487388
H       -0.543215     0.146700    -2.836453
C       -2.772282    -0.939668     4.506081
C       -2.322003    -1.471905     3.183395
C       -2.736037    -2.724875     2.724861
C       -2.319779    -3.184497     1.473027
C       -2.767647    -4.508458     0.941926
C       -1.522921    -2.337525     0.711487
N       -1.114286    -1.114286     1.114286
C       -1.525034    -0.710430     2.336468
H       -2.022860    -0.263945     4.931550
H       -2.920530    -1.753011     5.224211
H       -3.714205    -0.394705     4.390580
H       -3.382133    -3.343567     3.343518
H       -2.016790    -4.933834     0.267740
H       -2.916032    -5.225721     1.756010
H       -3.709005    -4.394888     0.395581
H       -1.180545    -2.624969    -0.279145
H       -1.184321     0.281019     2.623067
63
ex_0364 frame11 T-4-1-reembed2
Zn       0.000000     0.000000     0.000000
Te       1.501111     1.501111     1.501111
Si       2.930944     2.930944     2.930944
C        3.623428     4.323433     1.901540
C        1.913741     3.636510     4.334120
C        4.301824     1.932644     3.699818
H        3.782239     3.939486     0.878878
H        2.882664     5.150523     1.945001
H        4.543002     4.696505     2.381961
H        1.017370     4.127634     3.928681
H        2.540589     4.352134     4.905624
H        1.655346     2.796851     5.013758
H        5.216415     1.917040     3.088735
H        3.936638     0.915852     3.898709
H        4.580313     2.385372     4.683145
Te       1.501111    -1.501111    -1.501111
Si       2.930944    -2.930944    -2.930944
C        4.644357    -3.005798    -2.198246
C        2.211515    -4.656199    -3.016657
C        2.985336    -2.275877    -4.673073
H        4.848712    -2.032399    -1.719492
H        4.646458    -3.852757    -1.478973
H        5.360146    -3.265800    -2.995522
H        2.040107    -5.034895    -1.998682
H        2.913607    -5.309088    -3.575651
H        1.268959    -4.595834    -3.601163
H        3.811934    -1.569619    -4.840637
H        2.015353    -1.820606    -4.915239
H        3.140908    -3.126254    -5.381667
C       -1.983290     1.458477    -4.776264
C       -1.944856     1.726610    -3.305837
C       -2.735475     2.722692    -2.727605
C       -2.697661     2.932652    -1.346990
C       -3.552022     3.971694    -0.694315
C       -1.881588     2.096895    -0.593450
N       -1.114286     1.114286    -1.114286
C       -1.166367     0.951060    -2.454505
H       -1.022582     1.067821    -5.127953
H       -2.183749     2.378280    -5.335724
H       -2.766198     0.728758    -5.004534
H       -3.380193     3.336025    -3.353000
H       -3.075316     4.356458     0.213411
H       -3.710258     4.823832    -1.363673
H       -4.524555     3.545768    -0.429151
H       -1.820598     2.193159     0.487388
H       -0.543215     0.146700    -2.836453
C       -2.772282    -0.939668     4.506081
C       -2.322003    -1.471905     3.183395
C       -2.736037    -2.724875     2.724861
C       -2.319779    -3.184497     1.473027
C       -2.767647    -4.508458     0.941926
C       -1.522921    -2.337525     0.711487
N       -1.114286    -1.114286     1.114286
C       -1.525034    -0.710430     2.336468
H       -2.022860    -0.263945     4.931550
H       -2.920530    -1.753011     5.224211
H       -3.714205    -0.394705     4.390580
H       -3.382133    -3.343567     3.343518
H       -2.016790    -4.933834     0.267740
H       -2.916032    -5.225721     1.756010
H       -3.709005    -4.394888     0.395581
H       -1.180545    -2.624969    -0.279145
H       -1.184321     0.281019     2.623067
63
ex_0364 frame12 T-4-1-reembed3
Zn       0.000000     0.000000     0.000000
Te       1.501111     1.501111     1.501111
Si       2.930944     2.930944     2.930944
C        4.323433     1.901540     3.623428
C        3.636510     4.334120     1.913741
C        1.932644     3.699818     4.301824
H        3.939486     0.878878     3.782239
H        5.150523     1.945001     2.882664
H        4.696505     2.381961     4.543002
H        4.127634     3.928681     1.017370
H        4.352134     4.905624     2.540589
H        2.796851     5.013758     1.655346
H        1.917040     3.088735     5.216415
H        0.915852     3.898709     3.936638
H        2.385372     4.683145     4.580313
Te       1.501111    -1.501111    -1.501111
Si       2.930944    -2.930944    -2.930944
C        4.644357    -3.005798    -2.198246
C        2.211515    -4.656199    -3.016657
C        2.985336    -2.275877    -4.673073
H        4.848712    -2.032399    -1.719492
H        4.646458    -3.852757    -1.478973
H        5.360146    -3.265800    -2.995522
H        2.040107    -5.034895    -1.998682
H        2.913607    -5.309088    -3.575651
H        1.268959    -4.595834    -3.601163
H        3.811934    -1.569619    -4.840637
H        2.015353    -1.820606    -4.915239
H        3.140908    -3.126254    -5.381667
C       -1.983290     1.458477    -4.776264
C       -1.944856     1.726610    -3.305837
C       -2.735475     2.722692    -2.727605
C       -2.697661     2.932652    -1.346990
C       -3.552022     3.971694    -0.694315
C       -1.881588     2.096895    -0.593450
N       -1.114286     1.114286    -1.114286
C       -1.166367     0.951060    -2.454505
H       -1.022582     1.067821    -5.127953
H       -2.183749     2.378280    -5.335724
H       -2.766198     0.728758    -5.004534
H       -3.380193     3.336025    -3.353000
H       -3.075316     4.356458     0.213411
H       -3.710258     4.823832    -1.363673
H       -4.524555     3.545768    -0.429151
H       -1.820598     2.193159     0.487388
H       -0.543215     0.146700    -2.836453
C       -2.772282    -0.939668     4.506081
C       -2.322003    -1.471905     3.183395
C       -2.736037    -2.724875     2.724861
C       -2.319779    -3.184497     1.473027
C       -2.767647    -4.508458     0.941926
C       -1.522921    -2.337525     0.711487
N       -1.114286    -1.114286     1.114286
C       -1.525034    -0.710430     2.336468
H       -2.022860    -0.263945     4.931550
H       -2.920530    -1.753011     5.224211
H       -3.714205    -0.394705     4.390580
H       -3.382133    -3.343567     3.343518
H       -2.016790    -4.933834     0.267740
H       -2.916032    -5.225721     1.756010
H       -3.709005    -4.394888     0.395581
H       -1.180545    -2.624969    -0.279145
H       -1.184321     0.281019     2.623067
63
ex_0364 frame13 T-4-1-reembed4
Zn       0.000000     0.000000     0.000000
Te       1.501111     1.501111     1.501111
Si       2.930944     2.930944     2.930944
C        1.901540     3.623428     4.323433
C        4.334120     1.913741     3.636510
C        3.699818     4.301824     1.932644
H        0.878878     3.782239     3.939486
H        1.945001     2.882664     5.150523
H        2.381961     4.543002     4.696505
H        3.928681     1.017370     4.127634
H        4.905624     2.540589     4.352134
H        5.013758     1.655346     2.796851
H        3.088735     5.216415     1.917040
H        3.898709     3.936638     0.915852
H        4.683145     4.580313     2.385372
Te       1.501111    -1.501111    -1.501111
Si       2.930944    -2.930944    -2.930944
C        3.005798    -2.198246    -4.644357
C        4.656199    -3.016657    -2.211515
C        2.275877    -4.673073    -2.985336
H        2.032399    -1.719492    -4.848712
H        3.852757    -1.478973    -4.646458
H        3.265800    -2.995522    -5.360146
H        5.034895    -1.998682    -2.040107
H        5.309088    -3.575651    -2.913607
H        4.595834    -3.601163    -1.268959
H        1.569619    -4.840637    -3.811934
H        1.820606    -4.915239    -2.015353
H        3.126254    -5.381667    -3.140908
C       -1.983290     1.458477    -4.776264
C       -1.944856     1.726610    -3.305837
C       -2.735475     2.722692    -2.727605
C       -2.697661     2.932652    -1.346990
C       -3.552022     3.971694    -0.694315
C       -1.881588     2.096895    -0.593450
N       -1.114286     1.114286    -1.114286
C       -1.166367     0.951060    -2.454505
H       -1.022582     1.067821    -5.127953
H       -2.183749     2.378280    -5.335724
H       -2.766198     0.728758    -5.004534
H       -3.380193     3.336025    -3.353000
H       -3.075316     4.356458     0.213411
H       -3.710258     4.823832    -1.363673
H       -4.524555     3.545768    -0.429151
H       -1.820598     2.193159     0.487388
H       -0.543215     0.146700    -2.836453
C       -2.772282    -0.939668     4.506081
C       -2.322003    -1.471905     3.183395
C       -2.736037    -2.724875     2.724861
C       -2.319779    -3.184497     1.473027
C       -2.767647    -4.508458     0.941926
C       -1.522921    -2.337525     0.711487
N       -1.114286    -1.114286     1.114286
C       -1.525034    -0.710430     2.336468
H       -2.022860    -0.263945     4.931550
H       -2.920530    -1.753011     5.224211
H       -3.714205    -0.394705     4.390580
H       -3.382133    -3.343567     3.343518
H       -2.016790    -4.933834     0.267740
H       -2.916032    -5.225721     1.756010
H       -3.709005    -4.394888     0.395581
H       -1.180545    -2.624969    -0.279145
H       -1.184321     0.281019     2.623067
63
ex_0364 frame14 T-4-1-reembed5
Zn       0.000000     0.000000     0.000000
Te       1.501111     1.501111     1.501111
Si       2.930944     2.930944     2.930944
C        1.901540     3.623428     4.323433
C        4.334120     1.913741     3.636510
C        3.699818     4.301824     1.932644
H        0.878878     3.782239     3.939486
H        1.945001     2.882664     5.150523
H        2.381961     4.543002     4.696505
H        3.928681     1.017370     4.127634
H        4.905624     2.540589     4.352134
H        5.013758     1.655346     2.796851
H        3.088735     5.216415     1.917040
H        3.898709     3.936638     0.915852
H        4.683145     4.580313     2.385372
Te       1.501111    -1.501111    -1.501111
Si       2.930944    -2.930944    -2.930944
C        2.198246    -4.644357    -3.005798
C        3.016657    -2.211515    -4.656199
C        4.673073    -2.985336    -2.275877
H        1.719492    -4.848712    -2.032399
H        1.478973    -4.646458    -3.852757
H        2.995522    -5.360146    -3.265800
H        1.998682    -2.040107    -5.034895
H        3.575651    -2.913607    -5.309088
H        3.601163    -1.268959    -4.595834
H        4.840637    -3.811934    -1.569619
H        4.915239    -2.015353    -1.820606
H        5.381667    -3.140908    -3.126254
C       -1.983290     1.458477    -4.776264
C       -1.944856     1.726610    -3.305837
C       -2.735475     2.722692    -2.727605
C       -2.697661     2.932652    -1.346990
C       -3.552022     3.971694    -0.694315
C       -1.881588     2.096895    -0.593450
N       -1.114286     1.114286    -1.114286
C       -1.166367     0.951060    -2.454505
H       -1.022582     1.067821    -5.127953
H       -2.183749     2.378280    -5.335724
H       -2.766198     0.728758    -5.004534
H       -3.380193     3.336025    -3.353000
H       -3.075316     4.356458     0.213411
H       -3.710258     4.823832    -1.363673
H       -4.524555     3.545768    -0.429151
H       -1.820598     2.193159     0.487388
H       -0.543215     0.146700    -2.836453
C       -2.772282    -0.939668     4.506081
C       -2.322003    -1.471905     3.183395
C       -2.736037    -2.724875     2.724861
C       -2.319779    -3.184497     1.473027
C       -2.767647    -4.508458     0.941926
C       -1.522921    -2.337525     0.711487
N       -1.114286    -1.114286     1.114286
C       -1.525034    -0.710430     2.336468
H       -2.022860    -0.263945     4.931550
H       -2.920530    -1.753011     5.224211
H       -3.714205    -0.394705     4.390580
H       -3.382133    -3.343567     3.343518
H       -2.016790    -4.933834     0.267740
H       -2.916032    -5.225721     1.756010
H       -3.709005    -4.394888     0.395581
H       -1.180545    -2.624969    -0.279145
H       -1.184321     0.281019     2.623067
63
ex_0364 frame15 T-4-1-reembed6
Zn       0.000000     0.000000     0.000000
Te       1.501111     1.501111     1.501111
Si       2.930944     2.930944     2.930944
C        1.901540     3.623428     4.323433
C        4.334120     1.913741     3.636510
C        3.699818     4.301824     1.932644
H        0.878878     3.782239     3.939486
H        1.945001     2.882664     5.150523
H        2.381961     4.543002     4.696505
H        3.928681     1.017370     4.127634
H        4.905624     2.540589     4.352134
H        5.013758     1.655346     2.796851
H        3.088735     5.216415     1.917040
H        3.898709     3.936638     0.915852
H        4.683145     4.580313     2.385372
Te       1.501111    -1.501111    -1.501111
Si       2.930944    -2.930944    -2.930944
C        4.644357    -3.005798    -2.198246
C        2.211515    -4.656199    -3.016657
C        2.985336    -2.275877    -4.673073
H        4.848712    -2.032399    -1.719492
H        4.646458    -3.852757    -1.478973
H        5.360146    -3.265800    -2.995522
H        2.040107    -5.034895    -1.998682
H        2.913607    -5.309088    -3.575651
H        1.268959    -4.595834    -3.601163
H        3.811934    -1.569619    -4.840637
H        2.015353    -1.820606    -4.915239
H        3.140908    -3.126254    -5.381667
C       -1.458477     4.776264    -1.983290
C       -1.726610     3.305837    -1.944856
C       -2.722692     2.727605    -2.735475
C       -2.932652     1.346990    -2.697661
C       -3.971694     0.694315    -3.552022
C       -2.096895     0.593450    -1.881588
N       -1.114286     1.114286    -1.114286
C       -0.951060     2.454505    -1.166367
H       -1.067821     5.127953    -1.022582
H       -2.378280     5.335724    -2.183749
H       -0.728758     5.004534    -2.766198
H       -3.336025     3.353000    -3.380193
H       -4.356458    -0.213411    -3.075316
H       -4.823832     1.363673    -3.710258
H       -3.545768     0.429151    -4.524555
H       -2.193159    -0.487388    -1.820598
H       -0.146700     2.836453    -0.543215
C       -2.772282    -0.939668     4.506081
C       -2.322003    -1.471905     3.183395
C       -2.736037    -2.724875     2.724861
C       -2.319779    -3.184497     1.473027
C       -2.767647    -4.508458     0.941926
C       -1.522921    -2.337525     0.711487
N       -1.114286    -1.114286     1.114286
C       -1.525034    -0.710430     2.336468
H       -2.022860    -0.263945     4.931550
H       -2.920530    -1.753011     5.224211
H       -3.714205    -0.394705     4.390580
H       -3.382133    -3.343567     3.343518
H       -2.016790    -4.933834     0.267740
H       -2.916032    -5.225721     1.756010
H       -3.709005    -4.394888     0.395581
H       -1.180545    -2.624969    -0.279145
H       -1.184321     0.281019     2.623067
63
ex_0364 frame16 T-4-1-reembed7
Zn       0.000000     0.000000     0.000000
Te       1.501111     1.501111     1.501111
Si       2.930944     2.930944     2.930944
C        1.901540     3.623428     4.323433
C        4.334120     1.913741     3.636510
C        3.699818     4.301824     1.932644
H        0.878878     3.782239     3.939486
H        1.945001     2.882664     5.150523
H        2.381961     4.543002     4.696505
H        3.928681     1.017370     4.127634
H        4.905624     2.540589     4.352134
H        5.013758     1.655346     2.796851
H        3.088735     5.216415     1.917040
H        3.898709     3.936638     0.915852
H        4.683145     4.580313     2.385372
Te       1.501111    -1.501111    -1.501111
Si       2.930944    -2.930944    -2.930944
C        4.644357    -3.005798    -2.198246
C        2.211515    -4.656199    -3.016657
C        2.985336    -2.275877    -4.673073
H        4.848712    -2.032399    -1.719492
H        4.646458    -3.852757    -1.478973
H        5.360146    -3.265800    -2.995522
H        2.040107    -5.034895    -1.998682
H        2.913607    -5.309088    -3.575651
H        1.268959    -4.595834    -3.601163
H        3.811934    -1.569619    -4.840637
H        2.015353    -1.820606    -4.915239
H        3.140908    -3.126254    -5.381667
C       -4.776264     1.983290    -1.458477
C       -3.305837     1.944856    -1.726610
C       -2.727605     2.735475    -2.722692
C       -1.346990     2.697661    -2.932652
C       -0.694315     3.552022    -3.971694
C       -0.593450     1.881588    -2.096895
N       -1.114286     1.114286    -1.114286
C       -2.454505     1.166367    -0.951060
H       -5.127953     1.022582    -1.067821
H       -5.335724     2.183749    -2.378280
H       -5.004534     2.766198    -0.728758
H       -3.353000     3.380193    -3.336025
H        0.213411     3.075316    -4.356458
H       -1.363673     3.710258    -4.823832
H       -0.429151     4.524555    -3.545768
H        0.487388     1.820598    -2.193159
H       -2.836453     0.543215    -0.146700
C       -2.772282    -0.939668     4.506081
C       -2.322003    -1.471905     3.183395
C       -2.736037    -2.724875     2.724861
C       -2.319779    -3.184497     1.473027
C       -2.767647    -4.508458     0.941926
C       -1.522921    -2.337525     0.711487
N       -1.114286    -1.114286     1.114286
C       -1.525034    -0.710430     2.336468
H       -2.022860    -0.263945     4.931550
H       -2.920530    -1.753011     5.224211
H       -3.714205    -0.394705     4.390580
H       -3.382133    -3.343567     3.343518
H       -2.016790    -4.933834     0.267740
H       -2.916032    -5.225721     1.756010
H       -3.709005    -4.394888     0.395581
H       -1.180545    -2.624969    -0.279145
H       -1.184321     0.281019     2.623067
63
ex_0364 frame17 T-4-1-reembed8
Zn       0.000000     0.000000     0.000000
Te       1.501111     1.501111     1.501111
Si       2.930944     2.930944     2.930944
C        1.901540     3.623428     4.323433
C        4.334120     1.913741     3.636510
C        3.699818     4.301824     1.932644
H        0.878878     3.782239     3.939486
H        1.945001     2.882664     5.150523
H        2.381961     4.543002     4.696505
H        3.928681     1.017370     4.127634
H        4.905624     2.540589     4.352134
H        5.013758     1.655346     2.796851
H        3.088735     5.216415     1.917040
H        3.898709     3.936638     0.915852
H        4.683145     4.580313     2.385372
Te       1.501111    -1.501111    -1.501111
Si       2.930944    -2.930944    -2.930944
C        4.644357    -3.005798    -2.198246
C        2.211515    -4.656199    -3.016657
C        2.985336    -2.275877    -4.673073
H        4.848712    -2.032399    -1.719492
H        4.646458    -3.852757    -1.478973
H        5.360146    -3.265800    -2.995522
H        2.040107    -5.034895    -1.998682
H        2.913607    -5.309088    -3.575651
H        1.268959    -4.595834    -3.601163
H        3.811934    -1.569619    -4.840637
H        2.015353    -1.820606    -4.915239
H        3.140908    -3.126254    -5.381667
C       -1.983290     1.458477    -4.776264
C       -1.944856     1.726610    -3.305837
C       -2.735475     2.722692    -2.727605
C       -2.697661     2.932652    -1.346990
C       -3.552022     3.971694    -0.694315
C       -1.881588     2.096895    -0.593450
N       -1.114286     1.114286    -1.114286
C       -1.166367     0.951060    -2.454505
H       -1.022582     1.067821    -5.127953
H       -2.183749     2.378280    -5.335724
H       -2.766198     0.728758    -5.004534
H       -3.380193     3.336025    -3.353000
H       -3.075316     4.356458     0.213411
H       -3.710258     4.823832    -1.363673
H       -4.524555     3.545768    -0.429151
H       -1.820598     2.193159     0.487388
H       -0.543215     0.146700    -2.836453
C       -0.939668    -4.506081     2.772282
C       -1.471905    -3.183395     2.322003
C       -2.724875    -2.724861     2.736037
C       -3.184497    -1.473027     2.319779
C       -4.508458    -0.941926     2.767647
C       -2.337525    -0.711487     1.522921
N       -1.114286    -1.114286     1.114286
C       -0.710430    -2.336468     1.525034
H       -0.263945    -4.931550     2.022860
H       -1.753011    -5.224211     2.920530
H       -0.394705    -4.390580     3.714205
H       -3.343567    -3.343518     3.382133
H       -4.933834    -0.267740     2.016790
H       -5.225721    -1.756010     2.916032
H       -4.394888    -0.395581     3.709005
H       -2.624969     0.279145     1.180545
H        0.281019    -2.623067     1.184321
63
ex_0364 frame18 SP-4-1
Zn       0.000000     0.000000     0.000000
Te       2.600000     0.000000     0.000000
Si       5.093677     0.000000    -0.000000
C        5.767272     1.474928     0.914119
C        5.617646     0.138619    -1.800306
C        5.736232    -1.547960     0.785997
H        6.388845     2.126626     0.246466
H        4.955215     2.051269     1.410792
H        6.464407     1.166265     1.731817
H        5.263663     1.142827    -2.142365
H        6.717858     0.095551    -1.860420
H        5.091354    -0.601953    -2.405010
H        6.127705    -2.226926    -0.011213
H        6.509580    -1.323308     1.547428
H        4.919818    -2.082001     1.337490
Te       0.000000     2.600000     0.000000
Si       0.000000     5.093677    -0.000000
C        0.445666     5.767272     1.677024
C       -1.762805     5.617646    -0.390942
C        1.202205     5.736232    -1.252467
H       -0.382658     6.388845     2.106385
H        0.753259     4.955215     2.372897
H        1.317786     6.464407     1.619507
H       -2.382126     5.263663     0.470382
H       -1.807796     6.717858    -0.449631
H       -2.125997     5.091354    -1.275366
H        0.636912     6.127705    -2.133932
H        1.865392     6.509580    -0.816084
H        1.885173     4.919818    -1.603038
C       -4.744971     0.499403    -2.472114
C       -4.028267     0.218692    -1.190298
C       -4.726134     0.000000     0.000000
C       -4.028267    -0.218692     1.190298
C       -4.744970    -0.499403     2.472115
C       -2.639604    -0.221835     1.128177
N       -1.930000     0.000000     0.000000
C       -2.639604     0.221835    -1.128176
H       -4.163062     0.148300    -3.330818
H       -5.710007    -0.017386    -2.501217
H       -4.917153     1.574877    -2.578179
H       -5.813770     0.000001    -0.000000
H       -4.917128    -1.574880     2.578189
H       -5.710019     0.017363     2.501210
H       -4.163070    -0.148280     3.330817
H       -2.035999    -0.406029     2.013004
H       -2.035999     0.406030    -2.013004
C       -2.149383    -4.744971    -1.319434
C       -1.042393    -4.028267    -0.614858
C        0.000002    -4.726134    -0.000003
C        1.042396    -4.028267     0.614855
C        2.149384    -4.744970     1.319433
C        0.982984    -2.639604     0.596436
N        0.000000    -1.930000     0.000000
C       -0.982984    -2.639604    -0.596435
H       -3.076461    -4.163063    -1.285195
H       -2.354506    -5.710007    -0.844206
H       -1.878963    -4.917153    -2.365745
H        0.000004    -5.813770    -0.000005
H        1.878965    -4.917143     2.365746
H        3.076463    -4.163064     1.285191
H        2.354503    -5.710013     0.844213
H        1.750424    -2.035999     1.073808
H       -1.750426    -2.035999    -1.073805
63
ex_0364 frame19 SP-4-2
Zn       0.000000     0.000000     0.000000
Te       2.600000     0.000000     0.000000
Si       5.093677     0.000000    -0.000000
C        5.767272     1.474928     0.914119
C        5.617646     0.138619    -1.800306
C        5.736232    -1.547960     0.785997
H        6.388845     2.126626     0.246466
H        4.955215     2.051269     1.410792
H        6.464407     1.166265     1.731817
H        5.263663     1.142827    -2.142365
H        6.717858     0.095551    -1.860420
H        5.091354    -0.601953    -2.405010
H        6.127705    -2.226926    -0.011213
H        6.509580    -1.323308     1.547428
H        4.919818    -2.082001     1.337490
C       -2.087886     4.744971     1.414737
C       -0.989759     4.028267     0.696428
C        0.000003     4.726134     0.000003
C        0.989762     4.028267    -0.696425
C        2.087887     4.744971    -1.414737
C        0.948494     2.639604    -0.649886
N        0.000000     1.930000     0.000000
C       -0.948494     2.639604     0.649886
H       -2.438696     4.163068     2.273563
H       -1.739408     5.710013     1.797448
H       -2.929812     4.917141     0.737200
H        0.000004     5.813771     0.000004
H        2.929806     4.917163    -0.737196
H        2.438711     4.163057    -2.273551
H        1.739401     5.710003    -1.797469
H        1.699684     2.035999    -1.152441
H       -1.699686     2.035999     1.152438
Te      -2.600000     0.000000     0.000000
Si      -5.093677     0.000000    -0.000000
C       -5.767272     1.734570     0.047879
C       -5.617646    -0.874498     1.579737
C       -5.736232    -0.860409    -1.507869
H       -6.388845     1.911579     0.963924
H       -4.955215     2.489086    -0.049890
H       -6.464407     1.926573    -0.804785
H       -5.263663    -0.224004     2.417768
H       -6.717858    -0.943531     1.606251
H       -5.091354    -1.825591     1.677391
H       -6.127705    -1.865940    -1.215562
H       -6.509580    -0.253968    -2.020193
H       -4.919818    -1.003052    -2.262188
C       -2.023765    -4.744971    -1.505034
C       -0.958231    -4.028267    -0.739208
C        0.000003    -4.726134    -0.000003
C        0.958233    -4.028267     0.739205
C        2.023765    -4.744971     1.505034
C        0.919049    -2.639604     0.690899
N        0.000000    -1.930000     0.000000
C       -0.919049    -2.639604    -0.690899
H       -2.336532    -4.163068    -2.378433
H       -1.658821    -5.710013    -1.872078
H       -2.894624    -4.917141    -0.865112
H        0.000004    -5.813771    -0.000003
H        2.894617    -4.917163     0.865107
H        2.336548    -4.163057     2.378422
H        1.658813    -5.710003     1.872098
H        1.647452    -2.035999     1.225948
H       -1.647454    -2.035999    -1.225945
