50
ex_0125 frame0 SP-4-chelate-1
Ni       0.000000     0.000000     0.000000
N       -0.084578     1.948165     0.000000
C       -1.457297     2.414118     0.027854
C       -1.865950     2.742743     1.199538
C       -3.169525     3.192270     1.393259
C       -4.107757     3.191037     0.210616
C       -3.654376     2.797602    -0.953233
C       -2.425280     2.256254    -1.144284
C        1.227379     2.452233     0.067918
C        1.743809     3.733690     0.134432
C        3.080603     4.020583     0.205096
C        3.988510     2.964819     0.205527
C        3.513296     1.681956     0.135531
C        2.147591     1.364156     0.064870
N        1.948165    -0.084578     0.000000
C        2.242739    -0.641884    -1.257546
C        2.333744    -0.766897     1.162609
H       -1.336817     2.584855     2.177218
H       -3.628254     3.536067     2.388267
H       -5.097191     3.643281     0.329306
H       -4.324529     2.800222    -1.803083
H       -2.030680     1.915244    -2.016134
H        1.048907     4.526834     0.132063
H        3.408088     5.041885     0.258574
H        5.021129     3.225869     0.261589
H        4.275316     0.900754     0.139843
H        3.099848    -0.158694    -1.734271
H        1.350713    -0.678971    -1.881030
H        2.565054    -1.710076    -1.083998
H        3.152467    -0.316836     1.725825
H        2.592005    -1.818885     0.860855
H        1.460980    -0.898251     1.861672
C       -6.254965     0.017675     0.021709
C       -4.770757    -0.057945    -0.004553
C       -4.066529     0.228000     1.143783
C       -2.658701     0.313246     1.169302
N       -1.950000     0.000000     0.000000
C       -2.655181    -0.370140    -1.124562
C       -1.837591    -0.763189    -2.308324
C       -4.048318    -0.377449    -1.128300
H       -6.651720    -0.177739     1.023534
H       -6.609348     0.997126    -0.313877
H       -6.659533    -0.752445    -0.643477
H       -4.650719     0.490002     2.027670
H       -1.954379     0.577003     2.086686
H       -2.114779    -1.784629    -2.601486
H       -0.671292    -0.614059    -2.108560
H       -2.113813    -0.086078    -3.148197
H       -4.572618    -0.667288    -2.028848
Cl       0.000000    -2.260000     0.000000
50
ex_0125 frame1 SP-4-chelate-1-conf1
Ni       0.000000     0.000000     0.000000
N       -0.084578     1.948165     0.000000
C       -1.435525     2.440776     0.004471
C       -1.918720     2.866004     1.184116
C       -3.189549     3.408195     1.300337
C       -4.009557     3.465470     0.188089
C       -3.597406     2.969231    -0.995551
C       -2.362127     2.407672    -1.124279
C        1.227379     2.452233     0.067918
C        1.748210     3.732183     0.134572
C        3.080694     4.020094     0.205081
C        3.984109     2.966326     0.205387
C        3.513205     1.682445     0.135546
C        2.147591     1.364156     0.064870
N        1.948165    -0.084578     0.000000
C        2.242739    -0.641884    -1.257546
C        2.333744    -0.766897     1.162609
H       -1.268785     2.766196     2.121250
H       -3.490461     3.854017     2.336997
H       -5.018602     3.907143     0.238809
H       -4.257491     3.001145    -1.852654
H       -2.008279     2.002465    -2.037061
H        1.048907     4.526834     0.132063
H        3.408088     5.041885     0.258574
H        5.021129     3.225869     0.261589
H        4.275316     0.900754     0.139843
H        3.099848    -0.158694    -1.734271
H        1.350713    -0.678971    -1.881030
H        2.565054    -1.710076    -1.083998
H        3.152467    -0.316836     1.725825
H        2.592005    -1.818885     0.860855
H        1.460980    -0.898251     1.861672
C       -6.254965     0.019091     0.020478
C       -4.765122    -0.022786    -0.004219
C       -4.030477     0.419409     1.060049
C       -2.658323     0.398087     1.059926
N       -1.950000     0.000000     0.000000
C       -2.655200    -0.442236    -1.090470
C       -1.876082    -0.909264    -2.259733
C       -4.048332    -0.450697    -1.095877
H       -6.651716    -0.108662     1.033158
H       -6.609350     0.973820    -0.380068
H       -6.659535    -0.793925    -0.591534
H       -4.586387     0.819280     2.024241
H       -2.034191     0.784324     1.929298
H       -0.750244    -0.850354    -2.045562
H       -2.113796    -0.297226    -3.135310
H       -2.114789    -1.955249    -2.475817
H       -4.572618    -0.801989    -1.979473
Cl       0.000000    -2.260000     0.000000
50
ex_0125 frame2 SP-4-chelate-1-conf3
Ni       0.000000     0.000000     0.000000
N        1.949531     0.042762     0.000000
C        2.450837    -1.005975     0.817564
C        2.890004    -2.039159     0.030427
C        3.122294    -3.309483     0.536358
C        3.066131    -3.446046     1.897275
C        2.797999    -2.410261     2.752840
C        2.576525    -1.178329     2.212538
C        2.306326     1.056229    -0.891648
C        3.353263     1.370638    -1.786597
C        3.265420     2.379606    -2.692076
C        2.186817     3.199366    -2.660339
C        1.202123     3.034284    -1.753716
C        1.224049     1.978112    -0.881414
N        0.042762     1.949531    -0.000000
C       -1.120324     2.309809    -0.689585
C        0.256057     2.364708     1.316642
H        2.925673    -1.898837    -1.032232
H        3.337185    -4.152906    -0.104604
H        3.242570    -4.420014     2.309743
H        2.767576    -2.583913     3.814634
H        2.364620    -0.362228     2.896830
H        4.187239     0.716778    -1.800614
H        4.034328     2.543540    -3.435905
H        2.121526     3.992073    -3.373483
H        0.360632     3.730789    -1.782708
H       -1.412273     1.574374    -1.435149
H       -1.067727     3.327678    -1.130448
H       -1.961138     2.373638     0.057221
H       -0.368726     3.216081     1.662526
H        1.314095     2.723851     1.470789
H        0.111819     1.509477     2.037251
C       -6.254965     0.019091     0.020478
C       -4.756837     0.007450     0.017813
C       -4.037575     0.453247     1.125870
C       -2.653621     0.434350     1.067381
N       -1.950000     0.000000     0.000000
C       -2.655185    -0.434027    -1.070261
C       -1.876082    -0.909264    -2.259733
C       -4.048332    -0.450697    -1.095877
H       -6.651716    -0.108662     1.033158
H       -6.609350     0.973820    -0.380068
H       -6.659535    -0.793925    -0.591534
H       -4.537899     0.822884     2.014373
H       -2.054592     0.781990     1.904006
H       -0.799440    -0.836646    -2.075089
H       -2.113796    -0.297226    -3.135310
H       -2.114789    -1.955249    -2.475817
H       -4.572618    -0.801989    -1.979473
Cl       0.000000    -2.260000     0.000000
50
ex_0125 frame3 SP-4-chelate-1-conf4
Ni       0.000000     0.000000     0.000000
N        1.948585    -0.074261     0.000000
C        2.509068    -1.362816     0.019401
C        2.456774    -2.024623    -1.209741
C        2.864451    -3.326562    -1.372078
C        3.394348    -4.000049    -0.306195
C        3.521863    -3.390828     0.917819
C        3.107835    -2.100445     1.042891
C        2.447697     1.242532     0.056310
C        3.728212     1.758638     0.111603
C        4.026406     3.085352     0.170779
C        2.999283     3.978512     0.171621
C        1.703410     3.536663     0.113922
C        1.362312     2.171567     0.054325
N       -0.074261     1.948585    -0.000000
C       -0.774845     2.341355     1.155483
C       -0.646016     2.239806    -1.267183
H        2.039376    -1.530687    -2.094327
H        2.776039    -3.831683    -2.323878
H        3.726020    -5.017909    -0.387615
H        3.939473    -3.914259     1.767593
H        3.192584    -1.616259     1.983791
H        4.522425     1.029978     0.106822
H        5.073051     3.381016     0.215086
H        3.232782     5.026508     0.218283
H        0.935054     4.305783     0.118278
H       -1.888919     2.210458     1.042330
H       -0.466790     1.843526     2.103258
H       -0.633889     3.431142     1.337669
H       -0.386870     1.434718    -1.955854
H       -1.709705     2.436653    -1.159824
H       -0.193181     3.221350    -1.595601
C       -6.254965    -0.006294    -0.027280
C       -4.756837     0.002454    -0.019151
C       -4.037575     0.170412    -1.201656
C       -2.653621     0.157533    -1.141554
N       -1.950000     0.000000     0.000000
C       -2.655185    -0.159252     1.143887
C       -1.876082    -0.342420     2.411618
C       -4.048332    -0.157624     1.174406
H       -6.651716     0.610683    -0.840410
H       -6.609350    -1.033387    -0.157762
H       -6.659535     0.391792     0.909246
H       -4.537899     0.294548    -2.155940
H       -2.054592     0.274780    -2.039912
H       -0.799440    -0.312988     2.215403
H       -2.113796    -1.310250     2.863871
H       -2.114789     0.455387     3.121745
H       -4.572618    -0.295193     2.115268
Cl       0.000000    -2.260000     0.000000
50
ex_0125 frame4 SP-4-chelate-1-conf5
Ni       0.000000     0.000000     0.000000
N        1.948585    -0.074261     0.000000
C        2.509068    -1.362816     0.019401
C        2.456774    -2.024623    -1.209741
C        2.864451    -3.326562    -1.372078
C        3.394348    -4.000049    -0.306195
C        3.521863    -3.390828     0.917819
C        3.107835    -2.100445     1.042891
C        2.447697     1.242532     0.056310
C        3.728212     1.758638     0.111603
C        4.026406     3.085352     0.170779
C        2.999283     3.978512     0.171621
C        1.703410     3.536663     0.113922
C        1.362312     2.171567     0.054325
N       -0.074261     1.948585    -0.000000
C       -0.774845     2.341355     1.155483
C       -0.646016     2.239806    -1.267183
H        2.039376    -1.530687    -2.094327
H        2.776039    -3.831683    -2.323878
H        3.726020    -5.017909    -0.387615
H        3.939473    -3.914259     1.767593
H        3.192584    -1.616259     1.983791
H        4.522425     1.029978     0.106822
H        5.073051     3.381016     0.215086
H        3.232782     5.026508     0.218283
H        0.935054     4.305783     0.118278
H       -1.877816     2.470307     0.960735
H       -0.659797     1.677517     2.042666
H       -0.426757     3.344225     1.492800
H       -0.177989     1.596149    -2.013001
H       -1.729722     2.175753    -1.210751
H       -0.422104     3.328861    -1.467602
C       -6.254965    -0.008242     0.026755
C       -4.756836     0.001069     0.019277
C       -4.037575     0.083654     1.210793
C       -2.653621     0.075126     1.149922
N       -1.950000     0.000000     0.000000
C       -2.655184    -0.076672    -1.152371
C       -1.876082    -0.168298    -2.429986
C       -4.048332    -0.072859    -1.182694
H       -6.659532     0.456116    -0.878743
H       -6.609350    -1.042057     0.083089
H       -6.651717     0.548707     0.882119
H       -4.537899     0.138922     2.171529
H       -2.054592     0.127539     2.054381
H       -0.799440    -0.153047    -2.232164
H       -2.113809    -1.101132    -2.950605
H       -2.114786     0.678466    -3.080960
H       -4.572618    -0.142489    -2.131008
Cl       0.000000    -2.260000     0.000000
50
ex_0125 frame5 SP-4-chelate-1-conf6
Ni       0.000000     0.000000     0.000000
N        1.947534     0.098030    -0.000000
C        2.382483    -0.951939    -0.821504
C        3.539777    -1.726076    -0.739589
C        3.988294    -2.392243    -1.846179
C        3.159364    -2.449949    -2.939731
C        1.912299    -1.876310    -2.978498
C        1.492786    -1.211497    -1.844194
C        2.270436     1.046905     0.968280
C        3.261526     1.323704     1.941517
C        3.102814     2.234812     2.915909
C        2.012974     3.054663     2.905853
C        1.092845     2.940944     1.907799
C        1.195557     1.954175     0.970065
N        0.098030     1.947534    -0.000000
C        0.366598     2.355647    -1.309925
C       -1.100530     2.355660     0.622948
H        4.179574    -1.670816     0.130638
H        4.979782    -2.856127    -1.835905
H        3.489394    -2.968564    -3.822584
H        1.284716    -1.940569    -3.856228
H        0.496034    -0.747035    -1.864507
H        4.125529     0.676892     1.966339
H        3.812157     2.351915     3.724516
H        1.883946     3.777144     3.674197
H        0.244745     3.607755     1.931214
H       -0.212440     3.260499    -1.581348
H        1.471209     2.532640    -1.431559
H        0.062169     1.577471    -2.066758
H       -1.239524     1.723767     1.522456
H       -1.060846     3.405846     1.031981
H       -1.974065     2.330989    -0.055260
C       -6.254965    -0.006294    -0.027280
C       -4.756837     0.002454    -0.019151
C       -4.037575     0.170412    -1.201656
C       -2.653621     0.157533    -1.141554
N       -1.950000     0.000000     0.000000
C       -2.655185    -0.159252     1.143887
C       -1.876082    -0.342420     2.411618
C       -4.048332    -0.157624     1.174406
H       -6.651716     0.610683    -0.840410
H       -6.609350    -1.033387    -0.157762
H       -6.659535     0.391792     0.909246
H       -4.537899     0.294548    -2.155940
H       -2.054592     0.274780    -2.039912
H       -0.799440    -0.312988     2.215403
H       -2.113796    -1.310250     2.863871
H       -2.114789     0.455387     3.121745
H       -4.572618    -0.295193     2.115268
Cl       0.000000    -2.260000     0.000000
50
ex_0125 frame6 SP-4-chelate-1-conf7
Ni       0.000000     0.000000     0.000000
N       -0.084578     1.948165     0.000000
C       -1.362910     2.506002     0.008086
C       -1.631536     3.324272     1.134436
C       -2.763346     4.045896     1.274700
C       -3.761903     3.950458     0.326861
C       -3.623740     3.149527    -0.768308
C       -2.447382     2.436458    -0.908641
C        1.227379     2.452233     0.067918
C        1.755251     3.729771     0.134795
C        3.080838     4.019311     0.205058
C        3.977068     2.968738     0.205164
C        3.513061     1.683228     0.135569
C        2.147591     1.364156     0.064870
N        1.948165    -0.084578     0.000000
C        2.242739    -0.641884    -1.257546
C        2.333744    -0.766897     1.162609
H       -0.873043     3.394220     1.936262
H       -2.933931     4.679930     2.179421
H       -4.693240     4.501940     0.407363
H       -4.371712     3.073783    -1.519132
H       -2.274914     1.788785    -1.744156
H        1.048907     4.526834     0.132063
H        3.408088     5.041885     0.258574
H        5.021129     3.225869     0.261589
H        4.275316     0.900754     0.139843
H        3.099848    -0.158694    -1.734271
H        1.350713    -0.678971    -1.881030
H        2.565054    -1.710076    -1.083998
H        3.152467    -0.316836     1.725825
H        2.592005    -1.818885     0.860855
H        1.460980    -0.898251     1.861672
C       -6.254965     0.003504    -0.027775
C       -4.761416    -0.022691    -0.032024
C       -4.037575    -0.291242    -1.178217
C       -2.653616    -0.274201    -1.127358
N       -1.950000     0.000000     0.000000
C       -2.655889     0.258601     1.122409
C       -1.886844     0.582426     2.361124
C       -4.032784     0.276408     1.135703
H       -6.651719    -0.692635    -0.774254
H       -6.659534    -0.297708     0.944246
H       -6.609348     1.012107    -0.261583
H       -4.537899    -0.511391    -2.115022
H       -2.054592    -0.479972    -2.001593
H       -0.803557     0.796457     2.130018
H       -1.913088    -0.273715     3.084258
H       -2.346934     1.474999     2.880183
H       -4.596938     0.482228     2.061185
Cl       0.000000    -2.260000     0.000000
50
ex_0125 frame7 SP-4-chelate-1-conf8
Ni       0.000000     0.000000     0.000000
N        0.053315     1.949271    -0.000000
C       -1.009400     2.430542     0.804714
C       -1.083563     1.701652     1.966042
C       -1.772924     2.170399     3.075395
C       -2.534645     3.293548     2.897093
C       -2.640966     3.951575     1.709035
C       -1.952649     3.467839     0.634618
C        1.060342     2.303689    -0.896988
C        1.394507     3.340234    -1.801689
C        2.386866     3.232741    -2.704282
C        3.197121     2.146419    -2.679330
C        3.020681     1.168801    -1.761317
C        1.969909     1.221607    -0.885516
N        1.949271     0.053315    -0.000000
C        2.382243    -1.101605    -0.651711
C        2.300543     0.311792     1.318881
H       -0.481028     0.823271     2.089023
H       -1.688731     1.641815     4.033378
H       -3.074168     3.671824     3.740081
H       -3.258078     4.835978     1.626112
H       -2.034104     3.985919    -0.308018
H        0.745069     4.193311    -1.819098
H        2.558738     3.999444    -3.459811
H        3.985403     2.071045    -3.403055
H        3.702032     0.319873    -1.788086
H        2.358736    -1.952542     0.082878
H        1.778372    -1.313217    -1.544850
H        3.456676    -0.929852    -0.865202
H        1.652934    -0.307640     2.005522
H        3.322584    -0.033927     1.520359
H        2.159134     1.394041     1.519440
C       -6.254965     0.006294     0.027280
C       -4.756837    -0.002454     0.019151
C       -4.037575    -0.170412     1.201656
C       -2.653621    -0.157533     1.141554
N       -1.950000     0.000000     0.000000
C       -2.655185     0.159252    -1.143887
C       -1.876082     0.342420    -2.411618
C       -4.048332     0.157624    -1.174406
H       -6.651716    -0.610683     0.840410
H       -6.609350     1.033387     0.157762
H       -6.659535    -0.391792    -0.909246
H       -4.537899    -0.294548     2.155940
H       -2.054592    -0.274780     2.039912
H       -0.799440     0.312988    -2.215403
H       -2.113796     1.310250    -2.863871
H       -2.114789    -0.455387    -3.121745
H       -4.572618     0.295193    -2.115268
Cl       0.000000    -2.260000     0.000000
