91
ex_0228 frame0 Isomer 1
C       -3.773092     3.648759    -2.082738
C       -3.220046     2.871891    -0.941746
C       -3.729625     1.667854    -0.524383
C       -3.186461     0.992500     0.561348
C       -3.864036    -0.285553     0.929813
C       -2.093964     1.477835     1.261202
C       -1.526010     0.748204     2.360254
C       -2.017384     0.970986     3.599382
C       -1.475753     0.255621     4.751163
C       -0.473588    -0.643080     4.603168
C        0.013636    -0.849353     3.271358
N       -0.550641    -0.143499     2.310493
Cu       0.283261    -0.593286     0.625881
N        1.023844     0.762997    -0.542133
C        1.846661     1.545305    -0.141435
C        2.316673     1.550146     1.157319
C        3.258900     2.482770     1.527614
C        3.711530     3.394081     0.584449
C        3.234307     3.386885    -0.728715
C        2.282802     2.445267    -1.103670
C        1.804964     2.415234    -2.364293
C        0.791933     1.409115    -2.754308
C        0.412994     0.592287    -1.808015
C       -0.578481    -0.476478    -1.933370
N       -0.821545    -1.205291    -0.858133
C       -1.662604    -2.219161    -0.689010
C       -1.805840    -2.877756     0.498327
C       -2.701863    -3.922566     0.597062
C       -3.447429    -4.293973    -0.510144
C       -3.300975    -3.618475    -1.731701
C       -2.403171    -2.571440    -1.828411
C       -2.188514    -1.821635    -3.042303
C       -1.302192    -0.798590    -3.110018
N        1.436710    -1.856450     1.544606
C        2.259601    -2.519959     0.962456
C        2.537043    -2.517215    -0.463372
C        3.466494    -1.676001    -1.055588
C        4.286777    -0.748477    -0.237202
C        3.683882    -1.648726    -2.421845
C        3.011152    -2.504952    -3.258950
C        3.263625    -2.506685    -4.723158
C        2.098374    -3.358748    -2.699589
C        1.879284    -3.387766    -1.336310
C        0.902832    -4.398083    -0.844556
C        3.031438    -3.408395     1.862305
C        2.780322    -3.417851     3.181626
C        1.734296    -2.546447     3.762637
C        1.087366    -1.786408     2.921741
C       -1.598558     2.709777     0.825683
C       -0.463885     3.356492     1.515562
C       -2.139296     3.373972    -0.257507
H       -4.029875     4.674764    -1.710317
H       -3.009637     3.820413    -2.871113
H       -4.706918     3.222333    -2.462015
H       -4.581679     1.272769    -1.063682
H       -4.850261     0.062057     1.354910
H       -3.365136    -0.796604     1.750867
H       -4.108770    -0.876775     0.047179
H       -2.813544     1.687146     3.701080
H       -1.866487     0.431417     5.745040
H       -0.051950    -1.184290     5.415527
H        1.923689     0.809258     1.852758
H        3.643303     2.511259     2.530394
H        4.451181     4.130829     0.863888
H        3.574216     4.087453    -1.476198
H        2.149783     3.117484    -3.103324
H        0.371870     1.324299    -3.719788
H       -1.228581    -2.582967     1.334502
H       -2.811014    -4.441788     1.545098
H       -4.145289    -5.116508    -0.412264
H       -3.876856    -3.904581    -2.588848
H       -2.751361    -2.087306    -3.913419
H       -1.134026    -0.233521    -4.006000
H        5.335859    -1.152477    -0.367973
H        4.315736     0.235186    -0.721016
H        3.992209    -0.736647     0.813738
H        4.414948    -0.968136    -2.872657
H        2.289980    -2.690036    -5.232707
H        3.752953    -1.580982    -5.064154
H        3.887105    -3.399295    -4.965985
H        1.568274    -4.034007    -3.357701
H        0.641059    -4.257229     0.199998
H        1.381594    -5.410132    -1.019769
H        0.001457    -4.367006    -1.476349
H        3.791688    -4.037499     1.416592
H        3.337531    -4.060706     3.835980
H        1.495480    -2.514738     4.794398
H       -0.063432     2.690275     2.277408
H        0.261235     3.748695     0.778406
H       -0.835966     4.275284     2.054758
H       -1.716975     4.335179    -0.574163
91
ex_0228 frame1 Isomer 1
C       -5.194848     2.652118    -1.346883
C       -4.183066     2.410204    -0.292609
C       -3.051132     3.180266    -0.268497
C       -2.086603     3.014045     0.707638
C       -0.924116     3.929711     0.664655
C       -2.191535     2.036025     1.693355
C       -1.164108     1.817525     2.697492
C       -1.254521     2.503269     3.852698
C       -0.246688     2.317514     4.892423
C        0.788586     1.459425     4.714888
C        0.838961     0.756161     3.477042
N       -0.122537     1.003832     2.610564
Cu       0.173007    -0.056709     1.013756
N       -1.244261    -1.227270     0.372565
C       -1.784546    -2.131812     1.178339
C       -1.390331    -2.291662     2.494265
C       -2.001159    -3.246103     3.253931
C       -3.004183    -4.040287     2.694221
C       -3.400305    -3.883286     1.373434
C       -2.789856    -2.919131     0.597699
C       -3.133912    -2.676186    -0.790427
C       -2.527442    -1.729427    -1.527985
C       -1.513109    -0.948786    -0.888521
C       -0.755820     0.128414    -1.522820
N        0.211048     0.795226    -0.728014
C        0.969211     1.701446    -0.959682
C        1.842482     2.214255    -0.033783
C        2.674438     3.255543    -0.392680
C        2.608826     3.761267    -1.684362
C        1.714004     3.232716    -2.626192
C        0.878156     2.187098    -2.267215
C        0.007494     1.656367    -3.147567
C       -0.879270     0.543169    -2.756484
N        1.761343    -0.812868     1.827599
C        2.446711    -1.631421     1.254988
C        2.224905    -2.180172    -0.073640
C        1.478961    -3.343420    -0.280842
C        0.922475    -4.115907     0.854242
C        1.223357    -3.830429    -1.548096
C        1.733719    -3.216751    -2.660468
C        1.448890    -3.815907    -3.990460
C        2.478767    -2.084695    -2.489246
C        2.736093    -1.595404    -1.226484
C        3.602671    -0.388735    -1.144527
C        3.609309    -2.065697     2.058994
C        3.816623    -1.561349     3.286156
C        2.887799    -0.560994     3.860612
C        1.881475    -0.215210     3.109998
C       -3.349531     1.273621     1.660144
C       -3.627944     0.225575     2.676605
C       -4.316504     1.443127     0.677390
H       -5.314811     3.756789    -1.537340
H       -6.165259     2.290365    -0.963373
H       -4.912818     2.173121    -2.318984
H       -2.932717     3.948941    -1.027688
H       -1.258794     4.959195     0.994272
H       -0.512842     4.087479    -0.336999
H       -0.197109     3.622968     1.432044
H       -2.089011     3.179245     3.967204
H       -0.317934     2.867205     5.820555
H        1.543614     1.298978     5.454384
H       -0.622576    -1.667939     2.883782
H       -1.704737    -3.385285     4.293325
H       -3.462935    -4.781147     3.320493
H       -4.177438    -4.497397     0.937014
H       -3.908518    -3.280615    -1.243485
H       -2.773614    -1.535830    -2.561090
H        1.850369     1.777918     0.962638
H        3.360593     3.664059     0.322365
H        3.254253     4.577565    -1.981913
H        1.653831     3.620902    -3.641078
H       -0.054168     2.039311    -4.155921
H       -1.584038     0.080609    -3.393419
H        1.473778    -5.110270     0.849799
H        1.009180    -3.644388     1.827429
H       -0.129154    -4.378265     0.656166
H        0.623838    -4.743256    -1.676944
H        0.353221    -3.778555    -4.209703
H        1.689888    -4.906196    -3.886558
H        2.057538    -3.396105    -4.800145
H        2.886855    -1.593434    -3.365833
H        3.635455    -0.000600    -0.128245
H        4.647324    -0.719981    -1.402071
H        3.322324     0.376112    -1.862312
H        4.278823    -2.799293     1.621655
H        4.660636    -1.881576     3.860957
H        3.003510    -0.131067     4.822646
H       -4.519376     0.645128     3.238503
H       -4.031920    -0.691891     2.208310
H       -2.782594     0.060618     3.343128
H       -5.217318     0.840416     0.647771
91
ex_0228 frame2 Isomer 2
C        3.682449    -0.226802     4.513378
C        2.744123     0.535306     3.659946
C        3.112314     1.015525     2.427887
C        2.236160     1.766264     1.661384
C        2.744443     2.316694     0.399001
C        0.930052     2.014004     2.031700
C       -0.048231     2.702664     1.246989
C       -0.177671     4.036917     1.559922
C       -1.120870     4.877531     0.867807
C       -1.894994     4.353913    -0.107874
C       -1.730533     2.982310    -0.404347
N       -0.845953     2.263034     0.271465
Cu      -0.893956     0.353178    -0.237526
N       -0.561785    -0.846711     1.224810
C       -1.531707    -0.920631     2.111546
C       -2.702723    -0.173828     2.072107
C       -3.609582    -0.358700     3.063234
C       -3.400899    -1.269272     4.104999
C       -2.220137    -2.005602     4.116458
C       -1.269962    -1.838233     3.117226
C       -0.023520    -2.584037     3.089567
C        0.862758    -2.380595     2.096005
C        0.569985    -1.435941     1.090887
C        1.424198    -1.089441    -0.048567
N        0.912036    -0.081098    -0.916537
C        1.398225     0.387294    -1.900069
C        0.820456     1.359941    -2.659677
C        1.400365     1.884110    -3.790358
C        2.626987     1.395217    -4.167423
C        3.250124     0.399918    -3.415998
C        2.658291    -0.114265    -2.285823
C        3.249916    -1.076549    -1.547016
C        2.583796    -1.604527    -0.338401
N       -2.174911     0.871874    -1.564419
C       -2.583420    -0.009349    -2.278922
C       -2.205509    -1.417699    -2.329047
C       -2.762784    -2.344203    -1.455281
C       -3.786153    -1.923197    -0.475061
C       -2.402574    -3.677336    -1.451729
C       -1.484891    -4.165836    -2.345419
C       -1.149995    -5.613195    -2.317322
C       -0.920140    -3.275210    -3.227918
C       -1.283193    -1.920400    -3.235993
C       -0.635997    -1.080781    -4.248661
C       -3.604301     0.506356    -3.194642
C       -3.987841     1.778434    -3.184171
C       -3.364574     2.687954    -2.224977
C       -2.465616     2.229207    -1.426642
C        0.567902     1.532173     3.298310
C       -0.771057     1.781473     3.877665
C        1.451597     0.796711     4.069639
H        3.210962    -1.174713     4.800457
H        4.645931    -0.422075     4.030262
H        3.909917     0.385308     5.422501
H        4.130766     0.819740     2.086817
H        1.999345     2.637656    -0.331800
H        3.341711     1.547355    -0.117317
H        3.539535     3.082435     0.584682
H        0.443923     4.449019     2.344664
H       -1.224987     5.925756     1.111165
H       -2.616344     4.937107    -0.658628
H       -2.850298     0.529529     1.256975
H       -4.530782     0.194224     3.084036
H       -4.147884    -1.393936     4.883857
H       -2.040008    -2.713337     4.911791
H        0.193409    -3.295630     3.859137
H        1.799510    -2.924183     2.056396
H       -0.123282     1.728506    -2.355768
H        0.871869     2.656863    -4.336308
H        3.069261     1.817012    -5.057869
H        4.210380     0.025448    -3.722198
H        4.214736    -1.468034    -1.831533
H        2.992606    -2.361402     0.292717
H       -3.673425    -2.399306     0.499840
H       -3.927832    -0.824452    -0.458686
H       -4.750344    -2.307652    -0.920320
H       -2.855602    -4.387447    -0.745244
H       -0.118936    -5.845183    -2.633012
H       -1.911612    -6.118002    -2.973554
H       -1.315179    -5.972271    -1.276390
H       -0.199095    -3.671977    -3.927475
H       -0.891769    -1.574369    -5.232195
H        0.451297    -1.033715    -4.235834
H       -1.052357    -0.070093    -4.322907
H       -4.071557    -0.146814    -3.905549
H       -4.741307     2.140883    -3.865121
H       -3.630319     3.747958    -2.160717
H       -1.086996     0.849713     4.353404
H       -1.477473     2.268522     3.223325
H       -0.592721     2.496496     4.728909
H        1.159892     0.420709     5.037626
