91
ex_0233 frame0 OC-6-1
Mn       0.000000     0.000000     0.000000
C        5.360033    -2.488074    -1.537125
C        5.471696    -1.747073    -0.191478
C        5.360011    -2.761966     0.961707
C        6.861468    -1.084468    -0.118839
C        4.400922    -0.753030    -0.082532
C        4.394034     0.670230     0.073459
C        3.018463     1.086990     0.119136
N        2.210000     0.000000     0.000000
N        3.030505    -1.085238    -0.118944
H        4.410522    -3.028763    -1.624940
H        5.418707    -1.790025    -2.380679
H        6.166303    -3.221431    -1.653250
H        6.166287    -3.503060     0.916241
H        5.418656    -2.263214     1.936440
H        4.410503    -3.308847     0.930294
H        7.003787    -0.360238    -0.929702
H        7.003775    -0.553086     0.829658
H        7.660500    -1.830535    -0.200612
H        5.250374     1.303487     0.142866
H        2.615597     2.034356     0.222970
H        2.629447    -1.971476    -0.216078
C       -5.360033     2.624493    -1.290466
C       -5.471696     1.757392    -0.022403
C       -5.360011     2.656557     1.223127
C       -6.861468     1.090872    -0.013888
C       -4.400922     0.757478    -0.009657
C       -4.394034    -0.674189     0.008597
C       -3.018463    -1.093410     0.013942
N       -2.210000     0.000000     0.000000
N       -3.030505     1.091648    -0.013919
H       -4.410522     3.171125    -1.325822
H       -5.418707     2.010893    -2.197301
H       -6.166303     3.365623    -1.335453
H       -6.166287     3.398586     1.249215
H       -5.418656     2.066287     2.145320
H       -4.410503     3.203922     1.244507
H       -7.003787     0.448065    -0.890705
H       -7.003775     0.470649     0.879049
H       -7.660500     1.841346    -0.023459
H       -5.250374    -1.311186     0.016719
H       -2.615597    -2.046372     0.026093
H       -2.629447     1.983120    -0.025286
C        0.585155     6.861468     0.920755
C        0.942686     5.471695     1.483332
C        2.477211     5.360022     1.554582
C        0.355609     5.360019     2.902904
C        0.406320     4.400922     0.639351
C       -0.361644     4.394034    -0.569049
C       -0.586520     3.018462    -0.922894
N        0.000000     2.210000     0.000000
N        0.585574     3.030505     0.921407
H        0.987716     7.660499     1.554198
H        0.993289     7.003784    -0.086933
H       -0.500479     7.003780     0.862380
H        2.794573     4.410515     2.001065
H        2.926225     5.418675     0.555960
H        2.904999     6.166298     2.161446
H        0.625089     4.410513     3.379819
H       -0.739175     5.418670     2.885398
H        0.723400     6.166296     3.547897
H       -0.703338     5.250374    -1.106708
H       -1.097701     2.615596    -1.727244
H        1.063772     2.629448     1.673857
C       -2.663192    -5.360038     1.208567
C       -1.132961    -5.471695     1.343625
C       -0.703241    -6.861468     0.834056
C       -0.741439    -5.360003     2.829072
C       -0.488332    -4.400923     0.579135
C        0.434642    -4.394034    -0.515451
C        0.704906    -3.018462    -0.835971
N        0.000000    -2.210000     0.000000
N       -0.703770    -3.030505     0.834623
H       -3.037539    -4.410529     1.608474
H       -2.974314    -5.418711     0.158777
H       -3.168449    -6.166310     1.752635
H        0.380424    -7.003766     0.921715
H       -0.972631    -7.003796    -0.219241
H       -1.187061    -7.660499     1.407835
H       -1.072416    -4.410496     3.265559
H        0.345815    -5.418640     2.958451
H       -1.192348    -6.166279     3.418960
H        0.845306    -5.250374    -1.002469
H        1.319266    -2.615597    -1.564562
H       -1.278492    -2.629448     1.516201
N        0.000000     0.000000     2.210000
N       -0.000000     0.000000     3.670000
N       -0.000002    -0.000005     5.130000
N        0.000000     0.000000    -2.210000
N       -0.000000     0.000000    -3.670000
N       -0.000002    -0.000005    -5.130000
91
ex_0233 frame1 OC-6-1-conf1
Mn       0.000000     0.000000     0.000000
C        5.360033    -1.386173    -2.575226
C        5.471696    -1.417271    -1.039361
C        5.360011    -2.872786    -0.548120
C        6.861468    -0.879758    -0.645151
C        4.407227    -0.617645    -0.452961
C        4.398080     0.547907     0.401817
C        3.028428     0.866277     0.637075
N        2.210000     0.000000     0.000000
N        3.034495    -0.873737    -0.642211
H        4.410522    -1.810516    -2.921621
H        5.418707    -0.359868    -2.956741
H        6.166303    -1.963216    -3.042472
H        6.166287    -3.491859    -0.958042
H        5.418656    -2.928221     0.545400
H        4.410503    -3.330692    -0.848765
H        7.003787     0.152876    -0.985265
H        7.003775    -0.893816     0.441962
H        7.660500    -1.484984    -1.089002
H        5.250374     1.057420     0.775469
H        2.696355     1.655621     1.278607
H        2.674302    -1.600478    -1.260684
C       -5.360033     0.943300    -2.768294
C       -5.471696     1.226823    -1.258505
C       -5.360011     2.743351    -1.013588
C       -6.861468     0.761543    -0.781183
C       -4.404748     0.531419    -0.545150
C       -4.398179    -0.474372     0.486625
C       -3.028624    -0.749869     0.770317
N       -2.210000     0.000000     0.000000
N       -3.035221     0.756253    -0.775536
H       -4.410522     1.304826    -3.179822
H       -5.418707    -0.131811    -2.975643
H       -6.166303     1.435547    -3.324162
H       -6.166287     3.286492    -1.519834
H       -5.418656     2.978056     0.055885
H       -4.410503     3.145514    -1.385515
H       -7.003787    -0.312994    -0.946653
H       -7.003775     0.954380     0.288782
H       -7.660500     1.285440    -1.318616
H       -5.250374    -0.915326     0.938971
H       -2.700660    -1.441559     1.517916
H       -2.678285     1.429421    -1.453652
C        2.686588     5.360033    -1.155643
C        1.756265     5.471696     0.066792
C        2.591077     5.360011     1.356339
C        1.090171     6.861468     0.041478
C        0.760907     4.404551     0.028943
C       -0.678971     4.398085    -0.025818
C       -1.073991     3.028754    -0.041373
N        0.000000     2.210000     0.000000
N        1.083558     3.034513     0.040811
H        3.234310     4.410522    -1.163219
H        2.119789     5.418707    -2.092443
H        3.429046     6.166303    -1.162969
H        3.330826     6.166287     1.420043
H        1.954777     5.418656     2.247396
H        3.136652     4.410503     1.405464
H        0.492680     7.003787    -0.866824
H        0.425441     7.003775     0.901796
H        1.840164     7.660500     0.069997
H       -1.310346     5.250374    -0.049829
H       -1.916317     2.757628    -0.089107
H        1.871705     2.738841     0.051784
C       -2.591771    -5.360033    -1.354986
C       -1.756300    -5.471696    -0.065863
C       -2.685997    -5.360011     1.157045
C       -1.090194    -6.861468    -0.040865
C       -0.760742    -4.404582    -0.028527
C        0.679105    -4.398179     0.025471
C        1.076216    -3.027330     0.042139
N        0.000000    -2.210000     0.000000
N       -1.082346    -3.035226    -0.041096
H       -3.137362    -4.410522    -1.403852
H       -1.955930    -5.418707    -2.246367
H       -3.331562    -6.166303    -1.418290
H       -3.428444    -6.166287     1.164772
H       -2.118717    -5.418656     2.093556
H       -3.233724    -4.410503     1.164880
H       -0.425897    -7.003787    -0.901515
H       -0.492247    -7.003775     0.867139
H       -1.840202    -7.660500    -0.068996
H        1.310372    -5.250374     0.049145
H        1.932327    -2.742008     0.131450
H       -1.867962    -2.740525    -0.091589
N        0.000000     0.000000     2.210000
N       -0.000000     0.000000     3.670000
N       -0.000002    -0.000005     5.130000
N        0.000000     0.000000    -2.210000
N       -0.000000     0.000000    -3.670000
N       -0.000002    -0.000005    -5.130000
91
ex_0233 frame2 OC-6-1-conf2
Mn       0.000000     0.000000     0.000000
C        5.360033    -0.672422    -2.846246
C        5.471696    -1.099972    -1.370763
C        5.360011    -2.633034    -1.272975
C        6.861468    -0.682803    -0.850866
C        4.407227    -0.479364    -0.597385
C        4.396930     0.424328     0.528793
C        3.028441     0.671489     0.839094
N        2.210000     0.000000     0.000000
N        3.029057    -0.688338    -0.857805
H        4.410522    -0.992653    -3.290665
H        5.418707     0.417655    -2.949134
H        6.166303    -1.108872    -3.446920
H        6.166287    -3.124917    -1.829157
H        5.418656    -2.969604    -0.231064
H        4.410503    -2.997525    -1.681890
H        7.003787     0.402672    -0.912125
H        7.003775    -0.977748     0.195566
H        7.660500    -1.152530    -1.436238
H        5.250374     0.820683     1.022726
H        2.696570     1.267962     1.663097
H        2.629447    -1.241254    -1.546834
C       -5.360033     0.194670    -2.918111
C       -5.471696     0.859295    -1.533147
C       -5.360011     2.387538    -1.689082
C       -6.861468     0.533409    -0.951666
C       -4.403835     0.371631    -0.663067
C       -4.398179    -0.332260     0.592820
C       -3.016160    -0.538960     0.961614
N       -2.210000     0.000000     0.000000
N       -3.035249     0.529079    -0.943621
H       -4.410522     0.437367    -3.409186
H       -5.418707    -0.897472    -2.840135
H       -6.166303     0.526276    -3.582441
H       -6.166287     2.781145    -2.318654
H       -5.418656     2.891045    -0.716797
H       -4.410503     2.679736    -2.152424
H       -7.003787    -0.547341    -0.833388
H       -7.003775     0.996603     0.031931
H       -7.660500     0.900356    -1.606382
H       -5.250374    -0.641114     1.143880
H       -2.615597    -1.000589     1.785256
H       -2.678840     1.003881    -1.773040
C        2.686588     5.360033    -1.155643
C        1.756265     5.471696     0.066792
C        2.591077     5.360011     1.356339
C        1.090171     6.861468     0.041478
C        0.760907     4.404551     0.028943
C       -0.678971     4.398085    -0.025818
C       -1.073991     3.028754    -0.041373
N        0.000000     2.210000     0.000000
N        1.083558     3.034513     0.040811
H        3.234310     4.410522    -1.163219
H        2.119789     5.418707    -2.092443
H        3.429046     6.166303    -1.162969
H        3.330826     6.166287     1.420043
H        1.954777     5.418656     2.247396
H        3.136652     4.410503     1.405464
H        0.492680     7.003787    -0.866824
H        0.425441     7.003775     0.901796
H        1.840164     7.660500     0.069997
H       -1.310346     5.250374    -0.049829
H       -2.091049     2.701386    -0.099009
H        1.871705     2.738841     0.051784
C       -2.663192    -5.360038     1.208567
C       -1.132961    -5.471695     1.343625
C       -0.703241    -6.861468     0.834056
C       -0.741439    -5.360003     2.829072
C       -0.492219    -4.405426     0.583745
C        0.437060    -4.396931    -0.518319
C        0.709973    -3.016184    -0.841980
N        0.000000    -2.210000     0.000000
N       -0.708103    -3.029084     0.839762
H       -3.037539    -4.410529     1.608474
H       -2.974314    -5.418711     0.158777
H       -3.168449    -6.166310     1.752635
H        0.380424    -7.003766     0.921715
H       -0.972631    -7.003796    -0.219241
H       -1.187061    -7.660499     1.407835
H       -1.072416    -4.410496     3.265559
H        0.345815    -5.418640     2.958451
H       -1.192348    -6.166279     3.418960
H        0.845306    -5.250374    -1.002469
H        1.319266    -2.615597    -1.564562
H       -1.278492    -2.629448     1.516201
N        0.000000     0.000000     2.210000
N       -0.000000     0.000000     3.670000
N       -0.000002    -0.000005     5.130000
N        0.000000     0.000000    -2.210000
N       -0.000000     0.000000    -3.670000
N       -0.000002    -0.000005    -5.130000
91
ex_0233 frame3 OC-6-1-conf3
Mn       0.000000     0.000000     0.000000
C        5.360033    -1.386173    -2.575226
C        5.471696    -1.417271    -1.039361
C        5.360011    -2.872786    -0.548120
C        6.861468    -0.879758    -0.645151
C        4.405426    -0.615740    -0.451556
C        4.398080     0.547907     0.401817
C        3.016163     0.888873     0.651866
N        2.210000     0.000000     0.000000
N        3.034523    -0.872628    -0.641390
H        4.410522    -1.810516    -2.921621
H        5.418707    -0.359868    -2.956741
H        6.166303    -1.963216    -3.042472
H        6.166287    -3.491859    -0.958042
H        5.418656    -2.928221     0.545400
H        4.410503    -3.330692    -0.848765
H        7.003787     0.152876    -0.985265
H        7.003775    -0.893816     0.441962
H        7.660500    -1.484984    -1.089002
H        5.250374     1.057420     0.775469
H        2.653836     1.597816     1.243441
H        2.674843    -1.599588    -1.259904
C       -5.360033     0.943300    -2.768294
C       -5.471696     1.226823    -1.258505
C       -5.360011     2.743351    -1.013588
C       -6.861468     0.761543    -0.781183
C       -4.407253     0.534673    -0.548486
C       -4.396930    -0.473263     0.485488
C       -3.028639    -0.749406     0.769843
N       -2.210000     0.000000     0.000000
N       -3.029057     0.767735    -0.787569
H       -4.410522     1.304826    -3.179822
H       -5.418707    -0.131811    -2.975643
H       -6.166303     1.435547    -3.324162
H       -6.166287     3.286492    -1.519834
H       -5.418656     2.978056     0.055885
H       -4.410503     3.145514    -1.385515
H       -7.003787    -0.312994    -0.946653
H       -7.003775     0.954380     0.288782
H       -7.660500     1.285440    -1.318616
H       -5.250374    -0.915326     0.938971
H       -2.700892    -1.441160     1.517478
H       -2.692507     1.303347    -1.432620
C       -1.839702     5.360038     2.273483
C       -1.585440     5.471695     0.758491
C       -0.984151     6.861468     0.470790
C       -2.924610     5.360003     0.005853
C       -0.688803     4.405426     0.329529
C        0.611603     4.396931    -0.292603
C        0.993514     3.016184    -0.475312
N        0.000000     2.210000     0.000000
N       -0.990897     3.029084     0.474060
H       -2.320925     4.410529     2.535180
H       -0.901950     5.418711     2.838704
H       -2.493384     6.166310     2.625611
H       -0.796362     7.003766    -0.600073
H       -0.032505     7.003796     0.996504
H       -1.661195     7.660499     0.794697
H       -3.430326     4.410496     0.216373
H       -2.776297     5.418640    -1.078981
H       -3.608965     6.166279     0.293854
H        1.182889     5.250374    -0.565916
H        1.807902     2.644482    -0.938195
H       -1.726018     2.677947     0.922049
C       -2.591771    -5.360033    -1.354986
C       -1.756300    -5.471696    -0.065863
C       -2.685997    -5.360011     1.157045
C       -1.090194    -6.861468    -0.040865
C       -0.760742    -4.404582    -0.028527
C        0.679105    -4.398179     0.025471
C        1.076216    -3.027330     0.042139
N        0.000000    -2.210000     0.000000
N       -1.082346    -3.035226    -0.041096
H       -3.137362    -4.410522    -1.403852
H       -1.955930    -5.418707    -2.246367
H       -3.331562    -6.166303    -1.418290
H       -3.428444    -6.166287     1.164772
H       -2.118717    -5.418656     2.093556
H       -3.233724    -4.410503     1.164880
H       -0.425897    -7.003787    -0.901515
H       -0.492247    -7.003775     0.867139
H       -1.840202    -7.660500    -0.068996
H        1.310372    -5.250374     0.049145
H        1.932327    -2.742008     0.131450
H       -1.867962    -2.740525    -0.091589
N        0.000000     0.000000     2.210000
N       -0.000000     0.000000     3.670000
N       -0.000002    -0.000005     5.130000
N        0.000000     0.000000    -2.210000
N       -0.000000     0.000000    -3.670000
N       -0.000002    -0.000005    -5.130000
91
ex_0233 frame4 OC-6-1-conf4
Mn       0.000000     0.000000     0.000000
C        5.360033    -1.386173    -2.575226
C        5.471696    -1.417271    -1.039361
C        5.360011    -2.872786    -0.548120
C        6.861468    -0.879758    -0.645151
C        4.407227    -0.617645    -0.452961
C        4.398080     0.547907     0.401817
C        3.028428     0.866277     0.637075
N        2.210000     0.000000     0.000000
N        3.034495    -0.873737    -0.642211
H        4.410522    -1.810516    -2.921621
H        5.418707    -0.359868    -2.956741
H        6.166303    -1.963216    -3.042472
H        6.166287    -3.491859    -0.958042
H        5.418656    -2.928221     0.545400
H        4.410503    -3.330692    -0.848765
H        7.003787     0.152876    -0.985265
H        7.003775    -0.893816     0.441962
H        7.660500    -1.484984    -1.089002
H        5.250374     1.057420     0.775469
H        2.696355     1.655621     1.278607
H        2.674302    -1.600478    -1.260684
C       -5.360038    -0.050345     2.924157
C       -5.471695    -0.782551     1.573704
C       -6.861468    -0.485787     0.976836
C       -5.360003    -2.301229     1.804917
C       -4.405426    -0.339984     0.683703
C       -4.396931     0.301875    -0.607081
C       -3.016184     0.490382    -0.986163
N       -2.210000     0.000000     0.000000
N       -3.029084    -0.489090     0.983565
H       -4.410529    -0.268495     3.426623
H       -5.418711     1.036614     2.792344
H       -6.166310    -0.348739     3.604050
H       -7.003766    -0.996986     0.017311
H       -7.003796     0.587802     0.805336
H       -7.660499    -0.819964     1.648870
H       -4.410496    -2.570183     2.282128
H       -5.418640    -2.852137     0.858683
H       -6.166279    -2.663271     2.453155
H       -5.250374     0.583851    -1.174140
H       -2.615597     0.911225    -1.832481
H       -2.629448    -0.883057     1.775843
C        2.686588     5.360033    -1.155643
C        1.756265     5.471696     0.066792
C        2.591077     5.360011     1.356339
C        1.090171     6.861468     0.041478
C        0.759698     4.403630     0.028896
C       -0.678971     4.398085    -0.025818
C       -1.101490     3.016163    -0.041886
N        0.000000     2.210000     0.000000
N        1.082150     3.034541     0.040756
H        3.234310     4.410522    -1.163219
H        2.119789     5.418707    -2.092443
H        3.429046     6.166303    -1.162969
H        3.330826     6.166287     1.420043
H        1.954777     5.418656     2.247396
H        3.136652     4.410503     1.405464
H        0.492680     7.003787    -0.866824
H        0.425441     7.003775     0.901796
H        1.840164     7.660500     0.069997
H       -1.310346     5.250374    -0.049829
H       -2.045060     2.615597    -0.077769
H        1.871705     2.738841     0.051784
C       -2.591771    -5.360033    -1.354986
C       -1.756300    -5.471696    -0.065863
C       -2.685997    -5.360011     1.157045
C       -1.090194    -6.861468    -0.040865
C       -0.765239    -4.407107    -0.028706
C        0.677518    -4.396930     0.025410
C        1.075555    -3.027345     0.042112
N        0.000000    -2.210000     0.000000
N       -1.098978    -3.029060    -0.041221
H       -3.137362    -4.410522    -1.403852
H       -1.955930    -5.418707    -2.246367
H       -3.331562    -6.166303    -1.418290
H       -3.428444    -6.166287     1.164772
H       -2.118717    -5.418656     2.093556
H       -3.233724    -4.410503     1.164880
H       -0.425897    -7.003787    -0.901515
H       -0.492247    -7.003775     0.867139
H       -1.840202    -7.660500    -0.068996
H        1.310372    -5.250374     0.049145
H        1.932327    -2.742008     0.131450
H       -1.981888    -2.629447    -0.074329
N        0.000000     0.000000     2.210000
N       -0.000000     0.000000     3.670000
N       -0.000002    -0.000005     5.130000
N        0.000000     0.000000    -2.210000
N       -0.000000     0.000000    -3.670000
N       -0.000002    -0.000005    -5.130000
91
ex_0233 frame5 OC-6-1-conf5
Mn       0.000000     0.000000     0.000000
C        5.360038     0.341573     2.904575
C        5.471695     0.935520     1.487862
C        6.861468     0.580738     0.923548
C        5.360003     2.469681     1.566543
C        4.405426     0.406442     0.646408
C        4.396931    -0.360885    -0.573966
C        3.016184    -0.586240    -0.932371
N        2.210000     0.000000     0.000000
N        3.029084     0.584695     0.929914
H        4.410529     0.608722     3.382793
H        5.418711    -0.753111     2.881766
H        6.166310     0.706253     3.551338
H        7.003766     0.993746    -0.082155
H        7.003796    -0.504599     0.859917
H        7.660499     0.980239     1.558924
H        4.410496     2.784864     2.014567
H        5.418640     2.923526     0.570106
H        6.166279     2.894536     2.175464
H        5.250374    -0.697981    -1.110094
H        2.615597    -1.089347    -1.732524
H        2.629448     1.055674     1.678975
C       -5.360033     0.943300    -2.768294
C       -5.471696     1.226823    -1.258505
C       -5.360011     2.743351    -1.013588
C       -6.861468     0.761543    -0.781183
C       -4.404748     0.531419    -0.545150
C       -4.398179    -0.474372     0.486625
C       -3.028624    -0.749869     0.770317
N       -2.210000     0.000000     0.000000
N       -3.035221     0.756253    -0.775536
H       -4.410522     1.304826    -3.179822
H       -5.418707    -0.131811    -2.975643
H       -6.166303     1.435547    -3.324162
H       -6.166287     3.286492    -1.519834
H       -5.418656     2.978056     0.055885
H       -4.410503     3.145514    -1.385515
H       -7.003787    -0.312994    -0.946653
H       -7.003775     0.954380     0.288782
H       -7.660500     1.285440    -1.318616
H       -5.250374    -0.915326     0.938971
H       -2.700660    -1.441559     1.517916
H       -2.678285     1.429421    -1.453652
C        2.686588     5.360033    -1.155643
C        1.756265     5.471696     0.066792
C        2.591077     5.360011     1.356339
C        1.090171     6.861468     0.041478
C        0.765437     4.407268     0.029112
C       -0.677505     4.396930    -0.025764
C       -1.073372     3.028767    -0.041350
N        0.000000     2.210000     0.000000
N        1.099070     3.029056     0.041797
H        3.234310     4.410522    -1.163219
H        2.119789     5.418707    -2.092443
H        3.429046     6.166303    -1.162969
H        3.330826     6.166287     1.420043
H        1.954777     5.418656     2.247396
H        3.136652     4.410503     1.405464
H        0.492680     7.003787    -0.866824
H        0.425441     7.003775     0.901796
H        1.840164     7.660500     0.069997
H       -1.310346     5.250374    -0.049829
H       -1.916317     2.757628    -0.089107
H        1.981849     2.629447     0.075366
C       -2.591771    -5.360033    -1.354986
C       -1.756300    -5.471696    -0.065863
C       -2.685997    -5.360011     1.157045
C       -1.090194    -6.861468    -0.040865
C       -0.759639    -4.403742    -0.028482
C        0.679105    -4.398179     0.025471
C        1.101577    -3.016160     0.041315
N        0.000000    -2.210000     0.000000
N       -1.081051    -3.035250    -0.041041
H       -3.137362    -4.410522    -1.403852
H       -1.955930    -5.418707    -2.246367
H       -3.331562    -6.166303    -1.418290
H       -3.428444    -6.166287     1.164772
H       -2.118717    -5.418656     2.093556
H       -3.233724    -4.410503     1.164880
H       -0.425897    -7.003787    -0.901515
H       -0.492247    -7.003775     0.867139
H       -1.840202    -7.660500    -0.068996
H        1.310372    -5.250374     0.049145
H        2.045101    -2.615597     0.076700
H       -1.867962    -2.740525    -0.091589
N        0.000000     0.000000     2.210000
N       -0.000000     0.000000     3.670000
N       -0.000002    -0.000005     5.130000
N        0.000000     0.000000    -2.210000
N       -0.000000     0.000000    -3.670000
N       -0.000002    -0.000005    -5.130000
91
ex_0233 frame6 OC-6-1-conf6
Mn       0.000000     0.000000     0.000000
C        5.360033    -0.672422    -2.846246
C        5.471696    -1.099972    -1.370763
C        5.360011    -2.633034    -1.272975
C        6.861468    -0.682803    -0.850866
C        4.407227    -0.479364    -0.597385
C        4.396930     0.424328     0.528793
C        3.028441     0.671489     0.839094
N        2.210000     0.000000     0.000000
N        3.029057    -0.688338    -0.857805
H        4.410522    -0.992653    -3.290665
H        5.418707     0.417655    -2.949134
H        6.166303    -1.108872    -3.446920
H        6.166287    -3.124917    -1.829157
H        5.418656    -2.969604    -0.231064
H        4.410503    -2.997525    -1.681890
H        7.003787     0.402672    -0.912125
H        7.003775    -0.977748     0.195566
H        7.660500    -1.152530    -1.436238
H        5.250374     0.820683     1.022726
H        2.696570     1.267962     1.663097
H        2.719069    -1.243905    -1.448044
C       -5.360033     0.194670    -2.918111
C       -5.471696     0.859295    -1.533147
C       -5.360011     2.387538    -1.689082
C       -6.861468     0.533409    -0.951666
C       -4.403835     0.371631    -0.663067
C       -4.398179    -0.332260     0.592820
C       -3.016160    -0.538960     0.961614
N       -2.210000     0.000000     0.000000
N       -3.035249     0.529079    -0.943621
H       -4.410522     0.437367    -3.409186
H       -5.418707    -0.897472    -2.840135
H       -6.166303     0.526276    -3.582441
H       -6.166287     2.781145    -2.318654
H       -5.418656     2.891045    -0.716797
H       -4.410503     2.679736    -2.152424
H       -7.003787    -0.547341    -0.833388
H       -7.003775     0.996603     0.031931
H       -7.660500     0.900356    -1.606382
H       -5.250374    -0.641114     1.143880
H       -2.661056    -1.027208     1.732895
H       -2.678840     1.003881    -1.773040
C        2.686588     5.360033    -1.155643
C        1.756265     5.471696     0.066792
C        2.591077     5.360011     1.356339
C        1.090171     6.861468     0.041478
C        0.760907     4.404551     0.028943
C       -0.678971     4.398085    -0.025818
C       -1.073991     3.028754    -0.041373
N        0.000000     2.210000     0.000000
N        1.083558     3.034513     0.040811
H        3.234310     4.410522    -1.163219
H        2.119789     5.418707    -2.092443
H        3.429046     6.166303    -1.162969
H        3.330826     6.166287     1.420043
H        1.954777     5.418656     2.247396
H        3.136652     4.410503     1.405464
H        0.492680     7.003787    -0.866824
H        0.425441     7.003775     0.901796
H        1.840164     7.660500     0.069997
H       -1.310346     5.250374    -0.049829
H       -2.091049     2.701386    -0.099009
H        1.871705     2.738841     0.051784
C        0.969189    -6.861468    -0.500868
C        1.561418    -5.471696    -0.806783
C        1.769198    -5.359975    -2.328842
C        2.922999    -5.360065    -0.095480
C        0.679665    -4.406551    -0.351202
C       -0.602354    -4.396930     0.311201
C       -0.964355    -3.021861     0.499938
N        0.000000    -2.210000     0.000000
N        0.976701    -3.029073    -0.504637
H        0.001896    -7.003764    -0.997211
H        0.814264    -7.003801     0.575235
H        1.635990    -7.660498    -0.845372
H        2.411771    -6.166251    -2.700847
H        2.242221    -4.410470    -2.605106
H        0.814585    -5.418587    -2.865104
H        2.807950    -5.418693     0.993384
H        3.598188    -6.166371    -0.404286
H        3.422072    -4.410581    -0.321384
H       -1.164993    -5.250373     0.601902
H       -1.745513    -2.667474     1.022625
H        1.672387    -2.697429    -0.982077
N        0.000000     0.000000     2.210000
N       -0.000000     0.000000     3.670000
N       -0.000002    -0.000005     5.130000
N        0.000000     0.000000    -2.210000
N       -0.000000     0.000000    -3.670000
N       -0.000002    -0.000005    -5.130000
91
ex_0233 frame7 OC-6-1-conf7
Mn       0.000000     0.000000     0.000000
C        5.360033    -0.672422    -2.846246
C        5.471696    -1.099972    -1.370763
C        5.360011    -2.633034    -1.272975
C        6.861468    -0.682803    -0.850866
C        4.400922    -0.474114    -0.590832
C        4.394034     0.421981     0.525867
C        3.018463     0.684376     0.852860
N        2.210000     0.000000     0.000000
N        3.030505    -0.683272    -0.851485
H        4.410522    -0.992653    -3.290665
H        5.418707     0.417655    -2.949134
H        6.166303    -1.108872    -3.446920
H        6.166287    -3.124917    -1.829157
H        5.418656    -2.969604    -0.231064
H        4.410503    -2.997525    -1.681890
H        7.003787     0.402672    -0.912125
H        7.003775    -0.977748     0.195566
H        7.660500    -1.152530    -1.436238
H        5.250374     0.820683     1.022726
H        2.649023     1.229010     1.612295
H        2.629447    -1.241254    -1.546834
C       -5.360033     0.194670    -2.918111
C       -5.471696     0.859295    -1.533147
C       -5.360011     2.387538    -1.689082
C       -6.861468     0.533409    -0.951666
C       -4.400922     0.370376    -0.660823
C       -4.394034    -0.329649     0.588163
C       -3.018463    -0.534631     0.953892
N       -2.210000     0.000000     0.000000
N       -3.030505     0.533769    -0.952354
H       -4.410522     0.437367    -3.409186
H       -5.418707    -0.897472    -2.840135
H       -6.166303     0.526276    -3.582441
H       -6.166287     2.781145    -2.318654
H       -5.418656     2.891045    -0.716797
H       -4.410503     2.679736    -2.152424
H       -7.003787    -0.547341    -0.833388
H       -7.003775     0.996603     0.031931
H       -7.660500     0.900356    -1.606382
H       -5.250374    -0.641114     1.143880
H       -2.615597    -1.000589     1.785256
H       -2.684570     0.898408    -1.722261
C       -1.839702     5.360038     2.273483
C       -1.585440     5.471695     0.758491
C       -0.984151     6.861468     0.470790
C       -2.924610     5.360003     0.005853
C       -0.683363     4.400923     0.326927
C        0.608220     4.394034    -0.290985
C        0.986423     3.018462    -0.471920
N        0.000000     2.210000     0.000000
N       -0.984834     3.030505     0.471159
H       -2.320925     4.410529     2.535180
H       -0.901950     5.418711     2.838704
H       -2.493384     6.166310     2.625611
H       -0.796362     7.003766    -0.600073
H       -0.032505     7.003796     0.996504
H       -1.661195     7.660499     0.794697
H       -3.430326     4.410496     0.216373
H       -2.776297     5.418640    -1.078981
H       -3.608965     6.166279     0.293854
H        1.182889     5.250374    -0.565916
H        1.812716     2.640846    -0.931275
H       -1.733956     2.671843     0.913725
C       -2.663192    -5.360038     1.208567
C       -1.132961    -5.471695     1.343625
C       -0.703241    -6.861468     0.834056
C       -0.741439    -5.360003     2.829072
C       -0.488332    -4.400923     0.579135
C        0.434642    -4.394034    -0.515451
C        0.704906    -3.018462    -0.835971
N        0.000000    -2.210000     0.000000
N       -0.703770    -3.030505     0.834623
H       -3.037539    -4.410529     1.608474
H       -2.974314    -5.418711     0.158777
H       -3.168449    -6.166310     1.752635
H        0.380424    -7.003766     0.921715
H       -0.972631    -7.003796    -0.219241
H       -1.187061    -7.660499     1.407835
H       -1.072416    -4.410496     3.265559
H        0.345815    -5.418640     2.958451
H       -1.192348    -6.166279     3.418960
H        0.845306    -5.250374    -1.002469
H        1.319266    -2.615597    -1.564562
H       -1.278492    -2.629448     1.516201
N        0.000000     0.000000     2.210000
N       -0.000000     0.000000     3.670000
N       -0.000002    -0.000005     5.130000
N        0.000000     0.000000    -2.210000
N       -0.000000     0.000000    -3.670000
N       -0.000002    -0.000005    -5.130000
91
ex_0233 frame8 OC-6-1-conf8
Mn       0.000000     0.000000     0.000000
C        5.360033    -0.672422    -2.846246
C        5.471696    -1.099972    -1.370763
C        5.360011    -2.633034    -1.272975
C        6.861468    -0.682803    -0.850866
C        4.400922    -0.474114    -0.590832
C        4.394034     0.421981     0.525867
C        3.032495     0.664893     0.830748
N        2.210000     0.000000     0.000000
N        3.036497    -0.671653    -0.838854
H        4.410522    -0.992653    -3.290665
H        5.418707     0.417655    -2.949134
H        6.166303    -1.108872    -3.446920
H        6.166287    -3.124917    -1.829157
H        5.418656    -2.969604    -0.231064
H        4.410503    -2.997525    -1.681890
H        7.003787     0.402672    -0.912125
H        7.003775    -0.977748     0.195566
H        7.660500    -1.152530    -1.436238
H        5.250374     0.820683     1.022726
H        2.726151     1.196195     1.533359
H        2.715540    -1.150882    -1.511090
C       -5.360033     0.943300    -2.768294
C       -5.471696     1.226823    -1.258505
C       -5.360011     2.743351    -1.013588
C       -6.861468     0.761543    -0.781183
C       -4.400922     0.528789    -0.542446
C       -4.394034    -0.470645     0.482802
C       -3.030570    -0.744736     0.765020
N       -2.210000     0.000000     0.000000
N       -3.034606     0.752298    -0.771557
H       -4.410522     1.304826    -3.179822
H       -5.418707    -0.131811    -2.975643
H       -6.166303     1.435547    -3.324162
H       -6.166287     3.286492    -1.519834
H       -5.418656     2.978056     0.055885
H       -4.412180     3.144446    -1.384082
H       -7.003787    -0.312994    -0.946653
H       -7.003775     0.954380     0.288782
H       -7.660500     1.285440    -1.318616
H       -5.250374    -0.915326     0.938971
H       -2.714077    -1.356093     1.413525
H       -2.712766     1.336071    -1.352969
C       -1.088497     6.861468    -0.073283
C       -1.753573     5.471696    -0.117931
C       -2.550532     5.359975    -1.431208
C       -2.719054     5.360065     1.076932
C       -0.755831     4.400923    -0.050843
C        0.672726     4.394034     0.045212
C        1.062235     3.032162     0.071003
N        0.000000     2.210000     0.000000
N       -1.074870     3.034811    -0.072478
H       -0.399023     7.003764    -0.913900
H       -0.517684     7.003801     0.852013
H       -1.837345     7.660498    -0.123618
H       -3.288113     6.166251    -1.516418
H       -3.094457     4.410470    -1.496151
H       -1.888591     5.418587    -2.303387
H       -2.179732     5.418693     2.029818
H       -3.461374     6.166371     1.062682
H       -3.265134     4.412350     1.068300
H        1.308342     5.250373     0.087947
H        1.938349     2.728342     0.124165
H       -1.896912     2.711766    -0.146467
C       -2.591771    -5.360033    -1.354986
C       -1.756300    -5.471696    -0.065863
C       -2.685997    -5.360011     1.157045
C       -1.090194    -6.861468    -0.040865
C       -0.757007    -4.400922    -0.028389
C        0.673770    -4.394034     0.025270
C        1.068759    -3.029382     0.041843
N        0.000000    -2.210000     0.000000
N       -1.072551    -3.037272    -0.040720
H       -3.137362    -4.410522    -1.403852
H       -1.955930    -5.418707    -2.246367
H       -3.331562    -6.166303    -1.418290
H       -3.428444    -6.166287     1.164772
H       -2.118717    -5.418656     2.093556
H       -3.233724    -4.410503     1.164880
H       -0.425897    -7.003787    -0.901515
H       -0.492247    -7.003775     0.867139
H       -1.840202    -7.660500    -0.068996
H        1.310372    -5.250374     0.049145
H        1.967505    -2.703394     0.114106
H       -1.882056    -2.727545    -0.089346
N        0.000000     0.000000     2.210000
N       -0.000000     0.000000     3.670000
N       -0.000002    -0.000005     5.130000
N        0.000000     0.000000    -2.210000
N       -0.000000     0.000000    -3.670000
N       -0.000002    -0.000005    -5.130000
91
ex_0233 frame9 OC-6-1-conf9
Mn       0.000000     0.000000     0.000000
C        5.360033    -0.672422    -2.846246
C        5.471696    -1.099972    -1.370763
C        5.360011    -2.633034    -1.272975
C        6.861468    -0.682803    -0.850866
C        4.407227    -0.479364    -0.597385
C        4.396930     0.424328     0.528793
C        3.028441     0.671489     0.839094
N        2.210000     0.000000     0.000000
N        3.029057    -0.688338    -0.857805
H        4.410522    -0.992653    -3.290665
H        5.418707     0.417655    -2.949134
H        6.166303    -1.108872    -3.446920
H        6.166287    -3.124917    -1.829157
H        5.418656    -2.969604    -0.231064
H        4.410503    -2.997525    -1.681890
H        7.003787     0.402672    -0.912125
H        7.003775    -0.977748     0.195566
H        7.660500    -1.152530    -1.436238
H        5.250374     0.820683     1.022726
H        2.696570     1.267962     1.663097
H        2.629447    -1.241254    -1.546834
C       -5.360038    -0.050345     2.924157
C       -5.471695    -0.782551     1.573704
C       -6.861468    -0.485787     0.976836
C       -5.360003    -2.301229     1.804917
C       -4.405426    -0.339984     0.683703
C       -4.396931     0.301875    -0.607081
C       -3.016184     0.490382    -0.986163
N       -2.210000     0.000000     0.000000
N       -3.029084    -0.489090     0.983565
H       -4.410529    -0.268495     3.426623
H       -5.418711     1.036614     2.792344
H       -6.166310    -0.348739     3.604050
H       -7.003766    -0.996986     0.017311
H       -7.003796     0.587802     0.805336
H       -7.660499    -0.819964     1.648870
H       -4.410496    -2.570183     2.282128
H       -5.418640    -2.852137     0.858683
H       -6.166279    -2.663271     2.453155
H       -5.250374     0.583851    -1.174140
H       -2.615597     0.911225    -1.832481
H       -2.629448    -0.883057     1.775843
C        2.686588     5.360033    -1.155643
C        1.756265     5.471696     0.066792
C        2.591077     5.360011     1.356339
C        1.090171     6.861468     0.041478
C        0.759698     4.403630     0.028896
C       -0.678971     4.398085    -0.025818
C       -1.101490     3.016163    -0.041886
N        0.000000     2.210000     0.000000
N        1.082150     3.034541     0.040756
H        3.234310     4.410522    -1.163219
H        2.119789     5.418707    -2.092443
H        3.429046     6.166303    -1.162969
H        3.330826     6.166287     1.420043
H        1.954777     5.418656     2.247396
H        3.136652     4.410503     1.405464
H        0.492680     7.003787    -0.866824
H        0.425441     7.003775     0.901796
H        1.840164     7.660500     0.069997
H       -1.310346     5.250374    -0.049829
H       -2.045060     2.615597    -0.077769
H        1.871705     2.738841     0.051784
C       -2.663192    -5.360038     1.208567
C       -1.132961    -5.471695     1.343625
C       -0.703241    -6.861468     0.834056
C       -0.741439    -5.360003     2.829072
C       -0.492219    -4.405426     0.583745
C        0.437060    -4.396931    -0.518319
C        0.709973    -3.016184    -0.841980
N        0.000000    -2.210000     0.000000
N       -0.708103    -3.029084     0.839762
H       -3.037539    -4.410529     1.608474
H       -2.974314    -5.418711     0.158777
H       -3.168449    -6.166310     1.752635
H        0.380424    -7.003766     0.921715
H       -0.972631    -7.003796    -0.219241
H       -1.187061    -7.660499     1.407835
H       -1.072416    -4.410496     3.265559
H        0.345815    -5.418640     2.958451
H       -1.192348    -6.166279     3.418960
H        0.845306    -5.250374    -1.002469
H        1.319266    -2.615597    -1.564562
H       -1.278492    -2.629448     1.516201
N        0.000000     0.000000     2.210000
N       -0.000000     0.000000     3.670000
N       -0.000002    -0.000005     5.130000
N        0.000000     0.000000    -2.210000
N       -0.000000     0.000000    -3.670000
N       -0.000002    -0.000005    -5.130000
91
ex_0233 frame10 OC-6-1-conf10
Mn       0.000000     0.000000     0.000000
C        5.360033    -1.386173    -2.575226
C        5.471696    -1.417271    -1.039361
C        5.360011    -2.872786    -0.548120
C        6.861468    -0.879758    -0.645151
C        4.400922    -0.610877    -0.447990
C        4.394034     0.543706     0.398732
C        3.018463     0.881792     0.646670
N        2.210000     0.000000     0.000000
N        3.036497    -0.865878    -0.636434
H        4.410522    -1.810516    -2.921621
H        5.418707    -0.359868    -2.956741
H        6.166303    -1.963216    -3.042472
H        6.166287    -3.491859    -0.958042
H        5.418656    -2.928221     0.545400
H        4.410503    -3.330692    -0.848765
H        7.003787     0.152876    -0.985265
H        7.003775    -0.893816     0.441962
H        7.660500    -1.484984    -1.089002
H        5.250374     1.057420     0.775469
H        2.649023     1.604425     1.239267
H        2.715540    -1.502765    -1.161730
C       -5.360038    -0.050345     2.924157
C       -5.471695    -0.782551     1.573704
C       -6.861468    -0.485787     0.976836
C       -5.360003    -2.301229     1.804917
C       -4.400923    -0.337299     0.678303
C       -4.394034     0.300205    -0.603722
C       -3.018462     0.486882    -0.979125
N       -2.210000     0.000000     0.000000
N       -3.030505    -0.486097     0.977547
H       -4.410529    -0.268495     3.426623
H       -5.418711     1.036614     2.792344
H       -6.166310    -0.348739     3.604050
H       -7.003766    -0.996986     0.017311
H       -7.003796     0.587802     0.805336
H       -7.660499    -0.819964     1.648870
H       -4.410496    -2.570183     2.282128
H       -5.418640    -2.852137     0.858683
H       -6.166279    -2.663271     2.453155
H       -5.250374     0.583851    -1.174140
H       -2.615597     0.911225    -1.832481
H       -2.629448    -0.883057     1.775843
C       -1.839702     5.360038     2.273483
C       -1.585440     5.471695     0.758491
C       -0.984151     6.861468     0.470790
C       -2.924610     5.360003     0.005853
C       -0.683363     4.400923     0.326927
C        0.608220     4.394034    -0.290985
C        0.986423     3.018462    -0.471920
N        0.000000     2.210000     0.000000
N       -0.984834     3.030505     0.471159
H       -2.320925     4.410529     2.535180
H       -0.901950     5.418711     2.838704
H       -2.493384     6.166310     2.625611
H       -0.796362     7.003766    -0.600073
H       -0.032505     7.003796     0.996504
H       -1.661195     7.660499     0.794697
H       -3.430326     4.410496     0.216373
H       -2.776297     5.418640    -1.078981
H       -3.608965     6.166279     0.293854
H        1.182889     5.250374    -0.565916
H        1.812716     2.640846    -0.931275
H       -1.789078     2.629448     0.855924
C       -2.591771    -5.360033    -1.354986
C       -1.756300    -5.471696    -0.065863
C       -2.685997    -5.360011     1.157045
C       -1.090194    -6.861468    -0.040865
C       -0.757007    -4.400922    -0.028389
C        0.673770    -4.394034     0.025270
C        1.068759    -3.029382     0.041843
N        0.000000    -2.210000     0.000000
N       -1.090969    -3.030505    -0.040916
H       -3.137362    -4.410522    -1.403852
H       -1.955930    -5.418707    -2.246367
H       -3.331562    -6.166303    -1.418290
H       -3.428444    -6.166287     1.164772
H       -2.118717    -5.418656     2.093556
H       -3.233724    -4.410503     1.164880
H       -0.425897    -7.003787    -0.901515
H       -0.492247    -7.003775     0.867139
H       -1.840202    -7.660500    -0.068996
H        1.310372    -5.250374     0.049145
H        1.967505    -2.703394     0.114106
H       -1.981888    -2.629447    -0.074329
N        0.000000     0.000000     2.210000
N       -0.000000     0.000000     3.670000
N       -0.000002    -0.000005     5.130000
N        0.000000     0.000000    -2.210000
N       -0.000000     0.000000    -3.670000
N       -0.000002    -0.000005    -5.130000
91
ex_0233 frame11 OC-6-2
Mn       0.000000     0.000000     0.000000
C        5.360033    -2.488074    -1.537125
C        5.471696    -1.747073    -0.191478
C        5.360011    -2.761966     0.961707
C        6.861468    -1.084468    -0.118839
C        4.400922    -0.753030    -0.082532
C        4.394034     0.670230     0.073459
C        3.018463     1.086990     0.119136
N        2.210000     0.000000     0.000000
N        3.030505    -1.085238    -0.118944
H        4.410522    -3.028763    -1.624940
H        5.418707    -1.790025    -2.380679
H        6.166303    -3.221431    -1.653250
H        6.166287    -3.503060     0.916241
H        5.418656    -2.263214     1.936440
H        4.410503    -3.308847     0.930294
H        7.003787    -0.360238    -0.929702
H        7.003775    -0.553086     0.829658
H        7.660500    -1.830535    -0.200612
H        5.250374     1.303487     0.142866
H        2.615597     2.034356     0.222970
H        2.629447    -1.971476    -0.216078
C       -5.360033     2.624493    -1.290466
C       -5.471696     1.757392    -0.022403
C       -5.360011     2.656557     1.223127
C       -6.861468     1.090872    -0.013888
C       -4.400922     0.757478    -0.009657
C       -4.394034    -0.674189     0.008597
C       -3.018463    -1.093410     0.013942
N       -2.210000     0.000000     0.000000
N       -3.030505     1.091648    -0.013919
H       -4.410522     3.171125    -1.325822
H       -5.418707     2.010893    -2.197301
H       -6.166303     3.365623    -1.335453
H       -6.166287     3.398586     1.249215
H       -5.418656     2.066287     2.145320
H       -4.410503     3.203922     1.244507
H       -7.003787     0.448065    -0.890705
H       -7.003775     0.470649     0.879049
H       -7.660500     1.841346    -0.023459
H       -5.250374    -1.311186     0.016719
H       -2.615597    -2.046372     0.026093
H       -2.629447     1.983120    -0.025286
C        0.585155     6.861468     0.920755
C        0.942686     5.471695     1.483332
C        2.477211     5.360022     1.554582
C        0.355609     5.360019     2.902904
C        0.406320     4.400922     0.639351
C       -0.361644     4.394034    -0.569049
C       -0.586520     3.018462    -0.922894
N        0.000000     2.210000     0.000000
N        0.585574     3.030505     0.921407
H        0.987716     7.660499     1.554198
H        0.993289     7.003784    -0.086933
H       -0.500479     7.003780     0.862380
H        2.794573     4.410515     2.001065
H        2.926225     5.418675     0.555960
H        2.904999     6.166298     2.161446
H        0.625089     4.410513     3.379819
H       -0.739175     5.418670     2.885398
H        0.723400     6.166296     3.547897
H       -0.703338     5.250374    -1.106708
H       -1.097701     2.615596    -1.727244
H        1.063772     2.629448     1.673857
N        0.000000    -2.210000     0.000000
N       -0.000000    -3.670000     0.000000
N       -0.000005    -5.130000     0.000000
C       -2.646779     1.244116     5.360033
C       -1.114877     1.358668     5.471696
C       -0.703494     2.838738     5.360011
C       -0.692027     0.843382     6.861468
C       -0.480539     0.585618     4.400922
C        0.427702    -0.521225     4.394034
C        0.693654    -0.845331     3.018463
N        0.000000     0.000000     2.210000
N       -0.692536     0.843968     3.030505
H       -3.015732     1.648999     4.410522
H       -2.971933     0.198587     5.418707
H       -3.144706     1.794903     6.166303
H       -1.146466     3.434609     6.166287
H        0.385395     2.953542     5.418656
H       -1.028589     3.279622     4.410503
H       -0.975496    -0.206215     7.003787
H        0.392714     0.916522     7.003775
H       -1.168126     1.423582     7.660500
H        0.831811    -1.013696     5.250374
H        1.298208    -1.582079     2.615597
H       -1.258081     1.533179     2.629447
N        0.000000     0.000000    -2.210000
N       -0.000000     0.000000    -3.670000
N       -0.000002    -0.000005    -5.130000
91
ex_0233 frame12 OC-6-2-conf1
Mn       0.000000     0.000000     0.000000
C        5.360033    -1.386173    -2.575226
C        5.471696    -1.417271    -1.039361
C        5.360011    -2.872786    -0.548120
C        6.861468    -0.879758    -0.645151
C        4.407227    -0.617645    -0.452961
C        4.396930     0.546731     0.400951
C        3.028441     0.865782     0.636708
N        2.210000     0.000000     0.000000
N        3.029057    -0.886900    -0.650421
H        4.410522    -1.810516    -2.921621
H        5.418707    -0.359868    -2.956741
H        6.166303    -1.963216    -3.042472
H        6.166287    -3.491859    -0.958042
H        5.418656    -2.928221     0.545400
H        4.410503    -3.330692    -0.848765
H        7.003787     0.152876    -0.985265
H        7.003775    -0.893816     0.441962
H        7.660500    -1.484984    -1.089002
H        5.250374     1.057420     0.775469
H        2.696571     1.655198     1.278256
H        2.629447    -1.599309    -1.172867
C       -5.360033     0.943300    -2.768294
C       -5.471696     1.226823    -1.258505
C       -5.360011     2.743351    -1.013588
C       -6.861468     0.761543    -0.781183
C       -4.403835     0.530582    -0.544289
C       -4.398179    -0.474372     0.486625
C       -3.016160    -0.769479     0.789354
N       -2.210000     0.000000     0.000000
N       -3.035249     0.755278    -0.774533
H       -4.410522     1.304826    -3.179822
H       -5.418707    -0.131811    -2.975643
H       -6.166303     1.435547    -3.324162
H       -6.166287     3.286492    -1.519834
H       -5.418656     2.978056     0.055885
H       -4.410503     3.145514    -1.385515
H       -7.003787    -0.312994    -0.946653
H       -7.003775     0.954380     0.288782
H       -7.660500     1.285440    -1.318616
H       -5.250374    -0.915326     0.938971
H       -2.615597    -1.428553     1.465454
H       -2.678840     1.428572    -1.452802
C        2.686588     5.360033    -1.155643
C        1.756265     5.471696     0.066792
C        2.591077     5.360011     1.356339
C        1.090171     6.861468     0.041478
C        0.760907     4.404551     0.028943
C       -0.678971     4.398085    -0.025818
C       -1.073991     3.028754    -0.041373
N        0.000000     2.210000     0.000000
N        1.083558     3.034513     0.040811
H        3.234310     4.410522    -1.163219
H        2.119789     5.418707    -2.092443
H        3.429046     6.166303    -1.162969
H        3.330826     6.166287     1.420043
H        1.954777     5.418656     2.247396
H        3.136652     4.410503     1.405464
H        0.492680     7.003787    -0.866824
H        0.425441     7.003775     0.901796
H        1.840164     7.660500     0.069997
H       -1.310346     5.250374    -0.049829
H       -1.916317     2.757628    -0.089107
H        1.871705     2.738841     0.051784
N        0.000000    -2.210000     0.000000
N       -0.000000    -3.670000     0.000000
N       -0.000005    -5.130000     0.000000
C       -2.646779     1.244116     5.360033
C       -1.114877     1.358668     5.471696
C       -0.703494     2.838738     5.360011
C       -0.692027     0.843382     6.861468
C       -0.484364     0.590279     4.405426
C        0.430082    -0.524124     4.396930
C        0.698640    -0.851407     3.016184
N        0.000000     0.000000     2.210000
N       -0.696799     0.849164     3.029084
H       -3.015732     1.648999     4.410522
H       -2.971933     0.198587     5.418707
H       -3.144706     1.794903     6.166303
H       -1.146466     3.434609     6.166287
H        0.385395     2.953542     5.418656
H       -1.028589     3.279622     4.410503
H       -0.975496    -0.206215     7.003787
H        0.392714     0.916522     7.003775
H       -1.168126     1.423582     7.660500
H        0.831811    -1.013696     5.250374
H        1.298208    -1.582079     2.615597
H       -1.258081     1.533179     2.629447
N        0.000000     0.000000    -2.210000
N       -0.000000     0.000000    -3.670000
N       -0.000002    -0.000005    -5.130000
91
ex_0233 frame13 OC-6-2-conf2
Mn       0.000000     0.000000     0.000000
C        5.360033    -1.386173    -2.575226
C        5.471696    -1.417271    -1.039361
C        5.360011    -2.872786    -0.548120
C        6.861468    -0.879758    -0.645151
C        4.407227    -0.617645    -0.452961
C        4.396930     0.546731     0.400951
C        3.028441     0.865782     0.636708
N        2.210000     0.000000     0.000000
N        3.029057    -0.886900    -0.650421
H        4.410522    -1.810516    -2.921621
H        5.418707    -0.359868    -2.956741
H        6.166303    -1.963216    -3.042472
H        6.166287    -3.491859    -0.958042
H        5.418656    -2.928221     0.545400
H        4.410503    -3.330692    -0.848765
H        7.003787     0.152876    -0.985265
H        7.003775    -0.893816     0.441962
H        7.660500    -1.484984    -1.089002
H        5.250374     1.057420     0.775469
H        2.696571     1.655198     1.278256
H        2.629447    -1.599309    -1.172867
C       -5.360033     0.943300    -2.768294
C       -5.471696     1.226823    -1.258505
C       -5.360011     2.743351    -1.013588
C       -6.861468     0.761543    -0.781183
C       -4.403835     0.530582    -0.544289
C       -4.398179    -0.474372     0.486625
C       -3.016160    -0.769479     0.789354
N       -2.210000     0.000000     0.000000
N       -3.035249     0.755278    -0.774533
H       -4.410522     1.304826    -3.179822
H       -5.418707    -0.131811    -2.975643
H       -6.166303     1.435547    -3.324162
H       -6.166287     3.286492    -1.519834
H       -5.418656     2.978056     0.055885
H       -4.410503     3.145514    -1.385515
H       -7.003787    -0.312994    -0.946653
H       -7.003775     0.954380     0.288782
H       -7.660500     1.285440    -1.318616
H       -5.250374    -0.915326     0.938971
H       -2.615597    -1.428553     1.465454
H       -2.678840     1.428572    -1.452802
C        2.686588     5.360033    -1.155643
C        1.756265     5.471696     0.066792
C        2.591077     5.360011     1.356339
C        1.090171     6.861468     0.041478
C        0.760907     4.404551     0.028943
C       -0.678971     4.398085    -0.025818
C       -1.073991     3.028754    -0.041373
N        0.000000     2.210000     0.000000
N        1.083558     3.034513     0.040811
H        3.234310     4.410522    -1.163219
H        2.119789     5.418707    -2.092443
H        3.429046     6.166303    -1.162969
H        3.330826     6.166287     1.420043
H        1.954777     5.418656     2.247396
H        3.136652     4.410503     1.405464
H        0.492680     7.003787    -0.866824
H        0.425441     7.003775     0.901796
H        1.840164     7.660500     0.069997
H       -1.310346     5.250374    -0.049829
H       -1.916317     2.757628    -0.089107
H        1.871705     2.738841     0.051784
N        0.000000    -2.210000     0.000000
N       -0.000000    -3.670000     0.000000
N       -0.000005    -5.130000     0.000000
C        1.449950    -2.539857     5.360038
C        0.130794    -1.752662     5.471695
C        0.081154    -1.087939     6.861468
C       -1.056873    -2.726976     5.360003
C        0.056823    -0.761452     4.405426
C       -0.050461     0.676113     4.396931
C       -0.081966     1.098305     3.016184
N        0.000000     0.000000     2.210000
N        0.081750    -1.095411     3.029084
H        1.518974    -3.083269     4.410529
H        2.317190    -1.871465     5.418711
H        1.540586    -3.276796     6.166310
H       -0.848355    -0.524000     7.003766
H        0.916633    -0.392252     7.003796
H        0.137010    -1.836394     7.660499
H       -1.044426    -3.274618     4.410496
H       -2.013736    -2.194742     5.418640
H       -1.037125    -3.469201     6.166279
H       -0.097594     1.307656     5.250374
H       -0.152308     2.040863     2.615597
H        0.147604    -1.977781     2.629448
N        0.000000     0.000000    -2.210000
N       -0.000000     0.000000    -3.670000
N       -0.000002    -0.000005    -5.130000
91
ex_0233 frame14 OC-6-2-conf3
Mn       0.000000     0.000000     0.000000
C        5.360033    -2.005458    -2.128710
C        5.471696    -1.637985    -0.637129
C        5.360011    -2.916762     0.214088
C        6.861468    -1.016758    -0.395470
C        4.400922    -0.706010    -0.274618
C        4.394034     0.628380     0.244424
C        3.018463     1.019117     0.396411
N        2.210000     0.000000     0.000000
N        3.030505    -1.017474    -0.395772
H        4.410522    -2.504995    -2.353473
H        5.418707    -1.112867    -2.762852
H        6.166303    -2.683771    -2.430684
H        6.166287    -3.620836    -0.021638
H        5.418656    -2.687284     1.284695
H        4.410503    -3.436878     0.042203
H        7.003787    -0.107339    -0.991260
H        7.003775    -0.748972     0.658239
H        7.660500    -1.716239    -0.667553
H        5.250374     1.222095     0.475365
H        2.649023     1.870501     0.781784
H        2.629447    -1.848374    -0.718971
C       -5.360033     0.943300    -2.768294
C       -5.471696     1.226823    -1.258505
C       -5.360011     2.743351    -1.013588
C       -6.861468     0.761543    -0.781183
C       -4.400922     0.528789    -0.542446
C       -4.394034    -0.470645     0.482802
C       -3.018463    -0.763300     0.783016
N       -2.210000     0.000000     0.000000
N       -3.030505     0.762069    -0.781754
H       -4.410522     1.304826    -3.179822
H       -5.418707    -0.131811    -2.975643
H       -6.166303     1.435547    -3.324162
H       -6.166287     3.286492    -1.519834
H       -5.418656     2.978056     0.055885
H       -4.410503     3.145514    -1.385515
H       -7.003787    -0.312994    -0.946653
H       -7.003775     0.954380     0.288782
H       -7.660500     1.285440    -1.318616
H       -5.250374    -0.915326     0.938971
H       -2.615597    -1.428553     1.465454
H       -2.684570     1.313549    -1.431052
C       -1.839702     5.360038     2.273483
C       -1.585440     5.471695     0.758491
C       -0.984151     6.861468     0.470790
C       -2.924610     5.360003     0.005853
C       -0.683363     4.400923     0.326927
C        0.608220     4.394034    -0.290985
C        0.986423     3.018462    -0.471920
N        0.000000     2.210000     0.000000
N       -0.984834     3.030505     0.471159
H       -2.320925     4.410529     2.535180
H       -0.901950     5.418711     2.838704
H       -2.493384     6.166310     2.625611
H       -0.796362     7.003766    -0.600073
H       -0.032505     7.003796     0.996504
H       -1.661195     7.660499     0.794697
H       -3.430326     4.410496     0.216373
H       -2.776297     5.418640    -1.078981
H       -3.608965     6.166279     0.293854
H        1.182889     5.250374    -0.565916
H        1.812716     2.640846    -0.931275
H       -1.733956     2.671843     0.913725
N        0.000000    -2.210000     0.000000
N       -0.000000    -3.670000     0.000000
N       -0.000005    -5.130000     0.000000
C       -2.646779     1.244116     5.360033
C       -1.114877     1.358668     5.471696
C       -0.703494     2.838738     5.360011
C       -0.692027     0.843382     6.861468
C       -0.480539     0.585618     4.400922
C        0.427702    -0.521225     4.394034
C        0.693654    -0.845331     3.018463
N        0.000000     0.000000     2.210000
N       -0.692536     0.843968     3.030505
H       -3.015732     1.648999     4.410522
H       -2.971933     0.198587     5.418707
H       -3.144706     1.794903     6.166303
H       -1.146466     3.434609     6.166287
H        0.385395     2.953542     5.418656
H       -1.028589     3.279622     4.410503
H       -0.975496    -0.206215     7.003787
H        0.392714     0.916522     7.003775
H       -1.168126     1.423582     7.660500
H        0.831811    -1.013696     5.250374
H        1.298208    -1.582079     2.615597
H       -1.258081     1.533179     2.629447
N        0.000000     0.000000    -2.210000
N       -0.000000     0.000000    -3.670000
N       -0.000002    -0.000005    -5.130000
91
ex_0233 frame15 OC-6-2-conf4
Mn       0.000000     0.000000     0.000000
C        5.360033    -1.386173    -2.575226
C        5.471696    -1.417271    -1.039361
C        5.360011    -2.872786    -0.548120
C        6.861468    -0.879758    -0.645151
C        4.407227    -0.617645    -0.452961
C        4.396930     0.546731     0.400951
C        3.028441     0.865782     0.636708
N        2.210000     0.000000     0.000000
N        3.029057    -0.886900    -0.650421
H        4.410522    -1.810516    -2.921621
H        5.418707    -0.359868    -2.956741
H        6.166303    -1.963216    -3.042472
H        6.166287    -3.491859    -0.958042
H        5.418656    -2.928221     0.545400
H        4.410503    -3.330692    -0.848765
H        7.003787     0.152876    -0.985265
H        7.003775    -0.893816     0.441962
H        7.660500    -1.484984    -1.089002
H        5.250374     1.057420     0.775469
H        2.696571     1.655198     1.278256
H        2.629447    -1.599309    -1.172867
C       -5.360038    -0.050345     2.924157
C       -5.471695    -0.782551     1.573704
C       -6.861468    -0.485787     0.976836
C       -5.360003    -2.301229     1.804917
C       -4.405426    -0.339984     0.683703
C       -4.396931     0.301875    -0.607081
C       -3.016184     0.490382    -0.986163
N       -2.210000     0.000000     0.000000
N       -3.029084    -0.489090     0.983565
H       -4.410529    -0.268495     3.426623
H       -5.418711     1.036614     2.792344
H       -6.166310    -0.348739     3.604050
H       -7.003766    -0.996986     0.017311
H       -7.003796     0.587802     0.805336
H       -7.660499    -0.819964     1.648870
H       -4.410496    -2.570183     2.282128
H       -5.418640    -2.852137     0.858683
H       -6.166279    -2.663271     2.453155
H       -5.250374     0.583851    -1.174140
H       -2.615597     0.911225    -1.832481
H       -2.629448    -0.883057     1.775843
C        2.686588     5.360033    -1.155643
C        1.756265     5.471696     0.066792
C        2.591077     5.360011     1.356339
C        1.090171     6.861468     0.041478
C        0.759698     4.403630     0.028896
C       -0.678971     4.398085    -0.025818
C       -1.101490     3.016163    -0.041886
N        0.000000     2.210000     0.000000
N        1.082150     3.034541     0.040756
H        3.234310     4.410522    -1.163219
H        2.119789     5.418707    -2.092443
H        3.429046     6.166303    -1.162969
H        3.330826     6.166287     1.420043
H        1.954777     5.418656     2.247396
H        3.136652     4.410503     1.405464
H        0.492680     7.003787    -0.866824
H        0.425441     7.003775     0.901796
H        1.840164     7.660500     0.069997
H       -1.310346     5.250374    -0.049829
H       -2.045060     2.615597    -0.077769
H        1.871705     2.738841     0.051784
N        0.000000    -2.210000     0.000000
N       -0.000000    -3.670000     0.000000
N       -0.000005    -5.130000     0.000000
C       -2.646779     1.244116     5.360033
C       -1.114877     1.358668     5.471696
C       -0.703494     2.838738     5.360011
C       -0.692027     0.843382     6.861468
C       -0.484364     0.590279     4.405426
C        0.430082    -0.524124     4.396930
C        0.698640    -0.851407     3.016184
N        0.000000     0.000000     2.210000
N       -0.696799     0.849164     3.029084
H       -3.015732     1.648999     4.410522
H       -2.971933     0.198587     5.418707
H       -3.144706     1.794903     6.166303
H       -1.146466     3.434609     6.166287
H        0.385395     2.953542     5.418656
H       -1.028589     3.279622     4.410503
H       -0.975496    -0.206215     7.003787
H        0.392714     0.916522     7.003775
H       -1.168126     1.423582     7.660500
H        0.831811    -1.013696     5.250374
H        1.298208    -1.582079     2.615597
H       -1.258081     1.533179     2.629447
N        0.000000     0.000000    -2.210000
N       -0.000000     0.000000    -3.670000
N       -0.000002    -0.000005    -5.130000
91
ex_0233 frame16 OC-6-2-conf5
Mn       0.000000     0.000000     0.000000
C        5.360038     0.341573     2.904575
C        5.471695     0.935520     1.487862
C        6.861468     0.580738     0.923548
C        5.360003     2.469681     1.566543
C        4.405426     0.406442     0.646408
C        4.396931    -0.360885    -0.573966
C        3.016184    -0.586240    -0.932371
N        2.210000     0.000000     0.000000
N        3.029084     0.584695     0.929914
H        4.410529     0.608722     3.382793
H        5.418711    -0.753111     2.881766
H        6.166310     0.706253     3.551338
H        7.003766     0.993746    -0.082155
H        7.003796    -0.504599     0.859917
H        7.660499     0.980239     1.558924
H        4.410496     2.784864     2.014567
H        5.418640     2.923526     0.570106
H        6.166279     2.894536     2.175464
H        5.250374    -0.697981    -1.110094
H        2.615597    -1.089347    -1.732524
H        2.629448     1.055674     1.678975
C       -5.360033     0.943300    -2.768294
C       -5.471696     1.226823    -1.258505
C       -5.360011     2.743351    -1.013588
C       -6.861468     0.761543    -0.781183
C       -4.403835     0.530582    -0.544289
C       -4.398179    -0.474372     0.486625
C       -3.016160    -0.769479     0.789354
N       -2.210000     0.000000     0.000000
N       -3.035249     0.755278    -0.774533
H       -4.410522     1.304826    -3.179822
H       -5.418707    -0.131811    -2.975643
H       -6.166303     1.435547    -3.324162
H       -6.166287     3.286492    -1.519834
H       -5.418656     2.978056     0.055885
H       -4.410503     3.145514    -1.385515
H       -7.003787    -0.312994    -0.946653
H       -7.003775     0.954380     0.288782
H       -7.660500     1.285440    -1.318616
H       -5.250374    -0.915326     0.938971
H       -2.615597    -1.428553     1.465454
H       -2.678840     1.428572    -1.452802
C        2.686588     5.360033    -1.155643
C        1.756265     5.471696     0.066792
C        2.591077     5.360011     1.356339
C        1.090171     6.861468     0.041478
C        0.765437     4.407268     0.029112
C       -0.677505     4.396930    -0.025764
C       -1.073372     3.028767    -0.041350
N        0.000000     2.210000     0.000000
N        1.099070     3.029056     0.041797
H        3.234310     4.410522    -1.163219
H        2.119789     5.418707    -2.092443
H        3.429046     6.166303    -1.162969
H        3.330826     6.166287     1.420043
H        1.954777     5.418656     2.247396
H        3.136652     4.410503     1.405464
H        0.492680     7.003787    -0.866824
H        0.425441     7.003775     0.901796
H        1.840164     7.660500     0.069997
H       -1.310346     5.250374    -0.049829
H       -1.916317     2.757628    -0.089107
H        1.981849     2.629447     0.075366
N        0.000000    -2.210000     0.000000
N       -0.000000    -3.670000     0.000000
N       -0.000005    -5.130000     0.000000
C       -2.646779     1.244116     5.360033
C       -1.114877     1.358668     5.471696
C       -0.703494     2.838738     5.360011
C       -0.692027     0.843382     6.861468
C       -0.484364     0.590279     4.405426
C        0.430082    -0.524124     4.396930
C        0.698640    -0.851407     3.016184
N        0.000000     0.000000     2.210000
N       -0.696799     0.849164     3.029084
H       -3.015732     1.648999     4.410522
H       -2.971933     0.198587     5.418707
H       -3.144706     1.794903     6.166303
H       -1.146466     3.434609     6.166287
H        0.385395     2.953542     5.418656
H       -1.028589     3.279622     4.410503
H       -0.975496    -0.206215     7.003787
H        0.392714     0.916522     7.003775
H       -1.168126     1.423582     7.660500
H        0.831811    -1.013696     5.250374
H        1.298208    -1.582079     2.615597
H       -1.258081     1.533179     2.629447
N        0.000000     0.000000    -2.210000
N       -0.000000     0.000000    -3.670000
N       -0.000002    -0.000005    -5.130000
91
ex_0233 frame17 OC-6-2-conf6
Mn       0.000000     0.000000     0.000000
C        5.360033    -1.386173    -2.575226
C        5.471696    -1.417271    -1.039361
C        5.360011    -2.872786    -0.548120
C        6.861468    -0.879758    -0.645151
C        4.407227    -0.617645    -0.452961
C        4.396930     0.546731     0.400951
C        3.028441     0.865782     0.636708
N        2.210000     0.000000     0.000000
N        3.029057    -0.886900    -0.650421
H        4.410522    -1.810516    -2.921621
H        5.418707    -0.359868    -2.956741
H        6.166303    -1.963216    -3.042472
H        6.166287    -3.491859    -0.958042
H        5.418656    -2.928221     0.545400
H        4.410503    -3.330692    -0.848765
H        7.003787     0.152876    -0.985265
H        7.003775    -0.893816     0.441962
H        7.660500    -1.484984    -1.089002
H        5.250374     1.057420     0.775469
H        2.696571     1.655198     1.278256
H        2.629447    -1.599309    -1.172867
C       -5.360033    -1.290466    -2.624493
C       -5.471696    -0.022403    -1.757392
C       -5.360011     1.223127    -2.656557
C       -6.861468    -0.013888    -1.090872
C       -4.403835    -0.009692    -0.760048
C       -4.398179     0.008664     0.679527
C       -3.016160     0.014054     1.102262
N       -2.210000     0.000000     0.000000
N       -3.035249    -0.013615    -1.081739
H       -4.410522    -1.325822    -3.171125
H       -5.418707    -2.197301    -2.010893
H       -6.166303    -1.335453    -3.365623
H       -6.166287     1.249215    -3.398586
H       -5.418656     2.145320    -2.066287
H       -4.410503     1.244507    -3.203922
H       -7.003787    -0.890705    -0.448065
H       -7.003775     0.879049    -0.470649
H       -7.660500    -0.023459    -1.841346
H       -5.250374     0.016719     1.311186
H       -2.615597     0.026093     2.046372
H       -2.678840    -0.017133    -2.037438
C        2.686588     5.360033    -1.155643
C        1.756265     5.471696     0.066792
C        2.591077     5.360011     1.356339
C        1.090171     6.861468     0.041478
C        0.760907     4.404551     0.028943
C       -0.678971     4.398085    -0.025818
C       -1.073991     3.028754    -0.041373
N        0.000000     2.210000     0.000000
N        1.083558     3.034513     0.040811
H        3.234310     4.410522    -1.163219
H        2.119789     5.418707    -2.092443
H        3.429046     6.166303    -1.162969
H        3.330826     6.166287     1.420043
H        1.954777     5.418656     2.247396
H        3.136652     4.410503     1.405464
H        0.492680     7.003787    -0.866824
H        0.425441     7.003775     0.901796
H        1.840164     7.660500     0.069997
H       -1.310346     5.250374    -0.049829
H       -2.091049     2.701386    -0.099009
H        1.871705     2.738841     0.051784
N        0.000000    -2.210000     0.000000
N       -0.000000    -3.670000     0.000000
N       -0.000005    -5.130000     0.000000
C       -0.762794    -0.779962     6.861468
C       -1.228767    -1.256605     5.471696
C       -2.744927    -1.009427     5.359975
C       -0.947501    -2.766818     5.360065
C       -0.533853    -0.545930     4.405427
C        0.473993     0.484775     4.396930
C        0.769990     0.787469     3.016184
N        0.000000     0.000000     2.210000
N       -0.767961    -0.785395     3.029084
H       -0.954025     0.290292     7.003764
H        0.311488    -0.947047     7.003801
H       -1.287508    -1.316602     7.660498
H       -3.288838    -1.514846     6.166251
H       -3.147631    -1.380778     4.410470
H       -2.978040     0.060396     5.418587
H        0.127302    -2.975767     5.418693
H       -1.440539    -3.321934     6.166371
H       -1.309685    -3.177828     4.410581
H        0.916752     0.937582     5.250373
H        1.430800     1.463262     2.615599
H       -1.386547    -1.418060     2.629449
N        0.000000     0.000000    -2.210000
N       -0.000000     0.000000    -3.670000
N       -0.000002    -0.000005    -5.130000
91
ex_0233 frame18 OC-6-2-conf7
Mn       0.000000     0.000000     0.000000
C        5.360033    -2.005458    -2.128710
C        5.471696    -1.637985    -0.637129
C        5.360011    -2.916762     0.214088
C        6.861468    -1.016758    -0.395470
C        4.400922    -0.706010    -0.274618
C        4.394034     0.628380     0.244424
C        3.018463     1.019117     0.396411
N        2.210000     0.000000     0.000000
N        3.030505    -1.017474    -0.395772
H        4.410522    -2.504995    -2.353473
H        5.418707    -1.112867    -2.762852
H        6.166303    -2.683771    -2.430684
H        6.166287    -3.620836    -0.021638
H        5.418656    -2.687284     1.284695
H        4.410503    -3.436878     0.042203
H        7.003787    -0.107339    -0.991260
H        7.003775    -0.748972     0.658239
H        7.660500    -1.716239    -0.667553
H        5.250374     1.222095     0.475365
H        2.649023     1.870501     0.781784
H        2.629447    -1.848374    -0.718971
C       -5.360033     0.943300    -2.768294
C       -5.471696     1.226823    -1.258505
C       -5.360011     2.743351    -1.013588
C       -6.861468     0.761543    -0.781183
C       -4.400922     0.528789    -0.542446
C       -4.394034    -0.470645     0.482802
C       -3.018463    -0.763300     0.783016
N       -2.210000     0.000000     0.000000
N       -3.030505     0.762069    -0.781754
H       -4.410522     1.304826    -3.179822
H       -5.418707    -0.131811    -2.975643
H       -6.166303     1.435547    -3.324162
H       -6.166287     3.286492    -1.519834
H       -5.418656     2.978056     0.055885
H       -4.410503     3.145514    -1.385515
H       -7.003787    -0.312994    -0.946653
H       -7.003775     0.954380     0.288782
H       -7.660500     1.285440    -1.318616
H       -5.250374    -0.915326     0.938971
H       -2.615597    -1.428553     1.465454
H       -2.684570     1.313549    -1.431052
C       -1.839702     5.360038     2.273483
C       -1.585440     5.471695     0.758491
C       -0.984151     6.861468     0.470790
C       -2.924610     5.360003     0.005853
C       -0.683363     4.400923     0.326927
C        0.608220     4.394034    -0.290985
C        0.986423     3.018462    -0.471920
N        0.000000     2.210000     0.000000
N       -0.984834     3.030505     0.471159
H       -2.320925     4.410529     2.535180
H       -0.901950     5.418711     2.838704
H       -2.493384     6.166310     2.625611
H       -0.796362     7.003766    -0.600073
H       -0.032505     7.003796     0.996504
H       -1.661195     7.660499     0.794697
H       -3.430326     4.410496     0.216373
H       -2.776297     5.418640    -1.078981
H       -3.608965     6.166279     0.293854
H        1.182889     5.250374    -0.565916
H        1.812716     2.640846    -0.931275
H       -1.733956     2.671843     0.913725
N        0.000000    -2.210000     0.000000
N       -0.000000    -3.670000     0.000000
N       -0.000005    -5.130000     0.000000
C        1.449950    -2.539857     5.360038
C        0.130794    -1.752662     5.471695
C        0.081154    -1.087939     6.861468
C       -1.056873    -2.726976     5.360003
C        0.056374    -0.755439     4.400923
C       -0.050182     0.672373     4.394034
C       -0.081381     1.090466     3.018462
N        0.000000     0.000000     2.210000
N        0.081250    -1.088709     3.030505
H        1.518974    -3.083269     4.410529
H        2.317190    -1.871465     5.418711
H        1.540586    -3.276796     6.166310
H       -0.848355    -0.524000     7.003766
H        0.916633    -0.392252     7.003796
H        0.137010    -1.836394     7.660499
H       -1.044426    -3.274618     4.410496
H       -2.013736    -2.194742     5.418640
H       -1.037125    -3.469201     6.166279
H       -0.097594     1.307656     5.250374
H       -0.152308     2.040863     2.615597
H        0.147604    -1.977781     2.629448
N        0.000000     0.000000    -2.210000
N       -0.000000     0.000000    -3.670000
N       -0.000002    -0.000005    -5.130000
91
ex_0233 frame19 OC-6-2-conf8
Mn       0.000000     0.000000     0.000000
C        5.360033    -0.672422    -2.846246
C        5.471696    -1.099972    -1.370763
C        5.360011    -2.633034    -1.272975
C        6.861468    -0.682803    -0.850866
C        4.400922    -0.474114    -0.590832
C        4.394034     0.421981     0.525867
C        3.032495     0.664893     0.830748
N        2.210000     0.000000     0.000000
N        3.030505    -0.683272    -0.851485
H        4.410522    -0.992653    -3.290665
H        5.418707     0.417655    -2.949134
H        6.166303    -1.108872    -3.446920
H        6.166287    -3.124917    -1.829157
H        5.418656    -2.969604    -0.231064
H        4.410503    -2.997525    -1.681890
H        7.003787     0.402672    -0.912125
H        7.003775    -0.977748     0.195566
H        7.660500    -1.152530    -1.436238
H        5.250374     0.820683     1.022726
H        2.726151     1.196195     1.533359
H        2.629447    -1.241254    -1.546834
C       -5.360033     0.943300    -2.768294
C       -5.471696     1.226823    -1.258505
C       -5.360011     2.743351    -1.013588
C       -6.861468     0.761543    -0.781183
C       -4.400922     0.528789    -0.542446
C       -4.394034    -0.470645     0.482802
C       -3.018463    -0.763300     0.783016
N       -2.210000     0.000000     0.000000
N       -3.034606     0.752298    -0.771557
H       -4.410522     1.304826    -3.179822
H       -5.418707    -0.131811    -2.975643
H       -6.166303     1.435547    -3.324162
H       -6.166287     3.286492    -1.519834
H       -5.418656     2.978056     0.055885
H       -4.412180     3.144446    -1.384082
H       -7.003787    -0.312994    -0.946653
H       -7.003775     0.954380     0.288782
H       -7.660500     1.285440    -1.318616
H       -5.250374    -0.915326     0.938971
H       -2.615597    -1.428553     1.465454
H       -2.712766     1.336071    -1.352969
C       -1.088497     6.861468    -0.073283
C       -1.753573     5.471696    -0.117931
C       -2.550532     5.359975    -1.431208
C       -2.719054     5.360065     1.076932
C       -0.755831     4.400923    -0.050843
C        0.672726     4.394034     0.045212
C        1.062235     3.032162     0.071003
N        0.000000     2.210000     0.000000
N       -1.074870     3.034811    -0.072478
H       -0.399023     7.003764    -0.913900
H       -0.517684     7.003801     0.852013
H       -1.837345     7.660498    -0.123618
H       -3.288113     6.166251    -1.516418
H       -3.094457     4.410470    -1.496151
H       -1.888591     5.418587    -2.303387
H       -2.179732     5.418693     2.029818
H       -3.461374     6.166371     1.062682
H       -3.265134     4.412350     1.068300
H        1.308342     5.250373     0.087947
H        1.938349     2.728342     0.124165
H       -1.896912     2.711766    -0.146467
N        0.000000    -2.210000     0.000000
N       -0.000000    -3.670000     0.000000
N       -0.000005    -5.130000     0.000000
C       -2.646779     1.244116     5.360033
C       -1.114877     1.358668     5.471696
C       -0.703494     2.838738     5.360011
C       -0.692027     0.843382     6.861468
C       -0.480539     0.585618     4.400922
C        0.427702    -0.521225     4.394034
C        0.693654    -0.845331     3.018463
N        0.000000     0.000000     2.210000
N       -0.692536     0.843968     3.030505
H       -3.015732     1.648999     4.410522
H       -2.971933     0.198587     5.418707
H       -3.144706     1.794903     6.166303
H       -1.146466     3.434609     6.166287
H        0.385395     2.953542     5.418656
H       -1.028589     3.279622     4.410503
H       -0.975496    -0.206215     7.003787
H        0.392714     0.916522     7.003775
H       -1.168126     1.423582     7.660500
H        0.831811    -1.013696     5.250374
H        1.298208    -1.582079     2.615597
H       -1.258081     1.533179     2.629447
N        0.000000     0.000000    -2.210000
N       -0.000000     0.000000    -3.670000
N       -0.000002    -0.000005    -5.130000
91
ex_0233 frame20 OC-6-2-conf9
Mn       0.000000     0.000000     0.000000
C        5.360033    -1.386173    -2.575226
C        5.471696    -1.417271    -1.039361
C        5.360011    -2.872786    -0.548120
C        6.861468    -0.879758    -0.645151
C        4.407227    -0.617645    -0.452961
C        4.396930     0.546731     0.400951
C        3.028441     0.865782     0.636708
N        2.210000     0.000000     0.000000
N        3.029057    -0.886900    -0.650421
H        4.410522    -1.810516    -2.921621
H        5.418707    -0.359868    -2.956741
H        6.166303    -1.963216    -3.042472
H        6.166287    -3.491859    -0.958042
H        5.418656    -2.928221     0.545400
H        4.410503    -3.330692    -0.848765
H        7.003787     0.152876    -0.985265
H        7.003775    -0.893816     0.441962
H        7.660500    -1.484984    -1.089002
H        5.250374     1.057420     0.775469
H        2.696571     1.655198     1.278256
H        2.629447    -1.599309    -1.172867
C       -5.360038    -0.050345     2.924157
C       -5.471695    -0.782551     1.573704
C       -6.861468    -0.485787     0.976836
C       -5.360003    -2.301229     1.804917
C       -4.405426    -0.339984     0.683703
C       -4.396931     0.301875    -0.607081
C       -3.016184     0.490382    -0.986163
N       -2.210000     0.000000     0.000000
N       -3.029084    -0.489090     0.983565
H       -4.410529    -0.268495     3.426623
H       -5.418711     1.036614     2.792344
H       -6.166310    -0.348739     3.604050
H       -7.003766    -0.996986     0.017311
H       -7.003796     0.587802     0.805336
H       -7.660499    -0.819964     1.648870
H       -4.410496    -2.570183     2.282128
H       -5.418640    -2.852137     0.858683
H       -6.166279    -2.663271     2.453155
H       -5.250374     0.583851    -1.174140
H       -2.615597     0.911225    -1.832481
H       -2.629448    -0.883057     1.775843
C        2.686588     5.360033    -1.155643
C        1.756265     5.471696     0.066792
C        2.591077     5.360011     1.356339
C        1.090171     6.861468     0.041478
C        0.759698     4.403630     0.028896
C       -0.678971     4.398085    -0.025818
C       -1.101490     3.016163    -0.041886
N        0.000000     2.210000     0.000000
N        1.082150     3.034541     0.040756
H        3.234310     4.410522    -1.163219
H        2.119789     5.418707    -2.092443
H        3.429046     6.166303    -1.162969
H        3.330826     6.166287     1.420043
H        1.954777     5.418656     2.247396
H        3.136652     4.410503     1.405464
H        0.492680     7.003787    -0.866824
H        0.425441     7.003775     0.901796
H        1.840164     7.660500     0.069997
H       -1.310346     5.250374    -0.049829
H       -2.045060     2.615597    -0.077769
H        1.871705     2.738841     0.051784
N        0.000000    -2.210000     0.000000
N       -0.000000    -3.670000     0.000000
N       -0.000005    -5.130000     0.000000
C        1.449950    -2.539857     5.360038
C        0.130794    -1.752662     5.471695
C        0.081154    -1.087939     6.861468
C       -1.056873    -2.726976     5.360003
C        0.056823    -0.761452     4.405426
C       -0.050461     0.676113     4.396931
C       -0.081966     1.098305     3.016184
N        0.000000     0.000000     2.210000
N        0.081750    -1.095411     3.029084
H        1.518974    -3.083269     4.410529
H        2.317190    -1.871465     5.418711
H        1.540586    -3.276796     6.166310
H       -0.848355    -0.524000     7.003766
H        0.916633    -0.392252     7.003796
H        0.137010    -1.836394     7.660499
H       -1.044426    -3.274618     4.410496
H       -2.013736    -2.194742     5.418640
H       -1.037125    -3.469201     6.166279
H       -0.097594     1.307656     5.250374
H       -0.152308     2.040863     2.615597
H        0.147604    -1.977781     2.629448
N        0.000000     0.000000    -2.210000
N       -0.000000     0.000000    -3.670000
N       -0.000002    -0.000005    -5.130000
91
ex_0233 frame21 OC-6-2-conf10
Mn       0.000000     0.000000     0.000000
C        5.360033    -2.005458    -2.128710
C        5.471696    -1.637985    -0.637129
C        5.360011    -2.916762     0.214088
C        6.861468    -1.016758    -0.395470
C        4.400922    -0.706010    -0.274618
C        4.394034     0.628380     0.244424
C        3.018463     1.019117     0.396411
N        2.210000     0.000000     0.000000
N        3.030505    -1.017474    -0.395772
H        4.410522    -2.504995    -2.353473
H        5.418707    -1.112867    -2.762852
H        6.166303    -2.683771    -2.430684
H        6.166287    -3.620836    -0.021638
H        5.418656    -2.687284     1.284695
H        4.410503    -3.436878     0.042203
H        7.003787    -0.107339    -0.991260
H        7.003775    -0.748972     0.658239
H        7.660500    -1.716239    -0.667553
H        5.250374     1.222095     0.475365
H        2.649023     1.870501     0.781784
H        2.629447    -1.848374    -0.718971
C       -5.360038    -0.050345     2.924157
C       -5.471695    -0.782551     1.573704
C       -6.861468    -0.485787     0.976836
C       -5.360003    -2.301229     1.804917
C       -4.400923    -0.337299     0.678303
C       -4.394034     0.300205    -0.603722
C       -3.018462     0.486882    -0.979125
N       -2.210000     0.000000     0.000000
N       -3.030505    -0.486097     0.977547
H       -4.410529    -0.268495     3.426623
H       -5.418711     1.036614     2.792344
H       -6.166310    -0.348739     3.604050
H       -7.003766    -0.996986     0.017311
H       -7.003796     0.587802     0.805336
H       -7.660499    -0.819964     1.648870
H       -4.410496    -2.570183     2.282128
H       -5.418640    -2.852137     0.858683
H       -6.166279    -2.663271     2.453155
H       -5.250374     0.583851    -1.174140
H       -2.615597     0.911225    -1.832481
H       -2.629448    -0.883057     1.775843
C       -1.839702     5.360038     2.273483
C       -1.585440     5.471695     0.758491
C       -0.984151     6.861468     0.470790
C       -2.924610     5.360003     0.005853
C       -0.683363     4.400923     0.326927
C        0.608220     4.394034    -0.290985
C        0.986423     3.018462    -0.471920
N        0.000000     2.210000     0.000000
N       -0.984834     3.030505     0.471159
H       -2.320925     4.410529     2.535180
H       -0.901950     5.418711     2.838704
H       -2.493384     6.166310     2.625611
H       -0.796362     7.003766    -0.600073
H       -0.032505     7.003796     0.996504
H       -1.661195     7.660499     0.794697
H       -3.430326     4.410496     0.216373
H       -2.776297     5.418640    -1.078981
H       -3.608965     6.166279     0.293854
H        1.182889     5.250374    -0.565916
H        1.812716     2.640846    -0.931275
H       -1.789078     2.629448     0.855924
N        0.000000    -2.210000     0.000000
N       -0.000000    -3.670000     0.000000
N       -0.000005    -5.130000     0.000000
C       -2.646779     1.244116     5.360033
C       -1.114877     1.358668     5.471696
C       -0.703494     2.838738     5.360011
C       -0.692027     0.843382     6.861468
C       -0.480539     0.585618     4.400922
C        0.427702    -0.521225     4.394034
C        0.693654    -0.845331     3.018463
N        0.000000     0.000000     2.210000
N       -0.692536     0.843968     3.030505
H       -3.015732     1.648999     4.410522
H       -2.971933     0.198587     5.418707
H       -3.144706     1.794903     6.166303
H       -1.146466     3.434609     6.166287
H        0.385395     2.953542     5.418656
H       -1.028589     3.279622     4.410503
H       -0.975496    -0.206215     7.003787
H        0.392714     0.916522     7.003775
H       -1.168126     1.423582     7.660500
H        0.831811    -1.013696     5.250374
H        1.298208    -1.582079     2.615597
H       -1.258081     1.533179     2.629447
N        0.000000     0.000000    -2.210000
N       -0.000000     0.000000    -3.670000
N       -0.000002    -0.000005    -5.130000
91
ex_0233 frame22 TPR-6-1
Mn       0.000000     0.000000     0.000000
C        5.338490    -2.413306     1.720377
C        4.639224    -1.736180     2.914046
C        3.914422    -2.804000     3.754723
C        5.718352    -1.077707     3.795909
C        3.672890    -0.748335     2.427314
C        3.539641     0.666051     2.605658
C        2.371828     1.087689     1.855859
N        1.810503     0.000000     1.267352
N        2.579987    -1.078471     1.598880
H        4.625455    -2.949286     1.083248
H        5.851013    -1.676493     1.090516
H        6.085240    -3.140415     2.059559
H        4.620909    -3.542149     4.151434
H        3.390702    -2.351475     4.605157
H        3.169245    -3.348808     3.163515
H        6.279970    -0.316274     3.241773
H        5.277325    -0.591359     4.674103
H        6.439838    -1.819123     4.158564
H        4.184406     1.295360     3.177847
H        1.904605     2.088094     1.794677
H        2.330886    -1.959183     1.255377
C       -1.889457     5.736020     0.900696
C       -1.390686     5.115590     2.219260
C        0.054461     5.576486     2.486542
C       -2.282552     5.633752     3.364630
C       -1.436056     3.654039     2.127845
C       -2.126184     2.644231     2.872199
C       -1.765637     1.374035     2.302479
N       -0.905251     1.567941     1.267352
N       -0.712969     2.916323     1.167298
H       -1.257719     5.448114     0.052377
H       -2.912081     5.413172     0.671985
H       -1.888259     6.830838     0.953033
H        0.110619     6.666793     2.583729
H        0.446344     5.137542     3.411774
H        0.730081     5.284989     1.674017
H       -3.330835     5.347601     3.218051
H       -1.962171     5.235286     4.334601
H       -2.246610     6.727422     3.430585
H       -2.785270     2.804660     3.696224
H       -2.061865     0.419305     2.569545
H       -0.117204     3.257528     0.471351
C        0.066395    -5.567629     2.506030
C       -0.648510    -4.564720     3.430910
C        0.328903    -4.089478     4.522297
C       -1.821873    -5.291818     4.116721
C       -1.116161    -3.416601     2.650096
C       -2.410907    -2.855562     2.407371
C       -2.227406    -1.716775     1.548615
N       -0.905251    -1.567941     1.267352
N       -0.251946    -2.574136     1.919947
H       -0.598691    -5.913201     1.705693
H        0.948138    -5.123146     2.030012
H        0.404530    -6.448641     3.063570
H        0.674468    -4.928687     5.136854
H       -0.145169    -3.359471     5.189113
H        1.216567    -3.611632     4.091780
H       -2.360118    -4.627104     4.802804
H       -2.544943    -5.667830     3.383204
H       -1.468988    -6.150244     4.700100
H       -3.339011    -3.215664     2.792211
H       -2.926088    -1.060759     1.158650
H        0.720306    -2.635902     1.838637
C        3.909094     2.801199    -3.762380
C        3.806148     1.302897    -4.104154
C        5.201229     0.808729    -4.534656
C        2.840384     1.114095    -5.289047
C        3.313814     0.561579    -2.940281
C        3.855730    -0.497102    -2.150220
C        2.892629    -0.804438    -1.112797
N        1.810503    -0.000000    -1.267352
N        2.062501     0.809330    -2.338146
H        2.932751     3.225788    -3.501408
H        4.577663     2.968744    -2.909595
H        4.299286     3.374847    -4.610937
H        5.184660    -0.253395    -4.806466
H        5.937115     0.934449    -3.731581
H        5.566956     1.365118    -5.405535
H        1.839921     1.500612    -5.062538
H        2.731292     0.054008    -5.547144
H        3.200361     1.640030    -6.180774
H        4.805960    -0.972094    -2.289911
H        2.894968    -1.658179    -0.503230
H        1.390807     1.470254    -2.598348
N       -0.905251     1.567941    -1.267352
N       -1.503290     2.603775    -2.104607
N       -2.101328     3.639608    -2.941866
N       -0.905251    -1.567941    -1.267352
N       -1.503290    -2.603775    -2.104607
N       -2.101334    -3.639610    -2.941860
91
ex_0233 frame23 TPR-6-2
Mn       0.000000     0.000000     0.000000
C        4.519596    -2.916002     2.890227
C        4.120422    -1.640147     3.655192
C        3.174289    -2.012727     4.812055
C        5.396315    -1.018087     4.255962
C        3.449274    -0.706942     2.746766
C        3.738670     0.629211     2.321332
C        2.696012     1.022079     1.392739
N        1.810503     0.000000     1.267352
N        2.257720    -1.018819     2.059262
H        3.644191    -3.436703     2.485053
H        5.181160    -2.682860     2.047449
H        5.046308    -3.620879     3.543748
H        3.662969    -2.692056     5.519920
H        2.856925    -1.122311     5.367697
H        2.268520    -2.513048     4.450265
H        6.116638    -0.746682     3.475105
H        5.169445    -0.110718     4.828218
H        5.896252    -1.718494     4.935115
H        4.571483     1.223712     2.624879
H        2.532371     1.997361     0.897868
H        1.745446    -1.850818     2.091720
C       -1.889457     5.736020     0.900696
C       -1.390686     5.115590     2.219260
C        0.054461     5.576486     2.486542
C       -2.282552     5.633752     3.364630
C       -1.436056     3.654039     2.127845
C       -2.126184     2.644231     2.872199
C       -1.765637     1.374035     2.302479
N       -0.905251     1.567941     1.267352
N       -0.712969     2.916323     1.167298
H       -1.257719     5.448114     0.052377
H       -2.912081     5.413172     0.671985
H       -1.888259     6.830838     0.953033
H        0.110619     6.666793     2.583729
H        0.446344     5.137542     3.411774
H        0.730081     5.284989     1.674017
H       -3.330835     5.347601     3.218051
H       -1.962171     5.235286     4.334601
H       -2.246610     6.727422     3.430585
H       -2.785270     2.804660     3.696224
H       -2.061865     0.419305     2.569545
H       -0.117204     3.257528     0.471351
N       -0.905251    -1.567941     1.267352
N       -1.503290    -2.603775     2.104607
N       -2.101334    -3.639610     2.941860
C        3.170482     2.005637    -4.817541
C        3.523192     0.538556    -4.508376
C        5.025598     0.334267    -4.785558
C        2.728693    -0.387217    -5.448606
C        3.191854     0.232129    -3.114510
C        3.963723    -0.205709    -1.995944
C        3.065882    -0.323076    -0.865293
N        1.810503     0.000000    -1.267352
N        1.886735     0.334541    -2.589240
H        2.098986     2.200293    -4.692501
H        3.707878     2.691749    -4.152144
H        3.432408     2.266729    -5.849333
H        5.331411    -0.701648    -4.596822
H        5.642468     0.983097    -4.152506
H        5.270492     0.564254    -5.829056
H        1.647226    -0.246566    -5.337816
H        2.944612    -1.442280    -5.242401
H        2.978134    -0.193793    -6.498241
H        5.017075    -0.401824    -1.988319
H        3.274544    -0.812079     0.039022
H        1.071505     0.607740    -3.054494
C       -4.427508     2.016165    -3.689896
C       -3.829907     3.177957    -2.874158
C       -4.737455     3.473662    -1.665344
C       -3.796671     4.430993    -3.771145
C       -2.487418     2.818874    -2.410123
C       -1.190427     3.387566    -2.620959
C       -0.248011     2.579587    -1.895015
N       -0.905251     1.567941    -1.267352
N       -2.228150     1.712715    -1.574105
H       -3.794638     1.768651    -4.550425
H       -4.529554     1.106923    -3.086163
H       -5.423742     2.270489    -4.069640
H       -5.742456     3.769198    -1.987833
H       -4.330122     4.286709    -1.052701
H       -4.846489     2.597313    -1.015921
H       -3.393213     5.298059    -3.234787
H       -3.174988     4.271875    -4.660219
H       -4.802367     4.697218    -4.116769
H       -0.965376     4.250323    -3.207604
H        0.778449     2.675556    -1.806955
H       -2.869727     1.071017    -1.210370
N       -0.905251    -1.567941    -1.267352
N       -1.503290    -2.603775    -2.104607
N       -2.101334    -3.639610    -2.941860
91
ex_0233 frame24 TPR-6-3
Mn       0.000000     0.000000     0.000000
C        4.519596    -2.916002     2.890227
C        4.120422    -1.640147     3.655192
C        3.174289    -2.012727     4.812055
C        5.396315    -1.018087     4.255962
C        3.449274    -0.706942     2.746766
C        3.738670     0.629211     2.321332
C        2.696012     1.022079     1.392739
N        1.810503     0.000000     1.267352
N        2.257720    -1.018819     2.059262
H        3.644191    -3.436703     2.485053
H        5.181160    -2.682860     2.047449
H        5.046308    -3.620879     3.543748
H        3.662969    -2.692056     5.519920
H        2.856925    -1.122311     5.367697
H        2.268520    -2.513048     4.450265
H        6.116638    -0.746682     3.475105
H        5.169445    -0.110718     4.828218
H        5.896252    -1.718494     4.935115
H        4.571483     1.223712     2.624879
H        2.532371     1.997361     0.897868
H        1.745446    -1.850818     2.091720
C       -1.889457     5.736020     0.900696
C       -1.390686     5.115590     2.219260
C        0.054461     5.576486     2.486542
C       -2.282552     5.633752     3.364630
C       -1.436056     3.654039     2.127845
C       -2.126184     2.644231     2.872199
C       -1.765637     1.374035     2.302479
N       -0.905251     1.567941     1.267352
N       -0.712969     2.916323     1.167298
H       -1.257719     5.448114     0.052377
H       -2.912081     5.413172     0.671985
H       -1.888259     6.830838     0.953033
H        0.110619     6.666793     2.583729
H        0.446344     5.137542     3.411774
H        0.730081     5.284989     1.674017
H       -3.330835     5.347601     3.218051
H       -1.962171     5.235286     4.334601
H       -2.246610     6.727422     3.430585
H       -2.785270     2.804660     3.696224
H       -2.061865     0.419305     2.569545
H       -0.117204     3.257528     0.471351
N       -0.905251    -1.567941     1.267352
N       -1.503290    -2.603775     2.104607
N       -2.101334    -3.639610     2.941860
C        3.170482     2.005637    -4.817541
C        3.523192     0.538556    -4.508376
C        5.025598     0.334267    -4.785558
C        2.728693    -0.387217    -5.448606
C        3.191854     0.232129    -3.114510
C        3.963723    -0.205709    -1.995944
C        3.065882    -0.323076    -0.865293
N        1.810503     0.000000    -1.267352
N        1.886735     0.334541    -2.589240
H        2.098986     2.200293    -4.692501
H        3.707878     2.691749    -4.152144
H        3.432408     2.266729    -5.849333
H        5.331411    -0.701648    -4.596822
H        5.642468     0.983097    -4.152506
H        5.270492     0.564254    -5.829056
H        1.647226    -0.246566    -5.337816
H        2.944612    -1.442280    -5.242401
H        2.978134    -0.193793    -6.498241
H        5.017075    -0.401824    -1.988319
H        3.274544    -0.812079     0.039022
H        1.071505     0.607740    -3.054494
N       -0.905251     1.567941    -1.267352
N       -1.503290     2.603775    -2.104607
N       -2.101328     3.639608    -2.941866
C       -3.824148    -1.777902    -4.415675
C       -3.670792    -2.882525    -3.353315
C       -4.862661    -2.824123    -2.379479
C       -3.697911    -4.247623    -4.068549
C       -2.418836    -2.691534    -2.616651
C       -1.251469    -3.500904    -2.437138
C       -0.347010    -2.763400    -1.596891
N       -0.905251    -1.567941    -1.267352
N       -2.129310    -1.529198    -1.871748
H       -3.868422    -0.781332    -3.961234
H       -2.980715    -1.781230    -5.116323
H       -4.742946    -1.913368    -4.997762
H       -5.810821    -2.989181    -2.903994
H       -4.774900    -3.588730    -1.598472
H       -4.930385    -1.851165    -1.879081
H       -2.876923    -4.339459    -4.789526
H       -3.608120    -5.076073    -3.355898
H       -4.635657    -4.387686    -4.618796
H       -1.084093    -4.470747    -2.850102
H        0.593168    -3.019572    -1.249002
H       -2.690172    -0.737634    -1.751077
91
ex_0233 frame25 TPR-6-4
Mn       0.000000     0.000000     0.000000
C        3.666273    -2.637357     4.109259
C        3.698662    -1.104637     4.257706
C        2.760198    -0.682146     5.403614
C        5.134518    -0.685671     4.629959
C        3.267485    -0.476125     3.006464
C        3.900470     0.423774     2.090189
C        2.960561     0.687283     1.034203
N        1.810503     0.000000     1.267352
N        1.995732    -0.686175     2.433529
H        2.654635    -3.003258     3.898705
H        4.312494    -2.970357     3.288401
H        4.008802    -3.131131     5.025899
H        3.077117    -1.120629     6.356852
H        2.747099     0.407575     5.524590
H        1.728107    -1.003919     5.222284
H        5.851776    -0.977018     3.853479
H        5.213832     0.399589     4.764807
H        5.454346    -1.157397     5.566410
H        4.886158     0.824171     2.175343
H        3.064106     1.287785     0.203373
H        1.269511    -1.246527     2.771626
C       -1.889457     5.736020     0.900696
C       -1.390686     5.115590     2.219260
C        0.054461     5.576486     2.486542
C       -2.282552     5.633752     3.364630
C       -1.436056     3.654039     2.127845
C       -2.126184     2.644231     2.872199
C       -1.765637     1.374035     2.302479
N       -0.905251     1.567941     1.267352
N       -0.712969     2.916323     1.167298
H       -1.257719     5.448114     0.052377
H       -2.912081     5.413172     0.671985
H       -1.888259     6.830838     0.953033
H        0.110619     6.666793     2.583729
H        0.446344     5.137542     3.411774
H        0.730081     5.284989     1.674017
H       -3.330835     5.347601     3.218051
H       -1.962171     5.235286     4.334601
H       -2.246610     6.727422     3.430585
H       -2.785270     2.804660     3.696224
H       -2.061865     0.419305     2.569545
H       -0.117204     3.257528     0.471351
N       -0.905251    -1.567941     1.267352
N       -1.503290    -2.603775     2.104607
N       -2.101334    -3.639610     2.941860
N        1.810503     0.000000    -1.267352
N        3.006581    -0.000000    -2.104607
N        4.202660    -0.000005    -2.941863
C       -4.427508     2.016165    -3.689896
C       -3.829907     3.177957    -2.874158
C       -4.737455     3.473662    -1.665344
C       -3.796671     4.430993    -3.771145
C       -2.487418     2.818874    -2.410123
C       -1.190427     3.387566    -2.620959
C       -0.248011     2.579587    -1.895015
N       -0.905251     1.567941    -1.267352
N       -2.228150     1.712715    -1.574105
H       -3.794638     1.768651    -4.550425
H       -4.529554     1.106923    -3.086163
H       -5.423742     2.270489    -4.069640
H       -5.742456     3.769198    -1.987833
H       -4.330122     4.286709    -1.052701
H       -4.846489     2.597313    -1.015921
H       -3.393213     5.298059    -3.234787
H       -3.174988     4.271875    -4.660219
H       -4.802367     4.697218    -4.116769
H       -0.965376     4.250323    -3.207604
H        0.778449     2.675556    -1.806955
H       -2.869727     1.071017    -1.210370
C       -3.824148    -1.777902    -4.415675
C       -3.670792    -2.882525    -3.353315
C       -4.862661    -2.824123    -2.379479
C       -3.697911    -4.247623    -4.068549
C       -2.418836    -2.691534    -2.616651
C       -1.251469    -3.500904    -2.437138
C       -0.347010    -2.763400    -1.596891
N       -0.905251    -1.567941    -1.267352
N       -2.129310    -1.529198    -1.871748
H       -3.868422    -0.781332    -3.961234
H       -2.980715    -1.781230    -5.116323
H       -4.742946    -1.913368    -4.997762
H       -5.810821    -2.989181    -2.903994
H       -4.774900    -3.588730    -1.598472
H       -4.930385    -1.851165    -1.879081
H       -2.876923    -4.339459    -4.789526
H       -3.608120    -5.076073    -3.355898
H       -4.635657    -4.387686    -4.618796
H       -1.084093    -4.470747    -2.850102
H        0.593168    -3.019572    -1.249002
H       -2.690172    -0.737634    -1.751077
