51
ex_0186 frame0 see-saw N0-N0-ax-conf6
N        0.549773    -2.006172     6.008155
C        0.305658    -1.094784     5.346442
N        0.008448     0.019428     4.563208
C        0.000000    -0.000000     3.161696
N        0.000000     0.000000     2.000000
Cu       0.000000     0.000000     0.000000
N        0.000000     0.000000    -2.000000
C       -0.000000    -0.000000    -3.152425
N       -0.018904     0.008968    -4.546275
C        1.047935    -0.438919    -5.337437
N        1.929030    -0.797069    -6.004473
N        1.961161     0.000000     0.392232
C        2.710903    -0.957962    -0.092255
C        4.132934    -0.921788     0.216104
C        4.678343     0.032905     0.957456
C        3.802319     1.082916     1.477654
C        2.505158     1.030451     1.183477
C        1.861874     2.178950     1.815451
N        0.577837     2.633510     1.859695
C        0.241874     3.749537     2.531630
C        1.151938     4.521373     3.224812
C        2.471587     4.080041     3.196445
C        2.794939     2.931522     2.500475
C        4.081748     2.254363     2.309365
O        5.194813     2.603287     2.763062
N       -1.961161     0.000000     0.392232
C       -2.506917     1.063007     0.927675
C       -3.936650     1.022869     1.197522
C       -4.685349    -0.036509     0.922425
C       -4.032913    -1.201662     0.324686
C       -2.724580    -1.143445     0.086368
C       -2.325855    -2.417889    -0.504454
N       -1.138612    -2.922298    -0.944177
C       -1.040293    -4.160710    -1.460466
C       -2.114710    -5.017182    -1.589048
C       -3.340382    -4.527446    -1.147529
C       -3.419171    -3.252984    -0.620684
C       -4.561787    -2.501567    -0.090829
O       -5.749151    -2.888752    -0.008627
H        2.280532    -1.750423    -0.703140
H        4.790472    -1.702779    -0.169636
H        5.738895    -0.006959     1.143148
H       -0.799478     4.033032     2.511124
H        0.882493     5.420112     3.766157
H        3.239010     4.656027     3.731350
H       -1.907803     1.942350     1.160507
H       -4.427884     1.889513     1.643300
H       -5.737412     0.007740     1.150566
H       -0.059309    -4.475302    -1.782811
H       -2.036642    -6.014488    -2.004588
H       -4.230450    -5.166558    -1.225853
