59
ex_0324 frame0 linear-1
O        1.841075    -1.769866    -1.478817
S        2.582756    -0.831754    -0.514431
O        4.038289    -1.158166    -0.879661
C        2.145741     0.882017    -0.858342
C        3.132919     1.876676    -0.812174
C        2.803766     3.209822    -1.074277
C        1.486039     3.557662    -1.387609
Br       1.040120     5.380802    -1.744188
C        0.497021     2.568784    -1.439147
C        0.824188     1.233202    -1.172842
N        2.320963    -1.573038     1.077743
Au       0.308926    -1.891602     1.289671
N       -1.733122    -2.055501     1.363208
S       -2.494763    -2.880475    -0.026195
O       -3.984844    -3.036389     0.312021
O       -2.059329    -4.331174     0.230451
C       -2.235700    -2.580745    -1.800542
C       -1.169391    -3.197146    -2.480666
C       -0.992044    -2.996911    -3.857041
C       -1.866996    -2.166863    -4.563763
Br      -1.629170    -1.900734    -6.443049
C       -2.916422    -1.532052    -3.891807
C       -3.095836    -1.730765    -2.514764
S       -2.605598    -0.816241     2.297250
O       -4.083515    -1.237392     2.315406
O       -2.234184    -1.218237     3.730116
C       -2.412245     0.981067     2.183745
C       -1.403463     1.630694     2.915155
C       -1.273634     3.024477     2.861423
C       -2.139169     3.779282     2.064145
Br      -1.965765     5.682215     1.998259
C       -3.131584     3.138048     1.315478
C       -3.263377     1.743155     1.367935
S        2.890233    -0.565746     2.405973
O        2.893280     0.896678     1.940927
O        1.757924    -0.618381     3.443470
C        4.417698    -1.262747     2.951853
C        4.419512    -2.170624     4.010851
C        5.609558    -2.794885     4.380638
C        6.799351    -2.483985     3.710994
Br       8.418353    -3.368851     4.191459
C        6.800438    -1.524734     2.690007
C        5.608666    -0.900219     2.320373
H        4.155783     1.618625    -0.569910
H        3.572680     3.970853    -1.033378
H       -0.522866     2.836257    -1.685098
H        0.050848     0.476697    -1.215693
H       -0.492145    -3.857023    -1.955632
H       -0.181746    -3.494199    -4.377409
H       -3.598230    -0.893395    -4.440143
H       -3.923072    -1.246638    -2.014500
H       -0.735896     1.063809     3.549949
H       -0.507771     3.519036     3.446745
H       -3.806178     3.722408     0.701854
H       -4.046300     1.263186     0.796535
H        3.492252    -2.439984     4.502170
H        5.597416    -3.538284     5.165810
H        7.714267    -1.283492     2.164059
H        5.600792    -0.186592     1.504420
59
ex_0324 frame1 linear-2
O        2.393130    -1.487748     1.903424
S        1.758584    -0.529826     2.925791
O        1.129814    -1.537466     3.900526
C        2.984486     0.514398     3.635364
C        4.066395     0.949594     2.865981
C        5.026147     1.782369     3.440623
C        4.898056     2.175112     4.779582
Br       6.202552     3.318026     5.568598
C        3.811399     1.729165     5.541961
C        2.856104     0.895584     4.968622
N        0.424530     0.177334     2.035687
Au       0.993951     0.572515     0.107307
N        0.610992     0.653736    -1.904302
S        1.951817     0.015722    -2.881258
O        1.583011     0.407803    -4.320274
O        3.094584     1.006210    -2.627188
C        2.578554    -1.690675    -2.845083
C        3.609067    -2.034391    -1.958078
C        4.142143    -3.329931    -1.954656
C        3.634977    -4.302019    -2.821892
Br       4.380267    -6.063324    -2.827752
C        2.582052    -3.981754    -3.683800
C        2.050220    -2.683911    -3.692912
S       -0.911569    -0.243877    -2.113235
O       -1.155434    -0.971837    -0.779021
O       -0.684942    -1.382211    -3.120736
C       -2.109668     0.972066    -2.530303
C       -2.249643     1.334077    -3.866283
C       -3.082170     2.397562    -4.202091
C       -3.806220     3.059803    -3.203091
Br      -4.891409     4.559131    -3.657528
C       -3.733405     2.621919    -1.873655
C       -2.898273     1.555918    -1.537775
S       -0.442245     1.489646     2.799110
O        0.592549     2.312730     3.576967
O       -0.825973     2.405686     1.627137
C       -1.837882     0.835816     3.687404
C       -3.104959     0.824669     3.093974
C       -4.187545     0.265766     3.776748
C       -4.007192    -0.264657     5.059609
Br      -5.482956    -1.041737     5.986764
C       -2.744059    -0.224928     5.662202
C       -1.661572     0.334108     4.979537
H        4.161281     0.647492     1.828529
H        5.862981     2.121622     2.845382
H        3.701395     2.026270     6.574959
H        2.011222     0.550546     5.552969
H        4.025127    -1.289332    -1.294503
H        4.960068    -3.574411    -1.288851
H        2.189302    -4.734758    -4.357416
H        1.253402    -2.454267    -4.386552
H       -1.646999     0.852593    -4.627696
H       -3.127305     2.728891    -5.229888
H       -4.286772     3.131116    -1.096291
H       -2.799500     1.250453    -0.502283
H       -3.245176     1.211625     2.092297
H       -5.159646     0.232084     3.302482
H       -2.596302    -0.639236     6.650544
H       -0.680508     0.342232     5.438099
59
ex_0324 frame2 trans-LIN N0+N0
O        4.657359     0.240197    -0.577888
S        3.272529     0.554475    -1.047070
O        3.207992     2.060683    -1.173931
C        3.113604    -0.104359    -2.666528
C        3.778270    -1.308064    -2.927370
C        3.727840    -1.916621    -4.150276
C        2.990020    -1.304528    -5.147139
Br       2.903598    -2.133774    -6.864546
C        2.317043    -0.102197    -4.912182
C        2.393398     0.482920    -3.657736
N        2.050000     0.000000     0.000000
Au       0.000000     0.000000     0.000000
N       -2.050000     0.000000     0.000000
S       -3.031110     0.690910     1.205607
O       -4.358548     1.182097     0.725397
O       -2.309126     1.932403     1.719159
C       -3.364741    -0.398926     2.544410
C       -4.478609    -1.208614     2.583746
C       -4.733246    -2.063253     3.637292
C       -3.849957    -2.109160     4.681673
Br      -4.182648    -3.286756     6.153566
C       -2.728296    -1.318150     4.682105
C       -2.491594    -0.469343     3.617899
S       -2.969974    -0.722095    -1.263238
O       -4.270924    -1.298817    -0.793155
O       -2.167620    -1.872688    -1.863896
C       -3.359573     0.397117    -2.548394
C       -2.456580     0.586852    -3.562062
C       -2.669440     1.442309    -4.621629
C       -3.840124     2.136382    -4.659080
Br      -4.156816     3.326329    -6.115633
C       -4.767538     1.974649    -3.661755
C       -4.536509     1.109571    -2.603623
S        2.638287    -0.940052     1.321359
O        3.827592    -1.778987     0.877695
O        1.518890    -1.896319     1.704873
C        3.013991     0.027295     2.703077
C        4.290770     0.561402     2.872605
C        4.606834     1.342075     3.981223
C        3.663426     1.619577     4.961481
Br       4.158579     2.686150     6.441418
C        2.389354     1.089113     4.795970
C        2.094180     0.317590     3.690683
H        4.352854    -1.778748    -2.140180
H        4.258772    -2.859832    -4.326880
H        1.744039     0.350336    -5.726444
H        1.885360     1.397666    -3.467573
H       -5.194682    -1.192764     1.775510
H       -5.606544    -2.707105     3.680251
H       -2.065578    -1.391962     5.527024
H       -1.610329     0.157744     3.609576
H       -1.529124     0.043679    -3.542422
H       -1.898879     1.535992    -5.391568
H       -5.708707     2.528674    -3.686339
H       -5.276945     0.992786    -1.831878
H        5.081295     0.387339     2.147749
H        5.617998     1.747699     4.087606
H        1.676346     1.322038     5.575113
H        1.083591    -0.063281     3.625016
59
ex_0324 frame3 linear-conf2
O        1.540615     0.803068    -2.469079
S        2.663104     0.373122    -1.547432
O        3.338033    -0.809124    -2.193315
C        3.803272     1.686905    -1.485585
C        3.333096     2.991602    -1.420974
C        4.173316     4.085344    -1.385777
C        5.546018     3.883628    -1.406671
Br       6.730007     5.365970    -1.359332
C        6.046980     2.597459    -1.462145
C        5.168684     1.528118    -1.496054
N        2.050000     0.000000     0.000000
Au       0.000000     0.000000     0.000000
N       -2.050000     0.000000     0.000000
S       -2.375062    -0.371171     1.675748
O       -1.172010    -1.185268     2.128564
O       -2.514583     0.849170     2.509058
C       -3.765358    -1.428490     1.790618
C       -3.611238    -2.812114     1.765686
C       -4.690953    -3.671379     1.854581
C       -5.981960    -3.158045     1.973399
Br      -7.451898    -4.375916     2.094038
C       -6.151398    -1.789282     1.999570
C       -5.052504    -0.956206     1.908759
S       -2.353576     1.700663    -0.257914
O       -1.116597     2.284602    -0.902812
O       -2.559109     2.426715     1.018478
C       -3.738128     1.843391    -1.321790
C       -3.456833     1.878518    -2.690106
C       -4.457273     1.988712    -3.633230
C       -5.768945     2.065037    -3.185877
Br      -7.158517     2.217994    -4.493370
C       -6.043009     2.029748    -1.826474
C       -5.028332     1.918507    -0.882830
S        3.222467    -0.027848     1.215045
O        4.282161     0.989018     0.982499
O        2.541311     0.218446     2.564673
C        3.966722    -1.620856     1.396093
C        3.440064    -2.571482     2.252152
C        4.028639    -3.827837     2.394396
C        5.161355    -4.146186     1.672721
Br       6.016325    -5.851979     1.822815
C        5.680937    -3.215609     0.831257
C        5.097406    -1.981521     0.695699
H        2.285257     3.158454    -1.404514
H        3.762638     5.087042    -1.342412
H        7.111149     2.374576    -1.480976
H        5.575757     0.530041    -1.540806
H       -2.615058    -3.246766     1.673689
H       -4.559828    -4.756890     1.834108
H       -7.153394    -1.377844     2.091895
H       -5.229124     0.114555     1.933147
H       -2.428256     1.819241    -3.055117
H       -4.186328     2.011511    -4.678587
H       -7.079840     2.091516    -1.508454
H       -5.225756     1.889495     0.185222
H        2.549120    -2.307833     2.813504
H        3.600753    -4.556296     3.069401
H        6.569022    -3.467731     0.266638
H        5.561923    -1.287965     0.009668
59
ex_0324 frame4 linear-conf3
O        4.622220     0.415917    -0.136978
S        3.381915     0.411211    -1.012690
O        3.571476    -0.535379    -2.151773
C        3.143747     2.016366    -1.694283
C        2.481270     2.185207    -2.911546
C        2.302596     3.432181    -3.429612
C        2.769559     4.562281    -2.768910
Br       2.486947     6.286117    -3.549106
C        3.432956     4.419970    -1.554194
C        3.603693     3.143176    -1.045677
N        2.050000     0.000000     0.000000
Au       0.000000     0.000000     0.000000
N       -2.050000     0.000000     0.000000
S       -2.430681    -1.440086    -0.895807
O       -1.251809    -1.686904    -1.812336
O       -2.540883    -2.640748    -0.010889
C       -3.827098    -1.248140    -1.899069
C       -5.071127    -1.550145    -1.385750
C       -6.236343    -1.426454    -2.114413
C       -6.192337    -0.982692    -3.420900
Br      -7.804436    -0.813703    -4.422631
C       -4.947193    -0.667066    -3.974396
C       -3.787293    -0.803980    -3.208037
S       -2.453285    -0.134649     1.660864
O       -1.267011     0.314219     2.471162
O       -2.665699    -1.585495     1.970603
C       -3.867875     0.801123     2.089645
C       -5.149238     0.293245     2.036754
C       -6.268603     1.029756     2.374739
C       -6.106625     2.334547     2.785290
Br      -7.641213     3.372564     3.257866
C       -4.821610     2.858169     2.842993
C       -3.705963     2.116966     2.503810
S        2.496677    -0.279666     1.628181
O        1.352268     0.147755     2.510585
O        3.659482     0.613298     1.956322
C        2.884939    -1.959627     1.857273
C        1.890330    -2.862122     2.225613
C        2.149331    -4.203019     2.418838
C        3.426730    -4.694874     2.248681
Br       3.802456    -6.533549     2.509434
C        4.422966    -3.823409     1.885709
C        4.146841    -2.477922     1.695132
H        2.128427     1.278335    -3.402423
H        1.782672     3.568737    -4.385570
H        3.804899     5.291571    -1.023409
H        4.119128     2.973481    -0.092567
H       -5.140923    -1.900576    -0.364887
H       -7.173317    -1.688059    -1.626229
H       -4.892363    -0.312998    -5.010723
H       -2.819278    -0.563977    -3.622339
H       -5.306419    -0.722446     1.719906
H       -7.248830     0.592088     2.318270
H       -4.756534     3.890851     3.173458
H       -2.720252     2.564594     2.563038
H        0.890834    -2.470198     2.357458
H        1.363166    -4.885008     2.704227
H        5.422956    -4.188413     1.748831
H        4.952586    -1.832417     1.412453
59
ex_0324 frame5 linear-conf4
O        3.088360    -2.298944    -0.899235
S        2.612673    -1.596116     0.346317
O        1.515468    -2.453797     0.939626
C        3.932744    -1.543817     1.471065
C        5.255184    -1.449077     1.096836
C        6.303653    -1.407283     1.980937
C        6.053589    -1.461421     3.335615
Br       7.530992    -1.401219     4.535135
C        4.743954    -1.556767     3.760285
C        3.696691    -1.597707     2.848611
N        2.050000     0.000000     0.000000
Au       0.000000     0.000000     0.000000
N       -2.050000     0.000000     0.000000
S       -2.937317    -0.952342    -1.092797
O       -2.251761    -2.264807    -1.387808
O       -4.266701    -1.306104    -0.491717
C       -3.294178    -0.093851    -2.581874
C       -2.338844    -0.157929    -3.590149
C       -2.564005     0.500890    -4.798886
C       -3.725829     1.224420    -5.019563
Br      -4.035153     2.132442    -6.686534
C       -4.660399     1.271706    -3.995007
C       -4.443565     0.617586    -2.786918
S       -2.990493     0.944587     1.074687
O       -2.252948     2.233558     1.414223
O       -4.317149     1.346871     0.488358
C       -3.275353     0.083139     2.569669
C       -4.367776    -0.696775     2.810795
C       -4.503449    -1.341237     4.025505
C       -3.544579    -1.215671     5.026877
Br      -3.777206    -2.121080     6.677633
C       -2.436558    -0.423222     4.782916
C       -2.306943     0.217470     3.568158
S        2.363836     0.412936    -1.629244
O        2.364210    -0.863006    -2.445801
O        1.338321     1.328376    -2.220828
C        3.920629     1.176908    -1.863016
C        3.990400     2.558786    -1.771000
C        5.182061     3.231425    -1.943250
C        6.332864     2.509118    -2.213935
Br       7.979526     3.439811    -2.451857
C        6.276127     1.140441    -2.307397
C        5.071271     0.464237    -2.132944
H        5.486411    -1.404753     0.047300
H        7.326727    -1.331159     1.590762
H        4.582808    -1.597176     4.829049
H        2.688648    -1.673222     3.251117
H       -1.411703    -0.704884    -3.482473
H       -1.807130     0.434599    -5.565817
H       -5.571505     1.839758    -4.169525
H       -5.191052     0.671132    -2.009811
H       -5.122994    -0.806060     2.051638
H       -5.369223    -1.962860     4.221389
H       -1.671171    -0.310812     5.555997
H       -1.430528     0.837389     3.390091
H        3.113728     3.153314    -1.561430
H        5.207556     4.300514    -1.866724
H        7.169476     0.536064    -2.520838
H        5.018009    -0.616468    -2.205151
59
ex_0324 frame6 linear-conf5
O        2.826462    -1.371604    -2.152011
S        3.177250    -0.190947    -1.290950
O        4.559142    -0.240894    -0.748872
C        3.040417     1.242139    -2.309658
C        2.167826     1.306908    -3.371673
C        2.061558     2.432251    -4.168641
C        2.850288     3.547595    -3.910970
Br       2.702256     5.099185    -5.011527
C        3.742500     3.501533    -2.838084
C        3.827835     2.370281    -2.061937
N        2.050000     0.000000     0.000000
Au       0.000000     0.000000     0.000000
N       -2.050000     0.000000     0.000000
S       -2.463027     1.235789     1.122452
O       -2.754272     2.530508     0.427983
O       -1.315336     1.517078     2.068330
C       -3.884057     0.845584     2.064019
C       -3.765493     0.145449     3.268994
C       -4.881258    -0.164092     4.014992
C       -6.133228     0.197620     3.609386
Br      -7.698922    -0.211305     4.612350
C       -6.285601     0.888408     2.425947
C       -5.160697     1.190845     1.690978
S       -2.372112     0.575645    -1.595641
O       -2.738365     2.027130    -1.639309
O       -1.184436     0.353350    -2.498667
C       -3.770241    -0.309705    -2.204754
C       -3.573552    -1.492414    -2.878312
C       -4.628456    -2.227253    -3.377750
C       -5.941113    -1.773159    -3.203619
Br      -7.421342    -2.781677    -3.891120
C       -6.155510    -0.572517    -2.520397
C       -5.055762     0.127439    -2.038128
S        2.927681     0.212530     1.456905
O        4.256331     0.842620     1.102150
O        2.172720     1.207774     2.306065
C        3.253949    -1.251657     2.314952
C        2.314245    -1.704671     3.229744
C        2.481102    -2.857994     3.965487
C        3.627954    -3.626964     3.809330
Br       3.866988    -5.222592     4.821922
C        4.576316    -3.183162     2.894040
C        4.385129    -2.019819     2.166112
H        1.535587     0.450166    -3.600899
H        1.386175     2.507294    -5.004577
H        4.329676     4.396933    -2.684138
H        4.528117     2.366722    -1.239081
H       -2.757615    -0.124902     3.559110
H       -4.735872    -0.706662     4.939487
H       -7.294304     1.179383     2.099051
H       -5.315174     1.732876     0.771541
H       -2.558555    -1.844893    -3.014242
H       -4.429169    -3.168174    -3.911394
H       -7.176272    -0.216836    -2.383307
H       -5.247882     1.047121    -1.518046
H        1.388496    -1.143304     3.399175
H        1.704046    -3.158473     4.670253
H        5.476169    -3.798528     2.780534
H        5.133189    -1.712509     1.477519
59
ex_0324 frame7 linear-conf6
O        4.362409    -0.821324     1.113938
S        2.941738    -0.496388     1.353673
O        2.308471    -1.770976     1.895747
C        2.820581     0.686173     2.661261
C        1.811888     0.586170     3.603554
C        1.678113     1.491496     4.646955
C        2.581320     2.536115     4.758126
Br       2.421853     3.798174     6.184745
C        3.599633     2.640081     3.809870
C        3.719044     1.730503     2.777064
N        2.050000     0.000000     0.000000
Au       0.000000     0.000000     0.000000
N       -2.050000     0.000000     0.000000
S       -2.962226    -0.308832     1.402561
O       -2.597903    -1.712306     1.867181
O       -2.558227     0.689939     2.477647
C       -4.682868    -0.226453     1.170210
C       -5.447852    -1.336897     0.804882
C       -6.800359    -1.141763     0.652010
C       -7.392414     0.089794     0.846898
Br      -9.276824     0.360844     0.633702
C       -6.646335     1.192857     1.207793
C       -5.285822     1.019687     1.366853
S       -2.962647     0.308974    -1.403209
O       -4.448727     0.315101    -1.170780
O       -2.668851    -0.691086    -2.485109
C       -2.477822     1.900619    -1.994977
C       -1.440284     2.056753    -2.893248
C       -1.156383     3.367862    -3.282759
C       -1.872496     4.443815    -2.796876
Br      -1.477204     6.241848    -3.336121
C       -2.907106     4.275683    -1.899698
C       -3.196757     2.980312    -1.507093
S        2.940477     0.495686    -1.351759
O        2.996516     2.008705    -1.486933
O        2.181312     0.036813    -2.588194
C        4.553689    -0.099327    -1.444808
C        4.761681    -1.314249    -2.107426
C        6.019346    -1.868574    -2.231687
C        7.115524    -1.221553    -1.693966
Br       8.839338    -2.025429    -1.889503
C        6.936893    -0.016032    -1.032211
C        5.660931     0.530550    -0.915178
H        1.092906    -0.223291     3.537152
H        0.872108     1.383105     5.371424
H        4.311860     3.458792     3.892514
H        4.519973     1.835115     2.054076
H       -4.950211    -2.286096     0.660701
H       -7.406875    -1.995271     0.368491
H       -7.052429     2.173786     1.372581
H       -4.683387     1.890773     1.653784
H       -0.902370     1.207441    -3.253568
H       -0.365806     3.560822    -3.975615
H       -3.489393     5.079699    -1.496576
H       -4.005174     2.832536    -0.804210
H        3.923690    -1.855803    -2.545329
H        6.167370    -2.809032    -2.746604
H        7.808524     0.478374    -0.616110
H        5.511324     1.465532    -0.403621
