91
ex_0178 frame0 OC-6-1
Ni       0.000000     0.000000     0.000000
C        5.659474     1.705694     1.652803
C        5.198706     1.545476     0.214975
N        4.082226     0.691290     0.104293
C        4.135162    -0.733069    -0.105434
C        2.771846    -1.151331    -0.165336
N        1.950000     0.000000     0.000000
C        2.722261     1.121968     0.161079
H        5.953155     0.742332     2.083059
H        6.520581     2.379102     1.703157
H        4.862959     2.121790     2.278783
H        4.913596     2.514898    -0.208433
H        6.004354     1.134928    -0.403672
H        5.024210    -1.246106    -0.180222
H        2.387887    -2.076326    -0.299151
H        2.429422     2.058098     0.293686
C       -5.659474    -2.368137    -0.181870
C       -5.198706    -1.185258    -1.014827
N       -4.082226    -0.536256    -0.448540
C       -4.135162     0.564800     0.479069
C       -2.771846     0.886864     0.752577
N       -1.950000     0.000000     0.000000
C       -2.722261    -0.864215    -0.733410
H       -5.953155    -2.051851     0.824682
H       -6.520581    -2.852151    -0.652769
H       -4.862959    -3.112662    -0.078584
H       -4.913596    -1.510689    -2.021379
H       -6.004354    -0.449900    -1.117409
H       -5.024210     0.960824     0.813682
H       -2.387887     1.600117     1.356556
H       -2.429422    -1.583944    -1.346529
C        0.595210     5.659489     2.299307
C       -0.576068     5.198707     1.450122
N       -0.250599     4.082226     0.652655
C        0.270230     4.135162    -0.689553
C        0.424636     2.771847    -1.082860
N        0.000000     1.950000     0.000000
C       -0.413840     2.722262     1.055222
H        1.444982     5.953179     1.673954
H        0.934164     4.862978     2.970205
H        0.306528     6.520594     2.909783
H       -1.422877     4.913592     2.084128
H       -0.911383     6.004349     0.787667
H        0.458480     5.024211    -1.172629
H        0.764940     2.387888    -1.953327
H       -0.760693     2.429422     1.934778
C        2.032128    -5.659481     1.229460
C        0.600812    -5.198707     1.440046
N        0.276611    -4.082226     0.642063
C       -0.288337    -4.135162    -0.682179
C       -0.452604    -2.771846    -1.071471
N        0.000000    -1.950000     0.000000
C        0.441023    -2.722262     1.044154
H        2.743329    -4.862969     1.472746
H        2.252023    -6.520592     1.867939
H        2.203332    -5.953161     0.188367
H       -0.101887    -6.004352     1.200267
H        0.437774    -4.913595     2.485259
H       -0.491095    -5.024211    -1.159348
H       -0.818395    -2.479014    -1.870604
H        0.807263    -2.429422     1.915814
C        0.521264     2.317204     5.659474
C        1.175050     1.026629     5.198706
N        0.526104     0.470306     4.086956
C       -0.555466    -0.489862     4.135162
C       -0.858561    -0.732283     2.785808
N        0.000000     0.000000     1.950000
C        0.853265     0.751942     2.722070
H       -0.520364     2.149282     5.953155
H        1.057001     2.728300     6.520581
H        0.526355     3.068842     4.862959
H        2.217995     1.203600     4.913596
H        1.170582     0.284164     6.004354
H       -0.943660    -0.833527     5.024210
H       -1.659514    -1.276963     2.437177
H        1.560747     1.373349     2.429422
C       -2.367629    -0.188335    -5.659478
C       -1.328558     0.818317    -5.198707
N       -0.599443     0.359759    -4.082227
C        0.632384    -0.385482    -4.135162
C        0.993038    -0.605621    -2.771847
N        0.000000     0.000000    -1.950000
C       -0.967686     0.590205    -2.722262
H       -1.898771    -1.133508    -5.953164
H       -2.918939     0.201632    -6.520584
H       -3.087059    -0.406067    -4.862963
H       -0.618073     1.033926    -6.004353
H       -1.806451     1.762070    -4.913595
H        1.075595    -0.654491    -5.024211
H        1.791482    -1.091426    -2.387888
H       -1.773947     1.084034    -2.429422
91
ex_0178 frame1 OC-6-1-conf6
Ni       0.000000     0.000000     0.000000
C        5.659474     1.155019    -2.075350
C        5.198706    -0.192348    -1.548455
N        4.077586    -0.077422    -0.688253
C        4.118699     0.085324     0.713931
C        2.799810     0.125759     1.071718
N        1.950000     0.000000     0.000000
C        2.730891    -0.131041    -1.094064
H        5.953155     1.819951    -1.256173
H        6.520581     1.029366    -2.738846
H        4.862959     1.651975    -2.639284
H        4.913596    -0.852234    -2.375259
H        6.004354    -0.683658    -0.991778
H        5.024210     0.148435     1.250291
H        2.524525     0.214754     2.021805
H        2.429422    -0.248996    -2.063982
C       -5.659481    -1.184297     2.058777
C       -5.198707     0.170399     1.551023
N       -4.077587     0.067666     0.689281
C       -4.118699    -0.075203    -0.715068
C       -2.802082    -0.112103    -1.069100
N       -1.950000     0.000000     0.000000
C       -2.730891     0.115531     1.095810
H       -6.520587    -1.068052     2.723986
H       -4.862967    -1.689197     2.615612
H       -5.953167    -1.837554     1.230261
H       -4.913594     0.818502     2.387093
H       -6.004352     0.669550     1.001362
H       -5.024211    -0.130712    -1.252269
H       -2.480088    -0.220112    -2.028311
H       -2.429422     0.219737     2.067301
C        2.197599     5.659474    -0.900948
C        1.514750     5.198706     0.374488
N        0.674229     4.077586     0.158436
C       -0.698789     4.118699    -0.169325
C       -1.106997     2.773768    -0.268507
N        0.000000     1.950000     0.000000
C        1.070826     2.730891     0.259766
H        1.462990     5.953155    -1.658268
H        2.841529     6.520581    -0.697555
H        2.816449     4.862959    -1.327575
H        2.257531     4.913596     1.127702
H        0.903775     6.004354     0.796369
H       -1.223891     5.024210    -0.295551
H       -1.978590     2.459713    -0.520042
H        2.019932     2.429422     0.491827
C        2.086123    -5.659474     1.135447
C        1.546577    -5.198706    -0.206905
N        0.687495    -4.077586    -0.083893
C       -0.713097    -4.118699     0.092035
C       -1.065196    -2.802252     0.141055
N        0.000000    -1.950000     0.000000
C        1.028259    -2.759036    -0.133307
H        1.273237    -5.953155     1.808055
H        2.748407    -6.520581     1.003559
H        2.654706    -4.862959     1.627077
H        2.367137    -4.913596    -0.874538
H        0.985303    -6.004354    -0.692957
H       -1.248839    -5.024210     0.160189
H       -2.022456    -2.478487     0.279574
H        1.991835    -2.560076    -0.279380
C       -0.707174     2.267389     5.659474
C        0.504308     1.476612     5.198706
N        0.216251     0.657968     4.077586
C       -0.229227    -0.681493     4.118699
C       -0.363401    -1.079573     2.773768
N        0.000000     0.000000     1.950000
C        0.351559     1.044296     2.730891
H       -1.525289     1.601151     5.953155
H       -0.448760     2.891277     6.520581
H       -1.078584     2.920873     4.862959
H        1.319040     2.151346     4.913596
H        0.871672     0.831385     6.004354
H       -0.400470    -1.193685     5.024210
H       -0.668305    -1.988464     2.387887
H        0.664972     1.969729     2.429422
C       -0.967903    -2.168943    -5.659474
C        0.327870    -1.525520    -5.198706
N        0.137690    -0.678770    -4.077586
C       -0.147820     0.703652    -4.118699
C       -0.234440     1.114709    -2.773768
N        0.000000     0.000000    -1.950000
C        0.226812    -1.078287    -2.730891
H       -1.702344    -1.411460    -5.953155
H       -0.784348    -2.818806    -6.520581
H       -1.413303    -2.774422    -4.862959
H        1.057956    -2.291045    -4.913596
H        0.768284    -0.927767    -6.004354
H       -0.257888     1.232377    -5.024210
H       -0.430780     2.053058    -2.387887
H        0.363870    -2.004369    -2.494898
