44
ex_0143 frame0 TBP-5-chelate-1
Zn       0.000000     0.000000     0.000000
C        0.709195    -4.743902     1.950716
C       -0.610629    -4.357069     2.208934
C       -1.176262    -3.285049     1.516476
C       -0.453568    -2.615091     0.557687
O       -0.932617    -1.623619    -0.168778
N        0.408013     0.838730     1.689662
C        1.102476     2.029871     1.266683
C        0.654169     2.458462    -0.166324
N        0.862940     1.358892    -1.064728
C        2.252562     1.068189    -1.323164
C        2.094981    -0.341224    -1.940377
N        1.341338    -1.031300    -0.928510
C        1.584946    -2.224876    -0.671107
C        0.869942    -3.024254     0.344764
C        1.446221    -4.057284     1.006747
C        0.174455     1.436953    -2.321664
C       -1.277251     1.562836    -1.879513
C       -2.138368     2.350362    -2.451094
C       -3.508417     2.356725    -1.901056
C       -3.775860     1.572890    -0.868812
C       -2.731849     0.704879    -0.265230
N       -1.609026     0.732814    -0.773899
H        1.176761    -5.570522     2.470225
H       -1.184959    -4.907718     2.958477
H       -2.187601    -2.972026     1.699629
H       -0.506612     0.977014     2.108150
H        0.978527     0.151674     2.174772
H        0.857949     2.833373     1.986976
H        2.169603     1.805574     1.194768
H        1.152453     3.376623    -0.453918
H       -0.432415     2.636274    -0.063197
H        2.891611     1.020223    -0.454457
H        2.588442     1.782873    -2.068812
H        3.144775    -0.732508    -1.885542
H        1.771534    -0.420087    -2.925679
H        2.357598    -2.752464    -1.204471
H        2.469184    -4.333459     0.785643
H        0.418287     2.405357    -2.833592
H        0.294249     0.635744    -3.014825
H       -1.863140     2.976800    -3.292797
H       -4.275255     2.979845    -2.323068
H       -4.740650     1.506555    -0.402193
H       -2.930027     0.063741     0.577202
44
ex_0143 frame1 TBP-5-chelate-1-conf5
Zn       0.000000     0.000000     0.000000
C        3.299243     3.007094     2.744386
C        2.117731     2.908260     3.467718
C        1.146225     1.959361     3.152476
C        1.431085     1.117859     2.112372
O        0.516751     0.131623     1.802788
N       -1.189621    -1.518054    -0.072209
C       -1.369991    -1.719789    -1.466053
C       -1.190211    -0.391608    -2.219447
N        0.047461     0.127207    -1.925218
C        1.183324    -0.476461    -2.529978
C        1.824530    -1.256777    -1.402585
N        1.878426    -0.288720    -0.336239
C        2.791857     0.236853     0.260347
C        2.617844     1.206350     1.367813
C        3.564389     2.156175     1.667367
C        0.213489     1.538423    -2.239911
C       -0.757331     2.285739    -1.363350
C       -1.433197     3.333855    -1.726692
C       -2.333821     3.919583    -0.707308
C       -2.400622     3.348187     0.499287
C       -1.609465     2.155727     0.837490
N       -0.873987     1.720070    -0.049049
H        4.046911     3.755625     3.005332
H        1.962320     3.591121     4.292712
H        0.221532     1.866373     3.702178
H       -2.023345    -1.138685     0.397922
H       -0.763415    -2.325603     0.339974
H       -0.709198    -2.449975    -1.893652
H       -2.447667    -2.028939    -1.635466
H       -2.071179     0.265176    -2.042108
H       -1.292855    -0.708422    -3.304169
H        0.969274    -1.193196    -3.346696
H        1.969403     0.208602    -2.896855
H        1.368907    -2.183319    -1.147567
H        2.906893    -1.438954    -1.593428
H        3.776784    -0.067433    -0.069811
H        4.475393     2.216410     1.092868
H       -0.067126     1.786348    -3.280953
H        1.215877     1.927873    -2.053495
H       -1.341923     3.748616    -2.719843
H       -2.904182     4.788941    -0.978558
H       -3.049986     3.763654     1.256888
H       -1.650427     1.674741     1.804847
44
ex_0143 frame2 TBP-5-chelate-1-reembed1
Zn       0.000000     0.000000     0.000000
C        0.709195    -4.743902     1.950716
C       -0.610629    -4.357069     2.208934
C       -1.176262    -3.285049     1.516476
C       -0.453568    -2.615091     0.557687
O       -0.932617    -1.623619    -0.168778
N        0.408013     0.838730     1.689662
C        1.102476     2.029871     1.266683
C        0.654169     2.458462    -0.166324
N        0.862940     1.358892    -1.064728
C        2.252562     1.068189    -1.323164
C        2.094981    -0.341224    -1.940377
N        1.341338    -1.031300    -0.928510
C        1.584946    -2.224876    -0.671107
C        0.869942    -3.024254     0.344764
C        1.446221    -4.057284     1.006747
C        0.174455     1.436953    -2.321664
C       -1.277251     1.562836    -1.879513
C       -2.138368     2.350362    -2.451094
C       -3.508417     2.356725    -1.901056
C       -3.775860     1.572890    -0.868812
C       -2.731849     0.704879    -0.265230
N       -1.609026     0.732814    -0.773899
H        1.176761    -5.570522     2.470225
H       -1.184959    -4.907718     2.958477
H       -2.187601    -2.972026     1.699629
H       -0.506612     0.977014     2.108150
H        0.978527     0.151674     2.174772
H        0.857949     2.833373     1.986976
H        2.169603     1.805574     1.194768
H        1.152453     3.376623    -0.453918
H       -0.432415     2.636274    -0.063197
H        2.891611     1.020223    -0.454457
H        2.588442     1.782873    -2.068812
H        3.144775    -0.732508    -1.885542
H        1.771534    -0.420087    -2.925679
H        2.357598    -2.752464    -1.204471
H        2.469184    -4.333459     0.785643
H        0.418287     2.405357    -2.833592
H        0.294249     0.635744    -3.014825
H       -1.863140     2.976800    -3.292797
H       -4.275255     2.979845    -2.323068
H       -4.740650     1.506555    -0.402193
H       -2.930027     0.063741     0.577202
44
ex_0143 frame3 TBP-5-chelate-1_mirror
Zn       0.000000     0.000000     0.000000
C        0.709195    -4.743902    -1.950716
C       -0.610629    -4.357069    -2.208934
C       -1.176262    -3.285049    -1.516476
C       -0.453568    -2.615091    -0.557687
O       -0.932617    -1.623619     0.168778
N        0.408013     0.838730    -1.689662
C        1.102476     2.029871    -1.266683
C        0.654169     2.458462     0.166324
N        0.862940     1.358892     1.064728
C        2.252562     1.068189     1.323164
C        2.094981    -0.341224     1.940377
N        1.341338    -1.031300     0.928510
C        1.584946    -2.224876     0.671107
C        0.869942    -3.024254    -0.344764
C        1.446221    -4.057284    -1.006747
C        0.174455     1.436953     2.321664
C       -1.277251     1.562836     1.879513
C       -2.138368     2.350362     2.451094
C       -3.508417     2.356725     1.901056
C       -3.775860     1.572890     0.868812
C       -2.731849     0.704879     0.265230
N       -1.609026     0.732814     0.773899
H        1.176761    -5.570522    -2.470225
H       -1.184959    -4.907718    -2.958477
H       -2.187601    -2.972026    -1.699629
H       -0.506612     0.977014    -2.108150
H        0.978527     0.151674    -2.174772
H        0.857949     2.833373    -1.986976
H        2.169603     1.805574    -1.194768
H        1.152453     3.376623     0.453918
H       -0.432415     2.636274     0.063197
H        2.891611     1.020223     0.454457
H        2.588442     1.782873     2.068812
H        3.144775    -0.732508     1.885542
H        1.771534    -0.420087     2.925679
H        2.357598    -2.752464     1.204471
H        2.469184    -4.333459    -0.785643
H        0.418287     2.405357     2.833592
H        0.294249     0.635744     3.014825
H       -1.863140     2.976800     3.292797
H       -4.275255     2.979845     2.323068
H       -4.740650     1.506555     0.402193
H       -2.930027     0.063741    -0.577202
