45
ex_0144 frame0 trans-OC-6-1
Ta       0.000000     0.000000     0.000000
Br       2.900000     0.000000     0.000000
Br      -2.900000     0.000000     0.000000
Br       0.000000     2.900000     0.000000
Br       0.000000    -2.900000     0.000000
C       -1.395474    -0.765334     5.480553
N       -1.177637     0.097179     4.327501
C       -2.375847     0.448356     3.587334
C        0.000000    -0.000000     3.591233
O        0.000000     0.000000     2.360000
N        1.177637    -0.097180     4.327501
C        1.395472     0.765330     5.480557
C        2.375847    -0.448353     3.587335
H       -1.925834    -1.664214     5.149080
H       -2.006403    -0.229573     6.212421
H       -0.464376    -1.088372     5.950295
H       -3.129099     0.836085     4.279087
H       -2.150861     1.217812     2.842179
H       -2.759009    -0.440561     3.076607
H        2.006402     0.229570     6.212424
H        1.925831     1.664211     5.149086
H        0.464373     1.088368     5.950298
H        2.150863    -1.217808     2.842178
H        2.759009     0.440563     3.076608
H        3.129100    -0.836082     4.279088
C       -1.390886     0.773642    -5.480553
N       -1.178196    -0.090155    -4.327501
C       -2.378478    -0.434180    -3.587334
C        0.000000    -0.000000    -3.591233
O        0.000000     0.000000    -2.360000
N        1.178195     0.090155    -4.327501
C        1.390883    -0.773638    -5.480557
C        2.378479     0.434177    -3.587335
H       -1.915876     1.675668    -5.149080
H       -2.004999     0.241533    -6.212421
H       -0.457878     1.091122    -5.950295
H       -3.134029    -0.817410    -4.279087
H       -2.158085    -1.204964    -2.842179
H       -2.756333     0.457005    -3.076607
H        2.004997    -0.241530    -6.212424
H        1.915873    -1.675666    -5.149086
H        0.457874    -1.091117    -5.950298
H        2.158087     1.204961    -2.842178
H        2.756333    -0.457008    -3.076608
H        3.134030     0.817408    -4.279088
45
ex_0144 frame1 trans-OC-6-1-conf2
Ta       0.000000     0.000000     0.000000
Br       2.900000     0.000000     0.000000
Br      -2.900000     0.000000     0.000000
Br       0.000000     2.900000     0.000000
Br       0.000000    -2.900000     0.000000
C       -1.395474    -0.765334     5.480553
N       -1.177637     0.097179     4.327501
C       -2.375847     0.448356     3.587334
C        0.000000    -0.000000     3.591233
O        0.000000     0.000000     2.360000
N        1.177637    -0.097180     4.327501
C        1.395472     0.765330     5.480557
C        2.375847    -0.448353     3.587335
H       -1.925834    -1.664214     5.149080
H       -2.006403    -0.229573     6.212421
H       -0.464376    -1.088372     5.950295
H       -3.129099     0.836085     4.279087
H       -2.150861     1.217812     2.842179
H       -2.759009    -0.440561     3.076607
H        2.006402     0.229570     6.212424
H        1.925831     1.664211     5.149086
H        0.464373     1.088368     5.950298
H        2.150863    -1.217808     2.842178
H        2.759009     0.440563     3.076608
H        3.129100    -0.836082     4.279088
C       -2.310402     0.712536    -3.587333
N       -1.159254     0.228916    -4.327501
C       -1.472651    -0.603663    -5.480543
C        0.000000    -0.000000    -3.591233
O        0.000000     0.000000    -2.360000
N        1.159254    -0.228914    -4.327503
C        2.310408    -0.712518    -3.587334
C        1.472641     0.603651    -5.480558
H       -2.000360     1.451840    -2.842189
H       -3.015310     1.182456    -4.279087
H       -2.791035    -0.127680    -3.076593
H       -2.019511    -0.002648    -6.212409
H       -2.100661    -1.437246    -5.149055
H       -0.583758    -1.029292    -5.950291
H        3.015319    -1.182439    -4.279085
H        2.000376    -1.451818    -2.842180
H        2.791037     0.127707    -3.076603
H        2.100647     1.437242    -5.149084
H        2.019502     0.002630    -6.212419
H        0.583744     1.029270    -5.950308
45
ex_0144 frame2 trans-OC-6-1-conf3
Ta       0.000000     0.000000     0.000000
Br       2.900000     0.000000     0.000000
Br      -2.900000     0.000000     0.000000
Br       0.000000     2.900000     0.000000
Br       0.000000    -2.900000     0.000000
C       -2.417137     0.055790     3.587333
N       -1.172083     0.149976     4.327501
C       -1.205691     1.038951     5.480543
C        0.000000     0.000000     3.591233
O        0.000000     0.000000     2.360000
N        1.172083    -0.149979     4.327503
C        2.417137    -0.055809     3.587334
C        1.205685    -1.038936     5.480558
H       -2.357174    -0.743647     2.842189
H       -3.234580    -0.166715     4.279087
H       -2.606955     1.004969     3.076593
H       -1.914734     0.642047     6.212409
H       -1.537401     2.028509     5.149055
H       -0.227759     1.161181     5.950291
H        3.234583     0.166696     4.279085
H        2.357181     0.743621     2.842180
H        2.606948    -1.004995     3.076603
H        1.537390    -2.028501     5.149084
H        1.914732    -0.642027     6.212419
H        0.227753    -1.161156     5.950308
C       -1.390886     0.773642    -5.480553
N       -1.178196    -0.090155    -4.327501
C       -2.378478    -0.434180    -3.587334
C        0.000000    -0.000000    -3.591233
O        0.000000     0.000000    -2.360000
N        1.178195     0.090155    -4.327501
C        1.390883    -0.773638    -5.480557
C        2.378479     0.434177    -3.587335
H       -1.915876     1.675668    -5.149080
H       -2.004999     0.241533    -6.212421
H       -0.457878     1.091122    -5.950295
H       -3.134029    -0.817410    -4.279087
H       -2.158085    -1.204964    -2.842179
H       -2.756333     0.457005    -3.076607
H        2.004997    -0.241530    -6.212424
H        1.915873    -1.675666    -5.149086
H        0.457874    -1.091117    -5.950298
H        2.158087     1.204961    -2.842178
H        2.756333    -0.457008    -3.076608
H        3.134030     0.817408    -4.279088
45
ex_0144 frame3 trans-OC-6-1-conf4
Ta       0.000000     0.000000     0.000000
Br       2.900000     0.000000     0.000000
Br      -2.900000     0.000000     0.000000
Br       0.000000     2.900000     0.000000
Br       0.000000    -2.900000     0.000000
C       -1.395474    -0.765334     5.480553
N       -1.177637     0.097179     4.327501
C       -2.375847     0.448356     3.587334
C        0.000000    -0.000000     3.591233
O        0.000000     0.000000     2.360000
N        1.177637    -0.097180     4.327501
C        1.395472     0.765330     5.480557
C        2.375847    -0.448353     3.587335
H       -1.925834    -1.664214     5.149080
H       -2.006403    -0.229573     6.212421
H       -0.464376    -1.088372     5.950295
H       -3.129099     0.836085     4.279087
H       -2.150861     1.217812     2.842179
H       -2.759009    -0.440561     3.076607
H        2.006402     0.229570     6.212424
H        1.925831     1.664211     5.149086
H        0.464373     1.088368     5.950298
H        2.150863    -1.217808     2.842178
H        2.759009     0.440563     3.076608
H        3.129100    -0.836082     4.279088
C        1.472909    -0.603006    -5.480555
N        1.159154     0.229422    -4.327501
C        2.310094     0.713536    -3.587333
C       -0.000000     0.000000    -3.591233
O        0.000000     0.000000    -2.360000
N       -1.159154    -0.229421    -4.327501
C       -2.310094    -0.713535    -3.587333
C       -1.472909     0.603008    -5.480554
H        0.584201    -1.029027    -5.950299
H        2.019494    -0.001739    -6.212421
H        2.101294    -1.436312    -5.149083
H        2.791095    -0.126478    -3.076604
H        3.014796     1.183769    -4.279085
H        1.999736     1.452697    -2.842179
H       -3.014796    -1.183768    -4.279085
H       -2.791094     0.126478    -3.076604
H       -1.999736    -1.452696    -2.842178
H       -2.019495     0.001742    -6.212420
H       -2.101294     1.436315    -5.149081
H       -0.584201     1.029029    -5.950298
45
ex_0144 frame4 trans-OC-6-1-conf5
Ta       0.000000     0.000000     0.000000
Br       2.900000     0.000000     0.000000
Br      -2.900000     0.000000     0.000000
Br       0.000000     2.900000     0.000000
Br       0.000000    -2.900000     0.000000
C       -2.417137     0.055790     3.587333
N       -1.172083     0.149976     4.327501
C       -1.205691     1.038951     5.480543
C        0.000000     0.000000     3.591233
O        0.000000     0.000000     2.360000
N        1.172083    -0.149979     4.327503
C        2.417137    -0.055809     3.587334
C        1.205685    -1.038936     5.480558
H       -2.357174    -0.743647     2.842189
H       -3.234580    -0.166715     4.279087
H       -2.606955     1.004969     3.076593
H       -1.914734     0.642047     6.212409
H       -1.537401     2.028509     5.149055
H       -0.227759     1.161181     5.950291
H        3.234583     0.166696     4.279085
H        2.357181     0.743621     2.842180
H        2.606948    -1.004995     3.076603
H        1.537390    -2.028501     5.149084
H        1.914732    -0.642027     6.212419
H        0.227753    -1.161156     5.950308
C       -2.310402     0.712536    -3.587333
N       -1.159254     0.228916    -4.327501
C       -1.472651    -0.603663    -5.480543
C        0.000000    -0.000000    -3.591233
O        0.000000     0.000000    -2.360000
N        1.159254    -0.228914    -4.327503
C        2.310408    -0.712518    -3.587334
C        1.472641     0.603651    -5.480558
H       -2.000360     1.451840    -2.842189
H       -3.015310     1.182456    -4.279087
H       -2.791035    -0.127680    -3.076593
H       -2.019511    -0.002648    -6.212409
H       -2.100661    -1.437246    -5.149055
H       -0.583758    -1.029292    -5.950291
H        3.015319    -1.182439    -4.279085
H        2.000376    -1.451818    -2.842180
H        2.791037     0.127707    -3.076603
H        2.100647     1.437242    -5.149084
H        2.019502     0.002630    -6.212419
H        0.583744     1.029270    -5.950308
45
ex_0144 frame5 trans-OC-6-1-conf6
Ta       0.000000     0.000000     0.000000
Br       2.900000     0.000000     0.000000
Br      -2.900000     0.000000     0.000000
Br       0.000000     2.900000     0.000000
Br       0.000000    -2.900000     0.000000
C        1.042243     1.202833     5.480555
N        1.137934     0.318400     4.327501
C        2.383482     0.405813     3.587333
C       -0.000000     0.000000     3.591233
O        0.000000     0.000000     2.360000
N       -1.137934    -0.318401     4.327501
C       -2.383481    -0.405814     3.587333
C       -1.042242    -1.202835     5.480554
H        0.056921     1.181926     5.950299
H        1.801353     0.912955     6.212421
H        1.226922     2.230043     5.149083
H        2.433612     1.372494     3.076604
H        3.224555     0.304225     4.279085
H        2.440112    -0.393859     2.842179
H       -3.224555    -0.304225     4.279085
H       -2.433611    -1.372494     3.076604
H       -2.440111     0.393857     2.842178
H       -1.801352    -0.912958     6.212420
H       -1.226921    -2.230045     5.149081
H       -0.056921    -1.181927     5.950298
C       -1.390886     0.773642    -5.480553
N       -1.178196    -0.090155    -4.327501
C       -2.378478    -0.434180    -3.587334
C        0.000000    -0.000000    -3.591233
O        0.000000     0.000000    -2.360000
N        1.178195     0.090155    -4.327501
C        1.390883    -0.773638    -5.480557
C        2.378479     0.434177    -3.587335
H       -1.915876     1.675668    -5.149080
H       -2.004999     0.241533    -6.212421
H       -0.457878     1.091122    -5.950295
H       -3.134029    -0.817410    -4.279087
H       -2.158085    -1.204964    -2.842179
H       -2.756333     0.457005    -3.076607
H        2.004997    -0.241530    -6.212424
H        1.915873    -1.675666    -5.149086
H        0.457874    -1.091117    -5.950298
H        2.158087     1.204961    -2.842178
H        2.756333    -0.457008    -3.076608
H        3.134030     0.817408    -4.279088
45
ex_0144 frame6 trans-OC-6-1-conf7
Ta       0.000000     0.000000     0.000000
Br       2.900000     0.000000     0.000000
Br      -2.900000     0.000000     0.000000
Br       0.000000     2.900000     0.000000
Br       0.000000    -2.900000     0.000000
C       -1.395474    -0.765334     5.480553
N       -1.177637     0.097179     4.327501
C       -2.375847     0.448356     3.587334
C        0.000000    -0.000000     3.591233
O        0.000000     0.000000     2.360000
N        1.177637    -0.097180     4.327501
C        1.395472     0.765330     5.480557
C        2.375847    -0.448353     3.587335
H       -1.925834    -1.664214     5.149080
H       -2.006403    -0.229573     6.212421
H       -0.464376    -1.088372     5.950295
H       -3.129099     0.836085     4.279087
H       -2.150861     1.217812     2.842179
H       -2.759009    -0.440561     3.076607
H        2.006402     0.229570     6.212424
H        1.925831     1.664211     5.149086
H        0.464373     1.088368     5.950298
H        2.150863    -1.217808     2.842178
H        2.759009     0.440563     3.076608
H        3.129100    -0.836082     4.279088
C        2.415533    -0.104270    -3.587333
N        1.179439     0.072090    -4.327501
C        1.271796     0.956878    -5.480554
C        0.000000    -0.000000    -3.591233
O        0.000000     0.000000    -2.360000
N       -1.179439    -0.072090    -4.327501
C       -2.415533     0.104270    -3.587334
C       -1.271796    -0.956877    -5.480555
H        3.216459    -0.380389    -4.279085
H        2.302802    -0.897979    -2.842179
H        2.667745     0.830274    -3.076605
H        0.304094     1.143555    -5.950298
H        1.953014     0.513911    -6.212420
H        1.668269     1.922318    -5.149080
H       -3.216458     0.380390    -4.279086
H       -2.302803     0.897977    -2.842177
H       -2.667747    -0.830275    -3.076608
H       -1.668274    -1.922316    -5.149084
H       -1.953010    -0.513907    -6.212422
H       -0.304094    -1.143555    -5.950298
45
ex_0144 frame7 trans-OC-6-1-conf8
Ta       0.000000     0.000000     0.000000
Br       2.900000     0.000000     0.000000
Br      -2.900000     0.000000     0.000000
Br       0.000000     2.900000     0.000000
Br       0.000000    -2.900000     0.000000
C       -2.417137     0.055790     3.587333
N       -1.172083     0.149976     4.327501
C       -1.205691     1.038951     5.480543
C        0.000000     0.000000     3.591233
O        0.000000     0.000000     2.360000
N        1.172083    -0.149979     4.327503
C        2.417137    -0.055809     3.587334
C        1.205685    -1.038936     5.480558
H       -2.357174    -0.743647     2.842189
H       -3.234580    -0.166715     4.279087
H       -2.606955     1.004969     3.076593
H       -1.914734     0.642047     6.212409
H       -1.537401     2.028509     5.149055
H       -0.227759     1.161181     5.950291
H        3.234583     0.166696     4.279085
H        2.357181     0.743621     2.842180
H        2.606948    -1.004995     3.076603
H        1.537390    -2.028501     5.149084
H        1.914732    -0.642027     6.212419
H        0.227753    -1.161156     5.950308
C        1.472909    -0.603006    -5.480555
N        1.159154     0.229422    -4.327501
C        2.310094     0.713536    -3.587333
C       -0.000000     0.000000    -3.591233
O        0.000000     0.000000    -2.360000
N       -1.159154    -0.229421    -4.327501
C       -2.310094    -0.713535    -3.587333
C       -1.472909     0.603008    -5.480554
H        0.584201    -1.029027    -5.950299
H        2.019494    -0.001739    -6.212421
H        2.101294    -1.436312    -5.149083
H        2.791095    -0.126478    -3.076604
H        3.014796     1.183769    -4.279085
H        1.999736     1.452697    -2.842179
H       -3.014796    -1.183768    -4.279085
H       -2.791094     0.126478    -3.076604
H       -1.999736    -1.452696    -2.842178
H       -2.019495     0.001742    -6.212420
H       -2.101294     1.436315    -5.149081
H       -0.584201     1.029029    -5.950298
45
ex_0144 frame8 trans-OC-6-1-conf9
Ta       0.000000     0.000000     0.000000
Br       2.900000     0.000000     0.000000
Br      -2.900000     0.000000     0.000000
Br       0.000000     2.900000     0.000000
Br       0.000000    -2.900000     0.000000
C        1.042243     1.202833     5.480555
N        1.137934     0.318400     4.327501
C        2.383482     0.405813     3.587333
C       -0.000000     0.000000     3.591233
O        0.000000     0.000000     2.360000
N       -1.137934    -0.318401     4.327501
C       -2.383481    -0.405814     3.587333
C       -1.042242    -1.202835     5.480554
H        0.056921     1.181926     5.950299
H        1.801353     0.912955     6.212421
H        1.226922     2.230043     5.149083
H        2.433612     1.372494     3.076604
H        3.224555     0.304225     4.279085
H        2.440112    -0.393859     2.842179
H       -3.224555    -0.304225     4.279085
H       -2.433611    -1.372494     3.076604
H       -2.440111     0.393857     2.842178
H       -1.801352    -0.912958     6.212420
H       -1.226921    -2.230045     5.149081
H       -0.056921    -1.181927     5.950298
C       -2.310402     0.712536    -3.587333
N       -1.159254     0.228916    -4.327501
C       -1.472651    -0.603663    -5.480543
C        0.000000    -0.000000    -3.591233
O        0.000000     0.000000    -2.360000
N        1.159254    -0.228914    -4.327503
C        2.310408    -0.712518    -3.587334
C        1.472641     0.603651    -5.480558
H       -2.000360     1.451840    -2.842189
H       -3.015310     1.182456    -4.279087
H       -2.791035    -0.127680    -3.076593
H       -2.019511    -0.002648    -6.212409
H       -2.100661    -1.437246    -5.149055
H       -0.583758    -1.029292    -5.950291
H        3.015319    -1.182439    -4.279085
H        2.000376    -1.451818    -2.842180
H        2.791037     0.127707    -3.076603
H        2.100647     1.437242    -5.149084
H        2.019502     0.002630    -6.212419
H        0.583744     1.029270    -5.950308
45
ex_0144 frame9 trans-OC-6-1-conf10
Ta       0.000000     0.000000     0.000000
Br       2.900000     0.000000     0.000000
Br      -2.900000     0.000000     0.000000
Br       0.000000     2.900000     0.000000
Br       0.000000    -2.900000     0.000000
C        2.284445     0.791822     3.587333
N        1.150666     0.268777     4.327501
C        1.492598    -0.552479     5.480554
C        0.000000     0.000000     3.591233
O        0.000000     0.000000     2.360000
N       -1.150666    -0.268778     4.327501
C       -2.284445    -0.791822     3.587334
C       -1.492597     0.552478     5.480555
H        2.972716     1.285793     4.279085
H        1.949083     1.519981     2.842179
H        2.793786    -0.031315     3.076605
H        0.618919    -1.008529     5.950298
H        2.018383     0.067058     6.212420
H        2.149004    -1.363896     5.149080
H       -2.972715    -1.285794     4.279086
H       -1.949084    -1.519979     2.842177
H       -2.793788     0.031316     3.076608
H       -2.149008     1.363892     5.149084
H       -2.018379    -0.067061     6.212422
H       -0.618919     1.008529     5.950298
C       -1.390886     0.773642    -5.480553
N       -1.178196    -0.090155    -4.327501
C       -2.378478    -0.434180    -3.587334
C        0.000000    -0.000000    -3.591233
O        0.000000     0.000000    -2.360000
N        1.178195     0.090155    -4.327501
C        1.390883    -0.773638    -5.480557
C        2.378479     0.434177    -3.587335
H       -1.915876     1.675668    -5.149080
H       -2.004999     0.241533    -6.212421
H       -0.457878     1.091122    -5.950295
H       -3.134029    -0.817410    -4.279087
H       -2.158085    -1.204964    -2.842179
H       -2.756333     0.457005    -3.076607
H        2.004997    -0.241530    -6.212424
H        1.915873    -1.675666    -5.149086
H        0.457874    -1.091117    -5.950298
H        2.158087     1.204961    -2.842178
H        2.756333    -0.457008    -3.076608
H        3.134030     0.817408    -4.279088
45
ex_0144 frame10 trans-OC-6-1-reembed1
Ta       0.000000     0.000000     0.000000
Br       2.900000     0.000000     0.000000
Br      -2.900000     0.000000     0.000000
Br       0.000000     2.900000     0.000000
Br       0.000000    -2.900000     0.000000
C        2.407397    -0.223848     3.587333
N        1.158807    -0.231166     4.327501
C        1.130481    -1.120303     5.480561
C       -0.000000     0.000000     3.591233
O        0.000000     0.000000     2.360000
N       -1.158807     0.231167     4.327501
C       -2.407397     0.223848     3.587332
C       -1.130479     1.120312     5.480554
H        2.530711    -1.183940     3.076605
H        2.403206     0.577817     2.842180
H        3.238341    -0.058752     4.279086
H        0.146413    -1.174192     5.950305
H        1.392546    -2.130547     5.149096
H        1.865414    -0.773672     6.212424
H       -3.238341     0.058756     4.279084
H       -2.403207    -0.577818     2.842181
H       -2.530708     1.183941     3.076602
H       -1.865414     0.773689     6.212420
H       -1.392543     2.130554     5.149081
H       -0.146411     1.174205     5.950298
C        2.366374     0.495924    -3.587333
N        1.125039     0.361332    -4.327501
C        0.995873     1.241492    -5.480561
C       -0.000000     0.000000    -3.591233
O        0.000000     0.000000    -2.360000
N       -1.125039    -0.361332    -4.327501
C       -2.366374    -0.495924    -3.587332
C       -0.995871    -1.241501    -5.480554
H        2.379805     1.463810    -3.076605
H        2.453295    -0.301025    -2.842180
H        3.210695     0.426308    -4.279086
H        0.012054     1.183224    -5.950305
H        1.141458     2.274970    -5.149096
H        1.765431     0.980608    -6.212424
H       -3.210695    -0.426312    -4.279084
H       -2.453295     0.301027    -2.842181
H       -2.379802    -1.463810    -3.076602
H       -1.765429    -0.980625    -6.212420
H       -1.141454    -2.274976    -5.149081
H       -0.012051    -1.183236    -5.950298
45
ex_0144 frame11 trans-OC-6-1-reembed2
Ta       0.000000     0.000000     0.000000
Br       2.900000     0.000000     0.000000
Br      -2.900000     0.000000     0.000000
Br       0.000000     2.900000     0.000000
Br       0.000000    -2.900000     0.000000
C       -1.397557    -1.972943     3.587333
N       -0.779600    -0.887973     4.327501
C       -1.535451    -0.418874     5.480561
C        0.000000     0.000000     3.591233
O        0.000000     0.000000     2.360000
N        0.779600     0.887973     4.327501
C        1.397557     1.972942     3.587332
C        1.535458     0.418868     5.480554
H       -2.290678    -1.599690     3.076605
H       -0.701199    -2.370146     2.842180
H       -1.670051    -2.775110     4.279086
H       -1.090087     0.460299     5.950305
H       -2.541381    -0.140707     5.149096
H       -1.602727    -1.228660     6.212424
H        1.670055     2.775108     4.279084
H        0.701198     2.370147     2.842181
H        2.290677     1.599687     3.076602
H        1.602741     1.228652     6.212420
H        2.541385     0.140701     5.149081
H        1.090097    -0.460306     5.950298
C        2.366374     0.495924    -3.587333
N        1.125039     0.361332    -4.327501
C        0.995873     1.241492    -5.480561
C       -0.000000     0.000000    -3.591233
O        0.000000     0.000000    -2.360000
N       -1.125039    -0.361332    -4.327501
C       -2.366374    -0.495924    -3.587332
C       -0.995871    -1.241501    -5.480554
H        2.379805     1.463810    -3.076605
H        2.453295    -0.301025    -2.842180
H        3.210695     0.426308    -4.279086
H        0.012054     1.183224    -5.950305
H        1.141458     2.274970    -5.149096
H        1.765431     0.980608    -6.212424
H       -3.210695    -0.426312    -4.279084
H       -2.453295     0.301027    -2.842181
H       -2.379802    -1.463810    -3.076602
H       -1.765429    -0.980625    -6.212420
H       -1.141454    -2.274976    -5.149081
H       -0.012051    -1.183236    -5.950298
45
ex_0144 frame12 trans-OC-6-1-reembed3
Ta       0.000000     0.000000     0.000000
Br       2.900000     0.000000     0.000000
Br      -2.900000     0.000000     0.000000
Br       0.000000     2.900000     0.000000
Br       0.000000    -2.900000     0.000000
C       -1.009841     2.196791     3.587333
N       -0.379208     1.119140     4.327501
C        0.404970     1.539176     5.480561
C        0.000000    -0.000000     3.591233
O        0.000000     0.000000     2.360000
N        0.379207    -1.119140     4.327501
C        1.009840    -2.196791     3.587332
C       -0.404979    -1.539180     5.480554
H       -0.240033     2.783630     3.076605
H       -1.702007     1.792329     2.842180
H       -1.568290     2.833861     4.279086
H        0.943674     0.713893     5.950305
H        1.148835     2.271254     5.149096
H       -0.262687     2.002332     6.212424
H        1.568286    -2.833864     4.279084
H        1.702008    -1.792329     2.842181
H        0.240031    -2.783628     3.076602
H        0.262673    -2.002340     6.212420
H       -1.148842    -2.271254     5.149081
H       -0.943685    -0.713898     5.950298
C        2.366374     0.495924    -3.587333
N        1.125039     0.361332    -4.327501
C        0.995873     1.241492    -5.480561
C       -0.000000     0.000000    -3.591233
O        0.000000     0.000000    -2.360000
N       -1.125039    -0.361332    -4.327501
C       -2.366374    -0.495924    -3.587332
C       -0.995871    -1.241501    -5.480554
H        2.379805     1.463810    -3.076605
H        2.453295    -0.301025    -2.842180
H        3.210695     0.426308    -4.279086
H        0.012054     1.183224    -5.950305
H        1.141458     2.274970    -5.149096
H        1.765431     0.980608    -6.212424
H       -3.210695    -0.426312    -4.279084
H       -2.453295     0.301027    -2.842181
H       -2.379802    -1.463810    -3.076602
H       -1.765429    -0.980625    -6.212420
H       -1.141454    -2.274976    -5.149081
H       -0.012051    -1.183236    -5.950298
45
ex_0144 frame13 trans-OC-6-1-reembed4
Ta       0.000000     0.000000     0.000000
Br       2.900000     0.000000     0.000000
Br      -2.900000     0.000000     0.000000
Br       0.000000     2.900000     0.000000
Br       0.000000    -2.900000     0.000000
C        2.407397    -0.223848     3.587333
N        1.158807    -0.231166     4.327501
C        1.130481    -1.120303     5.480561
C       -0.000000     0.000000     3.591233
O        0.000000     0.000000     2.360000
N       -1.158807     0.231167     4.327501
C       -2.407397     0.223848     3.587332
C       -1.130479     1.120312     5.480554
H        2.530711    -1.183940     3.076605
H        2.403206     0.577817     2.842180
H        3.238341    -0.058752     4.279086
H        0.146413    -1.174192     5.950305
H        1.392546    -2.130547     5.149096
H        1.865414    -0.773672     6.212424
H       -3.238341     0.058756     4.279084
H       -2.403207    -0.577818     2.842181
H       -2.530708     1.183941     3.076602
H       -1.865414     0.773689     6.212420
H       -1.392543     2.130554     5.149081
H       -0.146411     1.174205     5.950298
C       -1.612670     1.801378    -3.587333
N       -0.875442     0.793646    -4.327501
C       -1.573100     0.241705    -5.480561
C       -0.000000    -0.000000    -3.591233
O        0.000000     0.000000    -2.360000
N        0.875442    -0.793646    -4.327501
C        1.612670    -1.801378    -3.587332
C        1.573106    -0.241699    -5.480554
H       -2.457599     1.329067    -3.076605
H       -0.965952     2.275128    -2.842180
H       -1.974541     2.567390    -4.279086
H       -1.030729    -0.581173    -5.950305
H       -2.540911    -0.148953    -5.149096
H       -1.731947     1.038604    -6.212424
H        1.974545    -2.567387    -4.279084
H        0.965951    -2.275129    -2.842181
H        2.457598    -1.329064    -3.076602
H        1.731961    -1.038594    -6.212420
H        2.540914     0.148960    -5.149081
H        1.030738     0.581181    -5.950298
45
ex_0144 frame14 trans-OC-6-1-reembed5
Ta       0.000000     0.000000     0.000000
Br       2.900000     0.000000     0.000000
Br      -2.900000     0.000000     0.000000
Br       0.000000     2.900000     0.000000
Br       0.000000    -2.900000     0.000000
C        2.407397    -0.223848     3.587333
N        1.158807    -0.231166     4.327501
C        1.130481    -1.120303     5.480561
C       -0.000000     0.000000     3.591233
O        0.000000     0.000000     2.360000
N       -1.158807     0.231167     4.327501
C       -2.407397     0.223848     3.587332
C       -1.130479     1.120312     5.480554
H        2.530711    -1.183940     3.076605
H        2.403206     0.577817     2.842180
H        3.238341    -0.058752     4.279086
H        0.146413    -1.174192     5.950305
H        1.392546    -2.130547     5.149096
H        1.865414    -0.773672     6.212424
H       -3.238341     0.058756     4.279084
H       -2.403207    -0.577818     2.842181
H       -2.530708     1.183941     3.076602
H       -1.865414     0.773689     6.212420
H       -1.392543     2.130554     5.149081
H       -0.146411     1.174205     5.950298
C       -0.753705    -2.297302    -3.587333
N       -0.249597    -1.154978    -4.327501
C        0.577227    -1.483197    -5.480561
C        0.000000    -0.000000    -3.591233
O        0.000000     0.000000    -2.360000
N        0.249596     1.154978    -4.327501
C        0.753704     2.297302    -3.587332
C       -0.577236     1.483199    -5.480554
H        0.077794    -2.792877    -3.076605
H       -1.487343    -1.974103    -2.842180
H       -1.236155    -2.993698    -4.279086
H        1.018675    -0.602051    -5.950305
H        1.399453    -2.126017    -5.149096
H       -0.033484    -2.019212    -6.212424
H        1.236150     2.993700    -4.279084
H        1.487344     1.974103    -2.842181
H       -0.077795     2.792874    -3.076602
H        0.033468     2.019219    -6.212420
H       -1.399460     2.126016    -5.149081
H       -1.018687     0.602055    -5.950298
45
ex_0144 frame15 trans-OC-6-1-reembed6
Ta       0.000000     0.000000     0.000000
Br       2.900000     0.000000     0.000000
Br      -2.900000     0.000000     0.000000
Br       0.000000     2.900000     0.000000
Br       0.000000    -2.900000     0.000000
C       -1.397557    -1.972943     3.587333
N       -0.779600    -0.887973     4.327501
C       -1.535451    -0.418874     5.480561
C        0.000000     0.000000     3.591233
O        0.000000     0.000000     2.360000
N        0.779600     0.887973     4.327501
C        1.397557     1.972942     3.587332
C        1.535458     0.418868     5.480554
H       -2.290678    -1.599690     3.076605
H       -0.701199    -2.370146     2.842180
H       -1.670051    -2.775110     4.279086
H       -1.090087     0.460299     5.950305
H       -2.541381    -0.140707     5.149096
H       -1.602727    -1.228660     6.212424
H        1.670055     2.775108     4.279084
H        0.701198     2.370147     2.842181
H        2.290677     1.599687     3.076602
H        1.602741     1.228652     6.212420
H        2.541385     0.140701     5.149081
H        1.090097    -0.460306     5.950298
C       -1.612670     1.801378    -3.587333
N       -0.875442     0.793646    -4.327501
C       -1.573100     0.241705    -5.480561
C       -0.000000    -0.000000    -3.591233
O        0.000000     0.000000    -2.360000
N        0.875442    -0.793646    -4.327501
C        1.612670    -1.801378    -3.587332
C        1.573106    -0.241699    -5.480554
H       -2.457599     1.329067    -3.076605
H       -0.965952     2.275128    -2.842180
H       -1.974541     2.567390    -4.279086
H       -1.030729    -0.581173    -5.950305
H       -2.540911    -0.148953    -5.149096
H       -1.731947     1.038604    -6.212424
H        1.974545    -2.567387    -4.279084
H        0.965951    -2.275129    -2.842181
H        2.457598    -1.329064    -3.076602
H        1.731961    -1.038594    -6.212420
H        2.540914     0.148960    -5.149081
H        1.030738     0.581181    -5.950298
45
ex_0144 frame16 cis-OC-6-2
Ta       0.000000     0.000000     0.000000
Br       2.900000     0.000000     0.000000
Br      -2.900000     0.000000     0.000000
Br       0.000000     2.900000     0.000000
C       -1.394027    -5.480553    -0.767966
N       -1.177818    -4.327501     0.094957
C       -2.376689    -3.587334     0.443871
C       -0.000000    -3.591233     0.000000
O        0.000000    -2.360000     0.000000
N        1.177818    -4.327501    -0.094957
C        1.394025    -5.480557     0.767962
C        2.376689    -3.587335    -0.443869
H       -1.922690    -5.149080    -1.667845
H       -2.005967    -6.212421    -0.233359
H       -0.462322    -5.950295    -1.089246
H       -3.130671    -4.279087     0.830178
H       -2.153156    -2.842179     1.213751
H       -2.758173    -3.076607    -0.445767
H        2.005965    -6.212424     0.233356
H        1.922687    -5.149086     1.667842
H        0.462318    -5.950298     1.089242
H        2.153157    -2.842178    -1.213747
H        2.758173    -3.076608     0.445769
H        3.130672    -4.279088    -0.830176
Br       0.000000     0.000000     2.900000
C       -1.390886     0.773642    -5.480553
N       -1.178196    -0.090155    -4.327501
C       -2.378478    -0.434180    -3.587334
C        0.000000    -0.000000    -3.591233
O        0.000000     0.000000    -2.360000
N        1.178195     0.090155    -4.327501
C        1.390883    -0.773638    -5.480557
C        2.378479     0.434177    -3.587335
H       -1.915876     1.675668    -5.149080
H       -2.004999     0.241533    -6.212421
H       -0.457878     1.091122    -5.950295
H       -3.134029    -0.817410    -4.279087
H       -2.158085    -1.204964    -2.842179
H       -2.756333     0.457005    -3.076607
H        2.004997    -0.241530    -6.212424
H        1.915873    -1.675666    -5.149086
H        0.457874    -1.091117    -5.950298
H        2.158087     1.204961    -2.842178
H        2.756333    -0.457008    -3.076608
H        3.134030     0.817408    -4.279088
45
ex_0144 frame17 cis-OC-6-2-conf2
Ta       0.000000     0.000000     0.000000
Br       2.900000     0.000000     0.000000
Br      -2.900000     0.000000     0.000000
Br       0.000000     2.900000     0.000000
C       -1.394027    -5.480553    -0.767966
N       -1.177818    -4.327501     0.094957
C       -2.376689    -3.587334     0.443871
C       -0.000000    -3.591233     0.000000
O        0.000000    -2.360000     0.000000
N        1.177818    -4.327501    -0.094957
C        1.394025    -5.480557     0.767962
C        2.376689    -3.587335    -0.443869
H       -1.922690    -5.149080    -1.667845
H       -2.005967    -6.212421    -0.233359
H       -0.462322    -5.950295    -1.089246
H       -3.130671    -4.279087     0.830178
H       -2.153156    -2.842179     1.213751
H       -2.758173    -3.076607    -0.445767
H        2.005965    -6.212424     0.233356
H        1.922687    -5.149086     1.667842
H        0.462318    -5.950298     1.089242
H        2.153157    -2.842178    -1.213747
H        2.758173    -3.076608     0.445769
H        3.130672    -4.279088    -0.830176
Br       0.000000     0.000000     2.900000
C       -2.310402     0.712536    -3.587333
N       -1.159254     0.228916    -4.327501
C       -1.472651    -0.603663    -5.480543
C        0.000000    -0.000000    -3.591233
O        0.000000     0.000000    -2.360000
N        1.159254    -0.228914    -4.327503
C        2.310408    -0.712518    -3.587334
C        1.472641     0.603651    -5.480558
H       -2.000360     1.451840    -2.842189
H       -3.015310     1.182456    -4.279087
H       -2.791035    -0.127680    -3.076593
H       -2.019511    -0.002648    -6.212409
H       -2.100661    -1.437246    -5.149055
H       -0.583758    -1.029292    -5.950291
H        3.015319    -1.182439    -4.279085
H        2.000376    -1.451818    -2.842180
H        2.791037     0.127707    -3.076603
H        2.100647     1.437242    -5.149084
H        2.019502     0.002630    -6.212419
H        0.583744     1.029270    -5.950308
45
ex_0144 frame18 cis-OC-6-2-conf3
Ta       0.000000     0.000000     0.000000
Br       2.900000     0.000000     0.000000
Br      -2.900000     0.000000     0.000000
Br       0.000000     2.900000     0.000000
C       -2.360285    -3.587333    -0.524136
N       -1.173925    -4.327501    -0.134803
C       -1.419246    -5.480543     0.720313
C        0.000000    -3.591233     0.000000
O        0.000000    -2.360000     0.000000
N        1.173925    -4.327503     0.134801
C        2.360290    -3.587334     0.524118
C        1.419237    -5.480558    -0.720300
H       -2.110796    -2.842189    -1.286010
H       -3.100752    -4.279087    -0.935755
H       -2.771684    -3.076593     0.352062
H       -2.012736    -6.212409     0.165295
H       -1.978077    -5.149055     1.601769
H       -0.498960    -5.950291     1.072965
H        3.100759    -4.279085     0.935737
H        2.110809    -2.842180     1.285986
H        2.771683    -3.076603    -0.352089
H        1.978064    -5.149084    -1.601763
H        2.012729    -6.212419    -0.165277
H        0.498948    -5.950308    -1.072942
Br       0.000000     0.000000     2.900000
C       -1.390886     0.773642    -5.480553
N       -1.178196    -0.090155    -4.327501
C       -2.378478    -0.434180    -3.587334
C        0.000000    -0.000000    -3.591233
O        0.000000     0.000000    -2.360000
N        1.178195     0.090155    -4.327501
C        1.390883    -0.773638    -5.480557
C        2.378479     0.434177    -3.587335
H       -1.915876     1.675668    -5.149080
H       -2.004999     0.241533    -6.212421
H       -0.457878     1.091122    -5.950295
H       -3.134029    -0.817410    -4.279087
H       -2.158085    -1.204964    -2.842179
H       -2.756333     0.457005    -3.076607
H        2.004997    -0.241530    -6.212424
H        1.915873    -1.675666    -5.149086
H        0.457874    -1.091117    -5.950298
H        2.158087     1.204961    -2.842178
H        2.756333    -0.457008    -3.076608
H        3.134030     0.817408    -4.279088
45
ex_0144 frame19 cis-OC-6-2-conf4
Ta       0.000000     0.000000     0.000000
Br       2.900000     0.000000     0.000000
Br      -2.900000     0.000000     0.000000
Br       0.000000     2.900000     0.000000
C       -1.394027    -5.480553    -0.767966
N       -1.177818    -4.327501     0.094957
C       -2.376689    -3.587334     0.443871
C       -0.000000    -3.591233     0.000000
O        0.000000    -2.360000     0.000000
N        1.177818    -4.327501    -0.094957
C        1.394025    -5.480557     0.767962
C        2.376689    -3.587335    -0.443869
H       -1.922690    -5.149080    -1.667845
H       -2.005967    -6.212421    -0.233359
H       -0.462322    -5.950295    -1.089246
H       -3.130671    -4.279087     0.830178
H       -2.153156    -2.842179     1.213751
H       -2.758173    -3.076607    -0.445767
H        2.005965    -6.212424     0.233356
H        1.922687    -5.149086     1.667842
H        0.462318    -5.950298     1.089242
H        2.153157    -2.842178    -1.213747
H        2.758173    -3.076608     0.445769
H        3.130672    -4.279088    -0.830176
Br       0.000000     0.000000     2.900000
C        1.472909    -0.603006    -5.480555
N        1.159154     0.229422    -4.327501
C        2.310094     0.713536    -3.587333
C       -0.000000     0.000000    -3.591233
O        0.000000     0.000000    -2.360000
N       -1.159154    -0.229421    -4.327501
C       -2.310094    -0.713535    -3.587333
C       -1.472909     0.603008    -5.480554
H        0.584201    -1.029027    -5.950299
H        2.019494    -0.001739    -6.212421
H        2.101294    -1.436312    -5.149083
H        2.791095    -0.126478    -3.076604
H        3.014796     1.183769    -4.279085
H        1.999736     1.452697    -2.842179
H       -3.014796    -1.183768    -4.279085
H       -2.791094     0.126478    -3.076604
H       -1.999736    -1.452696    -2.842178
H       -2.019495     0.001742    -6.212420
H       -2.101294     1.436315    -5.149081
H       -0.584201     1.029029    -5.950298
45
ex_0144 frame20 cis-OC-6-2-conf5
Ta       0.000000     0.000000     0.000000
Br       2.900000     0.000000     0.000000
Br      -2.900000     0.000000     0.000000
Br       0.000000     2.900000     0.000000
C       -2.360285    -3.587333    -0.524136
N       -1.173925    -4.327501    -0.134803
C       -1.419246    -5.480543     0.720313
C        0.000000    -3.591233     0.000000
O        0.000000    -2.360000     0.000000
N        1.173925    -4.327503     0.134801
C        2.360290    -3.587334     0.524118
C        1.419237    -5.480558    -0.720300
H       -2.110796    -2.842189    -1.286010
H       -3.100752    -4.279087    -0.935755
H       -2.771684    -3.076593     0.352062
H       -2.012736    -6.212409     0.165295
H       -1.978077    -5.149055     1.601769
H       -0.498960    -5.950291     1.072965
H        3.100759    -4.279085     0.935737
H        2.110809    -2.842180     1.285986
H        2.771683    -3.076603    -0.352089
H        1.978064    -5.149084    -1.601763
H        2.012729    -6.212419    -0.165277
H        0.498948    -5.950308    -1.072942
Br       0.000000     0.000000     2.900000
C       -2.310402     0.712536    -3.587333
N       -1.159254     0.228916    -4.327501
C       -1.472651    -0.603663    -5.480543
C        0.000000    -0.000000    -3.591233
O        0.000000     0.000000    -2.360000
N        1.159254    -0.228914    -4.327503
C        2.310408    -0.712518    -3.587334
C        1.472641     0.603651    -5.480558
H       -2.000360     1.451840    -2.842189
H       -3.015310     1.182456    -4.279087
H       -2.791035    -0.127680    -3.076593
H       -2.019511    -0.002648    -6.212409
H       -2.100661    -1.437246    -5.149055
H       -0.583758    -1.029292    -5.950291
H        3.015319    -1.182439    -4.279085
H        2.000376    -1.451818    -2.842180
H        2.791037     0.127707    -3.076603
H        2.100647     1.437242    -5.149084
H        2.019502     0.002630    -6.212419
H        0.583744     1.029270    -5.950308
45
ex_0144 frame21 cis-OC-6-2-conf6
Ta       0.000000     0.000000     0.000000
Br       2.900000     0.000000     0.000000
Br      -2.900000     0.000000     0.000000
Br       0.000000     2.900000     0.000000
C        1.537781    -5.480555     0.410253
N        1.120434    -4.327501    -0.375368
C        2.200241    -3.587333    -1.002301
C       -0.000000    -3.591233    -0.000000
O        0.000000    -2.360000     0.000000
N       -1.120434    -4.327501     0.375367
C       -2.200241    -3.587333     1.002300
C       -1.537781    -5.480554    -0.410255
H        0.710657    -5.950299     0.946127
H        2.003228    -6.212421    -0.255808
H        2.267301    -5.149083     1.156622
H        2.784436    -3.076604    -0.230485
H        2.839224    -4.279085    -1.558561
H        1.798156    -2.842179    -1.695850
H       -2.839224    -4.279085     1.558560
H       -2.784435    -3.076604     0.230484
H       -1.798156    -2.842178     1.695848
H       -2.003229    -6.212420     0.255805
H       -2.267301    -5.149081    -1.156624
H       -0.710657    -5.950298    -0.946128
Br       0.000000     0.000000     2.900000
C       -1.390886     0.773642    -5.480553
N       -1.178196    -0.090155    -4.327501
C       -2.378478    -0.434180    -3.587334
C        0.000000    -0.000000    -3.591233
O        0.000000     0.000000    -2.360000
N        1.178195     0.090155    -4.327501
C        1.390883    -0.773638    -5.480557
C        2.378479     0.434177    -3.587335
H       -1.915876     1.675668    -5.149080
H       -2.004999     0.241533    -6.212421
H       -0.457878     1.091122    -5.950295
H       -3.134029    -0.817410    -4.279087
H       -2.158085    -1.204964    -2.842179
H       -2.756333     0.457005    -3.076607
H        2.004997    -0.241530    -6.212424
H        1.915873    -1.675666    -5.149086
H        0.457874    -1.091117    -5.950298
H        2.158087     1.204961    -2.842178
H        2.756333    -0.457008    -3.076608
H        3.134030     0.817408    -4.279088
45
ex_0144 frame22 cis-OC-6-2-conf7
Ta       0.000000     0.000000     0.000000
Br       2.900000     0.000000     0.000000
Br      -2.900000     0.000000     0.000000
Br       0.000000     2.900000     0.000000
C       -1.394027    -5.480553    -0.767966
N       -1.177818    -4.327501     0.094957
C       -2.376689    -3.587334     0.443871
C       -0.000000    -3.591233     0.000000
O        0.000000    -2.360000     0.000000
N        1.177818    -4.327501    -0.094957
C        1.394025    -5.480557     0.767962
C        2.376689    -3.587335    -0.443869
H       -1.922690    -5.149080    -1.667845
H       -2.005967    -6.212421    -0.233359
H       -0.462322    -5.950295    -1.089246
H       -3.130671    -4.279087     0.830178
H       -2.153156    -2.842179     1.213751
H       -2.758173    -3.076607    -0.445767
H        2.005965    -6.212424     0.233356
H        1.922687    -5.149086     1.667842
H        0.462318    -5.950298     1.089242
H        2.153157    -2.842178    -1.213747
H        2.758173    -3.076608     0.445769
H        3.130672    -4.279088    -0.830176
Br       0.000000     0.000000     2.900000
C        2.415533    -0.104270    -3.587333
N        1.179439     0.072090    -4.327501
C        1.271796     0.956878    -5.480554
C        0.000000    -0.000000    -3.591233
O        0.000000     0.000000    -2.360000
N       -1.179439    -0.072090    -4.327501
C       -2.415533     0.104270    -3.587334
C       -1.271796    -0.956877    -5.480555
H        3.216459    -0.380389    -4.279085
H        2.302802    -0.897979    -2.842179
H        2.667745     0.830274    -3.076605
H        0.304094     1.143555    -5.950298
H        1.953014     0.513911    -6.212420
H        1.668269     1.922318    -5.149080
H       -3.216458     0.380390    -4.279086
H       -2.302803     0.897977    -2.842177
H       -2.667747    -0.830275    -3.076608
H       -1.668274    -1.922316    -5.149084
H       -1.953010    -0.513907    -6.212422
H       -0.304094    -1.143555    -5.950298
45
ex_0144 frame23 cis-OC-6-2-conf8
Ta       0.000000     0.000000     0.000000
Br       2.900000     0.000000     0.000000
Br      -2.900000     0.000000     0.000000
Br       0.000000     2.900000     0.000000
C       -2.360285    -3.587333    -0.524136
N       -1.173925    -4.327501    -0.134803
C       -1.419246    -5.480543     0.720313
C        0.000000    -3.591233     0.000000
O        0.000000    -2.360000     0.000000
N        1.173925    -4.327503     0.134801
C        2.360290    -3.587334     0.524118
C        1.419237    -5.480558    -0.720300
H       -2.110796    -2.842189    -1.286010
H       -3.100752    -4.279087    -0.935755
H       -2.771684    -3.076593     0.352062
H       -2.012736    -6.212409     0.165295
H       -1.978077    -5.149055     1.601769
H       -0.498960    -5.950291     1.072965
H        3.100759    -4.279085     0.935737
H        2.110809    -2.842180     1.285986
H        2.771683    -3.076603    -0.352089
H        1.978064    -5.149084    -1.601763
H        2.012729    -6.212419    -0.165277
H        0.498948    -5.950308    -1.072942
Br       0.000000     0.000000     2.900000
C        1.472909    -0.603006    -5.480555
N        1.159154     0.229422    -4.327501
C        2.310094     0.713536    -3.587333
C       -0.000000     0.000000    -3.591233
O        0.000000     0.000000    -2.360000
N       -1.159154    -0.229421    -4.327501
C       -2.310094    -0.713535    -3.587333
C       -1.472909     0.603008    -5.480554
H        0.584201    -1.029027    -5.950299
H        2.019494    -0.001739    -6.212421
H        2.101294    -1.436312    -5.149083
H        2.791095    -0.126478    -3.076604
H        3.014796     1.183769    -4.279085
H        1.999736     1.452697    -2.842179
H       -3.014796    -1.183768    -4.279085
H       -2.791094     0.126478    -3.076604
H       -1.999736    -1.452696    -2.842178
H       -2.019495     0.001742    -6.212420
H       -2.101294     1.436315    -5.149081
H       -0.584201     1.029029    -5.950298
45
ex_0144 frame24 cis-OC-6-2-conf9
Ta       0.000000     0.000000     0.000000
Br       2.900000     0.000000     0.000000
Br      -2.900000     0.000000     0.000000
Br       0.000000     2.900000     0.000000
C        1.537781    -5.480555     0.410253
N        1.120434    -4.327501    -0.375368
C        2.200241    -3.587333    -1.002301
C       -0.000000    -3.591233    -0.000000
O        0.000000    -2.360000     0.000000
N       -1.120434    -4.327501     0.375367
C       -2.200241    -3.587333     1.002300
C       -1.537781    -5.480554    -0.410255
H        0.710657    -5.950299     0.946127
H        2.003228    -6.212421    -0.255808
H        2.267301    -5.149083     1.156622
H        2.784436    -3.076604    -0.230485
H        2.839224    -4.279085    -1.558561
H        1.798156    -2.842179    -1.695850
H       -2.839224    -4.279085     1.558560
H       -2.784435    -3.076604     0.230484
H       -1.798156    -2.842178     1.695848
H       -2.003229    -6.212420     0.255805
H       -2.267301    -5.149081    -1.156624
H       -0.710657    -5.950298    -0.946128
Br       0.000000     0.000000     2.900000
C       -2.310402     0.712536    -3.587333
N       -1.159254     0.228916    -4.327501
C       -1.472651    -0.603663    -5.480543
C        0.000000    -0.000000    -3.591233
O        0.000000     0.000000    -2.360000
N        1.159254    -0.228914    -4.327503
C        2.310408    -0.712518    -3.587334
C        1.472641     0.603651    -5.480558
H       -2.000360     1.451840    -2.842189
H       -3.015310     1.182456    -4.279087
H       -2.791035    -0.127680    -3.076593
H       -2.019511    -0.002648    -6.212409
H       -2.100661    -1.437246    -5.149055
H       -0.583758    -1.029292    -5.950291
H        3.015319    -1.182439    -4.279085
H        2.000376    -1.451818    -2.842180
H        2.791037     0.127707    -3.076603
H        2.100647     1.437242    -5.149084
H        2.019502     0.002630    -6.212419
H        0.583744     1.029270    -5.950308
45
ex_0144 frame25 cis-OC-6-2-conf10
Ta       0.000000     0.000000     0.000000
Br       2.900000     0.000000     0.000000
Br      -2.900000     0.000000     0.000000
Br       0.000000     2.900000     0.000000
C        2.338127    -3.587333     0.615493
N        1.167797    -4.327501     0.180339
C        1.446173    -5.480554    -0.664580
C       -0.000000    -3.591233     0.000000
O        0.000000    -2.360000     0.000000
N       -1.167797    -4.327501    -0.180339
C       -2.338127    -3.587334    -0.615493
C       -1.446172    -5.480555     0.664578
H        3.062029    -4.279085     1.055596
H        2.059211    -2.842179     1.367083
H        2.783282    -3.076605    -0.244054
H        0.540291    -5.950298    -1.052747
H        2.017627    -6.212420    -0.086897
H        2.038858    -5.149080    -1.523643
H       -3.062028    -4.279086    -1.055597
H       -2.059212    -2.842177    -1.367081
H       -2.783284    -3.076608     0.244055
H       -2.038862    -5.149084     1.523639
H       -2.017622    -6.212422     0.086893
H       -0.540290    -5.950298     1.052748
Br       0.000000     0.000000     2.900000
C       -1.390886     0.773642    -5.480553
N       -1.178196    -0.090155    -4.327501
C       -2.378478    -0.434180    -3.587334
C        0.000000    -0.000000    -3.591233
O        0.000000     0.000000    -2.360000
N        1.178195     0.090155    -4.327501
C        1.390883    -0.773638    -5.480557
C        2.378479     0.434177    -3.587335
H       -1.915876     1.675668    -5.149080
H       -2.004999     0.241533    -6.212421
H       -0.457878     1.091122    -5.950295
H       -3.134029    -0.817410    -4.279087
H       -2.158085    -1.204964    -2.842179
H       -2.756333     0.457005    -3.076607
H        2.004997    -0.241530    -6.212424
H        1.915873    -1.675666    -5.149086
H        0.457874    -1.091117    -5.950298
H        2.158087     1.204961    -2.842178
H        2.756333    -0.457008    -3.076608
H        3.134030     0.817408    -4.279088
45
ex_0144 frame26 cis-OC-6-2-reembed1
Ta       0.000000     0.000000     0.000000
Br       2.900000     0.000000     0.000000
Br      -2.900000     0.000000     0.000000
Br       0.000000     2.900000     0.000000
C        2.381894    -3.587333    -0.415029
N        1.136694    -4.327501    -0.322799
C        1.037584    -5.480561    -1.206849
C       -0.000000    -3.591233    -0.000000
O        0.000000    -2.360000     0.000000
N       -1.136694    -4.327501     0.322800
C       -2.381894    -3.587332     0.415030
C       -1.037582    -5.480554     1.206857
H        2.428287    -3.076605    -1.381896
H        2.441617    -2.842180     0.384419
H        3.223354    -4.279086    -0.316693
H        0.052352    -5.950305    -1.182127
H        1.218289    -5.149096    -2.234768
H        1.797809    -6.212424    -0.919902
H       -3.223354    -4.279084     0.316697
H       -2.441618    -2.842181    -0.384420
H       -2.428284    -3.076602     1.381896
H       -1.797808    -6.212420     0.919919
H       -1.218285    -5.149081     2.234774
H       -0.052350    -5.950298     1.182139
Br       0.000000     0.000000     2.900000
C        2.366374     0.495924    -3.587333
N        1.125039     0.361332    -4.327501
C        0.995873     1.241492    -5.480561
C       -0.000000     0.000000    -3.591233
O        0.000000     0.000000    -2.360000
N       -1.125039    -0.361332    -4.327501
C       -2.366374    -0.495924    -3.587332
C       -0.995871    -1.241501    -5.480554
H        2.379805     1.463810    -3.076605
H        2.453295    -0.301025    -2.842180
H        3.210695     0.426308    -4.279086
H        0.012054     1.183224    -5.950305
H        1.141458     2.274970    -5.149096
H        1.765431     0.980608    -6.212424
H       -3.210695    -0.426312    -4.279084
H       -2.453295     0.301027    -2.842181
H       -2.379802    -1.463810    -3.076602
H       -1.765429    -0.980625    -6.212420
H       -1.141454    -2.274976    -5.149081
H       -0.012051    -1.183236    -5.950298
45
ex_0144 frame27 cis-OC-6-2-reembed2
Ta       0.000000     0.000000     0.000000
Br       2.900000     0.000000     0.000000
Br      -2.900000     0.000000     0.000000
Br       0.000000     2.900000     0.000000
C       -1.550373    -3.587333    -1.855266
N       -0.847899    -4.327501    -0.823006
C       -1.563954    -5.480561    -0.295150
C       -0.000000    -3.591233     0.000000
O        0.000000    -2.360000     0.000000
N        0.847900    -4.327501     0.823006
C        1.550373    -3.587332     1.855266
C        1.563960    -5.480554     0.295144
H       -2.410900    -3.076605    -1.412010
H       -0.887892    -2.842180    -2.306712
H       -1.885941    -4.279086    -2.633160
H       -1.049928    -5.950305     0.545725
H       -2.544510    -5.149096     0.062314
H       -1.695563    -6.212424    -1.096997
H        1.885945    -4.279084     2.633157
H        0.887892    -2.842181     2.306713
H        2.410899    -3.076602     1.412007
H        1.695577    -6.212420     1.096988
H        2.544514    -5.149081    -0.062321
H        1.049937    -5.950298    -0.545733
Br       0.000000     0.000000     2.900000
C        2.366374     0.495924    -3.587333
N        1.125039     0.361332    -4.327501
C        0.995873     1.241492    -5.480561
C       -0.000000     0.000000    -3.591233
O        0.000000     0.000000    -2.360000
N       -1.125039    -0.361332    -4.327501
C       -2.366374    -0.495924    -3.587332
C       -0.995871    -1.241501    -5.480554
H        2.379805     1.463810    -3.076605
H        2.453295    -0.301025    -2.842180
H        3.210695     0.426308    -4.279086
H        0.012054     1.183224    -5.950305
H        1.141458     2.274970    -5.149096
H        1.765431     0.980608    -6.212424
H       -3.210695    -0.426312    -4.279084
H       -2.453295     0.301027    -2.842181
H       -2.379802    -1.463810    -3.076602
H       -1.765429    -0.980625    -6.212420
H       -1.141454    -2.274976    -5.149081
H       -0.012051    -1.183236    -5.950298
45
ex_0144 frame28 cis-OC-6-2-reembed3
Ta       0.000000     0.000000     0.000000
Br       2.900000     0.000000     0.000000
Br      -2.900000     0.000000     0.000000
Br       0.000000     2.900000     0.000000
C       -0.831521    -3.587333     2.270295
N       -0.288794    -4.327501     1.145805
C        0.526369    -5.480561     1.501999
C        0.000000    -3.591233    -0.000000
O        0.000000    -2.360000     0.000000
N        0.288794    -4.327501    -1.145806
C        0.831521    -3.587332    -2.270295
C       -0.526378    -5.480554    -1.502001
H       -0.017386    -3.076605     2.793906
H       -1.553725    -2.842180     1.922293
H       -1.337413    -4.279086     2.949853
H        0.997576    -5.950305     0.636402
H        1.326221    -5.149096     2.172453
H       -0.102246    -6.212424     2.016900
H        1.337409    -4.279084    -2.949855
H        1.553726    -2.842181    -1.922293
H        0.017385    -3.076602    -2.793903
H        0.102231    -6.212420    -2.016907
H       -1.326228    -5.149081    -2.172453
H       -0.997587    -5.950298    -0.636405
Br       0.000000     0.000000     2.900000
C        2.366374     0.495924    -3.587333
N        1.125039     0.361332    -4.327501
C        0.995873     1.241492    -5.480561
C       -0.000000     0.000000    -3.591233
O        0.000000     0.000000    -2.360000
N       -1.125039    -0.361332    -4.327501
C       -2.366374    -0.495924    -3.587332
C       -0.995871    -1.241501    -5.480554
H        2.379805     1.463810    -3.076605
H        2.453295    -0.301025    -2.842180
H        3.210695     0.426308    -4.279086
H        0.012054     1.183224    -5.950305
H        1.141458     2.274970    -5.149096
H        1.765431     0.980608    -6.212424
H       -3.210695    -0.426312    -4.279084
H       -2.453295     0.301027    -2.842181
H       -2.379802    -1.463810    -3.076602
H       -1.765429    -0.980625    -6.212420
H       -1.141454    -2.274976    -5.149081
H       -0.012051    -1.183236    -5.950298
45
ex_0144 frame29 cis-OC-6-2-reembed4
Ta       0.000000     0.000000     0.000000
Br       2.900000     0.000000     0.000000
Br      -2.900000     0.000000     0.000000
Br       0.000000     2.900000     0.000000
C        2.381894    -3.587333    -0.415029
N        1.136694    -4.327501    -0.322799
C        1.037584    -5.480561    -1.206849
C       -0.000000    -3.591233    -0.000000
O        0.000000    -2.360000     0.000000
N       -1.136694    -4.327501     0.322800
C       -2.381894    -3.587332     0.415030
C       -1.037582    -5.480554     1.206857
H        2.428287    -3.076605    -1.381896
H        2.441617    -2.842180     0.384419
H        3.223354    -4.279086    -0.316693
H        0.052352    -5.950305    -1.182127
H        1.218289    -5.149096    -2.234768
H        1.797809    -6.212424    -0.919902
H       -3.223354    -4.279084     0.316697
H       -2.441618    -2.842181    -0.384420
H       -2.428284    -3.076602     1.381896
H       -1.797808    -6.212420     0.919919
H       -1.218285    -5.149081     2.234774
H       -0.052350    -5.950298     1.182139
Br       0.000000     0.000000     2.900000
C       -1.612670     1.801378    -3.587333
N       -0.875442     0.793646    -4.327501
C       -1.573100     0.241705    -5.480561
C       -0.000000    -0.000000    -3.591233
O        0.000000     0.000000    -2.360000
N        0.875442    -0.793646    -4.327501
C        1.612670    -1.801378    -3.587332
C        1.573106    -0.241699    -5.480554
H       -2.457599     1.329067    -3.076605
H       -0.965952     2.275128    -2.842180
H       -1.974541     2.567390    -4.279086
H       -1.030729    -0.581173    -5.950305
H       -2.540911    -0.148953    -5.149096
H       -1.731947     1.038604    -6.212424
H        1.974545    -2.567387    -4.279084
H        0.965951    -2.275129    -2.842181
H        2.457598    -1.329064    -3.076602
H        1.731961    -1.038594    -6.212420
H        2.540914     0.148960    -5.149081
H        1.030738     0.581181    -5.950298
45
ex_0144 frame30 cis-OC-6-2-reembed5
Ta       0.000000     0.000000     0.000000
Br       2.900000     0.000000     0.000000
Br      -2.900000     0.000000     0.000000
Br       0.000000     2.900000     0.000000
C        2.381894    -3.587333    -0.415029
N        1.136694    -4.327501    -0.322799
C        1.037584    -5.480561    -1.206849
C       -0.000000    -3.591233    -0.000000
O        0.000000    -2.360000     0.000000
N       -1.136694    -4.327501     0.322800
C       -2.381894    -3.587332     0.415030
C       -1.037582    -5.480554     1.206857
H        2.428287    -3.076605    -1.381896
H        2.441617    -2.842180     0.384419
H        3.223354    -4.279086    -0.316693
H        0.052352    -5.950305    -1.182127
H        1.218289    -5.149096    -2.234768
H        1.797809    -6.212424    -0.919902
H       -3.223354    -4.279084     0.316697
H       -2.441618    -2.842181    -0.384420
H       -2.428284    -3.076602     1.381896
H       -1.797808    -6.212420     0.919919
H       -1.218285    -5.149081     2.234774
H       -0.052350    -5.950298     1.182139
Br       0.000000     0.000000     2.900000
C       -0.753705    -2.297302    -3.587333
N       -0.249597    -1.154978    -4.327501
C        0.577227    -1.483197    -5.480561
C        0.000000    -0.000000    -3.591233
O        0.000000     0.000000    -2.360000
N        0.249596     1.154978    -4.327501
C        0.753704     2.297302    -3.587332
C       -0.577236     1.483199    -5.480554
H        0.077794    -2.792877    -3.076605
H       -1.487343    -1.974103    -2.842180
H       -1.236155    -2.993698    -4.279086
H        1.018675    -0.602051    -5.950305
H        1.399453    -2.126017    -5.149096
H       -0.033484    -2.019212    -6.212424
H        1.236150     2.993700    -4.279084
H        1.487344     1.974103    -2.842181
H       -0.077795     2.792874    -3.076602
H        0.033468     2.019219    -6.212420
H       -1.399460     2.126016    -5.149081
H       -1.018687     0.602055    -5.950298
45
ex_0144 frame31 cis-OC-6-2-reembed6
Ta       0.000000     0.000000     0.000000
Br       2.900000     0.000000     0.000000
Br      -2.900000     0.000000     0.000000
Br       0.000000     2.900000     0.000000
C       -1.550373    -3.587333    -1.855266
N       -0.847899    -4.327501    -0.823006
C       -1.563954    -5.480561    -0.295150
C       -0.000000    -3.591233     0.000000
O        0.000000    -2.360000     0.000000
N        0.847900    -4.327501     0.823006
C        1.550373    -3.587332     1.855266
C        1.563960    -5.480554     0.295144
H       -2.410900    -3.076605    -1.412010
H       -0.887892    -2.842180    -2.306712
H       -1.885941    -4.279086    -2.633160
H       -1.049928    -5.950305     0.545725
H       -2.544510    -5.149096     0.062314
H       -1.695563    -6.212424    -1.096997
H        1.885945    -4.279084     2.633157
H        0.887892    -2.842181     2.306713
H        2.410899    -3.076602     1.412007
H        1.695577    -6.212420     1.096988
H        2.544514    -5.149081    -0.062321
H        1.049937    -5.950298    -0.545733
Br       0.000000     0.000000     2.900000
C       -1.612670     1.801378    -3.587333
N       -0.875442     0.793646    -4.327501
C       -1.573100     0.241705    -5.480561
C       -0.000000    -0.000000    -3.591233
O        0.000000     0.000000    -2.360000
N        0.875442    -0.793646    -4.327501
C        1.612670    -1.801378    -3.587332
C        1.573106    -0.241699    -5.480554
H       -2.457599     1.329067    -3.076605
H       -0.965952     2.275128    -2.842180
H       -1.974541     2.567390    -4.279086
H       -1.030729    -0.581173    -5.950305
H       -2.540911    -0.148953    -5.149096
H       -1.731947     1.038604    -6.212424
H        1.974545    -2.567387    -4.279084
H        0.965951    -2.275129    -2.842181
H        2.457598    -1.329064    -3.076602
H        1.731961    -1.038594    -6.212420
H        2.540914     0.148960    -5.149081
H        1.030738     0.581181    -5.950298
45
ex_0144 frame32 TPR-6-1
Ta       0.000000     0.000000     0.000000
Br       2.375773     0.000000     1.663041
Br      -1.187886     2.057479     1.663041
Br      -1.187886    -2.057479     1.663041
Br       2.375773     0.000000    -1.663041
C       -1.057612     3.727080    -4.190450
N       -0.695116     3.424744    -2.812735
C        0.730034     3.426863    -2.537380
C       -1.471026     2.547893    -2.059437
O       -0.966694     1.674363    -1.353371
N       -2.850111     2.715769    -2.150584
C       -3.432232     4.049559    -2.095337
C       -3.668893     1.663392    -1.577020
H       -0.532393     3.029220    -4.850964
H       -0.749083     4.750648    -4.420718
H       -2.126974     3.617532    -4.381285
H        1.168974     4.359327    -2.903558
H        0.909509     3.350722    -1.460381
H        1.196245     2.572115    -3.037262
H       -4.340331     4.064475    -2.704465
H       -3.685898     4.277077    -1.054650
H       -2.747696     4.825648    -2.443262
H       -3.237914     0.682194    -1.799381
H       -3.716700     1.793443    -0.491374
H       -4.674540     1.712491    -2.004231
C        0.552985    -2.644855    -3.378399
N       -0.744825    -3.205186    -3.048860
C       -0.848625    -4.650172    -3.197706
C       -1.471026    -2.547893    -2.059437
O       -0.966694    -1.674363    -1.353371
N       -2.800402    -2.935326    -1.914458
C       -3.587403    -2.195621    -0.944743
C       -3.546768    -3.439613    -3.058810
H        0.502195    -1.551660    -3.395204
H        1.283102    -2.955749    -2.624673
H        0.861076    -2.999361    -4.366149
H       -1.494279    -4.945660    -4.027026
H        0.152614    -5.062703    -3.350165
H       -1.279864    -5.065626    -2.280878
H       -3.276641    -1.146376    -0.923486
H       -3.438987    -2.628157     0.048801
H       -4.644953    -2.248124    -1.221620
H       -3.085463    -3.179954    -4.013655
H       -3.627720    -4.527091    -2.976703
H       -4.547912    -2.996125    -3.045746
45
ex_0144 frame33 TPR-6-2
Ta       0.000000     0.000000     0.000000
Br       2.375773     0.000000     1.663041
Br      -1.187886     2.057479     1.663041
C       -3.513612    -3.931806     2.182882
N       -2.847450    -2.638410     2.248190
C       -3.639303    -1.514795     1.781995
C       -1.471026    -2.547893     2.059437
O       -0.966694    -1.674363     1.353371
N       -0.697777    -3.502103     2.715128
C       -0.976236    -3.844836     4.102899
C        0.700444    -3.575457     2.332409
H       -3.856580    -4.096559     1.156056
H       -4.373734    -3.920969     2.858143
H       -2.854819    -4.761766     2.445773
H       -4.611990    -1.524058     2.282033
H       -3.133176    -0.571721     2.010870
H       -3.774622    -1.592407     0.698717
H       -0.715682    -4.894157     4.267035
H       -0.361715    -3.209741     4.749552
H       -2.019858    -3.681417     4.378765
H        0.804774    -3.461191     1.248898
H        1.254167    -2.773148     2.829922
H        1.106426    -4.547757     2.625760
Br       2.375773     0.000000    -1.663041
Br      -1.187886     2.057479    -1.663041
C        0.302315    -4.069061    -1.437351
N       -0.844636    -3.772273    -2.275980
C       -0.794829    -4.344547    -3.614238
C       -1.471026    -2.547892    -2.059437
O       -0.966694    -1.674363    -1.353371
N       -2.700591    -2.368240    -2.687338
C       -3.241173    -1.021190    -2.677051
C       -3.695015    -3.432093    -2.671547
H        0.482939    -5.147773    -1.438081
H        0.116597    -3.742470    -0.409351
H        1.179849    -3.542392    -1.825141
H       -1.622953    -4.017732    -4.246185
H       -0.806381    -5.435044    -3.533070
H        0.134070    -4.023366    -4.097073
H       -3.988501    -0.924041    -3.469709
H       -2.445001    -0.290442    -2.850412
H       -3.700305    -0.823163    -1.703495
H       -4.352365    -3.282927    -1.808539
H       -4.283028    -3.380080    -3.592112
H       -3.251720    -4.425451    -2.578358
45
ex_0144 frame34 TPR-6-3
Ta       0.000000     0.000000     0.000000
Br       2.375773     0.000000     1.663041
Br      -1.187886     2.057479     1.663041
C       -3.513612    -3.931806     2.182882
N       -2.847450    -2.638410     2.248190
C       -3.639303    -1.514795     1.781995
C       -1.471026    -2.547893     2.059437
O       -0.966694    -1.674363     1.353371
N       -0.697777    -3.502103     2.715128
C       -0.976236    -3.844836     4.102899
C        0.700444    -3.575457     2.332409
H       -3.856580    -4.096559     1.156056
H       -4.373734    -3.920969     2.858143
H       -2.854819    -4.761766     2.445773
H       -4.611990    -1.524058     2.282033
H       -3.133176    -0.571721     2.010870
H       -3.774622    -1.592407     0.698717
H       -0.715682    -4.894157     4.267035
H       -0.361715    -3.209741     4.749552
H       -2.019858    -3.681417     4.378765
H        0.804774    -3.461191     1.248898
H        1.254167    -2.773148     2.829922
H        1.106426    -4.547757     2.625760
Br       2.375773     0.000000    -1.663041
C       -1.057612     3.727080    -4.190450
N       -0.695116     3.424744    -2.812735
C        0.730034     3.426863    -2.537380
C       -1.471026     2.547893    -2.059437
O       -0.966694     1.674363    -1.353371
N       -2.850111     2.715769    -2.150584
C       -3.432232     4.049559    -2.095337
C       -3.668893     1.663392    -1.577020
H       -0.532393     3.029220    -4.850964
H       -0.749083     4.750648    -4.420718
H       -2.126974     3.617532    -4.381285
H        1.168974     4.359327    -2.903558
H        0.909509     3.350722    -1.460381
H        1.196245     2.572115    -3.037262
H       -4.340331     4.064475    -2.704465
H       -3.685898     4.277077    -1.054650
H       -2.747696     4.825648    -2.443262
H       -3.237914     0.682194    -1.799381
H       -3.716700     1.793443    -0.491374
H       -4.674540     1.712491    -2.004231
Br      -1.187886    -2.057479    -1.663041
45
ex_0144 frame35 TPR-6-4
Ta       0.000000     0.000000     0.000000
Br       2.375773     0.000000     1.663041
Br      -1.187886     2.057479     1.663041
C       -3.513612    -3.931806     2.182882
N       -2.847450    -2.638410     2.248190
C       -3.639303    -1.514795     1.781995
C       -1.471026    -2.547893     2.059437
O       -0.966694    -1.674363     1.353371
N       -0.697777    -3.502103     2.715128
C       -0.976236    -3.844836     4.102899
C        0.700444    -3.575457     2.332409
H       -3.856580    -4.096559     1.156056
H       -4.373734    -3.920969     2.858143
H       -2.854819    -4.761766     2.445773
H       -4.611990    -1.524058     2.282033
H       -3.133176    -0.571721     2.010870
H       -3.774622    -1.592407     0.698717
H       -0.715682    -4.894157     4.267035
H       -0.361715    -3.209741     4.749552
H       -2.019858    -3.681417     4.378765
H        0.804774    -3.461191     1.248898
H        1.254167    -2.773148     2.829922
H        1.106426    -4.547757     2.625760
C        4.145263    -1.473781    -3.635149
N        3.677752    -1.158822    -2.292337
C        3.349961    -2.309060    -1.469911
C        2.942053    -0.000000    -2.059437
O        1.933387     0.000000    -1.353371
N        3.412702     1.158821    -2.670981
C        4.834426     1.473778    -2.650638
C        2.527758     2.309061    -2.644489
H        3.396362    -2.103371    -4.126987
H        5.090089    -2.019494    -3.561624
H        4.285046    -0.585690    -4.254593
H        4.186915    -3.013078    -1.480539
H        3.163130    -1.997631    -0.437418
H        2.450241    -2.791279    -1.864623
H        5.088739     2.019492    -3.563558
H        5.040223     2.103368    -1.778626
H        5.464298     0.585686    -2.569953
H        1.493679     1.997633    -2.822345
H        2.590670     2.791279    -1.664012
H        2.824217     3.013079    -3.427250
Br      -1.187886     2.057479    -1.663041
Br      -1.187886    -2.057479    -1.663041
