69
ex_0549 frame0 T-4-1
Ag       0.000000     0.000000     0.000000
C        5.739966     4.607101     2.217757
C        6.229347     3.468413     2.855765
C        5.354486     2.472923     3.153040
C        3.877604     2.502183     2.805800
C        3.073236     1.378970     3.220046
Te       1.633901     1.633901     1.633901
C        2.043783     3.747126     1.896186
C        3.416885     3.521185     2.224221
C        4.407675     4.654572     1.928836
H        6.399376     5.393354     1.976655
H        7.269676     3.393080     3.099544
H        5.755608     1.602258     3.647383
H        2.612571     1.604558     4.203157
H        3.559702     0.410312     3.174408
H        1.902799     4.285412     0.970016
H        1.460365     4.144240     2.752222
H        4.051336     5.541169     1.438733
C        3.616337    -2.745743    -6.202745
C        2.646847    -3.746461    -6.160217
C        2.018894    -3.982349    -4.979207
C        2.279042    -3.203241    -3.703304
C        1.552644    -3.598102    -2.521506
Te       1.633901    -1.633901    -1.633901
C        3.572521    -1.516105    -2.598468
C        3.148612    -2.290920    -3.722759
C        3.877926    -2.060544    -5.052613
H        4.117626    -2.543953    -7.107806
H        2.412783    -4.307085    -7.042433
H        1.273404    -4.761767    -4.970078
H        2.167486    -4.313816    -1.938984
H        0.531911    -3.927190    -2.685321
H        3.819111    -0.493575    -2.845541
H        4.335199    -2.037469    -1.984160
H        4.629145    -1.295076    -5.107017
C       -3.817125     2.604744    -6.142956
C       -2.792654     3.547425    -6.213445
C       -2.084073     3.811236    -5.085141
C       -2.311539     3.120983    -3.753065
C       -1.495947     3.537487    -2.638818
Te      -1.633901     1.633901    -1.633901
C       -3.629522     1.577044    -2.480528
C       -3.230141     2.261804    -3.670345
C       -4.048212     2.001180    -4.941690
H       -4.381306     2.382807    -7.005272
H       -2.580148     4.043348    -7.138805
H       -1.297144     4.544683    -5.163423
H       -2.034643     4.319470    -2.066174
H       -0.469915     3.796252    -2.878256
H       -3.946731     0.558659    -2.652837
H       -4.324505     2.175792    -1.856531
H       -4.842743     1.279456    -4.909038
C       -2.146363    -5.534804     4.883657
C       -2.648550    -6.160991     3.743984
C       -2.928359    -5.392458     2.659633
C       -2.698690    -3.893987     2.592910
C       -3.078752    -3.214954     1.378545
Te      -1.633901    -1.633901     1.633901
C       -2.038237    -1.901305     3.747552
C       -2.240465    -3.310106     3.611720
C       -1.965093    -4.183442     4.842548
H       -1.921510    -6.109914     5.737961
H       -2.804983    -7.220644     3.736673
H       -3.316749    -5.898553     1.789948
H       -4.109510    -2.821419     1.489357
H       -2.915961    -3.768609     0.459853
H       -1.173345    -1.643333     4.341549
H       -2.966325    -1.362158     4.028345
H       -1.578811    -3.720977     5.731449
69
ex_0549 frame1 T-4-1-conf2
Ag       0.000000     0.000000     0.000000
C        5.739966     4.607101     2.217757
C        6.229347     3.468413     2.855765
C        5.354486     2.472923     3.153040
C        3.877604     2.502183     2.805800
C        3.073236     1.378970     3.220046
Te       1.633901     1.633901     1.633901
C        2.043783     3.747126     1.896186
C        3.416885     3.521185     2.224221
C        4.407675     4.654572     1.928836
H        6.399376     5.393354     1.976655
H        7.269676     3.393080     3.099544
H        5.755608     1.602258     3.647383
H        2.612571     1.604558     4.203157
H        3.559702     0.410312     3.174408
H        1.902799     4.285412     0.970016
H        1.460365     4.144240     2.752222
H        4.051336     5.541169     1.438733
C        3.616337    -2.745743    -6.202745
C        2.646847    -3.746461    -6.160217
C        2.018894    -3.982349    -4.979207
C        2.279042    -3.203241    -3.703304
C        1.552644    -3.598102    -2.521506
Te       1.633901    -1.633901    -1.633901
C        3.572521    -1.516105    -2.598468
C        3.148612    -2.290920    -3.722759
C        3.877926    -2.060544    -5.052613
H        4.117626    -2.543953    -7.107806
H        2.412783    -4.307085    -7.042433
H        1.273404    -4.761767    -4.970078
H        2.167486    -4.313816    -1.938984
H        0.531911    -3.927190    -2.685321
H        3.819111    -0.493575    -2.845541
H        4.335199    -2.037469    -1.984160
H        4.629145    -1.295076    -5.107017
C       -3.817125     2.604744    -6.142956
C       -2.792654     3.547425    -6.213445
C       -2.084073     3.811236    -5.085141
C       -2.311539     3.120983    -3.753065
C       -1.495947     3.537487    -2.638818
Te      -1.633901     1.633901    -1.633901
C       -3.629522     1.577044    -2.480528
C       -3.230141     2.261804    -3.670345
C       -4.048212     2.001180    -4.941690
H       -4.381306     2.382807    -7.005272
H       -2.580148     4.043348    -7.138805
H       -1.297144     4.544683    -5.163423
H       -2.034643     4.319470    -2.066174
H       -0.469915     3.796252    -2.878256
H       -3.946731     0.558659    -2.652837
H       -4.324505     2.175792    -1.856531
H       -4.842743     1.279456    -4.909038
C       -2.382403    -5.983517     4.190815
C       -2.110878    -5.167363     5.284401
C       -2.083933    -3.818237     5.089864
C       -2.295323    -3.134706     3.732390
C       -2.278950    -1.706391     3.706360
Te      -1.633901    -1.633901     1.633901
C       -2.840274    -3.408791     1.422941
C       -2.545182    -3.888870     2.753053
C       -2.606327    -5.384853     2.985009
H       -2.414032    -7.048972     4.295315
H       -1.934133    -5.606383     6.228128
H       -1.873784    -3.210119     5.950039
H       -1.526564    -1.278052     4.355391
H       -3.285290    -1.259435     3.804920
H       -3.903902    -3.115905     1.345849
H       -2.485804    -4.038532     0.612749
H       -2.815057    -6.036610     2.154659
69
ex_0549 frame2 T-4-1-conf3
Ag       0.000000     0.000000     0.000000
C        5.739966     4.607101     2.217757
C        6.229347     3.468413     2.855765
C        5.354486     2.472923     3.153040
C        3.877604     2.502183     2.805800
C        3.073236     1.378970     3.220046
Te       1.633901     1.633901     1.633901
C        2.043783     3.747126     1.896186
C        3.416885     3.521185     2.224221
C        4.407675     4.654572     1.928836
H        6.399376     5.393354     1.976655
H        7.269676     3.393080     3.099544
H        5.755608     1.602258     3.647383
H        2.612571     1.604558     4.203157
H        3.559702     0.410312     3.174408
H        1.902799     4.285412     0.970016
H        1.460365     4.144240     2.752222
H        4.051336     5.541169     1.438733
C        3.616337    -2.745743    -6.202745
C        2.646847    -3.746461    -6.160217
C        2.018894    -3.982349    -4.979207
C        2.279042    -3.203241    -3.703304
C        1.552644    -3.598102    -2.521506
Te       1.633901    -1.633901    -1.633901
C        3.572521    -1.516105    -2.598468
C        3.148612    -2.290920    -3.722759
C        3.877926    -2.060544    -5.052613
H        4.117626    -2.543953    -7.107806
H        2.412783    -4.307085    -7.042433
H        1.273404    -4.761767    -4.970078
H        2.167486    -4.313816    -1.938984
H        0.531911    -3.927190    -2.685321
H        3.819111    -0.493575    -2.845541
H        4.335199    -2.037469    -1.984160
H        4.629145    -1.295076    -5.107017
C       -2.502923     3.969300    -6.084511
C       -3.398801     2.917213    -6.246628
C       -3.686767     2.143873    -5.161393
C       -3.058219     2.330195    -3.774005
C       -3.500643     1.460902    -2.730156
Te      -1.633901     1.633901    -1.633901
C       -1.627206     3.652547    -2.392253
C       -2.252320     3.291330    -3.643455
C       -1.963719     4.166114    -4.846355
H       -2.246232     4.603731    -6.908356
H       -3.829647     2.744195    -7.194802
H       -4.382343     1.339336    -5.312263
H       -3.655362     0.442684    -3.061961
H       -4.329580     1.885528    -2.134537
H       -2.312957     4.269988    -1.782711
H       -0.618315     4.045174    -2.473597
H       -1.274466     4.986247    -4.745613
C       -2.146363    -5.534804     4.883657
C       -2.648550    -6.160991     3.743984
C       -2.928359    -5.392458     2.659633
C       -2.698690    -3.893987     2.592910
C       -3.078752    -3.214954     1.378545
Te      -1.633901    -1.633901     1.633901
C       -2.038237    -1.901305     3.747552
C       -2.240465    -3.310106     3.611720
C       -1.965093    -4.183442     4.842548
H       -1.921510    -6.109914     5.737961
H       -2.804983    -7.220644     3.736673
H       -3.316749    -5.898553     1.789948
H       -4.109510    -2.821419     1.489357
H       -2.915961    -3.768609     0.459853
H       -1.173345    -1.643333     4.341549
H       -2.966325    -1.362158     4.028345
H       -1.578811    -3.720977     5.731449
69
ex_0549 frame3 T-4-1-conf4
Ag       0.000000     0.000000     0.000000
C        5.739966     4.607101     2.217757
C        6.229347     3.468413     2.855765
C        5.354486     2.472923     3.153040
C        3.877604     2.502183     2.805800
C        3.073236     1.378970     3.220046
Te       1.633901     1.633901     1.633901
C        2.043783     3.747126     1.896186
C        3.416885     3.521185     2.224221
C        4.407675     4.654572     1.928836
H        6.399376     5.393354     1.976655
H        7.269676     3.393080     3.099544
H        5.755608     1.602258     3.647383
H        2.612571     1.604558     4.203157
H        3.559702     0.410312     3.174408
H        1.902799     4.285412     0.970016
H        1.460365     4.144240     2.752222
H        4.051336     5.541169     1.438733
C        2.673148    -3.706301    -6.177286
C        3.651431    -2.717136    -6.194075
C        3.909658    -2.047371    -5.035004
C        3.164923    -2.283238    -3.714258
C        3.586765    -1.526943    -2.577994
Te       1.633901    -1.633901    -1.633901
C        1.541692    -3.586973    -2.543341
C        2.285020    -3.186601    -3.715483
C        2.027961    -3.948830    -4.999397
H        2.435869    -4.258925    -7.063525
H        4.164927    -2.510607    -7.093111
H        4.670255    -1.289840    -5.073847
H        3.838556    -0.502556    -2.818896
H        4.335259    -2.055193    -1.959194
H        2.132993    -4.296993    -1.935670
H        0.516625    -3.894301    -2.726158
H        1.276387    -4.718787    -5.011152
C       -3.817125     2.604744    -6.142956
C       -2.792654     3.547425    -6.213445
C       -2.084073     3.811236    -5.085141
C       -2.311539     3.120983    -3.753065
C       -1.495947     3.537487    -2.638818
Te      -1.633901     1.633901    -1.633901
C       -3.629522     1.577044    -2.480528
C       -3.230141     2.261804    -3.670345
C       -4.048212     2.001180    -4.941690
H       -4.381306     2.382807    -7.005272
H       -2.580148     4.043348    -7.138805
H       -1.297144     4.544683    -5.163423
H       -2.034643     4.319470    -2.066174
H       -0.469915     3.796252    -2.878256
H       -3.946731     0.558659    -2.652837
H       -4.324505     2.175792    -1.856531
H       -4.842743     1.279456    -4.909038
C       -2.146363    -5.534804     4.883657
C       -2.648550    -6.160991     3.743984
C       -2.928359    -5.392458     2.659633
C       -2.698690    -3.893987     2.592910
C       -3.078752    -3.214954     1.378545
Te      -1.633901    -1.633901     1.633901
C       -2.038237    -1.901305     3.747552
C       -2.240465    -3.310106     3.611720
C       -1.965093    -4.183442     4.842548
H       -1.921510    -6.109914     5.737961
H       -2.804983    -7.220644     3.736673
H       -3.316749    -5.898553     1.789948
H       -4.109510    -2.821419     1.489357
H       -2.915961    -3.768609     0.459853
H       -1.173345    -1.643333     4.341549
H       -2.966325    -1.362158     4.028345
H       -1.578811    -3.720977     5.731449
69
ex_0549 frame4 T-4-1-conf5
Ag       0.000000     0.000000     0.000000
C        6.205746     3.601190     2.749799
C        5.646590     4.739135     2.176918
C        4.303903     4.747507     1.940624
C        3.366612     3.567179     2.228628
C        1.975201     3.753204     1.963297
Te       1.633901     1.633901     1.633901
C        3.141878     1.376428     3.153699
C        3.888985     2.545815     2.752304
C        5.376018     2.557875     3.042295
H        7.255849     3.548625     2.953845
H        6.267483     5.559852     1.941309
H        3.896492     5.638103     1.499348
H        1.786540     4.315298     1.058169
H        1.406999     4.094585     2.848062
H        2.683788     1.534011     4.147857
H        3.663879     0.431070     3.042136
H        5.831379     1.689491     3.485457
C        3.616337    -2.745743    -6.202745
C        2.646847    -3.746461    -6.160217
C        2.018894    -3.982349    -4.979207
C        2.279042    -3.203241    -3.703304
C        1.552644    -3.598102    -2.521506
Te       1.633901    -1.633901    -1.633901
C        3.572521    -1.516105    -2.598468
C        3.148612    -2.290920    -3.722759
C        3.877926    -2.060544    -5.052613
H        4.117626    -2.543953    -7.107806
H        2.412783    -4.307085    -7.042433
H        1.273404    -4.761767    -4.970078
H        2.167486    -4.313816    -1.938984
H        0.531911    -3.927190    -2.685321
H        3.819111    -0.493575    -2.845541
H        4.335199    -2.037469    -1.984160
H        4.629145    -1.295076    -5.107017
C       -3.817125     2.604744    -6.142956
C       -2.792654     3.547425    -6.213445
C       -2.084073     3.811236    -5.085141
C       -2.311539     3.120983    -3.753065
C       -1.495947     3.537487    -2.638818
Te      -1.633901     1.633901    -1.633901
C       -3.629522     1.577044    -2.480528
C       -3.230141     2.261804    -3.670345
C       -4.048212     2.001180    -4.941690
H       -4.381306     2.382807    -7.005272
H       -2.580148     4.043348    -7.138805
H       -1.297144     4.544683    -5.163423
H       -2.034643     4.319470    -2.066174
H       -0.469915     3.796252    -2.878256
H       -3.946731     0.558659    -2.652837
H       -4.324505     2.175792    -1.856531
H       -4.842743     1.279456    -4.909038
C       -2.146363    -5.534804     4.883657
C       -2.648550    -6.160991     3.743984
C       -2.928359    -5.392458     2.659633
C       -2.698690    -3.893987     2.592910
C       -3.078752    -3.214954     1.378545
Te      -1.633901    -1.633901     1.633901
C       -2.038237    -1.901305     3.747552
C       -2.240465    -3.310106     3.611720
C       -1.965093    -4.183442     4.842548
H       -1.921510    -6.109914     5.737961
H       -2.804983    -7.220644     3.736673
H       -3.316749    -5.898553     1.789948
H       -4.109510    -2.821419     1.489357
H       -2.915961    -3.768609     0.459853
H       -1.173345    -1.643333     4.341549
H       -2.966325    -1.362158     4.028345
H       -1.578811    -3.720977     5.731449
69
ex_0549 frame5 T-4-1-conf6
Ag       0.000000     0.000000     0.000000
C        5.740114     4.607918     2.217399
C        6.229967     3.468009     2.856081
C        5.354339     2.472107     3.153398
C        3.869625     2.499078     2.801643
C        3.073236     1.378970     3.220046
Te       1.633901     1.633901     1.633901
C        2.043783     3.747126     1.896186
C        3.404130     3.507683     2.219998
C        4.407369     4.654793     1.928670
H        6.399376     5.393354     1.976655
H        7.269676     3.393080     3.099544
H        5.755608     1.602258     3.647383
H        2.612571     1.604558     4.203157
H        3.559702     0.410312     3.174408
H        1.902799     4.285412     0.970016
H        1.460365     4.144240     2.752222
H        4.051336     5.541169     1.438733
C        3.616948    -2.745270    -6.203213
C        2.646427    -3.747035    -6.160595
C        2.018283    -3.982822    -4.978739
C        2.276735    -3.197674    -3.695938
C        1.552644    -3.598102    -2.521506
Te       1.633901    -1.633901    -1.633901
C        3.572521    -1.516105    -2.598468
C        3.137776    -2.286220    -3.707815
C        3.878149    -2.060247    -5.052436
H        4.117626    -2.543953    -7.107806
H        2.412783    -4.307085    -7.042433
H        1.273404    -4.761767    -4.970078
H        2.167486    -4.313816    -1.938984
H        0.531911    -3.927190    -2.685321
H        3.819111    -0.493575    -2.845541
H        4.335199    -2.037469    -1.984160
H        4.629145    -1.295076    -5.107017
C       -3.817788     2.604282    -6.143361
C       -2.792227     3.547952    -6.213878
C       -2.083410     3.811697    -5.084736
C       -2.309115     3.115708    -3.745524
C       -1.495947     3.537487    -2.638818
Te      -1.633901     1.633901    -1.633901
C       -3.629522     1.577044    -2.480528
C       -3.218722     2.257313    -3.655777
C       -4.048441     2.000907    -4.941484
H       -4.381306     2.382807    -7.005272
H       -2.580148     4.043348    -7.138805
H       -1.297144     4.544683    -5.163423
H       -2.034643     4.319470    -2.066174
H       -0.469915     3.796252    -2.878256
H       -3.946731     0.558659    -2.652837
H       -4.324505     2.175792    -1.856531
H       -4.842743     1.279456    -4.909038
C       -2.224812    -4.391837     5.869531
C       -2.943541    -3.272067     6.270483
C       -3.269769    -2.340829     5.326896
C       -2.859384    -2.435311     3.857354
C       -3.313621    -1.391256     2.980457
Te      -1.633901    -1.633901     1.633901
C       -1.809641    -3.728791     2.142248
C       -2.209988    -3.447992     3.498291
C       -1.883121    -4.500524     4.551603
H       -1.949483    -5.144513     6.577343
H       -3.222607    -3.160949     7.287429
H       -3.824150    -1.486296     5.657947
H       -4.251351    -1.660161     2.458868
H       -3.292542    -0.402615     3.407616
H       -0.832376    -4.190538     2.038710
H       -2.606313    -4.202229     1.552600
H       -1.328879    -5.372245     4.264200
69
ex_0549 frame6 T-4-1-conf7
Ag       0.000000     0.000000     0.000000
C        5.739966     4.607101     2.217757
C        6.229347     3.468413     2.855765
C        5.354486     2.472923     3.153040
C        3.877604     2.502183     2.805800
C        3.073236     1.378970     3.220046
Te       1.633901     1.633901     1.633901
C        2.043783     3.747126     1.896186
C        3.416885     3.521185     2.224221
C        4.407675     4.654572     1.928836
H        6.399376     5.393354     1.976655
H        7.269676     3.393080     3.099544
H        5.755608     1.602258     3.647383
H        2.612571     1.604558     4.203157
H        3.559702     0.410312     3.174408
H        1.902799     4.285412     0.970016
H        1.460365     4.144240     2.752222
H        4.051336     5.541169     1.438733
C        3.616337    -2.745743    -6.202745
C        2.646847    -3.746461    -6.160217
C        2.018894    -3.982349    -4.979207
C        2.279042    -3.203241    -3.703304
C        1.552644    -3.598102    -2.521506
Te       1.633901    -1.633901    -1.633901
C        3.572521    -1.516105    -2.598468
C        3.148612    -2.290920    -3.722759
C        3.877926    -2.060544    -5.052613
H        4.117626    -2.543953    -7.107806
H        2.412783    -4.307085    -7.042433
H        1.273404    -4.761767    -4.970078
H        2.167486    -4.313816    -1.938984
H        0.531911    -3.927190    -2.685321
H        3.819111    -0.493575    -2.845541
H        4.335199    -2.037469    -1.984160
H        4.629145    -1.295076    -5.107017
C       -2.502923     3.969300    -6.084511
C       -3.398801     2.917213    -6.246628
C       -3.686767     2.143873    -5.161393
C       -3.058219     2.330195    -3.774005
C       -3.500643     1.460902    -2.730156
Te      -1.633901     1.633901    -1.633901
C       -1.627206     3.652547    -2.392253
C       -2.252320     3.291330    -3.643455
C       -1.963719     4.166114    -4.846355
H       -2.246232     4.603731    -6.908356
H       -3.829647     2.744195    -7.194802
H       -4.382343     1.339336    -5.312263
H       -3.655362     0.442684    -3.061961
H       -4.329580     1.885528    -2.134537
H       -2.312957     4.269988    -1.782711
H       -0.618315     4.045174    -2.473597
H       -1.274466     4.986247    -4.745613
C       -2.382403    -5.983517     4.190815
C       -2.110878    -5.167363     5.284401
C       -2.083933    -3.818237     5.089864
C       -2.295323    -3.134706     3.732390
C       -2.278950    -1.706391     3.706360
Te      -1.633901    -1.633901     1.633901
C       -2.840274    -3.408791     1.422941
C       -2.545182    -3.888870     2.753053
C       -2.606327    -5.384853     2.985009
H       -2.414032    -7.048972     4.295315
H       -1.934133    -5.606383     6.228128
H       -1.873784    -3.210119     5.950039
H       -1.526564    -1.278052     4.355391
H       -3.285290    -1.259435     3.804920
H       -3.903902    -3.115905     1.345849
H       -2.485804    -4.038532     0.612749
H       -2.815057    -6.036610     2.154659
69
ex_0549 frame7 T-4-1-conf8
Ag       0.000000     0.000000     0.000000
C        5.740114     4.607918     2.217399
C        6.229967     3.468009     2.856081
C        5.354339     2.472107     3.153398
C        3.869625     2.499078     2.801643
C        3.073236     1.378970     3.220046
Te       1.633901     1.633901     1.633901
C        2.043783     3.747126     1.896186
C        3.404130     3.507683     2.219998
C        4.407369     4.654793     1.928670
H        6.399376     5.393354     1.976655
H        7.269676     3.393080     3.099544
H        5.755608     1.602258     3.647383
H        2.612571     1.604558     4.203157
H        3.559702     0.410312     3.174408
H        1.902799     4.285412     0.970016
H        1.460365     4.144240     2.752222
H        4.051336     5.541169     1.438733
C        3.616948    -2.745270    -6.203213
C        2.646427    -3.747035    -6.160595
C        2.018283    -3.982822    -4.978739
C        2.276735    -3.197674    -3.695938
C        1.552644    -3.598102    -2.521506
Te       1.633901    -1.633901    -1.633901
C        3.572521    -1.516105    -2.598468
C        3.137776    -2.286220    -3.707815
C        3.878149    -2.060247    -5.052436
H        4.117626    -2.543953    -7.107806
H        2.412783    -4.307085    -7.042433
H        1.273404    -4.761767    -4.970078
H        2.167486    -4.313816    -1.938984
H        0.531911    -3.927190    -2.685321
H        3.819111    -0.493575    -2.845541
H        4.335199    -2.037469    -1.984160
H        4.629145    -1.295076    -5.107017
C       -6.277479     3.170276    -3.038426
C       -5.934400     4.278438    -2.273253
C       -4.632877     4.419006    -1.885611
C       -3.532082     3.409307    -2.210660
C       -2.202614     3.720437    -1.762283
Te      -1.633901     1.633901    -1.633901
C       -2.918790     1.403505    -3.358384
C       -3.845215     2.409157    -2.901898
C       -5.293002     2.280471    -3.361775
H       -7.285793     3.023124    -3.362422
H       -6.677933     4.986029    -2.007023
H       -4.390852     5.280499    -1.297043
H       -1.603083     4.222732    -2.544566
H       -2.149928     4.168647    -0.784197
H       -3.307970     0.389855    -3.363799
H       -2.389157     1.697236    -4.274750
H       -5.579757     1.432927    -3.952640
C       -2.146064    -5.534859     4.884508
C       -2.648782    -6.161665     3.743610
C       -2.928658    -5.392404     2.658782
C       -2.694912    -3.885953     2.589482
C       -3.078752    -3.214954     1.378545
Te      -1.633901    -1.633901     1.633901
C       -2.038237    -1.901305     3.747552
C       -2.236126    -3.298115     3.597571
C       -1.964970    -4.183107     4.842755
H       -1.921510    -6.109914     5.737961
H       -2.804983    -7.220644     3.736673
H       -3.316749    -5.898553     1.789948
H       -4.109510    -2.821419     1.489357
H       -2.915961    -3.768609     0.459853
H       -1.173345    -1.643333     4.341549
H       -2.966325    -1.362158     4.028345
H       -1.578811    -3.720977     5.731449
69
ex_0549 frame8 T-4-1-conf9
Ag       0.000000     0.000000     0.000000
C        5.739966     4.607101     2.217757
C        6.229347     3.468413     2.855765
C        5.354486     2.472923     3.153040
C        3.877604     2.502183     2.805800
C        3.073236     1.378970     3.220046
Te       1.633901     1.633901     1.633901
C        2.043783     3.747126     1.896186
C        3.416885     3.521185     2.224221
C        4.407675     4.654572     1.928836
H        6.399376     5.393354     1.976655
H        7.269676     3.393080     3.099544
H        5.755608     1.602258     3.647383
H        2.612571     1.604558     4.203157
H        3.559702     0.410312     3.174408
H        1.902799     4.285412     0.970016
H        1.460365     4.144240     2.752222
H        4.051336     5.541169     1.438733
C        2.673148    -3.706301    -6.177286
C        3.651431    -2.717136    -6.194075
C        3.909658    -2.047371    -5.035004
C        3.164923    -2.283238    -3.714258
C        3.586765    -1.526943    -2.577994
Te       1.633901    -1.633901    -1.633901
C        1.541692    -3.586973    -2.543341
C        2.285020    -3.186601    -3.715483
C        2.027961    -3.948830    -4.999397
H        2.435869    -4.258925    -7.063525
H        4.164927    -2.510607    -7.093111
H        4.670255    -1.289840    -5.073847
H        3.838556    -0.502556    -2.818896
H        4.335259    -2.055193    -1.959194
H        2.132993    -4.296993    -1.935670
H        0.516625    -3.894301    -2.726158
H        1.276387    -4.718787    -5.011152
C       -3.817125     2.604744    -6.142956
C       -2.792654     3.547425    -6.213445
C       -2.084073     3.811236    -5.085141
C       -2.311539     3.120983    -3.753065
C       -1.495947     3.537487    -2.638818
Te      -1.633901     1.633901    -1.633901
C       -3.629522     1.577044    -2.480528
C       -3.230141     2.261804    -3.670345
C       -4.048212     2.001180    -4.941690
H       -4.381306     2.382807    -7.005272
H       -2.580148     4.043348    -7.138805
H       -1.297144     4.544683    -5.163423
H       -2.034643     4.319470    -2.066174
H       -0.469915     3.796252    -2.878256
H       -3.946731     0.558659    -2.652837
H       -4.324505     2.175792    -1.856531
H       -4.842743     1.279456    -4.909038
C       -2.382403    -5.983517     4.190815
C       -2.110878    -5.167363     5.284401
C       -2.083933    -3.818237     5.089864
C       -2.295323    -3.134706     3.732390
C       -2.278950    -1.706391     3.706360
Te      -1.633901    -1.633901     1.633901
C       -2.840274    -3.408791     1.422941
C       -2.545182    -3.888870     2.753053
C       -2.606327    -5.384853     2.985009
H       -2.414032    -7.048972     4.295315
H       -1.934133    -5.606383     6.228128
H       -1.873784    -3.210119     5.950039
H       -1.526564    -1.278052     4.355391
H       -3.285290    -1.259435     3.804920
H       -3.903902    -3.115905     1.345849
H       -2.485804    -4.038532     0.612749
H       -2.815057    -6.036610     2.154659
69
ex_0549 frame9 T-4-1-conf10
Ag       0.000000     0.000000     0.000000
C        5.739966     4.607101     2.217757
C        6.229347     3.468413     2.855765
C        5.354486     2.472923     3.153040
C        3.877604     2.502183     2.805800
C        3.073236     1.378970     3.220046
Te       1.633901     1.633901     1.633901
C        2.043783     3.747126     1.896186
C        3.416885     3.521185     2.224221
C        4.407675     4.654572     1.928836
H        6.399376     5.393354     1.976655
H        7.269676     3.393080     3.099544
H        5.755608     1.602258     3.647383
H        2.612571     1.604558     4.203157
H        3.559702     0.410312     3.174408
H        1.902799     4.285412     0.970016
H        1.460365     4.144240     2.752222
H        4.051336     5.541169     1.438733
C        2.673148    -3.706301    -6.177286
C        3.651431    -2.717136    -6.194075
C        3.909658    -2.047371    -5.035004
C        3.164923    -2.283238    -3.714258
C        3.586765    -1.526943    -2.577994
Te       1.633901    -1.633901    -1.633901
C        1.541692    -3.586973    -2.543341
C        2.285020    -3.186601    -3.715483
C        2.027961    -3.948830    -4.999397
H        2.435869    -4.258925    -7.063525
H        4.164927    -2.510607    -7.093111
H        4.670255    -1.289840    -5.073847
H        3.838556    -0.502556    -2.818896
H        4.335259    -2.055193    -1.959194
H        2.132993    -4.296993    -1.935670
H        0.516625    -3.894301    -2.726158
H        1.276387    -4.718787    -5.011152
C       -2.502923     3.969300    -6.084511
C       -3.398801     2.917213    -6.246628
C       -3.686767     2.143873    -5.161393
C       -3.058219     2.330195    -3.774005
C       -3.500643     1.460902    -2.730156
Te      -1.633901     1.633901    -1.633901
C       -1.627206     3.652547    -2.392253
C       -2.252320     3.291330    -3.643455
C       -1.963719     4.166114    -4.846355
H       -2.246232     4.603731    -6.908356
H       -3.829647     2.744195    -7.194802
H       -4.382343     1.339336    -5.312263
H       -3.655362     0.442684    -3.061961
H       -4.329580     1.885528    -2.134537
H       -2.312957     4.269988    -1.782711
H       -0.618315     4.045174    -2.473597
H       -1.274466     4.986247    -4.745613
C       -2.146363    -5.534804     4.883657
C       -2.648550    -6.160991     3.743984
C       -2.928359    -5.392458     2.659633
C       -2.698690    -3.893987     2.592910
C       -3.078752    -3.214954     1.378545
Te      -1.633901    -1.633901     1.633901
C       -2.038237    -1.901305     3.747552
C       -2.240465    -3.310106     3.611720
C       -1.965093    -4.183442     4.842548
H       -1.921510    -6.109914     5.737961
H       -2.804983    -7.220644     3.736673
H       -3.316749    -5.898553     1.789948
H       -4.109510    -2.821419     1.489357
H       -2.915961    -3.768609     0.459853
H       -1.173345    -1.643333     4.341549
H       -2.966325    -1.362158     4.028345
H       -1.578811    -3.720977     5.731449
69
ex_0549 frame10 SP-4-1
Ag       0.000000     0.000000     0.000000
C        7.254305     0.506508    -2.491897
C        7.247781    -0.883204    -2.383205
C        6.339566    -1.458073    -1.552890
C        5.303301    -0.687423    -0.756103
C        4.429577    -1.443024     0.107545
Te       2.830000     0.000000     0.000000
C        4.438146     1.450755    -0.108121
C        5.289851     0.569879    -0.844819
C        6.345705     1.209033    -1.755939
H        7.949758     0.976058    -3.129872
H        7.945668    -1.470405    -2.944933
H        6.353884    -2.534366    -1.484187
H        4.861454    -1.469477     1.128521
H        4.124834    -2.414868    -0.266195
H        4.132804     2.324487    -0.665595
H        4.824816     1.666335     0.909171
H        6.368888     2.278245    -1.853291
C        1.089780     7.254305    -2.297495
C        2.136395     7.247781    -1.376783
C        2.098168     6.339566    -0.367607
C        1.003588     5.303301    -0.192495
C        1.089955     4.429577     0.951778
Te       0.000000     2.830000     0.000000
C       -1.095794     4.438146    -0.956877
C        0.050921     5.289851    -1.017786
C        0.086196     6.345705    -2.130176
H        1.096872     7.949758    -3.089605
H        2.943186     7.945668    -1.473899
H        2.918027     6.353884     0.333077
H        0.498587     4.861454     1.784471
H        2.091693     4.124834     1.235826
H       -1.460360     4.132804    -1.927072
H       -1.878588     4.824816    -0.272340
H       -0.710810     6.368888    -2.849533
C       -7.254305    -0.756135     2.427831
C       -7.247781    -1.921740     1.663319
C       -6.339566    -2.025697     0.658784
C       -5.303301    -0.966582     0.331604
C       -4.429577    -1.212880    -0.789180
Te      -2.830000     0.000000     0.000000
C       -4.438146     1.219378     0.793408
C       -5.289851     0.092599     1.014843
C       -6.345705     0.213981     2.121154
H       -7.949758    -0.651854     3.213079
H       -7.945668    -2.706881     1.872837
H       -6.353884    -2.935878     0.080254
H       -4.861454    -0.744385    -1.696707
H       -4.124834    -2.244593    -0.929650
H       -4.132804     1.716654     1.702750
H       -4.824816     1.898218     0.005668
H       -6.368888     1.104160     2.721382
C        1.742736    -7.254305    -1.851749
C        0.504056    -7.247781    -2.491113
C       -0.421873    -6.339566    -2.087934
C       -0.186270    -5.303301    -1.004762
C       -1.283398    -4.429577    -0.668411
Te       0.000000    -2.830000     0.000000
C        1.290274    -4.438146     0.671992
C        0.929324    -5.289851    -0.418137
C        1.952452    -6.345705    -0.856161
H        2.477851    -7.949758    -2.146869
H        0.300639    -7.945668    -3.277856
H       -1.373047    -6.353884    -2.596260
H       -1.843493    -4.861454     0.185630
H       -1.912802    -4.124834    -1.497876
H        2.326611    -4.132804     0.658135
H        0.937881    -4.824816     1.650346
H        2.912692    -6.368888    -0.375919
