61
ex_0355 frame0 As-N
N        8.145528    -1.053350     2.739812
C        6.917820    -0.507313     2.297088
C        5.770667    -0.601359     3.100919
C        4.556432    -0.075530     2.653999
C        4.483576     0.534480     1.398518
S        2.936543     1.169297     0.796294
O        3.083303     2.479602     0.005869
O        1.950578     1.574482     1.903249
N        2.028448     0.113302    -0.260911
Au       0.000000     0.000000     0.000000
As      -2.550000     0.000000     0.000000
C       -3.342420    -0.125627     1.791689
C       -2.863595    -1.135330     2.639444
C       -3.356542    -1.264173     3.939961
C       -4.350925    -0.397684     4.397420
C       -4.847303     0.600937     3.555038
C       -4.350066     0.736040     2.253769
C       -3.435658    -1.433013    -0.996133
C       -3.556141    -1.319657    -2.388322
C       -4.149285    -2.345358    -3.130669
C       -4.636099    -3.484587    -2.484419
C       -4.535086    -3.595438    -1.095154
C       -3.950528    -2.566676    -0.349966
C       -3.427066     1.560287    -0.776977
C       -4.812346     1.655349    -0.960201
C       -5.360731     2.812526    -1.528629
C       -4.528981     3.871962    -1.911027
C       -3.147818     3.776331    -1.728570
C       -2.600364     2.624682    -1.161622
C        2.433566    -0.062705    -1.589038
N        3.590937    -0.708352    -1.885282
C        3.947310    -0.917009    -3.179875
C        3.155419    -0.409276    -4.212301
C        1.993740     0.283858    -3.880373
N        1.646439     0.425083    -2.579969
C        5.626618     0.651320     0.604160
C        6.841289     0.131630     1.050674
H        8.197722    -1.575537     3.626254
H        8.997412    -0.958388     2.168079
H        5.815156    -1.086672     4.067436
H        3.672768    -0.158321     3.274871
H       -2.083145    -1.804491     2.299108
H       -2.962292    -2.031451     4.593958
H       -4.730659    -0.495490     5.406149
H       -5.612546     1.276635     3.914070
H       -4.739769     1.526591     1.635480
H       -3.168753    -0.447904    -2.899868
H       -4.222915    -2.261337    -4.207212
H       -5.085051    -4.283707    -3.059922
H       -4.901696    -4.482962    -0.595750
H       -3.868427    -2.682165     0.718876
H       -5.458902     0.838241    -0.670008
H       -6.429543     2.889812    -1.674617
H       -4.951952     4.765960    -2.350529
H       -2.500314     4.592096    -2.025702
H       -1.527661     2.557477    -1.024475
H        4.843438    -1.477043    -3.407782
H        3.432045    -0.550223    -5.247314
H        1.360859     0.704208    -4.649501
H        5.570199     1.129009    -0.366343
H        7.716394     0.213777     0.419228
61
ex_0355 frame1 As-N-conf2
N        8.204132     1.377375     2.467666
C        6.961603     0.786876     2.137854
C        6.830723     0.034148     0.961493
C        5.601791    -0.533987     0.627915
C        4.496477    -0.345947     1.461474
S        2.928690    -1.042356     0.996841
O        3.038010    -2.474817     0.449724
O        1.948013    -1.221128     2.166379
N        2.027743    -0.171699    -0.225212
Au       0.000000     0.000000     0.000000
As      -2.550000     0.000000     0.000000
C       -3.337841     0.136285     1.781824
C       -3.407838    -1.013411     2.579511
C       -3.925280    -0.940488     3.875838
C       -4.393856     0.278407     4.373441
C       -4.345702     1.424327     3.573769
C       -3.831038     1.352441     2.274926
C       -3.372410     1.452758    -1.013127
C       -2.544602     2.140008    -1.911495
C       -3.047308     3.197182    -2.671542
C       -4.383539     3.578138    -2.534540
C       -5.217144     2.895818    -1.641181
C       -4.716709     1.828072    -0.885054
C       -3.483192    -1.547178    -0.728936
C       -2.687367    -2.529654    -1.334525
C       -3.268443    -3.674964    -1.879809
C       -4.652951    -3.845096    -1.823427
C       -5.454104    -2.867393    -1.221317
C       -4.872078    -1.715102    -0.675708
C        2.485845    -0.148959    -1.547569
N        3.674244     0.427623    -1.865356
C        4.092427     0.481423    -3.154871
C        3.327286    -0.114904    -4.159975
C        2.128130    -0.729600    -3.806700
N        1.720540    -0.715488    -2.516927
C        4.623695     0.382132     2.647569
C        5.853887     0.950482     2.984635
H        8.306207     1.940773     3.323991
H        9.016612     1.270970     1.843019
H        7.675116    -0.104244     0.298783
H        5.504403    -1.105245    -0.287222
H       -3.032165    -1.958058     2.207299
H       -3.953592    -1.826281     4.497297
H       -4.785460     0.336447     5.380739
H       -4.696846     2.370427     3.964658
H       -3.778386     2.251714     1.677639
H       -1.505797     1.852934    -2.021951
H       -2.399196     3.721056    -3.363046
H       -4.770382     4.402443    -3.119479
H       -6.250235     3.197906    -1.533645
H       -5.369130     1.316728    -0.193510
H       -1.611828    -2.406224    -1.380789
H       -2.644084    -4.428801    -2.343445
H       -5.102118    -4.735233    -2.244438
H       -6.525800    -3.005998    -1.176351
H       -5.499143    -0.972864    -0.206915
H        5.016223     0.985116    -3.401536
H        3.653798    -0.099679    -5.190002
H        1.516344    -1.216426    -4.553353
H        3.769661     0.522048     3.298742
H        5.940054     1.525540     3.897447
61
ex_0355 frame2 As-N-conf4
N        8.172330     1.839220    -2.169387
C        6.936720     1.184217    -1.956781
C        6.812771     0.232112    -0.934317
C        5.590593    -0.400735    -0.712948
C        4.484584    -0.078048    -1.502666
S        2.924889    -0.860501    -1.169964
O        1.940670    -0.848369    -2.350202
O        3.047120    -2.362349    -0.865568
N        2.029349    -0.209103     0.183405
Au       0.000000     0.000000     0.000000
As      -2.550000     0.000000     0.000000
C       -3.331019     1.373123    -1.157782
C       -3.491542     2.678400    -0.672520
C       -4.002701     3.680671    -1.501985
C       -4.379019     3.378484    -2.813325
C       -4.241272     2.074110    -3.296229
C       -3.732612     1.069691    -2.466728
C       -3.413725     0.283346     1.724564
C       -4.631497     0.954487     1.895201
C       -5.138687     1.153581     3.186539
C       -4.447798     0.660661     4.300083
C       -3.250667    -0.035867     4.126299
C       -2.742586    -0.232118     2.842165
C       -3.473173    -1.617396    -0.583622
C       -2.740906    -2.812377    -0.553176
C       -3.319548    -4.008084    -0.982247
C       -4.636984    -4.015987    -1.444999
C       -5.378553    -2.828951    -1.465115
C       -4.804352    -1.630821    -1.020467
C        2.480522    -0.435991     1.488605
N        3.663055     0.078068     1.914710
C        4.075437    -0.114069     3.194494
C        3.310436    -0.895771     4.062336
C        2.117143    -1.439417     3.591336
N        1.715001    -1.180507     2.324923
C        4.605158     0.848995    -2.541191
C        5.829086     1.482600    -2.766366
H        8.270457     2.545621    -2.912615
H        8.983003     1.635535    -1.566908
H        7.656887    -0.011759    -0.302416
H        5.497867    -1.126132     0.086152
H       -3.183156     2.927870     0.334443
H       -4.096132     4.693368    -1.131603
H       -4.765663     4.156865    -3.458231
H       -4.517333     1.843872    -4.317048
H       -3.607902     0.071116    -2.862575
H       -5.169263     1.350559     1.046405
H       -6.062450     1.698188     3.327357
H       -4.835256     0.821294     5.297748
H       -2.709472    -0.415008     4.984433
H       -1.803726    -0.758976     2.717889
H       -1.714902    -2.813049    -0.205158
H       -2.743337    -4.924920    -0.962606
H       -5.080360    -4.941433    -1.789222
H       -6.396325    -2.838364    -1.831183
H       -5.383271    -0.718371    -1.047545
H        4.995768     0.338031     3.537268
H        3.632040    -1.076135     5.078013
H        1.504331    -2.062233     4.227661
H        3.750105     1.093548    -3.159367
H        5.909877     2.212838    -3.561084
61
ex_0355 frame3 As-N-conf3
N        8.187816     0.532441     2.962744
C        6.964311     0.101448     2.395649
C        5.823811    -0.038760     3.200887
C        4.613048    -0.450819     2.638652
C        4.534764    -0.723806     1.268991
S        2.985485    -1.230581     0.540360
O        3.156373    -2.373048    -0.473861
O        2.022387    -1.867728     1.554258
N        2.025092    -0.026333    -0.298943
Au       0.000000     0.000000     0.000000
As      -2.550000     0.000000     0.000000
C       -3.426606     0.596903    -1.633083
C       -2.605440     1.172951    -2.611877
C       -3.148659     1.622923    -3.815378
C       -4.519241     1.494678    -4.049481
C       -5.345509     0.921033    -3.075105
C       -4.802703     0.477265    -1.861669
C       -3.353567    -1.755762     0.294659
C       -3.507963    -2.235194     1.601979
C       -4.032452    -3.512233     1.824506
C       -4.426748    -4.304794     0.742681
C       -4.298356    -3.819682    -0.562105
C       -3.777376    -2.541309    -0.786326
C       -3.418018     1.135154     1.322506
C       -2.631348     2.153105     1.879079
C       -3.157735     3.004900     2.849884
C       -4.479639     2.845812     3.268997
C       -5.274538     1.836616     2.710796
C       -4.749223     0.984599     1.728740
C        2.362343     0.358701    -1.600577
N        3.484925     1.080249    -1.849123
C        3.761724     1.498507    -3.112200
C        2.927626     1.127624    -4.170239
C        1.807920     0.347860    -3.892992
N        1.540015    -0.005710    -2.615462
C        5.672518    -0.600259     0.464574
C        6.884055    -0.188272     1.025080
H        9.027615     0.645559     2.376500
H        8.250581     0.757650     3.966304
H        5.871119     0.176741     4.260693
H        3.737405    -0.551021     3.267391
H       -1.540464     1.273310    -2.438505
H       -2.505439     2.067640    -4.564687
H       -4.938109     1.838968    -4.986078
H       -6.405647     0.819412    -3.263522
H       -5.445919     0.030330    -1.117337
H       -3.186740    -1.635827     2.444054
H       -4.122149    -3.891948     2.834111
H       -4.822213    -5.297550     0.914705
H       -4.590956    -4.438988    -1.400133
H       -3.661119    -2.187649    -1.801779
H       -1.602068     2.278598     1.564431
H       -2.537780     3.782821     3.278608
H       -4.883861     3.502959     4.028065
H       -6.295660     1.713866     3.045143
H       -5.366247     0.201713     1.311631
H        4.625850     2.121110    -3.294919
H        3.139837     1.438470    -5.182771
H        1.143252     0.028921    -4.683821
H        5.617759    -0.816791    -0.595171
H        7.756208    -0.089010     0.391344
61
ex_0355 frame4 As-N-conf5
N        8.164797    -2.672360     1.371744
C        6.944318    -1.955430     1.378922
C        6.870194    -0.680011     0.798325
C        5.660598     0.018703     0.792555
C        4.519463    -0.554008     1.363912
S        2.971192     0.330471     1.328454
O        2.002068    -0.094379     2.442804
O        3.131579     1.832230     1.615105
N        2.026315     0.252677    -0.145661
Au       0.000000     0.000000     0.000000
As      -2.550000     0.000000     0.000000
C       -3.356309     1.710079    -0.461448
C       -4.678282     1.833731    -0.905002
C       -5.180237     3.095950    -1.247604
C       -4.371271     4.232360    -1.127360
C       -3.058305     4.109591    -0.667151
C       -2.553786     2.851683    -0.334278
C       -3.359816    -0.448925     1.718064
C       -3.935641     0.525615     2.542650
C       -4.441703     0.165036     3.797555
C       -4.413578    -1.171789     4.210001
C       -3.874300    -2.149977     3.371550
C       -3.357626    -1.790461     2.125512
C       -3.452335    -1.221833    -1.234329
C       -4.634160    -1.905336    -0.911078
C       -5.189074    -2.811098    -1.822471
C       -4.583539    -3.017474    -3.065919
C       -3.425718    -2.313092    -3.403487
C       -2.871185    -1.406907    -2.496095
C        2.380902     1.042123    -1.243970
N        3.505662     0.782106    -1.958126
C        3.802747     1.522666    -3.057930
C        2.986500     2.598186    -3.417516
C        1.862961     2.869815    -2.640945
N        1.574460     2.078086    -1.583165
C        4.592492    -1.816065     1.960992
C        5.800637    -2.516389     1.967105
H        8.220329    -3.616913     1.779792
H        9.008588    -2.268979     0.939440
H        7.744717    -0.232093     0.343662
H        5.609005     0.999120     0.334975
H       -5.307212     0.960885    -1.008489
H       -6.194226     3.194737    -1.610910
H       -4.758707     5.207361    -1.392827
H       -2.429054     4.985892    -0.572932
H       -1.532044     2.762499     0.014909
H       -3.939788     1.565342     2.246326
H       -4.843785     0.922728     4.456874
H       -4.799225    -1.449246     5.182374
H       -3.843250    -3.184032     3.690943
H       -2.920932    -2.551518     1.490719
H       -5.110172    -1.770288     0.048392
H       -6.082774    -3.362079    -1.560892
H       -5.007171    -3.726657    -3.765284
H       -2.950686    -2.477565    -4.362452
H       -1.961688    -0.880714    -2.758496
H        4.669485     1.275447    -3.654150
H        3.215351     3.207397    -4.279613
H        1.211829     3.699827    -2.877129
H        3.713347    -2.259793     2.410819
H        5.842857    -3.497288     2.422759
61
ex_0355 frame5 As-N-conf6
N        6.602069     3.620048    -3.431443
C        5.737723     3.086449    -2.445124
C        4.453736     3.623529    -2.263290
C        3.596460     3.084945    -1.298745
C        4.018183     2.006865    -0.512287
S        2.923983     1.287865     0.705380
O        1.856774     2.254882     1.240095
O        3.638385     0.844450     1.991106
N        2.035534    -0.124998     0.184050
Au       0.000000     0.000000     0.000000
As      -2.550000     0.000000     0.000000
C       -3.263817     0.423800     1.756058
C       -2.318874     0.582915     2.780097
C       -2.726446     0.865832     4.082893
C       -4.085357     1.006293     4.367923
C       -5.034004     0.861049     3.346828
C       -4.625434     0.572083     2.036148
C       -3.116862     1.340798    -1.290053
C       -2.078082     1.910804    -2.043082
C       -2.344867     2.884210    -3.002789
C       -3.658142     3.302148    -3.215064
C       -4.702024     2.739688    -2.467098
C       -4.435454     1.753094    -1.503808
C       -3.306296    -1.727722    -0.453556
C       -4.173729    -1.934334    -1.530307
C       -4.606333    -3.234636    -1.827512
C       -4.199747    -4.313594    -1.031639
C       -3.366503    -4.095831     0.067164
C       -2.939158    -2.802744     0.366667
C        2.722402    -1.158952    -0.484073
N        3.028252    -1.048257    -1.805744
C        3.693919    -2.044579    -2.450666
C        4.068384    -3.194956    -1.754801
C        3.744076    -3.287308    -0.402532
N        3.079044    -2.273499     0.205005
C        5.304885     1.483680    -0.675914
C        6.160109     2.016373    -1.642718
H        7.523838     3.193845    -3.606921
H        6.315789     4.431235    -3.998537
H        4.113773     4.448773    -2.876315
H        2.602431     3.496238    -1.175880
H       -1.261936     0.468118     2.569061
H       -1.987834     0.971242     4.868480
H       -4.399907     1.223747     5.380420
H       -6.085313     0.967670     3.575787
H       -5.362508     0.450343     1.256583
H       -1.053095     1.594510    -1.887194
H       -1.531717     3.311526    -3.577981
H       -3.862365     4.061026    -3.959297
H       -5.716526     3.071565    -2.637416
H       -5.244855     1.324721    -0.933077
H       -4.467527    -1.111269    -2.166001
H       -5.242275    -3.411441    -2.684108
H       -4.520014    -5.319494    -1.269962
H       -3.037347    -4.927605     0.677987
H       -2.270245    -2.644980     1.204681
H        3.933533    -1.947268    -3.502011
H        4.598051    -3.998364    -2.250197
H        4.019272    -4.163602     0.167811
H        5.637272     0.653429    -0.065553
H        7.148448     1.592854    -1.768571
61
ex_0355 frame6 
N        6.646050     2.383920     1.748723
C        5.527620     1.487992     1.683561
C        4.252681     1.976813     1.960133
C        3.187209     1.078301     1.887602
C        3.375571    -0.249729     1.554972
S        2.044655    -1.373548     1.464028
O        2.496354    -2.771662     1.733145
O        0.940917    -0.931927     2.389598
N        1.463699    -1.311237    -0.186245
Au       0.207640    -0.180369    -0.669257
As      -1.607140     0.298198    -0.321650
C       -1.805064     1.528478     1.183484
C       -2.851905     1.426526     2.076533
C       -2.990047     2.296858     3.139503
C       -2.056682     3.316751     3.336729
C       -1.007006     3.431945     2.455129
C       -0.898226     2.540105     1.397265
C       -2.400804     1.148106    -1.908174
C       -2.290966     2.530248    -1.989804
C       -2.842115     3.138396    -3.095138
C       -3.480798     2.437165    -4.093666
C       -3.573124     1.053888    -3.980573
C       -3.029894     0.394336    -2.879045
C       -2.781680    -1.216350     0.035847
C       -4.154014    -0.977226    -0.010636
C       -5.072891    -1.982873     0.227628
C       -4.579180    -3.252354     0.517827
C       -3.206392    -3.484166     0.562616
C       -2.289711    -2.473219     0.323143
C        2.062981    -2.229355    -1.128137
N        3.168151    -1.793334    -1.798454
C        3.782755    -2.607198    -2.700433
C        3.240782    -3.853588    -2.889007
C        2.125054    -4.317444    -2.224146
N        1.558353    -3.456961    -1.337335
C        4.655023    -0.725980     1.280745
C        5.737082     0.157865     1.347748
H        7.534804     2.143887     1.263281
H        6.585409     3.279844     2.278200
H        4.099278     3.015195     2.221001
H        2.185633     1.457872     2.103842
H       -3.575577     0.618595     1.905254
H       -3.840726     2.174347     3.822781
H       -2.148614     4.008030     4.163999
H       -0.262949     4.224789     2.590768
H       -0.057340     2.664740     0.725612
H       -1.790274     3.084896    -1.207981
H       -2.791679     4.220456    -3.222496
H       -3.920257     2.872358    -4.965008
H       -4.055752     0.439712    -4.718204
H       -3.088102    -0.683232    -2.766486
H       -4.539741     0.027718    -0.240397
H       -6.132075    -1.765299     0.184127
H       -5.311025    -4.016445     0.699076
H       -2.866503    -4.470990     0.788484
H       -1.223301    -2.633242     0.353306
H        4.665168    -2.260235    -3.236227
H        3.691535    -4.548023    -3.599387
H        1.711763    -5.300256    -2.384165
H        4.854184    -1.750018     1.017357
H        6.721201    -0.242072     1.129007
