59
ex_0227 frame0 trans-OC-6-1
Cu       0.000000     0.000000     0.000000
N        2.030000     0.000000     0.000000
C        2.838689    -0.789684     0.760983
C        4.224665    -0.494853     0.476868
C        4.197409     0.525178    -0.506089
N        2.871022     0.759797    -0.728619
H        2.435975    -1.474691     1.421095
H        5.081364    -0.938614     0.904501
H        4.961479     1.045996    -1.007977
H        2.550906     1.392749    -1.333085
N       -2.030000     0.000000     0.000000
C       -2.863445     0.463221    -0.942367
C       -4.224665     0.306197    -0.615245
C       -4.197409    -0.324959     0.652948
N       -2.852148    -0.486545     0.977622
H       -2.516214     0.880225    -1.797319
H       -5.081364     0.580779    -1.166968
H       -4.961479    -0.647220     1.300474
H       -2.455222    -0.885263     1.778770
N        0.000000     2.030000     0.000000
C        0.484296     2.863812    -0.930828
C        0.318997     4.224665    -0.608707
C       -0.338544     4.197409     0.646008
N       -0.485158     2.870619     0.935207
H        0.920963     2.518435    -1.774944
H        0.605058     5.081364    -1.154566
H       -0.674277     4.961479     1.286654
H       -0.884841     2.549059     1.714516
N        0.000000    -2.030000     0.000000
C        0.603966    -2.838689    -0.915380
C        0.378473    -4.224665    -0.573621
C       -0.401667    -4.197409     0.608771
N       -0.601393    -2.852148     0.911480
H        1.127874    -2.435975    -1.709422
H        0.717871    -5.081364    -1.088016
H       -0.799999    -4.961479     1.212488
H       -1.094227    -2.455222     1.658428
O       -0.948426    -0.370059     4.010998
C       -0.000000     0.000000     3.248677
O        0.000000     0.000000     1.980000
C        1.278109     0.498702     3.952628
C        1.477193     0.576413     5.351183
C        2.794779     1.090521     5.581138
C        3.379229     1.318581     4.322968
O        2.458131     0.959128     3.350250
H        0.739802     0.288727     6.067311
H        3.264259     1.273727     6.521808
H        4.287104     1.672874     3.981993
O       -0.793602    -0.637693    -4.010998
C        0.000000     0.000000    -3.248677
O        0.000000     0.000000    -1.980000
C        1.069472     0.859358    -3.952628
C        1.236084     0.993200    -5.351183
C        2.338591     1.879101    -5.581138
C        2.827649     2.272058    -4.322968
O        2.056864     1.652769    -3.350250
H        0.619094     0.497386    -6.067311
H        2.731451     2.194753    -6.521808
H        3.587368     2.882458    -3.981993
59
ex_0227 frame1 trans-OC-6-1-conf1
Cu       0.000000     0.000000     0.000000
N        2.030000     0.000000     0.000000
C        2.838689    -0.760983    -0.789684
C        4.224665    -0.476868    -0.494853
C        4.197409     0.506089     0.525178
N        2.871022     0.728619     0.759797
H        2.445221    -1.408945    -1.480638
H        5.081364    -0.904501    -0.938614
H        4.961479     1.007977     1.045996
H        2.550906     1.333085     1.392749
N       -2.030000     0.000000     0.000000
C       -2.863445     0.691340    -0.790366
C       -4.224665     0.455000    -0.515032
C       -4.197409    -0.482881     0.546593
N       -2.852148    -0.722993     0.818383
H       -2.516214     1.315412    -1.508258
H       -5.081364     0.863023    -0.976888
H       -4.961479    -0.961754     1.088649
H       -2.460112    -1.311402     1.489395
N        0.000000     2.030000     0.000000
C        1.048269     2.863812    -0.046002
C        0.686654     4.224665    -0.028094
C       -0.728732     4.197409     0.029817
N       -1.052492     2.870619     0.047444
H        1.997628     2.518435    -0.089894
H        1.302413     5.081364    -0.053288
H       -1.451413     4.961479     0.059386
H       -1.927235     2.549059     0.090963
N        0.000000    -2.030000     0.000000
C       -0.852805    -2.845612    -0.662120
C       -0.543896    -4.224665    -0.420072
C        0.577225    -4.197409     0.445814
N        0.854460    -2.855011     0.660413
H       -1.619424    -2.436744    -1.254172
H       -1.031636    -5.081364    -0.796772
H        1.149657    -4.961479     0.887928
H        1.555197    -2.463385     1.239573
O       -0.636332    -0.794694     4.010998
C       -0.000000     0.000000     3.248677
O        0.000000     0.000000     1.980000
C        0.857524     1.070943     3.952628
C        0.991080     1.237785     5.351183
C        1.875089     2.341809     5.581138
C        2.267207     2.831539     4.322968
O        1.649240     2.059694     3.350250
H        0.496324     0.619946     6.067311
H        2.190068     2.735210     6.521808
H        2.876304     3.592304     3.981993
O       -0.793602    -0.637693    -4.010998
C        0.000000     0.000000    -3.248677
O        0.000000     0.000000    -1.980000
C        1.069472     0.859358    -3.952628
C        1.236084     0.993200    -5.351183
C        2.338591     1.879101    -5.581138
C        2.827649     2.272058    -4.322968
O        2.056864     1.652769    -3.350250
H        0.619094     0.497386    -6.067311
H        2.731451     2.194753    -6.521808
H        3.587368     2.882458    -3.981993
59
ex_0227 frame2 trans-OC-6-1-conf2
Cu       0.000000     0.000000     0.000000
N        2.030000     0.000000     0.000000
C        2.838689     0.303395    -1.053873
C        4.224665     0.190121    -0.660407
C        4.197409    -0.201773     0.700875
N        2.871022    -0.293694     1.010901
H        2.445221     0.577798    -1.960501
H        5.081364     0.360613    -1.252628
H        4.961479    -0.401871     1.395932
H        2.550906    -0.539614     1.850860
N       -2.030000     0.000000     0.000000
C       -2.863445    -0.338807    -0.993901
C       -4.224665    -0.218530    -0.651558
C       -4.197409     0.231923     0.691484
N       -2.852148     0.347244     1.035322
H       -2.516214    -0.648484    -1.893309
H       -5.081364    -0.414498    -1.235844
H       -4.961479     0.461920     1.377228
H       -2.460112     0.634153     1.880405
N        0.000000     2.030000     0.000000
C        1.048269     2.863812    -0.046002
C        0.686654     4.224665    -0.028094
C       -0.728732     4.197409     0.029817
N       -1.052492     2.870619     0.047444
H        1.997628     2.518435    -0.089894
H        1.302413     5.081364    -0.053288
H       -1.451413     4.961479     0.059386
H       -1.927235     2.549059     0.090963
N        0.000000    -2.030000     0.000000
C       -0.852805    -2.845612    -0.662120
C       -0.543896    -4.224665    -0.420072
C        0.577225    -4.197409     0.445814
N        0.854460    -2.855011     0.660413
H       -1.619424    -2.436744    -1.254172
H       -1.031636    -5.081364    -0.796772
H        1.149657    -4.961479     0.887928
H        1.555197    -2.463385     1.239573
O       -0.948426    -0.370059     4.010998
C       -0.000000     0.000000     3.248677
O        0.000000     0.000000     1.980000
C        1.278109     0.498702     3.952628
C        1.477193     0.576413     5.351183
C        2.794779     1.090521     5.581138
C        3.379229     1.318581     4.322968
O        2.458131     0.959128     3.350250
H        0.739802     0.288727     6.067311
H        3.264259     1.273727     6.521808
H        4.287104     1.672874     3.981993
O        0.900704    -0.474540    -4.010998
C       -0.000000    -0.000000    -3.248677
O        0.000000     0.000000    -1.980000
C       -1.213802     0.639495    -3.952627
C       -1.402880     0.739109    -5.351182
C       -2.654180     1.398343    -5.581137
C       -3.209225     1.690777    -4.322967
O       -2.334450     1.229911    -3.350249
H       -0.702599     0.370171    -6.067309
H       -3.100051     1.633237    -6.521807
H       -4.071438     2.145034    -3.981993
59
ex_0227 frame3 trans-OC-6-1-conf3
Cu       0.000000     0.000000     0.000000
N        2.030000     0.000000     0.000000
C        2.838689    -0.760983    -0.789684
C        4.224665    -0.476868    -0.494853
C        4.197409     0.506089     0.525178
N        2.871022     0.728619     0.759797
H        2.445221    -1.408945    -1.480638
H        5.081364    -0.904501    -0.938614
H        4.961479     1.007977     1.045996
H        2.550906     1.333085     1.392749
N       -2.030000     0.000000     0.000000
C       -2.863445     0.691340    -0.790366
C       -4.224665     0.455000    -0.515032
C       -4.197409    -0.482881     0.546593
N       -2.852148    -0.722993     0.818383
H       -2.516214     1.315412    -1.508258
H       -5.081364     0.863023    -0.976888
H       -4.961479    -0.961754     1.088649
H       -2.460112    -1.311402     1.489395
N        0.000000     2.030000     0.000000
C        1.048269     2.863812    -0.046002
C        0.686654     4.224665    -0.028094
C       -0.728732     4.197409     0.029817
N       -1.052492     2.870619     0.047444
H        1.997628     2.518435    -0.089894
H        1.302413     5.081364    -0.053288
H       -1.451413     4.961479     0.059386
H       -1.927235     2.549059     0.090963
N        0.000000    -2.030000     0.000000
C       -0.852805    -2.845612    -0.662120
C       -0.543896    -4.224665    -0.420072
C        0.577225    -4.197409     0.445814
N        0.854460    -2.855011     0.660413
H       -1.619424    -2.436744    -1.254172
H       -1.031636    -5.081364    -0.796772
H        1.149657    -4.961479     0.887928
H        1.555197    -2.463385     1.239573
O        0.922400    -0.430852     4.010998
C       -0.000000    -0.000000     3.248677
O        0.000000     0.000000     1.980000
C       -1.243038     0.580625     3.952627
C       -1.436669     0.671072     5.351182
C       -2.718094     1.269645     5.581137
C       -3.286513     1.535147     4.322967
O       -2.390678     1.116690     3.350249
H       -0.719526     0.336087     6.067309
H       -3.174694     1.482936     6.521807
H       -4.169493     1.947590     3.981993
O       -0.793602    -0.637693    -4.010998
C        0.000000     0.000000    -3.248677
O        0.000000     0.000000    -1.980000
C        1.069472     0.859358    -3.952628
C        1.236084     0.993200    -5.351183
C        2.338591     1.879101    -5.581138
C        2.827649     2.272058    -4.322968
O        2.056864     1.652769    -3.350250
H        0.619094     0.497386    -6.067311
H        2.731451     2.194753    -6.521808
H        3.587368     2.882458    -3.981993
59
ex_0227 frame4 trans-OC-6-1-conf4
Cu       0.000000     0.000000     0.000000
N        2.030000     0.000000     0.000000
C        2.854301    -0.763387     0.744715
C        4.224665    -0.494853     0.476868
C        4.197409     0.525178    -0.506089
N        2.871022     0.759797    -0.728619
H        2.532148    -1.372067     1.432874
H        5.081364    -0.938614     0.904501
H        4.961479     1.045996    -1.007977
H        2.550906     1.392749    -1.333085
N       -2.030000     0.000000     0.000000
C       -2.863445     0.463221    -0.942367
C       -4.224665     0.306197    -0.615245
C       -4.197409    -0.324959     0.652948
N       -2.862135    -0.480155     0.955146
H       -2.516214     0.880225    -1.797319
H       -5.081364     0.580779    -1.166968
H       -4.961479    -0.647220     1.300474
H       -2.562372    -0.914199     1.668186
N        0.000000     2.030000     0.000000
C        0.484296     2.863812    -0.930828
C        0.318997     4.224665    -0.608707
C       -0.338544     4.197409     0.646008
N       -0.485158     2.870619     0.935207
H        0.920963     2.518435    -1.774944
H        0.605058     5.081364    -1.154566
H       -0.674277     4.961479     1.286654
H       -0.884841     2.549059     1.714516
N        0.000000    -2.030000     0.000000
C       -0.989897    -2.859581     0.373725
C       -0.645833    -4.224665     0.234910
C        0.685409    -4.197409    -0.249306
N        0.994759    -2.866247    -0.373770
H       -1.845552    -2.510308     0.781580
H       -1.224985    -5.081364     0.445567
H        1.365127    -4.961479    -0.496542
H        1.786229    -2.524041    -0.763442
O       -0.948426    -0.370059     4.010998
C       -0.000000     0.000000     3.248677
O        0.000000     0.000000     1.980000
C        1.278109     0.498702     3.952628
C        1.477193     0.576413     5.351183
C        2.794779     1.090521     5.581138
C        3.379229     1.318581     4.322968
O        2.458131     0.959128     3.350250
H        0.739802     0.288727     6.067311
H        3.264259     1.273727     6.521808
H        4.287104     1.672874     3.981993
O       -0.793602    -0.637693    -4.010998
C        0.000000     0.000000    -3.248677
O        0.000000     0.000000    -1.980000
C        1.069472     0.859358    -3.952628
C        1.236084     0.993200    -5.351183
C        2.338591     1.879101    -5.581138
C        2.827649     2.272058    -4.322968
O        2.056864     1.652769    -3.350250
H        0.619094     0.497386    -6.067311
H        2.731451     2.194753    -6.521808
H        3.587368     2.882458    -3.981993
59
ex_0227 frame5 trans-OC-6-1-conf5
Cu       0.000000     0.000000     0.000000
N        2.030000     0.000000     0.000000
C        2.838689     0.303395    -1.053873
C        4.224665     0.190121    -0.660407
C        4.197409    -0.201773     0.700875
N        2.871022    -0.293694     1.010901
H        2.445221     0.577798    -1.960501
H        5.081364     0.360613    -1.252628
H        4.961479    -0.401871     1.395932
H        2.550906    -0.539614     1.850860
N       -2.030000     0.000000     0.000000
C       -2.863445     0.691340    -0.790366
C       -4.224665     0.455000    -0.515032
C       -4.197409    -0.482881     0.546593
N       -2.852148    -0.722993     0.818383
H       -2.516214     1.315412    -1.508258
H       -5.081364     0.863023    -0.976888
H       -4.961479    -0.961754     1.088649
H       -2.460112    -1.311402     1.489395
N        0.000000     2.030000     0.000000
C        1.048269     2.863812    -0.046002
C        0.686654     4.224665    -0.028094
C       -0.728732     4.197409     0.029817
N       -1.052492     2.870619     0.047444
H        1.997628     2.518435    -0.089894
H        1.302413     5.081364    -0.053288
H       -1.451413     4.961479     0.059386
H       -1.927235     2.549059     0.090963
N        0.000000    -2.030000     0.000000
C       -0.852805    -2.845612    -0.662120
C       -0.543896    -4.224665    -0.420072
C        0.577225    -4.197409     0.445814
N        0.854460    -2.855011     0.660413
H       -1.619424    -2.436744    -1.254172
H       -1.031636    -5.081364    -0.796772
H        1.149657    -4.961479     0.887928
H        1.555197    -2.463385     1.239573
O       -0.948426    -0.370059     4.010998
C       -0.000000     0.000000     3.248677
O        0.000000     0.000000     1.980000
C        1.278109     0.498702     3.952628
C        1.477193     0.576413     5.351183
C        2.794779     1.090521     5.581138
C        3.379229     1.318581     4.322968
O        2.458131     0.959128     3.350250
H        0.739802     0.288727     6.067311
H        3.264259     1.273727     6.521808
H        4.287104     1.672874     3.981993
O        0.859883     0.545028    -4.010998
C       -0.000000     0.000000    -3.248677
O        0.000000     0.000000    -1.980000
C       -1.158791    -0.734487    -3.952627
C       -1.339299    -0.848901    -5.351181
C       -2.533884    -1.606071    -5.581137
C       -3.063777    -1.941936    -4.322966
O       -2.228651    -1.412604    -3.350248
H       -0.670757    -0.425155    -6.067309
H       -2.959544    -1.875868    -6.521807
H       -3.886914    -2.463670    -3.981992
59
ex_0227 frame6 trans-OC-6-1-conf6
Cu       0.000000     0.000000     0.000000
N        2.030000     0.000000     0.000000
C        2.838689    -0.760983    -0.789684
C        4.224665    -0.476868    -0.494853
C        4.197409     0.506089     0.525178
N        2.871022     0.728619     0.759797
H        2.445221    -1.408945    -1.480638
H        5.081364    -0.904501    -0.938614
H        4.961479     1.007977     1.045996
H        2.550906     1.333085     1.392749
N       -2.030000     0.000000     0.000000
C       -2.863445    -0.691340     0.790366
C       -4.224665    -0.455000     0.515032
C       -4.197409     0.482881    -0.546593
N       -2.852148     0.722993    -0.818383
H       -2.516214    -1.315412     1.508258
H       -5.081364    -0.863023     0.976888
H       -4.961479     0.961754    -1.088649
H       -2.460112     1.311402    -1.489395
N        0.000000     2.030000     0.000000
C        1.048269     2.863812    -0.046002
C        0.686654     4.224665    -0.028094
C       -0.728732     4.197409     0.029817
N       -1.052492     2.870619     0.047444
H        1.997628     2.518435    -0.089894
H        1.302413     5.081364    -0.053288
H       -1.451413     4.961479     0.059386
H       -1.927235     2.549059     0.090963
N        0.000000    -2.030000     0.000000
C       -0.852805    -2.845612    -0.662120
C       -0.543896    -4.224665    -0.420072
C        0.577225    -4.197409     0.445814
N        0.854460    -2.855011     0.660413
H       -1.619424    -2.436744    -1.254172
H       -1.031636    -5.081364    -0.796772
H        1.149657    -4.961479     0.887928
H        1.555197    -2.463385     1.239573
O        0.922400    -0.430852     4.010998
C       -0.000000    -0.000000     3.248677
O        0.000000     0.000000     1.980000
C       -1.243038     0.580625     3.952627
C       -1.436669     0.671072     5.351182
C       -2.718094     1.269645     5.581137
C       -3.286513     1.535147     4.322967
O       -2.390678     1.116690     3.350249
H       -0.719526     0.336087     6.067309
H       -3.174694     1.482936     6.521807
H       -4.169493     1.947590     3.981993
O        0.542762    -0.861316    -4.010998
C       -0.000000    -0.000000    -3.248677
O        0.000000     0.000000    -1.980000
C       -0.731436     1.160720    -3.952627
C       -0.845375     1.341527    -5.351182
C       -1.599416     2.538090    -5.581137
C       -1.933882     3.068868    -4.322967
O       -1.406738     2.232359    -3.350249
H       -0.423383     0.671877    -6.067309
H       -1.868104     2.964450    -6.521807
H       -2.453451     3.893373    -3.981993
59
ex_0227 frame7 trans-OC-6-1-conf7
Cu       0.000000     0.000000     0.000000
N        2.030000     0.000000     0.000000
C        2.838689    -0.760983    -0.789684
C        4.224665    -0.476868    -0.494853
C        4.197409     0.506089     0.525178
N        2.871022     0.728619     0.759797
H        2.445221    -1.408945    -1.480638
H        5.081364    -0.904501    -0.938614
H        4.961479     1.007977     1.045996
H        2.550906     1.333085     1.392749
N       -2.030000     0.000000     0.000000
C       -2.863445    -0.338807    -0.993901
C       -4.224665    -0.218530    -0.651558
C       -4.197409     0.231923     0.691484
N       -2.852148     0.347244     1.035322
H       -2.516214    -0.648484    -1.893309
H       -5.081364    -0.414498    -1.235844
H       -4.961479     0.461920     1.377228
H       -2.460112     0.634153     1.880405
N        0.000000     2.030000     0.000000
C        1.048269     2.863812    -0.046002
C        0.686654     4.224665    -0.028094
C       -0.728732     4.197409     0.029817
N       -1.052492     2.870619     0.047444
H        1.997628     2.518435    -0.089894
H        1.302413     5.081364    -0.053288
H       -1.451413     4.961479     0.059386
H       -1.927235     2.549059     0.090963
N        0.000000    -2.030000     0.000000
C       -0.852805    -2.845612    -0.662120
C       -0.543896    -4.224665    -0.420072
C        0.577225    -4.197409     0.445814
N        0.854460    -2.855011     0.660413
H       -1.619424    -2.436744    -1.254172
H       -1.031636    -5.081364    -0.796772
H        1.149657    -4.961479     0.887928
H        1.555197    -2.463385     1.239573
O        0.898584     0.478541     4.010998
C       -0.000000     0.000000     3.248677
O        0.000000     0.000000     1.980000
C       -1.210944    -0.644889     3.952627
C       -1.399577    -0.745345     5.351181
C       -2.647923    -1.410156     5.581137
C       -3.201663    -1.705052     4.322966
O       -2.328953    -1.240288     3.350248
H       -0.700949    -0.373287     6.067309
H       -3.092737    -1.647045     6.521807
H       -4.061844    -2.163145     3.981992
O       -0.793602    -0.637693    -4.010998
C        0.000000     0.000000    -3.248677
O        0.000000     0.000000    -1.980000
C        1.069472     0.859358    -3.952628
C        1.236084     0.993200    -5.351183
C        2.338591     1.879101    -5.581138
C        2.827649     2.272058    -4.322968
O        2.056864     1.652769    -3.350250
H        0.619094     0.497386    -6.067311
H        2.731451     2.194753    -6.521808
H        3.587368     2.882458    -3.981993
59
ex_0227 frame8 trans-OC-6-1-conf8
Cu       0.000000     0.000000     0.000000
N        2.030000     0.000000     0.000000
C        2.838689    -0.789684     0.760983
C        4.224665    -0.494853     0.476868
C        4.197409     0.525178    -0.506089
N        2.871022     0.759797    -0.728619
H        2.486751    -1.422272     1.435544
H        5.081364    -0.938614     0.904501
H        4.961479     1.045996    -1.007977
H        2.550906     1.392749    -1.333085
N       -2.030000     0.000000     0.000000
C       -2.863445     0.463221    -0.942367
C       -4.224665     0.306197    -0.615245
C       -4.197409    -0.324959     0.652948
N       -2.852148    -0.486545     0.977622
H       -2.516214     0.880225    -1.797319
H       -5.081364     0.580779    -1.166968
H       -4.961479    -0.647220     1.300474
H       -2.494949    -0.908361     1.738457
N        0.000000     2.030000     0.000000
C        0.484296     2.863812    -0.930828
C        0.318997     4.224665    -0.608707
C       -0.338544     4.197409     0.646008
N       -0.485158     2.870619     0.935207
H        0.920963     2.518435    -1.774944
H        0.605058     5.081364    -1.154566
H       -0.674277     4.961479     1.286654
H       -0.884841     2.549059     1.714516
N        0.000000    -2.030000     0.000000
C        0.888635    -2.852755    -0.596622
C        0.575489    -4.224664    -0.375627
C       -0.610759    -4.197409     0.398638
N       -0.898631    -2.858096     0.592085
H        1.663425    -2.463754    -1.196738
H        1.091560    -5.081364    -0.712471
H       -1.216447    -4.961479     0.793967
H       -1.602047    -2.492084     1.161194
O       -0.948426    -0.370059     4.010998
C       -0.000000     0.000000     3.248677
O        0.000000     0.000000     1.980000
C        1.278109     0.498702     3.952628
C        1.477193     0.576413     5.351183
C        2.794779     1.090521     5.581138
C        3.379229     1.318581     4.322968
O        2.458131     0.959128     3.350250
H        0.739802     0.288727     6.067311
H        3.264259     1.273727     6.521808
H        4.287104     1.672874     3.981993
O       -0.793602    -0.637693    -4.010998
C        0.000000     0.000000    -3.248677
O        0.000000     0.000000    -1.980000
C        1.069472     0.859358    -3.952628
C        1.236084     0.993200    -5.351183
C        2.338591     1.879101    -5.581138
C        2.827649     2.272058    -4.322968
O        2.056864     1.652769    -3.350250
H        0.619094     0.497386    -6.067311
H        2.731451     2.194753    -6.521808
H        3.587368     2.882458    -3.981993
59
ex_0227 frame9 trans-OC-6-1-conf9
Cu       0.000000     0.000000     0.000000
N        2.030000     0.000000     0.000000
C        2.822205    -1.099772    -0.316608
C        4.230713    -0.667949    -0.192293
C        4.229958     0.743066     0.213919
N        2.849402     1.083907     0.312041
H        2.456313    -1.951561    -0.590723
H        5.081364    -1.252628    -0.360613
H        4.961479     1.395932     0.401871
H        2.455222     1.909339     0.549670
N       -2.030000     0.000000     0.000000
C       -2.822205     1.085036    -0.363918
C       -4.230713     0.659000    -0.221026
C       -4.229958    -0.733110     0.245884
N       -2.849402    -1.069384     0.358668
H       -2.435975     1.941680    -0.651233
H       -5.081364     1.235844    -0.414498
H       -4.961479    -1.377228     0.461920
H       -2.493229    -1.858750     0.645853
N        0.000000     2.030000     0.000000
C        0.531224     2.822205    -1.013677
C        0.322640     4.230713    -0.615659
C       -0.358923     4.229958     0.684897
N       -0.523561     2.849402     0.999054
H        0.950629     2.435975    -1.813982
H        0.605058     5.081364    -1.154566
H       -0.674277     4.961479     1.286654
H       -0.922271     2.455222     1.759867
N        0.000000    -2.030000     0.000000
C       -0.882599    -2.837349    -0.701606
C       -0.554455    -4.234985    -0.428231
C        0.624802    -4.242213     0.482796
N        0.886759    -2.852323     0.686836
H       -1.619292    -2.436816    -1.254390
H       -1.031636    -5.081364    -0.796772
H        1.149657    -4.961479     0.887928
H        1.535606    -2.472633     1.267968
O       -0.948426    -0.370059     4.010998
C       -0.000000     0.000000     3.248677
O        0.000000     0.000000     1.980000
C        1.239696     0.483713     3.936567
C        1.434390     0.559712     5.373113
C        2.821920     1.101112     5.608760
C        3.422998     1.335660     4.318421
O        2.458131     0.959128     3.350250
H        0.739802     0.288727     6.067311
H        3.264259     1.273727     6.521808
H        4.287104     1.672874     3.981993
O        0.900704    -0.474540    -4.010998
C       -0.000000    -0.000000    -3.248677
O        0.000000     0.000000    -1.980000
C       -1.177321     0.620275    -3.936566
C       -1.362230     0.717693    -5.373113
C       -2.679955     1.411922    -5.608760
C       -3.250792     1.712676    -4.318420
O       -2.334450     1.229911    -3.350249
H       -0.702599     0.370171    -6.067309
H       -3.100051     1.633237    -6.521807
H       -4.071438     2.145034    -3.981993
59
ex_0227 frame10 trans-OC-6-1-conf10
Cu       0.000000     0.000000     0.000000
N        2.030000     0.000000     0.000000
C        2.851770     0.938315    -0.528202
C        4.227732     0.604894    -0.334466
C        4.212232    -0.655577     0.362572
N        2.850604    -0.966547     0.534472
H        2.565020     1.661991    -1.042857
H        5.081364     1.140734    -0.630749
H        4.961479    -1.271239     0.702907
H        2.455222    -1.738782     0.961431
N       -2.030000     0.000000     0.000000
C       -2.832998     0.496365    -0.997309
C       -4.230421     0.309519    -0.621880
C       -4.204253    -0.327849     0.658884
N       -2.860885    -0.484134     0.962268
H       -2.435975     0.912483    -1.833466
H       -5.081364     0.580779    -1.166968
H       -4.961479    -0.647220     1.300474
H       -2.533496    -1.007083     1.774512
N        0.000000     2.030000     0.000000
C        0.516141     2.833057    -0.984896
C        0.320843     4.227732    -0.612229
C       -0.345511     4.208578     0.659303
N       -0.511412     2.850662     0.975871
H        0.950629     2.435975    -1.813982
H        0.605058     5.081364    -1.154566
H       -0.674277     4.961479     1.286654
H       -0.922271     2.455222     1.759867
N        0.000000    -2.030000     0.000000
C       -0.997163    -2.859144     0.381147
C       -0.653798    -4.231260     0.237865
C        0.705315    -4.213305    -0.256709
N        1.000815    -2.867097    -0.379443
H       -1.818552    -2.533741     0.809134
H       -1.224985    -5.081364     0.445567
H        1.365127    -4.961479    -0.496542
H        1.757640    -2.547069    -0.792985
O       -0.948426    -0.370059     4.010998
C       -0.000000     0.000000     3.248677
O        0.000000     0.000000     1.980000
C        1.273073     0.496737     3.949950
C        1.474339     0.575300     5.352755
C        2.796320     1.091123     5.585525
C        3.394077     1.324375     4.320539
O        2.454060     0.957539     3.352328
H        0.739802     0.288727     6.067311
H        3.264259     1.273727     6.521808
H        4.287104     1.672874     3.981993
O       -0.793602    -0.637693    -4.010998
C        0.000000     0.000000    -3.248677
O        0.000000     0.000000    -1.980000
C        1.065258     0.855972    -3.949950
C        1.233696     0.991281    -5.352755
C        2.339880     1.880137    -5.585525
C        2.840073     2.282041    -4.320539
O        2.053457     1.650031    -3.352328
H        0.619094     0.497386    -6.067311
H        2.731451     2.194753    -6.521808
H        3.587368     2.882458    -3.981993
59
ex_0227 frame11 cis-OC-6-2
Cu       0.000000     0.000000     0.000000
N        2.030000     0.000000     0.000000
C        2.838689    -0.789684     0.760983
C        4.224665    -0.494853     0.476868
C        4.197409     0.525178    -0.506089
N        2.871022     0.759797    -0.728619
H        2.435975    -1.474691     1.421095
H        5.081364    -0.938614     0.904501
H        4.961479     1.045996    -1.007977
H        2.550906     1.392749    -1.333085
N       -2.030000     0.000000     0.000000
C       -2.863445    -0.790366    -0.691340
C       -4.224665    -0.515032    -0.455000
C       -4.197409     0.546593     0.482881
N       -2.852148     0.818383     0.722993
H       -2.516214    -1.508258    -1.315412
H       -5.081364    -0.976888    -0.863023
H       -4.961479     1.088649     0.961754
H       -2.455222     1.489037     1.315478
N        0.000000     2.030000     0.000000
C        0.484296     2.863812    -0.930828
C        0.318997     4.224665    -0.608707
C       -0.338544     4.197409     0.646008
N       -0.485158     2.870619     0.935207
H        0.920963     2.518435    -1.774944
H        0.605058     5.081364    -1.154566
H       -0.674277     4.961479     1.286654
H       -0.884841     2.549059     1.714516
O       -0.673306    -4.010998    -0.763619
C       -0.000000    -3.248677    -0.000000
O        0.000000    -1.980000     0.000000
C        0.907367    -3.952627     1.029054
C        1.048754    -5.351181     1.189315
C        1.984137    -5.581137     2.250163
C        2.399080    -4.322966     2.720710
O        1.745092    -3.350248     1.979138
H        0.525312    -6.067309     0.595584
H        2.317452    -6.521806     2.628155
H        3.043675    -3.981991     3.451640
N        0.000000     0.000000     2.030000
C        1.021944     0.397902     2.838689
C        0.640399     0.249344     4.224665
C       -0.679641    -0.264625     4.197409
N       -1.017590    -0.396207     2.852148
H        1.908425     0.743060     2.435975
H        1.214678     0.472944     5.081364
H       -1.353640    -0.527053     4.961479
H       -1.851493    -0.720893     2.455222
O       -0.793602    -0.637693    -4.010998
C        0.000000     0.000000    -3.248677
O        0.000000     0.000000    -1.980000
C        1.069472     0.859358    -3.952628
C        1.236084     0.993200    -5.351183
C        2.338591     1.879101    -5.581138
C        2.827649     2.272058    -4.322968
O        2.056864     1.652769    -3.350250
H        0.619094     0.497386    -6.067311
H        2.731451     2.194753    -6.521808
H        3.587368     2.882458    -3.981993
59
ex_0227 frame12 cis-OC-6-2-conf1
Cu       0.000000     0.000000     0.000000
N        2.030000     0.000000     0.000000
C        2.838689    -0.789684     0.760983
C        4.224665    -0.494853     0.476868
C        4.197409     0.525178    -0.506089
N        2.871022     0.759797    -0.728619
H        2.412066    -1.336965     1.324840
H        5.081364    -0.938614     0.904501
H        4.961479     1.045996    -1.007977
H        2.550906     1.392749    -1.333085
N       -2.030000     0.000000     0.000000
C       -2.863445    -0.790366    -0.691340
C       -4.224665    -0.515032    -0.455000
C       -4.197409     0.546593     0.482881
N       -2.852148     0.818383     0.722993
H       -2.516214    -1.508258    -1.315412
H       -5.081364    -0.976888    -0.863023
H       -4.961479     1.088649     0.961754
H       -2.455222     1.489037     1.315478
N        0.000000     2.030000     0.000000
C        0.484296     2.863812    -0.930828
C        0.318997     4.224665    -0.608707
C       -0.338544     4.197409     0.646008
N       -0.485158     2.870619     0.935207
H        0.920963     2.518435    -1.774944
H        0.605058     5.081364    -1.154566
H       -0.674277     4.961479     1.286654
H       -0.884841     2.549059     1.714516
O       -0.789561    -4.010998    -0.642689
C       -0.000000    -3.248677     0.000000
O        0.000000    -1.980000     0.000000
C        1.064019    -3.952628     0.866101
C        1.229746    -5.351183     1.001038
C        2.326628    -5.581138     1.893892
C        2.813175    -4.322968     2.289955
O        2.058836    -3.406054     1.664377
H        0.615861    -6.067311     0.501383
H        2.717461    -6.521808     2.212052
H        3.568961    -3.981993     2.905218
N        0.000000     0.000000     2.030000
C        1.021944     0.397902     2.838689
C        0.640399     0.249344     4.224665
C       -0.679641    -0.264625     4.197409
N       -1.017590    -0.396207     2.852148
H        1.908425     0.743060     2.435975
H        1.214678     0.472944     5.081364
H       -1.353640    -0.527053     4.961479
H       -1.851493    -0.720893     2.455222
O       -0.793602    -0.637693    -4.010998
C        0.000000     0.000000    -3.248677
O        0.000000     0.000000    -1.980000
C        1.069472     0.859358    -3.952628
C        1.236084     0.993200    -5.351183
C        2.338591     1.879101    -5.581138
C        2.827649     2.272058    -4.322968
O        2.056864     1.652769    -3.350250
H        0.619094     0.497386    -6.067311
H        2.731451     2.194753    -6.521808
H        3.587368     2.882458    -3.981993
59
ex_0227 frame13 cis-OC-6-2-conf2
Cu       0.000000     0.000000     0.000000
N        2.030000     0.000000     0.000000
C        2.838689    -0.789684     0.760983
C        4.224665    -0.494853     0.476868
C        4.197409     0.525178    -0.506089
N        2.871022     0.759797    -0.728619
H        2.412066    -1.336965     1.324840
H        5.081364    -0.938614     0.904501
H        4.961479     1.045996    -1.007977
H        2.550906     1.392749    -1.333085
N       -2.030000     0.000000     0.000000
C       -2.863445    -0.790366    -0.691340
C       -4.224665    -0.515032    -0.455000
C       -4.197409     0.546593     0.482881
N       -2.852148     0.818383     0.722993
H       -2.516214    -1.508258    -1.315412
H       -5.081364    -0.976888    -0.863023
H       -4.961479     1.088649     0.961754
H       -2.455222     1.489037     1.315478
N        0.000000     2.030000     0.000000
C        0.484296     2.863812    -0.930828
C        0.318997     4.224665    -0.608707
C       -0.338544     4.197409     0.646008
N       -0.485158     2.870619     0.935207
H        0.920963     2.518435    -1.774944
H        0.605058     5.081364    -1.154566
H       -0.674277     4.961479     1.286654
H       -0.884841     2.549059     1.714516
O       -0.789561    -4.010998    -0.642689
C       -0.000000    -3.248677     0.000000
O        0.000000    -1.980000     0.000000
C        1.064019    -3.952628     0.866101
C        1.229746    -5.351183     1.001038
C        2.326628    -5.581138     1.893892
C        2.813175    -4.322968     2.289955
O        2.058836    -3.406054     1.664377
H        0.615861    -6.067311     0.501383
H        2.717461    -6.521808     2.212052
H        3.568961    -3.981993     2.905218
N        0.000000     0.000000     2.030000
C        1.021944     0.397902     2.838689
C        0.640399     0.249344     4.224665
C       -0.679641    -0.264625     4.197409
N       -1.017590    -0.396207     2.852148
H        1.908425     0.743060     2.435975
H        1.214678     0.472944     5.081364
H       -1.353640    -0.527053     4.961479
H       -1.851493    -0.720893     2.455222
O        0.900704    -0.474540    -4.010998
C       -0.000000    -0.000000    -3.248677
O        0.000000     0.000000    -1.980000
C       -1.213802     0.639495    -3.952627
C       -1.402880     0.739109    -5.351182
C       -2.654180     1.398343    -5.581137
C       -3.209225     1.690777    -4.322967
O       -2.334450     1.229911    -3.350249
H       -0.702599     0.370171    -6.067309
H       -3.100051     1.633237    -6.521807
H       -4.071438     2.145034    -3.981993
59
ex_0227 frame14 cis-OC-6-2-conf3
Cu       0.000000     0.000000     0.000000
N        2.030000     0.000000     0.000000
C        2.838689    -0.760983    -0.789684
C        4.224665    -0.476868    -0.494853
C        4.197409     0.506089     0.525178
N        2.871022     0.728619     0.759797
H        2.328149    -1.435752    -1.444616
H        5.081364    -0.904501    -0.938614
H        4.961479     1.007977     1.045996
H        2.550906     1.333085     1.392749
N       -2.030000     0.000000     0.000000
C       -2.863445     0.691340    -0.790366
C       -4.224665     0.455000    -0.515032
C       -4.197409    -0.482881     0.546593
N       -2.852148    -0.722993     0.818383
H       -2.516214     1.315412    -1.508258
H       -5.081364     0.863023    -0.976888
H       -4.961479    -0.961754     1.088649
H       -2.455222    -1.315478     1.489037
N        0.000000     2.030000     0.000000
C        1.048269     2.863812    -0.046002
C        0.686654     4.224665    -0.028094
C       -0.728732     4.197409     0.029817
N       -1.052492     2.870619     0.047444
H        1.997628     2.518435    -0.089894
H        1.302413     5.081364    -0.053288
H       -1.451413     4.961479     0.059386
H       -1.927235     2.549059     0.090963
O       -0.789561    -4.010998    -0.642689
C       -0.000000    -3.248677     0.000000
O        0.000000    -1.980000     0.000000
C        1.064019    -3.952628     0.866101
C        1.229746    -5.351183     1.001038
C        2.326628    -5.581138     1.893892
C        2.813175    -4.322968     2.289955
O        2.058836    -3.406054     1.664377
H        0.615861    -6.067311     0.501383
H        2.717461    -6.521808     2.212052
H        3.568961    -3.981993     2.905218
N        0.000000     0.000000     2.030000
C        0.441264     1.003983     2.838689
C        0.276517     0.629143     4.224665
C       -0.293461    -0.667697     4.197409
N       -0.439384    -0.999706     2.852148
H        0.824037     1.874883     2.435975
H        0.524485     1.193329     5.081364
H       -0.584485    -1.329851     4.961479
H       -0.799455    -1.818952     2.455222
O       -0.793602    -0.637693    -4.010998
C        0.000000     0.000000    -3.248677
O        0.000000     0.000000    -1.980000
C        1.069472     0.859358    -3.952628
C        1.236084     0.993200    -5.351183
C        2.338591     1.879101    -5.581138
C        2.827649     2.272058    -4.322968
O        2.056864     1.652769    -3.350250
H        0.619094     0.497386    -6.067311
H        2.731451     2.194753    -6.521808
H        3.587368     2.882458    -3.981993
59
ex_0227 frame15 cis-OC-6-2-conf4
Cu       0.000000     0.000000     0.000000
N        2.030000     0.000000     0.000000
C        2.838689    -0.789684     0.760983
C        4.224665    -0.494853     0.476868
C        4.197409     0.525178    -0.506089
N        2.871022     0.759797    -0.728619
H        2.435975    -1.474691     1.421095
H        5.081364    -0.938614     0.904501
H        4.961479     1.045996    -1.007977
H        2.550906     1.392749    -1.333085
N       -2.030000     0.000000     0.000000
C       -2.863445     0.790366     0.691340
C       -4.224665     0.515032     0.455000
C       -4.197409    -0.546593    -0.482881
N       -2.852148    -0.818383    -0.722993
H       -2.516214     1.508258     1.315412
H       -5.081364     0.976888     0.863023
H       -4.961479    -1.088649    -0.961754
H       -2.435318    -1.398453    -1.194274
N        0.000000     2.030000     0.000000
C        0.484296     2.863812    -0.930828
C        0.318997     4.224665    -0.608707
C       -0.338544     4.197409     0.646008
N       -0.485158     2.870619     0.935207
H        0.920963     2.518435    -1.774944
H        0.605058     5.081364    -1.154566
H       -0.674277     4.961479     1.286654
H       -0.884841     2.549059     1.714516
O        0.699062    -4.010998     0.740113
C        0.000000    -3.248677     0.000000
O        0.000000    -1.980000     0.000000
C       -0.942067    -3.952627    -0.997386
C       -1.088817    -5.351182    -1.152750
C       -2.059992    -5.581137    -2.180932
C       -2.490777    -4.322967    -2.637021
O       -1.811340    -3.400823    -1.927933
H       -0.545306    -6.067309    -0.577333
H       -2.406050    -6.521807    -2.547293
H       -3.159966    -3.981993    -3.345503
N        0.000000     0.000000     2.030000
C        1.021944     0.397902     2.838689
C        0.640399     0.249344     4.224665
C       -0.679641    -0.264625     4.197409
N       -1.017590    -0.396207     2.852148
H        1.908425     0.743060     2.435975
H        1.214678     0.472944     5.081364
H       -1.353640    -0.527053     4.961479
H       -1.851493    -0.720893     2.455222
O       -0.793602    -0.637693    -4.010998
C        0.000000     0.000000    -3.248677
O        0.000000     0.000000    -1.980000
C        1.069472     0.859358    -3.952628
C        1.236084     0.993200    -5.351183
C        2.338591     1.879101    -5.581138
C        2.827649     2.272058    -4.322968
O        2.056864     1.652769    -3.350250
H        0.619094     0.497386    -6.067311
H        2.731451     2.194753    -6.521808
H        3.587368     2.882458    -3.981993
59
ex_0227 frame16 cis-OC-6-2-conf5
Cu       0.000000     0.000000     0.000000
N        2.030000     0.000000     0.000000
C        2.838689    -1.096487    -0.020294
C        4.224665    -0.687111    -0.012717
C        4.197409     0.729216     0.013498
N        2.852148     1.091816     0.020208
H        2.412066    -1.882180    -0.008574
H        5.081364    -1.303279    -0.024122
H        4.961479     1.452379     0.026884
H        2.455222     1.986545     0.036767
N       -2.030000     0.000000     0.000000
C       -2.838689     1.094581    -0.067739
C       -4.224665     0.685916    -0.042449
C       -4.197409    -0.727949     0.045051
N       -2.852148    -1.089918     0.067451
H       -2.435975     2.044070    -0.126499
H       -5.081364     1.301013    -0.080515
H       -4.961479    -1.449854     0.089728
H       -2.455222    -1.983092     0.122725
N        0.000000     2.030000     0.000000
C        0.509053     2.838689    -0.971371
C        0.318997     4.224665    -0.608707
C       -0.338544     4.197409     0.646008
N       -0.506884     2.852148     0.967232
H        0.950629     2.435975    -1.813982
H        0.605058     5.081364    -1.154566
H       -0.674277     4.961479     1.286654
H       -0.922271     2.455222     1.759867
O       -0.789561    -4.010998    -0.642689
C       -0.000000    -3.248677     0.000000
O        0.000000    -1.980000     0.000000
C        1.064019    -3.952628     0.866101
C        1.229746    -5.351183     1.001038
C        2.326628    -5.581138     1.893892
C        2.813175    -4.322968     2.289955
O        2.058836    -3.406054     1.664377
H        0.615861    -6.067311     0.501383
H        2.717461    -6.521808     2.212052
H        3.568961    -3.981993     2.905218
N        0.000000     0.000000     2.030000
C        1.090107     0.119845     2.838689
C        0.683113     0.075101     4.224665
C       -0.724973    -0.079704     4.197409
N       -1.085463    -0.119335     2.852148
H        2.035715     0.223804     2.435975
H        1.295695     0.142447     5.081364
H       -1.443927    -0.158746     4.961479
H       -1.974986    -0.217127     2.455222
O       -0.793602    -0.637693    -4.010998
C        0.000000     0.000000    -3.248677
O        0.000000     0.000000    -1.980000
C        1.069472     0.859358    -3.952628
C        1.236084     0.993200    -5.351183
C        2.338591     1.879101    -5.581138
C        2.827649     2.272058    -4.322968
O        2.056864     1.652769    -3.350250
H        0.619094     0.497386    -6.067311
H        2.731451     2.194753    -6.521808
H        3.587368     2.882458    -3.981993
59
ex_0227 frame17 cis-OC-6-2-conf6
Cu       0.000000     0.000000     0.000000
N        2.030000     0.000000     0.000000
C        2.838689    -0.760983    -0.789684
C        4.224665    -0.476868    -0.494853
C        4.197409     0.506089     0.525178
N        2.863286     0.748342     0.762000
H        2.435975    -1.421095    -1.474691
H        5.081364    -0.904501    -0.938614
H        4.961479     1.007977     1.045996
H        2.492935     1.422617     1.357995
N       -2.030000     0.000000     0.000000
C       -2.863445    -0.790366    -0.691340
C       -4.224665    -0.515032    -0.455000
C       -4.197409     0.546593     0.482881
N       -2.852148     0.818383     0.722993
H       -2.516214    -1.508258    -1.315412
H       -5.081364    -0.976888    -0.863023
H       -4.961479     1.088649     0.961754
H       -2.455222     1.489037     1.315478
N        0.000000     2.030000     0.000000
C        0.509053     2.838689    -0.971371
C        0.318997     4.224665    -0.608707
C       -0.338544     4.197409     0.646008
N       -0.485158     2.870619     0.935207
H        0.950629     2.435975    -1.813982
H        0.605058     5.081364    -1.154566
H       -0.674277     4.961479     1.286654
H       -0.884841     2.549059     1.714516
O       -1.012754    -4.010998     0.103854
C       -0.000000    -3.248677     0.000000
O        0.000000    -1.980000     0.000000
C        1.364801    -3.952628    -0.139949
C        1.577402    -5.351183    -0.161721
C        2.984359    -5.581138    -0.305990
C        3.608457    -4.322968    -0.369972
O        2.624859    -3.350250    -0.269162
H        0.790011    -6.067311    -0.080948
H        3.485692    -6.521808    -0.357379
H        4.577936    -3.981993    -0.469337
N        0.000000     0.000000     2.030000
C        0.435041     0.986290     2.846424
C        0.276517     0.629143     4.224665
C       -0.293461    -0.667697     4.197409
N       -0.439384    -0.999706     2.852148
H        0.855608     1.803483     2.514685
H        0.524485     1.193329     5.081364
H       -0.584485    -1.329851     4.961479
H       -0.799455    -1.818952     2.455222
O       -0.793602    -0.637693    -4.010998
C        0.000000     0.000000    -3.248677
O        0.000000     0.000000    -1.980000
C        1.069472     0.859358    -3.952628
C        1.236084     0.993200    -5.351183
C        2.338591     1.879101    -5.581138
C        2.827649     2.272058    -4.322968
O        2.056864     1.652769    -3.350250
H        0.619094     0.497386    -6.067311
H        2.731451     2.194753    -6.521808
H        3.587368     2.882458    -3.981993
59
ex_0227 frame18 cis-OC-6-2-conf7
Cu       0.000000     0.000000     0.000000
N        2.030000     0.000000     0.000000
C        2.838689    -0.789684     0.760983
C        4.224665    -0.494853     0.476868
C        4.197409     0.525178    -0.506089
N        2.871022     0.759797    -0.728619
H        2.412066    -1.336965     1.324840
H        5.081364    -0.938614     0.904501
H        4.961479     1.045996    -1.007977
H        2.550906     1.392749    -1.333085
N       -2.030000     0.000000     0.000000
C       -2.863445    -0.790366    -0.691340
C       -4.224665    -0.515032    -0.455000
C       -4.197409     0.546593     0.482881
N       -2.852148     0.818383     0.722993
H       -2.516214    -1.508258    -1.315412
H       -5.081364    -0.976888    -0.863023
H       -4.961479     1.088649     0.961754
H       -2.455222     1.489037     1.315478
N        0.000000     2.030000     0.000000
C        0.484296     2.863812    -0.930828
C        0.318997     4.224665    -0.608707
C       -0.338544     4.197409     0.646008
N       -0.485158     2.870619     0.935207
H        0.920963     2.518435    -1.774944
H        0.605058     5.081364    -1.154566
H       -0.674277     4.961479     1.286654
H       -0.884841     2.549059     1.714516
O       -0.789561    -4.010998    -0.642689
C       -0.000000    -3.248677     0.000000
O        0.000000    -1.980000     0.000000
C        1.064019    -3.952628     0.866101
C        1.229746    -5.351183     1.001038
C        2.326628    -5.581138     1.893892
C        2.813175    -4.322968     2.289955
O        2.058836    -3.406054     1.664377
H        0.615861    -6.067311     0.501383
H        2.717461    -6.521808     2.212052
H        3.568961    -3.981993     2.905218
N        0.000000     0.000000     2.030000
C        1.021944     0.397902     2.838689
C        0.640399     0.249344     4.224665
C       -0.679641    -0.264625     4.197409
N       -1.017590    -0.396207     2.852148
H        1.908425     0.743060     2.435975
H        1.214678     0.472944     5.081364
H       -1.353640    -0.527053     4.961479
H       -1.851493    -0.720893     2.455222
O        0.859883     0.545028    -4.010998
C       -0.000000     0.000000    -3.248677
O        0.000000     0.000000    -1.980000
C       -1.158791    -0.734487    -3.952627
C       -1.339299    -0.848901    -5.351181
C       -2.533884    -1.606071    -5.581137
C       -3.063777    -1.941936    -4.322966
O       -2.228651    -1.412604    -3.350248
H       -0.670757    -0.425155    -6.067309
H       -2.959544    -1.875868    -6.521807
H       -3.886914    -2.463670    -3.981992
59
ex_0227 frame19 cis-OC-6-2-conf8
Cu       0.000000     0.000000     0.000000
N        2.030000     0.000000     0.000000
C        2.838689    -0.760983    -0.789684
C        4.224665    -0.476868    -0.494853
C        4.197409     0.506089     0.525178
N        2.871022     0.728619     0.759797
H        2.328149    -1.435752    -1.444616
H        5.081364    -0.904501    -0.938614
H        4.961479     1.007977     1.045996
H        2.550906     1.333085     1.392749
N       -2.030000     0.000000     0.000000
C       -2.863445    -0.338807    -0.993901
C       -4.224665    -0.218530    -0.651558
C       -4.197409     0.231923     0.691484
N       -2.852148     0.347244     1.035322
H       -2.516214    -0.648484    -1.893309
H       -5.081364    -0.414498    -1.235844
H       -4.961479     0.461920     1.377228
H       -2.455222     0.631805     1.883756
N        0.000000     2.030000     0.000000
C        1.048269     2.863812    -0.046002
C        0.686654     4.224665    -0.028094
C       -0.728732     4.197409     0.029817
N       -1.052492     2.870619     0.047444
H        1.997628     2.518435    -0.089894
H        1.302413     5.081364    -0.053288
H       -1.451413     4.961479     0.059386
H       -1.927235     2.549059     0.090963
O       -0.789561    -4.010998    -0.642689
C       -0.000000    -3.248677     0.000000
O        0.000000    -1.980000     0.000000
C        1.064019    -3.952628     0.866101
C        1.229746    -5.351183     1.001038
C        2.326628    -5.581138     1.893892
C        2.813175    -4.322968     2.289955
O        2.058836    -3.406054     1.664377
H        0.615861    -6.067311     0.501383
H        2.717461    -6.521808     2.212052
H        3.568961    -3.981993     2.905218
N        0.000000     0.000000     2.030000
C        0.441264     1.003983     2.838689
C        0.276517     0.629143     4.224665
C       -0.293461    -0.667697     4.197409
N       -0.439384    -0.999706     2.852148
H        0.824037     1.874883     2.435975
H        0.524485     1.193329     5.081364
H       -0.584485    -1.329851     4.961479
H       -0.799455    -1.818952     2.455222
O        0.900704    -0.474540    -4.010998
C       -0.000000    -0.000000    -3.248677
O        0.000000     0.000000    -1.980000
C       -1.213802     0.639495    -3.952627
C       -1.402880     0.739109    -5.351182
C       -2.654180     1.398343    -5.581137
C       -3.209225     1.690777    -4.322967
O       -2.334450     1.229911    -3.350249
H       -0.702599     0.370171    -6.067309
H       -3.100051     1.633237    -6.521807
H       -4.071438     2.145034    -3.981993
59
ex_0227 frame20 cis-OC-6-2-conf9
Cu       0.000000     0.000000     0.000000
N        2.030000     0.000000     0.000000
C        2.838689    -0.789684     0.760983
C        4.224665    -0.494853     0.476868
C        4.197409     0.525178    -0.506089
N        2.871022     0.759797    -0.728619
H        2.435975    -1.474691     1.421095
H        5.081364    -0.938614     0.904501
H        4.961479     1.045996    -1.007977
H        2.550906     1.392749    -1.333085
N       -2.030000     0.000000     0.000000
C       -2.863445     0.790366     0.691340
C       -4.224665     0.515032     0.455000
C       -4.197409    -0.546593    -0.482881
N       -2.852148    -0.818383    -0.722993
H       -2.516214     1.508258     1.315412
H       -5.081364     0.976888     0.863023
H       -4.961479    -1.088649    -0.961754
H       -2.435318    -1.398453    -1.194274
N        0.000000     2.030000     0.000000
C        0.484296     2.863812    -0.930828
C        0.318997     4.224665    -0.608707
C       -0.338544     4.197409     0.646008
N       -0.485158     2.870619     0.935207
H        0.920963     2.518435    -1.774944
H        0.605058     5.081364    -1.154566
H       -0.674277     4.961479     1.286654
H       -0.884841     2.549059     1.714516
O        0.699062    -4.010998     0.740113
C        0.000000    -3.248677     0.000000
O        0.000000    -1.980000     0.000000
C       -0.942067    -3.952627    -0.997386
C       -1.088817    -5.351182    -1.152750
C       -2.059992    -5.581137    -2.180932
C       -2.490777    -4.322967    -2.637021
O       -1.811340    -3.400823    -1.927933
H       -0.545306    -6.067309    -0.577333
H       -2.406050    -6.521807    -2.547293
H       -3.159966    -3.981993    -3.345503
N        0.000000     0.000000     2.030000
C        1.021944     0.397902     2.838689
C        0.640399     0.249344     4.224665
C       -0.679641    -0.264625     4.197409
N       -1.017590    -0.396207     2.852148
H        1.908425     0.743060     2.435975
H        1.214678     0.472944     5.081364
H       -1.353640    -0.527053     4.961479
H       -1.851493    -0.720893     2.455222
O        0.900704    -0.474540    -4.010998
C       -0.000000    -0.000000    -3.248677
O        0.000000     0.000000    -1.980000
C       -1.213802     0.639495    -3.952627
C       -1.402880     0.739109    -5.351182
C       -2.654180     1.398343    -5.581137
C       -3.209225     1.690777    -4.322967
O       -2.334450     1.229911    -3.350249
H       -0.702599     0.370171    -6.067309
H       -3.100051     1.633237    -6.521807
H       -4.071438     2.145034    -3.981993
59
ex_0227 frame21 cis-OC-6-2-conf10
Cu       0.000000     0.000000     0.000000
N        2.030000     0.000000     0.000000
C        2.838689    -0.760983    -0.789684
C        4.224665    -0.476868    -0.494853
C        4.197409     0.506089     0.525178
N        2.871022     0.728619     0.759797
H        2.435975    -1.421095    -1.474691
H        5.081364    -0.904501    -0.938614
H        4.961479     1.007977     1.045996
H        2.550906     1.333085     1.392749
N       -2.030000     0.000000     0.000000
C       -2.863445     0.691340    -0.790366
C       -4.224665     0.455000    -0.515032
C       -4.197409    -0.482881     0.546593
N       -2.852148    -0.722993     0.818383
H       -2.516214     1.315412    -1.508258
H       -5.081364     0.863023    -0.976888
H       -4.961479    -0.961754     1.088649
H       -2.355322    -1.284720     1.509777
N        0.000000     2.030000     0.000000
C        1.048269     2.863812    -0.046002
C        0.686654     4.224665    -0.028094
C       -0.728732     4.197409     0.029817
N       -1.052492     2.870619     0.047444
H        1.997628     2.518435    -0.089894
H        1.302413     5.081364    -0.053288
H       -1.451413     4.961479     0.059386
H       -1.927235     2.549059     0.090963
O        0.866797    -4.010998     0.533964
C        0.000000    -3.248677     0.000000
O        0.000000    -1.980000     0.000000
C       -1.168109    -3.952627    -0.719576
C       -1.350070    -5.351182    -0.831665
C       -2.554267    -5.581137    -1.573453
C       -3.088417    -4.322967    -1.902506
O       -2.248606    -3.400823    -1.393431
H       -0.676150    -6.067309    -0.416525
H       -2.983354    -6.521807    -1.837764
H       -3.918172    -3.981993    -2.413648
N        0.000000     0.000000     2.030000
C        0.441264     1.003983     2.838689
C        0.276517     0.629143     4.224665
C       -0.293461    -0.667697     4.197409
N       -0.439384    -0.999706     2.852148
H        0.824037     1.874883     2.435975
H        0.524485     1.193329     5.081364
H       -0.584485    -1.329851     4.961479
H       -0.799455    -1.818952     2.455222
O       -0.793602    -0.637693    -4.010998
C        0.000000     0.000000    -3.248677
O        0.000000     0.000000    -1.980000
C        1.069472     0.859358    -3.952628
C        1.236084     0.993200    -5.351183
C        2.338591     1.879101    -5.581138
C        2.827649     2.272058    -4.322968
O        2.056864     1.652769    -3.350250
H        0.619094     0.497386    -6.067311
H        2.731451     2.194753    -6.521808
H        3.587368     2.882458    -3.981993
