36
ex_0047 frame0 As-Cl-conf2
Cl       2.279859     0.000018     0.000338
Au       0.000000     0.000000     0.000000
As      -2.550000     0.000000     0.000000
C       -3.247065    -1.068347     1.466815
C       -2.363590    -1.556468     2.451430
C       -2.856542    -2.327004     3.511978
C       -4.222649    -2.610286     3.585006
C       -5.092587    -2.124553     2.603423
C       -4.604688    -1.352532     1.550345
C       -3.309445    -0.741313    -1.627372
C       -3.381362     0.057740    -2.771275
C       -3.895915    -0.456556    -3.958571
C       -4.355812    -1.771934    -4.006156
C       -4.294843    -2.578899    -2.863895
C       -3.783220    -2.061556    -1.665870
C       -3.251010     1.790978     0.178403
C       -4.307063     2.086822     1.041591
C       -4.758496     3.407754     1.150197
C       -4.162061     4.423092     0.389158
C       -3.109954     4.119071    -0.476966
C       -2.668360     2.804377    -0.588993
H       -1.299340    -1.340504     2.401966
H       -2.189891    -2.707081     4.278318
H       -4.608518    -3.206392     4.400312
H       -6.147932    -2.343388     2.651896
H       -5.275469    -0.982507     0.791742
H       -3.013050     1.071853    -2.751361
H       -3.933530     0.164561    -4.842895
H       -4.750933    -2.159825    -4.934148
H       -4.639320    -3.603747    -2.914168
H       -3.718055    -2.699199    -0.792797
H       -4.760247     1.315778     1.642729
H       -5.566845     3.643424     1.827651
H       -4.506656     5.444975     0.472965
H       -2.629825     4.895534    -1.058763
H       -1.837449     2.571240    -1.244723
36
ex_0047 frame1 linear
Cl      -3.536562     2.933573    -1.667708
Au      -2.128848     2.696517     0.110279
As      -0.320925     0.968783     0.609129
C       -0.937587    -0.833450     0.862893
C       -2.196371    -1.245665     0.358385
C       -2.596599    -2.577575     0.572426
C       -1.769667    -3.463847     1.272759
C       -0.544882    -3.026845     1.756990
C       -0.143388    -1.725945     1.541973
C        1.102863     0.923028    -0.713299
C        1.718140     2.117474    -1.104425
C        2.737271     2.085569    -2.054593
C        3.147691     0.867835    -2.613113
C        2.543521    -0.315442    -2.229494
C        1.519739    -0.288853    -1.278511
C        0.469866     1.498217     2.315976
C       -0.340429     1.613500     3.444546
C        0.237510     1.998346     4.670050
C        1.602836     2.259723     4.764677
C        2.397847     2.140086     3.632458
C        1.825006     1.758410     2.410226
H       -2.832519    -0.557962    -0.185693
H       -3.523828    -2.938817     0.214639
H       -2.066798    -4.487142     1.444999
H        0.121350    -3.674348     2.301226
H        0.805713    -1.387142     1.925820
H        1.400351     3.067817    -0.673346
H        3.236178     2.969784    -2.385655
H        3.931719     0.821563    -3.345321
H        2.872591    -1.253446    -2.671863
H        1.037687    -1.188413    -0.965859
H       -1.398193     1.417288     3.390230
H       -0.354284     2.096160     5.549600
H        2.036207     2.554102     5.715347
H        3.451193     2.328804     3.648715
H        2.417805     1.662634     1.538501
36
ex_0047 frame2 As-Cl
Cl       2.279852     0.000410     0.000230
Au       0.000000     0.000000     0.000000
As      -2.550000     0.000000     0.000000
C       -3.296028    -1.354404     1.144361
C       -4.322246    -1.061195     2.045080
C       -4.824337    -2.074166     2.862966
C       -4.304941    -3.373329     2.777306
C       -3.280620    -3.662564     1.877246
C       -2.786312    -2.656432     1.058134
C       -3.132326     1.756894     0.627670
C       -4.476023     2.118679     0.644239
C       -4.847961     3.386678     1.101606
C       -3.885445     4.295450     1.544773
C       -2.543910     3.936755     1.530406
C       -2.162719     2.676136     1.073412
C       -3.235377    -0.362759    -1.769707
C       -4.093412     0.527859    -2.422402
C       -4.550435     0.219426    -3.709860
C       -4.156365    -0.972423    -4.333913
C       -3.301532    -1.856074    -3.675757
C       -2.852681    -1.550914    -2.397782
H       -4.727416    -0.064384     2.129074
H       -5.617155    -1.846858     3.559927
H       -4.688252    -4.160756     3.404357
H       -2.868913    -4.662674     1.810888
H       -1.980382    -2.888503     0.375181
H       -5.227789     1.427740     0.304821
H       -5.883573     3.669184     1.113788
H       -4.171734     5.277037     1.899887
H       -1.805152     4.641944     1.875356
H       -1.109199     2.428104     1.078162
H       -4.394078     1.454059    -1.954943
H       -5.210444     0.901468    -4.225305
H       -4.508559    -1.214464    -5.325630
H       -2.982908    -2.778244    -4.146069
H       -2.181071    -2.233339    -1.900918
36
ex_0047 frame3 As-Cl-conf5
Cl       2.279854     0.001005    -0.001178
Au       0.000000     0.000000     0.000000
As      -2.550000     0.000000     0.000000
C       -3.230977    -0.148808    -1.816624
C       -4.457586    -0.755494    -2.094386
C       -4.884661    -0.869329    -3.426346
C       -4.098407    -0.360484    -4.469511
C       -2.880366     0.258687    -4.186653
C       -2.455165     0.373128    -2.863115
C       -3.106464     1.669882     0.771493
C       -3.900801     2.553954     0.044361
C       -4.252000     3.784333     0.601054
C       -3.835598     4.114276     1.896220
C       -3.057983     3.216652     2.632925
C       -2.704344     1.989225     2.074610
C       -3.178416    -1.507816     1.059440
C       -3.010854    -2.801011     0.554261
C       -3.394269    -3.908834     1.310783
C       -3.972756    -3.726579     2.568592
C       -4.164745    -2.434369     3.069784
C       -3.789644    -1.319956     2.307228
H       -5.058454    -1.164081    -1.294839
H       -5.821386    -1.357901    -3.653986
H       -4.426245    -0.450541    -5.497352
H       -2.262790     0.643130    -4.990401
H       -1.499972     0.839619    -2.650481
H       -4.203074     2.311620    -0.964853
H       -4.837964     4.483372     0.022510
H       -4.106484     5.068214     2.324476
H       -2.720741     3.473931     3.629007
H       -2.078396     1.304194     2.636822
H       -2.537027    -2.946893    -0.408256
H       -3.230854    -4.906920     0.925884
H       -4.261498    -4.587328     3.157280
H       -4.593044    -2.300722     4.054675
H       -3.919619    -0.332292     2.722306
36
ex_0047 frame4 As-Cl-conf4
Cl       2.279856    -0.000235     0.000545
Au       0.000000     0.000000     0.000000
As      -2.550000     0.000000     0.000000
C       -3.298306     1.094222     1.421432
C       -4.669579     1.225443     1.554944
C       -5.199135     2.019520     2.573988
C       -4.353400     2.682964     3.470811
C       -2.968267     2.554383     3.346843
C       -2.435419     1.758419     2.322222
C       -3.062387    -1.851953     0.258219
C       -4.224498    -2.382904    -0.302174
C       -4.530553    -3.737093    -0.100473
C       -3.685640    -4.547117     0.671765
C       -2.529679    -4.008463     1.238504
C       -2.224695    -2.664230     1.035406
C       -3.090725     0.736781    -1.698729
C       -3.437381    -0.091666    -2.773592
C       -3.776838     0.480676    -4.004859
C       -3.802878     1.873947    -4.146615
C       -3.472964     2.693654    -3.064543
C       -3.131727     2.124136    -1.842056
H       -5.314544     0.716197     0.859091
H       -6.268620     2.117175     2.662153
H       -4.772283     3.296179     4.259088
H       -2.319874     3.073763     4.045766
H       -1.356588     1.666825     2.231398
H       -4.871873    -1.762790    -0.903330
H       -5.420463    -4.161374    -0.543383
H       -3.921384    -5.591407     0.830445
H       -1.867821    -4.628274     1.831589
H       -1.319597    -2.251523     1.467408
H       -3.386361    -1.168120    -2.685691
H       -4.011010    -0.154693    -4.849400
H       -4.066972     2.321639    -5.094174
H       -3.473217     3.769887    -3.166716
H       -2.851595     2.761709    -1.012406
36
ex_0047 frame5 As-Cl-conf6
Cl       2.279873     0.000027    -0.000002
Au       0.000000     0.000000     0.000000
As      -2.550000     0.000000     0.000000
C       -3.190545     0.404889     1.785773
C       -2.247482     0.538939     2.800386
C       -2.651605     0.829263     4.105907
C       -4.003967     0.985429     4.386299
C       -4.955200     0.852574     3.371673
C       -4.548445     0.560326     2.063761
C       -3.017029     1.349565    -1.308524
C       -1.990752     1.888994    -2.064517
C       -2.255206     2.864131    -3.026555
C       -3.550384     3.308856    -3.236249
C       -4.584681     2.770832    -2.477706
C       -4.318986     1.776892    -1.501196
C       -3.216010    -1.743938    -0.464830
C       -4.069660    -1.953316    -1.546629
C       -4.505214    -3.246639    -1.815291
C       -4.087580    -4.316941    -1.006433
C       -3.236096    -4.102314     0.069566
C       -2.811950    -2.824368     0.330191
H       -1.196130     0.413397     2.565728
H       -1.932585     0.936123     4.905509
H       -4.286061     1.209467     5.401588
H       -6.005034     0.974310     3.591784
H       -5.272287     0.458039     1.285627
H       -0.977415     1.571019    -1.934141
H       -1.447385     3.270675    -3.605101
H       -3.743740     4.071087    -3.988936
H       -5.590641     3.120963    -2.645146
H       -5.107451     1.372049    -0.926405
H       -4.382715    -1.121806    -2.159728
H       -5.164298    -3.426087    -2.645106
H       -4.422717    -5.299773    -1.216110
H       -2.898593    -4.914617     0.710191
H       -2.148871    -2.655779     1.164580
36
ex_0047 frame6 As-Cl-conf3
Cl       2.278640     0.000001    -0.000004
Au       0.000000     0.000000     0.000000
As      -2.550000     0.000000     0.000000
C       -3.088523     0.819532     1.687015
C       -4.284157     1.486354     1.813278
C       -4.633313     2.065746     3.054332
C       -3.791984     1.968762     4.137276
C       -2.593581     1.294118     3.994107
C       -2.240623     0.718738     2.765766
C       -3.029600     1.026124    -1.587845
C       -4.343304     1.260521    -1.878184
C       -4.699249     1.999003    -3.019867
C       -3.723251     2.500046    -3.868271
C       -2.392044     2.259286    -3.569322
C       -2.034648     1.518857    -2.423951
C       -3.212791    -1.833154    -0.113556
C       -2.315496    -2.905065    -0.022021
C       -2.777373    -4.220405    -0.100766
C       -4.118376    -4.473160    -0.271158
C       -5.003454    -3.394196    -0.362180
C       -4.539845    -2.080753    -0.281011
H       -4.945499     1.581111     1.017007
H       -5.557095     2.591787     3.183429
H       -4.047054     2.406556     5.092062
H       -1.910046     1.194581     4.808760
H       -1.309614     0.206957     2.696076
H       -5.133484     0.906826    -1.272918
H       -5.738042     2.185514    -3.251017
H       -3.965923     3.072042    -4.754898
H       -1.591308     2.618140    -4.183123
H       -1.009056     1.333703    -2.194448
H       -1.284984    -2.709033     0.110048
H       -2.038167    -5.003107    -0.022690
H       -4.438094    -5.497724    -0.328385
H       -6.051423    -3.585859    -0.495250
H       -5.269687    -1.301476    -0.358869
