51
ex_0586 frame0 Δ-conf4
C        2.697766     2.693841     2.673869
C        1.835867     1.839337     1.822303
N        1.154701     1.154701     1.154701
Cu       0.000000     0.000000     0.000000
N       -1.066911    -1.074868     0.987079
C       -1.357865    -1.375511     2.185911
C       -0.781832    -0.802874     3.433007
C       -2.357083    -2.381825     2.105383
C       -2.542664    -2.560254     0.718743
C       -3.500520    -3.521701     0.103981
N       -1.724545    -1.730581     0.044214
B       -1.461624    -1.454178    -1.467141
N        0.046683    -1.720158    -1.725028
C        0.725172    -2.547853    -2.559455
C        0.109806    -3.495063    -3.530200
C        2.112432    -2.369295    -2.362001
C        2.190391    -1.371762    -1.348000
C        3.434501    -0.809397    -0.761268
N        0.992354    -1.080143    -1.066911
N       -1.722316     0.056242    -1.733117
C       -2.542777     0.732243    -2.571458
C       -3.487759     0.121965    -3.543781
C       -2.361260     2.121616    -2.378509
C       -1.366863     2.201245    -1.360589
C       -0.802562     3.442497    -0.775335
N       -1.080143     1.000310    -1.074868
H        2.584049     3.725872     2.322101
H        3.740781     2.333568     2.665235
H        2.372823     2.638667     3.747777
H        0.044650    -1.464730     3.757413
H       -0.472381     0.232447     3.283906
H       -1.556625    -0.795874     4.252973
H       -2.846802    -2.880249     2.915530
H       -3.256168    -3.652219    -0.953927
H       -4.520392    -3.091604     0.145374
H       -3.526679    -4.491637     0.633205
H       -2.125933    -2.108066    -2.132486
H        0.005983    -4.506043    -3.059346
H        0.782743    -3.654775    -4.419826
H       -0.847994    -3.091617    -3.891962
H        2.923624    -2.860021    -2.850324
H        3.247005    -0.456113     0.253237
H        4.257758    -1.581158    -0.759486
H        3.722655     0.064071    -1.384995
H       -2.995708    -0.058032    -4.538768
H       -3.789107    -0.878392    -3.187386
H       -4.326676     0.805480    -3.770825
H       -2.845296     2.928807    -2.868740
H        0.271321     3.312726    -0.608503
H       -1.010051     4.282893    -1.448144
H       -1.332270     3.707870     0.186256
51
ex_0586 frame1 Δ-conf3
C        2.684233     2.691943     2.649665
C        1.822442     1.840923     1.815414
N        1.154701     1.154701     1.154701
Cu       0.000000     0.000000     0.000000
N       -1.074207    -1.070247     0.989754
C       -1.370926    -1.365799     2.189687
C       -0.801332    -0.786501     3.435983
C       -2.368076    -2.372870     2.107238
C       -2.546921    -2.558123     0.721612
C       -3.493210    -3.515665     0.092328
N       -1.725959    -1.732040     0.047446
B       -1.453954    -1.463552    -1.465119
N        0.054266    -1.721841    -1.730305
C        0.737317    -2.543864    -2.568518
C        0.126552    -3.490046    -3.538496
C        2.122524    -2.354156    -2.369376
C        2.196344    -1.358162    -1.353283
C        3.437364    -0.789459    -0.766661
N        0.997690    -1.078183    -1.074207
N       -1.717254     0.043884    -1.731659
C       -2.536818     0.720415    -2.572467
C       -3.477488     0.106864    -3.547853
C       -2.360874     2.105817    -2.380583
C       -1.373054     2.187858    -1.363067
C       -0.814234     3.438624    -0.776661
N       -1.078183     0.993729    -1.070247
H        2.876745     2.212167     3.646267
H        3.682388     2.842657     2.211769
H        2.156459     3.634576     2.899152
H       -1.434893    -0.000668     3.886493
H        0.242882    -0.457676     3.244298
H       -0.792175    -1.612908     4.194367
H       -2.862482    -2.869324     2.919077
H       -4.127694    -4.004037     0.848770
H       -2.937635    -4.275783    -0.518363
H       -4.192150    -3.012289    -0.629135
H       -2.115038    -2.125656    -2.126273
H       -0.356029    -4.347400    -3.010952
H        0.902831    -3.812365    -4.245587
H       -0.719186    -2.964291    -4.050172
H        2.940930    -2.839797    -2.860362
H        3.588720    -1.194563     0.252239
H        3.293337     0.321581    -0.693513
H        4.294207    -0.947457    -1.449537
H       -3.123105    -0.867971    -3.916577
H       -4.519447     0.052389    -3.168869
H       -3.431146     0.784571    -4.450233
H       -2.851842     2.918786    -2.878796
H       -1.462423     3.707209     0.080653
H        0.194830     3.259823    -0.402235
H       -0.744513     4.246480    -1.546265
51
ex_0586 frame2 Λ-conf2
C        2.694516     2.661921     2.670534
C        1.833120     1.822039     1.836410
N        1.154701     1.154701     1.154701
Cu       0.000000     0.000000     0.000000
N       -1.074030    -1.078459     0.997788
C       -1.365709    -1.366856     2.195354
C       -0.776955    -0.808997     3.441128
C       -2.388956    -2.350195     2.111239
C       -2.584018    -2.528790     0.726202
C       -3.560816    -3.463575     0.105267
N       -1.733408    -1.714070     0.048076
B       -1.463704    -1.459292    -1.458333
N       -1.728853     0.047765    -1.713249
C       -2.576240     0.728481    -2.532948
C       -3.552039     0.123427    -3.467305
C       -2.376951     2.114047    -2.350808
C       -1.353315     2.191646    -1.362283
C       -0.762946     3.435843    -0.803653
N       -1.071487     0.995246    -1.078459
N        0.049565    -1.728548    -1.732454
C        0.722569    -2.548525    -2.558521
C        0.104234    -3.505169    -3.518263
C        2.109233    -2.364742    -2.377764
C        2.191859    -1.365034    -1.372893
C        3.436564    -0.790425    -0.799027
N        0.990816    -1.071487    -1.074030
H        3.739347     2.708433     2.283419
H        2.655617     2.309697     3.724122
H        2.293640     3.714151     2.701756
H       -0.669082    -1.630641     4.200820
H        0.264476    -0.497942     3.226887
H       -1.396803    -0.047435     3.912787
H       -2.889801    -2.836992     2.925601
H       -4.452151    -2.907518    -0.293354
H       -3.957798    -4.133277     0.895000
H       -3.125649    -4.016552    -0.749617
H       -2.121617    -2.125806    -2.117963
H       -3.673370    -0.941439    -3.229584
H       -3.101537     0.223090    -4.492138
H       -4.549448     0.572884    -3.433850
H       -2.870455     2.929355    -2.835330
H       -0.751853     4.257731    -1.543157
H        0.269365     3.245132    -0.496934
H       -1.347907     3.671908     0.117271
H        0.786389    -4.375083    -3.623689
H       -0.861750    -3.895287    -3.137908
H       -0.043596    -3.052551    -4.512669
H        2.919459    -2.857427    -2.875556
H        3.881923    -1.477841    -0.066998
H        3.211110     0.170573    -0.342165
H        4.163788    -0.582697    -1.637095
51
ex_0586 frame3 Δ-conf5
C        2.672775     2.698493     2.661959
C        1.835676     1.836239     1.817494
N        1.154701     1.154701     1.154701
Cu       0.000000     0.000000     0.000000
N       -1.074590    -1.081021     1.000910
C       -1.361210    -1.370531     2.201752
C       -0.774805    -0.805220     3.444365
C       -2.375714    -2.363652     2.121825
C       -2.571157    -2.545118     0.736119
C       -3.541340    -3.490791     0.120719
N       -1.736628    -1.726450     0.058315
B       -1.469545    -1.460924    -1.452299
N        0.039293    -1.715508    -1.729629
C        0.715250    -2.530850    -2.571279
C        0.099131    -3.476336    -3.538445
C        2.099877    -2.346565    -2.390741
C        2.180668    -1.355754    -1.376479
C        3.431989    -0.787037    -0.800086
N        0.986445    -1.066556    -1.074590
N       -1.717699     0.045306    -1.721561
C       -2.546648     0.726129    -2.562069
C       -3.508061     0.110568    -3.519420
C       -2.348034     2.110877    -2.379927
C       -1.344145     2.191517    -1.374028
C       -0.762441     3.435114    -0.805729
N       -1.066556     0.992876    -1.081021
H        2.306186     2.707727     3.715291
H        2.693034     3.730156     2.288189
H        3.699815     2.234872     2.724552
H       -1.338191     0.073540     3.823464
H       -0.737192    -1.607465     4.218023
H        0.282949    -0.526561     3.261425
H       -2.870348    -2.853979     2.936493
H       -3.117988    -3.918199    -0.812687
H       -4.524264    -2.999986    -0.055099
H       -3.726497    -4.300037     0.864317
H       -2.147211    -2.113618    -2.105733
H        0.740759    -3.605297    -4.444800
H       -0.911016    -3.153438    -3.827127
H        0.045402    -4.456592    -3.039329
H        2.913021    -2.833129    -2.892923
H        3.672583     0.120316    -1.393491
H        4.221740    -1.574758    -0.856260
H        3.308034    -0.579793     0.288290
H       -3.005336    -0.187522    -4.472010
H       -3.940357    -0.817022    -3.113277
H       -4.275983     0.859709    -3.807649
H       -2.833658     2.927376    -2.876833
H        0.200624     3.200589    -0.354270
H       -0.651570     4.217343    -1.584771
H       -1.475267     3.778266    -0.015161
51
ex_0586 frame4 Δ-conf4_mirror
C        2.697766     2.693841    -2.673869
C        1.835867     1.839337    -1.822303
N        1.154701     1.154701    -1.154701
Cu       0.000000     0.000000     0.000000
N       -1.066911    -1.074868    -0.987079
C       -1.357865    -1.375511    -2.185911
C       -0.781832    -0.802874    -3.433007
C       -2.357083    -2.381825    -2.105383
C       -2.542664    -2.560254    -0.718743
C       -3.500520    -3.521701    -0.103981
N       -1.724545    -1.730581    -0.044214
B       -1.461624    -1.454178     1.467141
N        0.046683    -1.720158     1.725028
C        0.725172    -2.547853     2.559455
C        0.109806    -3.495063     3.530200
C        2.112432    -2.369295     2.362001
C        2.190391    -1.371762     1.348000
C        3.434501    -0.809397     0.761268
N        0.992354    -1.080143     1.066911
N       -1.722316     0.056242     1.733117
C       -2.542777     0.732243     2.571458
C       -3.487759     0.121965     3.543781
C       -2.361260     2.121616     2.378509
C       -1.366863     2.201245     1.360589
C       -0.802562     3.442497     0.775335
N       -1.080143     1.000310     1.074868
H        2.584049     3.725872    -2.322101
H        3.740781     2.333568    -2.665235
H        2.372823     2.638667    -3.747777
H        0.044650    -1.464730    -3.757413
H       -0.472381     0.232447    -3.283906
H       -1.556625    -0.795874    -4.252973
H       -2.846802    -2.880249    -2.915530
H       -3.256168    -3.652219     0.953927
H       -4.520392    -3.091604    -0.145374
H       -3.526679    -4.491637    -0.633205
H       -2.125933    -2.108066     2.132486
H        0.005983    -4.506043     3.059346
H        0.782743    -3.654775     4.419826
H       -0.847994    -3.091617     3.891962
H        2.923624    -2.860021     2.850324
H        3.247005    -0.456113    -0.253237
H        4.257758    -1.581158     0.759486
H        3.722655     0.064071     1.384995
H       -2.995708    -0.058032     4.538768
H       -3.789107    -0.878392     3.187386
H       -4.326676     0.805480     3.770825
H       -2.845296     2.928807     2.868740
H        0.271321     3.312726     0.608503
H       -1.010051     4.282893     1.448144
H       -1.332270     3.707870    -0.186256
