74
ex_0578 frame0 
C       -0.040382    -4.204348    -1.641452
Sb       0.118931    -2.209452    -0.575026
C       -0.536673    -2.996036     1.325086
C        2.156620    -1.858901    -0.637636
C        3.037027    -2.472421    -1.575771
C        4.384913    -2.239606    -1.584946
C        4.941204    -1.389975    -0.691702
C        4.165932    -0.764716     0.220665
C        2.817456    -1.025639     0.254369
C        2.010142    -0.386325     1.299157
N        1.111458     0.624846     0.811967
C        1.952946     1.628253     0.199914
C        1.167352     2.782732    -0.285626
C        1.316060     3.978154     0.370958
C        0.648236     5.075931    -0.083083
C       -0.164927     4.964100    -1.155374
C       -0.333172     3.765015    -1.796206
C        0.349837     2.581558    -1.385764
Sb       0.151186     0.762647    -2.319293
C       -0.510388     1.383506    -4.399062
C        2.018666    -0.080786    -2.989768
Mn      -1.158168    -0.685106    -1.384909
C       -2.728506    -2.248663    -1.081292
O       -3.512339    -3.018271    -0.949168
C       -0.878875    -1.725886    -3.324381
O       -0.758249    -2.251406    -4.299643
C       -2.780613     0.385714    -2.456640
O       -3.601186     0.906064    -3.002585
Sb      -2.013900     0.293936     0.324463
C       -4.248245    -0.051251     0.540833
C       -2.215183     2.434811     0.095762
C       -1.330657    -0.257120     2.193134
C       -2.018790    -1.156658     3.059552
C       -1.546661    -1.496215     4.297748
C       -0.376377    -0.985439     4.756501
C        0.328940    -0.130100     3.982589
C       -0.166244     0.246113     2.757774
C        0.577768     1.246300     1.986347
H       -1.077346    -4.504247    -1.645718
H        0.703331    -4.794351    -1.159213
H        0.362221    -4.004871    -2.679909
H       -1.633707    -3.022646     1.230857
H       -0.369115    -4.127971     1.424764
H       -0.021644    -2.692291     2.184736
H        2.615713    -3.160392    -2.304759
H        5.026138    -2.729481    -2.304521
H        6.014249    -1.220363    -0.720606
H        4.619614    -0.085685     0.933878
H        1.631491    -1.072543     2.042373
H        2.695433     0.236740     1.975908
H        2.606830     1.953870     1.079767
H        2.723842     1.280699    -0.468716
H        1.980871     4.061611     1.244916
H        0.768675     6.030024     0.412195
H       -0.701055     5.833262    -1.526566
H       -0.992902     3.691930    -2.659839
H       -0.622974     0.495933    -4.999326
H       -1.488427     1.926716    -4.234524
H        0.200940     2.135520    -4.647819
H        1.720569    -1.063317    -3.402660
H        2.894740     0.065396    -2.431901
H        2.380378     0.381285    -3.977276
H       -4.480456     0.437011     1.458895
H       -4.343916    -1.157488     0.757968
H       -4.725182     0.237490    -0.383083
H       -1.530512     3.080804     0.549896
H       -2.556115     2.557683    -0.950307
H       -3.168776     2.832852     0.598732
H       -2.953474    -1.563416     2.688511
H       -2.127397    -2.183932     4.907504
H       -0.038978    -1.280656     5.737830
H        1.267440     0.268491     4.374307
H        0.112356     2.204676     1.919050
H        1.525987     1.538014     2.560789
74
ex_0578 frame1 
C       -0.040382    -4.204348    -1.641452
Sb       0.118931    -2.209452    -0.575026
C       -0.536673    -2.996036     1.325086
C        2.158493    -1.868822    -0.629569
C        3.037027    -2.472421    -1.575771
C        4.384913    -2.239606    -1.584946
C        4.941204    -1.389975    -0.691702
C        4.165932    -0.764716     0.220665
C        2.818205    -1.029083     0.257074
C        2.010142    -0.386325     1.299157
N        1.111458     0.624846     0.811967
C        1.952946     1.628253     0.199914
C        1.172961     2.784584    -0.290183
C        1.316060     3.978154     0.370958
C        0.648236     5.075931    -0.083083
C       -0.164927     4.964100    -1.155374
C       -0.333172     3.765015    -1.796206
C        0.351912     2.582183    -1.387432
Sb       0.151186     0.762647    -2.319293
C       -0.510388     1.383506    -4.399062
C        2.018666    -0.080786    -2.989768
Mn      -1.158168    -0.685106    -1.384909
C       -2.728506    -2.248663    -1.081292
O       -3.512339    -3.018271    -0.949168
C       -0.878875    -1.725886    -3.324381
O       -0.758249    -2.251406    -4.299643
C       -2.780613     0.385714    -2.456640
O       -3.601186     0.906064    -3.002585
Sb      -2.013900     0.293936     0.324463
C       -4.248245    -0.051251     0.540833
C       -2.215183     2.434811     0.095762
C       -1.338679    -0.245165     2.199460
C       -2.018790    -1.156658     3.059552
C       -1.546661    -1.496215     4.297748
C       -0.376377    -0.985439     4.756501
C        0.328940    -0.130100     3.982589
C       -0.169058     0.250069     2.760151
C        0.577768     1.246300     1.986347
H       -1.077346    -4.504247    -1.645718
H        0.703331    -4.794351    -1.159213
H        0.362221    -4.004871    -2.679909
H       -1.633707    -3.022646     1.230857
H       -0.369115    -4.127971     1.424764
H       -0.021644    -2.692291     2.184736
H        2.615713    -3.160392    -2.304759
H        5.026138    -2.729481    -2.304521
H        6.014249    -1.220363    -0.720606
H        4.619614    -0.085685     0.933878
H        1.631491    -1.072543     2.042373
H        2.695433     0.236740     1.975908
H        2.606830     1.953870     1.079767
H        2.723842     1.280699    -0.468716
H        1.980871     4.061611     1.244916
H        0.768675     6.030024     0.412195
H       -0.701055     5.833262    -1.526566
H       -0.992902     3.691930    -2.659839
H       -0.622974     0.495933    -4.999326
H       -1.488427     1.926716    -4.234524
H        0.200940     2.135520    -4.647819
H        1.720569    -1.063317    -3.402660
H        2.894740     0.065396    -2.431901
H        2.380378     0.381285    -3.977276
H       -4.480456     0.437011     1.458895
H       -4.343916    -1.157488     0.757968
H       -4.725182     0.237490    -0.383083
H       -1.530512     3.080804     0.549896
H       -2.556115     2.557683    -0.950307
H       -3.168776     2.832852     0.598732
H       -2.953474    -1.563416     2.688511
H       -2.127397    -2.183932     4.907504
H       -0.038978    -1.280656     5.737830
H        1.267440     0.268491     4.374307
H        0.112356     2.204676     1.919050
H        1.525987     1.538014     2.560789
