77
ex_0081 frame0 Isomer 1
O       -3.414221     0.537943     0.893511
N       -2.107041     0.415963     1.151676
C       -1.321759     1.538672     1.570491
C       -2.046768     2.774961     1.913517
C       -2.881986     2.784904     3.030117
C       -3.604024     3.929023     3.357486
C       -3.484822     5.077299     2.573365
C       -2.648547     5.082099     1.452388
C       -1.905407     3.938103     1.130347
C        0.042410     1.386683     1.628452
C        1.041331     2.292752     2.134715
C        1.266567     2.370419     3.519044
C        2.302078     3.170656     3.997491
C        3.053065     3.939852     3.102686
C        2.795435     3.881298     1.729442
C        1.770761     3.079053     1.253883
N        0.583469     0.217018     1.145730
O        1.876942    -0.139582     1.340072
Fe      -0.867669    -1.101426     0.554281
N       -0.807676    -1.944119     2.419507
C       -2.034479    -1.841563     3.128801
N       -2.024722    -2.507528     4.394471
C       -0.952997    -3.074046     4.837211
N        0.279464    -3.049742     4.115643
C        0.351139    -2.506456     2.960951
N       -2.274149    -2.427369    -0.122125
C       -1.843445    -3.800551    -0.055703
N       -2.854442    -4.728517    -0.448786
C       -4.002158    -4.325409    -0.881517
N       -4.322960    -2.941235    -1.019296
C       -3.488516    -2.044150    -0.655139
N        0.592244    -2.179770    -0.395142
O        1.446112    -3.021570     0.200397
C        0.876450    -1.627777    -1.675895
C        2.043084    -2.168007    -2.397565
C        2.053804    -3.533767    -2.695860
C        3.137317    -4.107077    -3.353025
C        4.221930    -3.311275    -3.723522
C        4.224935    -1.941190    -3.428486
C        3.124707    -1.358161    -2.785720
C        0.038560    -0.649803    -2.130048
C       -0.000179     0.010674    -3.403292
C       -0.653701    -0.642674    -4.453839
C       -0.815447     0.013469    -5.670903
C       -0.252504     1.282232    -5.852231
C        0.434301     1.906920    -4.806762
C        0.587946     1.254355    -3.593515
N       -0.939139    -0.188731    -1.275951
O       -1.861012     0.724623    -1.634396
H       -2.991527     1.887895     3.625823
H       -4.260775     3.922233     4.216147
H       -4.050595     5.958711     2.832814
H       -2.588166     5.970673     0.834754
H       -1.289366     3.941711     0.237715
H        0.732734     1.726374     4.213459
H        2.530815     3.181706     5.055481
H        3.847149     4.565120     3.471064
H        3.390199     4.440196     1.022952
H        1.604019     2.984119     0.186553
H        1.999074    -0.175246     2.324070
H       -2.927454    -1.359841     2.667898
H       -0.989167    -3.569837     5.776980
H        1.274053    -2.457522     2.416262
H       -0.852072    -4.067618     0.359506
H       -4.729222    -5.053748    -1.151816
H       -3.707760    -0.993532    -0.780316
H        1.222155    -4.155865    -2.388834
H        3.135025    -5.168739    -3.567335
H        5.061247    -3.763851    -4.229519
H        5.081960    -1.333380    -3.688842
H        3.157175    -0.306758    -2.527064
H       -1.150392    -1.595767    -4.285350
H       -1.389999    -0.454364    -6.460013
H       -0.364498     1.794471    -6.791847
H        0.836255     2.902147    -4.919079
H        1.062434     1.764058    -2.762320
H       -2.398334     0.272016    -2.332898
77
ex_0081 frame1 pucker-global-chair
O       -3.444419     0.419304     1.078378
N       -2.107041     0.415963     1.151676
C       -1.344491     1.555021     1.580777
C       -2.064795     2.781623     1.975810
C       -3.014895     2.766114     3.007310
C       -3.703564     3.935523     3.344797
C       -3.456606     5.120730     2.645861
C       -2.506347     5.143739     1.621145
C       -1.791465     3.986603     1.303906
C        0.023922     1.431345     1.614794
C        1.013856     2.405794     2.096640
C        1.161589     2.569129     3.483952
C        2.166713     3.402517     3.984663
C        2.980615     4.123086     3.105711
C        2.790943     4.010100     1.724601
C        1.799242     3.161764     1.221077
N        0.583469     0.217018     1.145730
O        1.897683    -0.053731     1.164680
Fe      -0.867669    -1.101426     0.554281
N       -0.738167    -1.715898     2.532077
C       -1.953960    -1.771325     3.203549
N       -2.065036    -2.501926     4.380828
C       -0.960319    -3.177100     4.886634
N        0.255474    -3.121674     4.215161
C        0.366550    -2.391072     3.037883
N       -2.361782    -2.426192     0.074082
C       -2.028856    -3.774007     0.142306
N       -2.879466    -4.728481    -0.403168
C       -4.063002    -4.335140    -1.016866
N       -4.395928    -2.987325    -1.085090
C       -3.545318    -2.032851    -0.539616
N        0.592244    -2.179770    -0.395142
O        1.303641    -3.163953     0.170160
C        0.876568    -1.652867    -1.699491
C        2.010807    -2.234956    -2.455210
C        2.119695    -3.625307    -2.644233
C        3.218983    -4.153528    -3.326152
C        4.215434    -3.305124    -3.818759
C        4.104503    -1.922800    -3.648412
C        2.992615    -1.385728    -2.991268
C        0.067020    -0.659882    -2.158482
C        0.074748     0.002634    -3.469256
C       -0.481871    -0.677896    -4.561339
C       -0.593988    -0.035475    -5.797952
C       -0.090889     1.258692    -5.962582
C        0.521947     1.913489    -4.889499
C        0.618910     1.280908    -3.646144
N       -0.939139    -0.188731    -1.275951
O       -1.794491     0.794930    -1.597404
H       -3.219753     1.850180     3.548957
H       -4.436808     3.920782     4.141224
H       -4.004811     6.020360     2.893794
H       -2.329121     6.056073     1.067218
H       -1.073050     4.010686     0.494197
H        0.561488     1.985652     4.171933
H        2.330268     3.469906     5.053079
H        3.766677     4.757688     3.494051
H        3.428081     4.560370     1.044606
H        1.680694     3.053708     0.149077
H        2.105914    -0.244209     2.114626
H       -2.764493    -1.276724     2.833630
H       -1.002698    -3.716262     5.736340
H        1.265057    -2.328438     2.508312
H       -1.151788    -4.065848     0.597061
H       -4.742661    -5.005077    -1.444889
H       -3.804348    -1.003489    -0.594325
H        1.362534    -4.290343    -2.255903
H        3.303487    -5.223120    -3.461665
H        5.074618    -3.720538    -4.327506
H        4.887742    -1.268883    -4.009431
H        2.936461    -0.313656    -2.843988
H       -0.909105    -1.665497    -4.432502
H       -1.090117    -0.532251    -6.621904
H       -0.189636     1.759467    -6.916671
H        0.900417     2.919533    -5.014970
H        1.063239     1.807113    -2.810424
H       -2.471268     0.366381    -2.180627
77
ex_0081 frame2 Isomer 2
O        2.168629    -0.351881     2.300443
N        0.823759    -0.230455     1.990356
C       -0.118745    -1.094875     2.390618
C        0.450634    -2.192455     3.117115
C        0.563466    -3.458711     2.584608
C        1.237423    -4.434071     3.319648
C        1.715040    -4.153334     4.607424
C        1.560012    -2.884118     5.152908
C        0.898107    -1.915450     4.423136
C       -1.450868    -0.825307     2.059415
C       -2.627672    -1.671753     2.293284
C       -3.488053    -1.329753     3.338606
C       -4.640668    -2.080122     3.573973
C       -4.915320    -3.190329     2.773336
C       -4.057288    -3.540834     1.729638
C       -2.897810    -2.795932     1.500819
N       -1.712417     0.427592     1.411814
O       -2.925957     0.768643     0.925212
Fe       0.056511     1.352586     0.954662
N        0.110933     2.411591     2.708134
C        1.393150     2.585720     3.277621
N        1.361037     3.327308     4.477670
C        0.245681     3.719361     4.987620
N       -1.028617     3.403590     4.416031
C       -1.085118     2.767519     3.309217
N       -0.625875     2.999580    -0.052051
C        0.247131     4.109547     0.049185
N       -0.267696     5.281263    -0.567504
C       -1.405887     5.252506    -1.175217
N       -2.203367     4.072516    -1.292090
C       -1.815698     2.989420    -0.748747
N       -0.143952     0.260456    -0.763187
O       -1.288861    -0.327187    -1.140332
C        1.010623     0.162655    -1.485690
C        0.763868    -0.664815    -2.627774
C        0.862648    -2.057002    -2.563129
C        0.484325    -2.818651    -3.668682
C        0.094170    -2.185614    -4.847631
C        0.038957    -0.793993    -4.911567
C        0.419597    -0.035334    -3.814867
C        2.115600     0.834027    -1.007132
C        3.471075     0.856046    -1.581431
C        4.360004    -0.215779    -1.412981
C        5.659600    -0.121456    -1.921746
C        6.050749     1.016033    -2.638442
C        5.161934     2.072989    -2.827977
C        3.868673     1.983986    -2.312640
N        1.940708     1.606064     0.189683
O        2.925710     2.356452     0.705044
H        0.252137    -3.629927     1.558816
H        1.395705    -5.405241     2.892773
H        2.215340    -4.911926     5.182086
H        1.948511    -2.642601     6.132674
H        0.837594    -0.908527     4.830799
H       -3.280756    -0.447286     3.931029
H       -5.321008    -1.807289     4.372864
H       -5.795562    -3.780789     2.953288
H       -4.294468    -4.388638     1.102076
H       -2.258720    -3.041499     0.664409
H       -3.289577    -0.016065     0.423161
H        2.318568     2.246220     2.836326
H        0.291743     4.289054     5.866786
H       -2.032391     2.488218     2.844996
H        1.189952     4.040352     0.627475
H       -1.754209     6.138323    -1.620192
H       -2.368339     2.073321    -0.831262
H        1.085555    -2.549645    -1.620580
H        0.483331    -3.895546    -3.619575
H       -0.178262    -2.774988    -5.704747
H       -0.301799    -0.294643    -5.801415
H        0.295898     1.039427    -3.831578
H        4.081227    -1.078419    -0.821858
H        6.360521    -0.929239    -1.756799
H        7.043885     1.087118    -3.045538
H        5.480024     2.957592    -3.372271
H        3.191684     2.819204    -2.429923
H        3.676531     1.732351     0.893736
77
ex_0081 frame3 Isomer 3
O        0.733742     2.856982    -0.181778
N        0.071685     1.730623    -0.514251
C        0.088251     1.217694    -1.783818
C        1.016446     1.957742    -2.600125
C        2.311501     1.528299    -2.855926
C        3.194889     2.397640    -3.503327
C        2.744911     3.638111    -3.981896
C        1.418308     4.026086    -3.781874
C        0.544460     3.160144    -3.138688
C       -0.735754     0.153317    -2.040675
C       -0.806295    -0.665747    -3.287037
C       -1.618101    -0.227438    -4.330587
C       -1.788123    -1.020139    -5.473186
C       -1.098531    -2.229699    -5.605494
C       -0.246282    -2.660488    -4.586514
C       -0.073278    -1.870868    -3.436007
N       -1.644398    -0.225165    -0.986396
O       -2.379699    -1.351767    -1.129814
Fe      -1.202612     0.761675     0.755569
N       -2.521345    -0.129640     2.045465
C       -3.585220    -0.883470     1.563792
N       -4.555430    -1.355648     2.440057
C       -4.461763    -1.073997     3.797996
N       -3.397888    -0.320167     4.279670
C       -2.427679     0.152012     3.403404
N       -2.378918     2.435898     0.620327
C       -3.310576     2.425968    -0.411184
N       -4.214031     3.474207    -0.541816
C       -4.185827     4.532376     0.359063
N       -3.254169     4.542306     1.390574
C       -2.350715     3.494067     1.521206
N        0.113159     1.446154     2.170524
O        0.399116     2.741415     2.378579
C        1.193467     0.513059     2.368175
C        2.362030     0.977870     3.162171
C        2.160460     1.350849     4.491616
C        3.213932     1.840441     5.261639
C        4.492770     1.947120     4.712922
C        4.718572     1.566923     3.384076
C        3.663805     1.051227     2.608477
C        1.051748    -0.707031     1.817278
C        1.838234    -1.912845     1.962680
C        1.450448    -2.814969     2.970749
C        2.087250    -4.051257     3.076011
C        3.158422    -4.346071     2.229076
C        3.567129    -3.421090     1.261740
C        2.929533    -2.187080     1.155199
N       -0.002915    -0.882481     0.967990
O       -0.350388    -2.113993     0.568115
H        2.684462     0.618788    -2.400848
H        4.235938     2.122915    -3.594200
H        3.429450     4.314446    -4.472559
H        1.067263     5.006745    -4.083293
H       -0.458921     3.504574    -2.899654
H       -2.190256     0.680582    -4.214145
H       -2.473659    -0.706798    -6.249082
H       -1.238427    -2.842737    -6.488777
H        0.258909    -3.616854    -4.686163
H        0.557311    -2.253844    -2.641137
H       -1.754622    -2.119978    -1.242156
H       -3.657997    -1.102307     0.508702
H       -5.205304    -1.470137     4.457834
H       -1.617231     0.792155     3.813744
H       -3.332490     1.603794    -1.111147
H       -4.854643     5.357705     0.266200
H       -1.687371     3.465812     2.361668
H        1.168564     1.300219     4.915945
H        3.027965     2.149005     6.281494
H        5.299848     2.339153     5.318822
H        5.707740     1.689420     2.955044
H        3.859883     0.809883     1.569059
H        0.568518    -2.623324     3.581359
H        1.734667    -4.789450     3.788645
H        3.656071    -5.300447     2.299115
H        4.358235    -3.668282     0.571634
H        3.189895    -1.500550     0.361881
H       -0.861796    -2.497802     1.327721
77
ex_0081 frame4 Isomer 5
O        0.085281    -0.053179    -3.481826
N        0.782935    -0.022663    -2.315375
C        2.113583     0.458140    -2.184935
C        2.766024     0.716673    -3.453169
C        3.211357    -0.353279    -4.217287
C        3.724082    -0.133501    -5.491606
C        3.850905     1.169644    -5.982496
C        3.449485     2.256162    -5.194794
C        2.945700     2.037464    -3.904218
C        2.669713     0.634725    -0.914291
C        4.045661     0.953209    -0.583007
C        4.442059     2.258072    -0.284650
C        5.756864     2.504384     0.113869
C        6.685004     1.456716     0.168410
C        6.290872     0.155627    -0.160980
C        4.978724    -0.089455    -0.568888
N        1.863363     0.502470     0.184001
O        2.332712     0.295914     1.476528
Fe      -0.008169    -0.057330    -0.426820
N        0.536259    -2.022396    -0.226230
C        0.865773    -2.464944     1.049572
N        1.269859    -3.780305     1.246144
C        1.344432    -4.653117     0.166914
N        1.014917    -4.210569    -1.108888
C        0.610831    -2.895208    -1.305460
N       -0.601559     1.876234    -0.755637
C       -0.110419     2.856992     0.199068
N       -0.580377     4.204707    -0.034971
C       -1.426128     4.471378    -0.971833
N       -1.930584     3.452601    -1.834372
C       -1.536182     2.233773    -1.739460
N       -1.790073    -0.705004    -1.196934
O       -2.054537    -1.325752    -2.343197
C       -2.638222    -0.878879    -0.000083
C       -3.919511    -1.472889    -0.292336
C       -4.048439    -2.870788    -0.243397
C       -5.238743    -3.466848    -0.664801
C       -6.315407    -2.662468    -1.053450
C       -6.190473    -1.267079    -1.035692
C       -5.002719    -0.673689    -0.615602
C       -2.187313    -0.477457     1.271342
C       -2.962052    -0.395235     2.504845
C       -3.850678     0.675473     2.682887
C       -4.523952     0.822065     3.899227
C       -4.363165    -0.138932     4.904471
C       -3.505928    -1.227849     4.702791
C       -2.823407    -1.366159     3.495312
N       -0.837542    -0.096588     1.442342
O       -0.367449     0.479772     2.545188
H        3.052932    -1.361934    -3.856775
H        3.983265    -0.982417    -6.106649
H        4.229682     1.328387    -6.985278
H        3.492244     3.258962    -5.607363
H        2.572753     2.887490    -3.335980
H        3.711918     3.055343    -0.277286
H        6.038511     3.506069     0.400051
H        7.699615     1.651686     0.491107
H        6.996355    -0.663271    -0.075532
H        4.666740    -1.113596    -0.767091
H        1.891230     0.959670     2.079345
H        0.765246    -1.792900     1.930929
H        1.658545    -5.676744     0.294722
H        0.379516    -2.543333    -2.308680
H        0.642807     2.596102     0.973657
H       -1.762877     5.489844    -1.087596
H       -1.957676     1.473518    -2.387358
H       -3.196584    -3.508520    -0.008597
H       -5.315625    -4.547705    -0.731684
H       -7.234775    -3.116391    -1.399619
H       -6.994018    -0.637061    -1.384896
H       -4.875532     0.398284    -0.661669
H       -3.935610     1.458068     1.932561
H       -5.149392     1.691085     4.073941
H       -4.878748    -0.028715     5.849446
H       -3.345045    -1.957302     5.482873
H       -2.120906    -2.178257     3.353551
H       -0.863571     1.342463     2.601528
77
ex_0081 frame5 Isomer 6
O        2.661285     2.157627    -1.758026
N        1.476161     1.517607    -1.598741
C        0.253087     2.139770    -1.997368
C        0.458001     3.303690    -2.807661
C        1.100942     3.161827    -4.022982
C        1.495718     4.273616    -4.739923
C        1.155055     5.548667    -4.284304
C        0.423252     5.696377    -3.090103
C        0.009992     4.561386    -2.366176
C       -0.897135     1.574212    -1.578461
C       -2.314413     1.881615    -1.919761
C       -2.858686     1.456189    -3.148729
C       -4.238319     1.633890    -3.394924
C       -5.043609     2.314711    -2.470564
C       -4.475857     2.776062    -1.277246
C       -3.109569     2.593747    -1.021045
N       -0.742897     0.528167    -0.676807
O       -1.859777    -0.049110    -0.172337
Fe       1.190928    -0.032186    -0.289979
N        2.492166    -0.991297    -1.547914
C        1.893196    -1.641297    -2.646686
N        2.822122    -2.188530    -3.611585
C        4.106758    -2.078382    -3.472876
N        4.670211    -1.368343    -2.344790
C        3.907106    -0.845496    -1.434632
N        1.721223     1.434442     1.038995
C        0.739583     1.893496     1.909484
N        1.049609     2.859910     2.859235
C        2.341276     3.367270     2.938497
N        3.322916     2.908216     2.068008
C        3.012890     1.941802     1.118257
N        0.011125    -1.676737     0.029017
O       -0.762345    -2.265049    -0.904598
C        0.159942    -2.268931     1.270577
C       -0.910583    -3.182673     1.706338
C       -2.134942    -2.787176     2.308742
C       -3.113074    -3.769385     2.581049
C       -2.851554    -5.121923     2.308687
C       -1.624250    -5.487850     1.746527
C       -0.651948    -4.525665     1.488138
C        1.263310    -1.929436     1.913682
C        1.686150    -2.396579     3.225513
C        2.782843    -3.259490     3.282221
C        3.293938    -3.668603     4.508839
C        2.679714    -3.246732     5.691506
C        1.556490    -2.405882     5.633890
C        1.030398    -2.006414     4.398679
N        2.108320    -1.022335     1.251979
O        3.311187    -0.707889     1.769653
H        1.436075     2.175147    -4.317221
H        2.120911     4.126726    -5.611773
H        1.504276     6.413895    -4.837359
H        0.152677     6.679155    -2.733261
H       -0.461421     4.699019    -1.386138
H       -2.289451     0.841281    -3.845543
H       -4.706968     1.208190    -4.279996
H       -6.112993     2.449833    -2.653306
H       -5.102430     3.239759    -0.525248
H       -2.705971     2.879504    -0.058125
H       -2.336879    -0.414166    -0.976712
H        0.822093    -1.733494    -2.749829
H        4.768874    -2.525398    -4.187147
H        4.369340    -0.292279    -0.619763
H       -0.283707     1.423851     1.845944
H        2.611471     4.137201     3.651603
H        3.813369     1.546242     0.494552
H       -2.394515    -1.739806     2.477796
H       -4.088494    -3.490383     2.970882
H       -3.603319    -5.887543     2.502894
H       -1.425176    -6.514144     1.472838
H        0.271970    -4.799868     0.996424
H        3.283869    -3.546020     2.364660
H        4.185495    -4.283053     4.528396
H        3.093707    -3.550463     6.647317
H        1.117419    -2.032972     6.547432
H        0.196163    -1.305009     4.367339
H        3.923787    -1.412413     1.435424
77
ex_0081 frame6 Isomer 4
O        0.720658     3.245095    -0.537683
N        1.056134     1.969065    -0.320205
C        2.359437     1.470409    -0.636960
C        3.273032     2.482159    -1.090018
C        3.433113     2.665694    -2.466606
C        4.153985     3.764384    -2.926672
C        4.789182     4.609959    -2.011594
C        4.705747     4.351663    -0.638677
C        3.978642     3.257499    -0.179479
C        2.577120     0.147968    -0.469313
C        3.806756    -0.676685    -0.591520
C        4.025762    -1.458315    -1.727237
C        5.104981    -2.345742    -1.780862
C        6.019617    -2.404124    -0.728089
C        5.847589    -1.581435     0.390159
C        4.767795    -0.675947     0.445351
N        1.471703    -0.601705    -0.119399
O        1.627926    -1.896198     0.202068
Fe      -0.227684     0.483484     0.260942
N       -1.310842     1.208851    -1.320262
C       -1.538853     0.424097    -2.485518
N       -2.298391     1.088463    -3.522078
C       -2.827345     2.256157    -3.349698
N       -2.693074     2.952214    -2.120592
C       -1.987192     2.469509    -1.163257
N        0.445630     1.184348     2.065767
C        1.104052     0.346730     2.992211
N        1.379417     0.961429     4.274388
C        1.136320     2.207747     4.512238
N        0.570867     3.052369     3.522242
C        0.241177     2.585963     2.370573
N       -0.882294    -1.455009     0.173978
O       -0.507261    -2.251944    -0.851256
C       -2.118980    -1.694016     0.699479
C       -2.551253    -3.100299     0.520679
C       -2.094555    -4.129950     1.348758
C       -2.403314    -5.461466     1.043169
C       -3.233260    -5.760635    -0.041096
C       -3.747510    -4.728157    -0.830299
C       -3.450737    -3.392091    -0.520797
C       -2.717236    -0.640937     1.278127
C       -3.935627    -0.620804     2.055681
C       -5.113594    -0.167813     1.473723
C       -6.242965     0.015756     2.264258
C       -6.209869    -0.325348     3.620222
C       -5.046968    -0.863488     4.182129
C       -3.917004    -1.057482     3.386266
N       -2.082291     0.634168     1.115588
O       -2.525766     1.726020     1.752291
H        2.881208     2.051131    -3.173088
H        4.182035     3.981198    -3.985975
H        5.321232     5.480328    -2.364122
H        5.165874     5.019939     0.074319
H        3.854895     3.092387     0.884871
H        3.287224    -1.474206    -2.516190
H        5.211483    -3.012039    -2.627243
H        6.841938    -3.110554    -0.768390
H        6.535118    -1.676149     1.224696
H        4.616174    -0.110547     1.356222
H        2.160655    -1.894679     1.044238
H       -1.027790    -0.539397    -2.616295
H       -3.370292     2.721385    -4.160538
H       -1.913394     3.037135    -0.235420
H        1.192278    -0.727435     2.787656
H        1.345161     2.617841     5.490843
H       -0.211669     3.269356     1.653202
H       -1.392334    -3.917388     2.143631
H       -1.970236    -6.264439     1.625756
H       -3.450789    -6.793508    -0.288314
H       -4.345708    -4.969150    -1.702139
H       -3.793156    -2.613010    -1.191934
H       -5.115246     0.151013     0.438008
H       -7.126327     0.459287     1.829173
H       -7.076587    -0.147727     4.239153
H       -5.007572    -1.091683     5.239375
H       -2.996784    -1.411473     3.842080
H       -3.395533     1.938059     1.334682
77
ex_0081 frame7 Isomer 7
O       -2.005569    -0.991567     2.147344
N       -1.711112    -0.510942     0.933834
C       -2.582661    -0.702334    -0.181069
C       -3.820251    -1.314681     0.174016
C       -4.057984    -2.646571    -0.201127
C       -5.175380    -3.303696     0.322667
C       -6.094027    -2.601194     1.112201
C       -5.890844    -1.246855     1.391786
C       -4.774443    -0.597872     0.881892
C       -2.129346    -0.280190    -1.427790
C       -2.843898    -0.158337    -2.739906
C       -2.695189    -1.166116    -3.688026
C       -3.238825    -1.023883    -4.965280
C       -4.005286     0.100550    -5.283877
C       -4.205468     1.102734    -4.325965
C       -3.664596     0.957030    -3.034457
N       -0.807291     0.101917    -1.529244
O       -0.413253     0.759258    -2.654739
Fe       0.103283     0.196063     0.302685
N       -0.847847     1.930786     0.833502
C       -0.901223     2.992682     0.008558
N       -1.476458     4.165153     0.574650
C       -1.914146     4.197812     1.796641
N       -1.851258     3.068750     2.656212
C       -1.355434     1.983527     2.236958
N        0.905329    -1.632813     0.756646
C        0.928920    -1.805017     2.135736
N        1.232845    -3.049286     2.675666
C        1.513179    -4.121351     1.836506
N        1.489589    -3.949147     0.457416
C        1.185663    -2.704878    -0.082514
N        1.583119     0.768764     1.596068
O        1.439336     1.123826     2.870508
C        2.788097     1.066521     0.872144
C        3.819923     1.584700     1.727848
C        4.122778     2.950437     1.667344
C        4.974521     3.497348     2.628917
C        5.599493     2.662321     3.560739
C        5.358014     1.285506     3.546117
C        4.500953     0.742343     2.596779
C        2.810334     0.829974    -0.469027
C        3.927580     0.827987    -1.462080
C        4.100141     1.921151    -2.308002
C        5.058811     1.893134    -3.322654
C        5.909700     0.794190    -3.455895
C        5.781491    -0.297575    -2.588709
C        4.819313    -0.270465    -1.559993
N        1.592527     0.531851    -1.063916
O        1.680820    -0.155852    -2.225380
H       -3.311547    -3.219826    -0.738314
H       -5.302313    -4.367487     0.157836
H       -6.946944    -3.109813     1.534124
H       -6.564529    -0.705563     2.040676
H       -4.577763     0.432101     1.158840
H       -2.047248    -1.999020    -3.469754
H       -3.037350    -1.780307    -5.712024
H       -4.414007     0.200832    -6.282341
H       -4.755775     2.000921    -4.599465
H       -3.771125     1.787642    -2.341684
H       -1.009968     1.537532    -2.838670
H       -0.498122     2.837513    -1.001704
H       -2.333573     5.099593     2.166236
H       -1.310875     1.116472     2.907745
H        0.711106    -0.972046     2.787745
H        1.699395    -5.114545     2.185305
H        1.140462    -2.479184    -1.148641
H        3.576097     3.617354     1.005635
H        5.117438     4.569727     2.683787
H        6.245130     3.085470     4.314505
H        5.796935     0.640479     4.294484
H        4.253455    -0.312254     2.632238
H        3.397200     2.737218    -2.251280
H        5.120874     2.716903    -4.021620
H        6.644894     0.782963    -4.252083
H        6.410868    -1.171833    -2.736504
H        4.697465    -1.167241    -0.960357
H        1.872903     0.527164    -2.923222
77
ex_0081 frame8 Isomer 1
O       -3.414221     0.537943     0.893511
N       -2.107041     0.415963     1.151676
C       -1.321891     1.538119     1.572213
C       -2.046590     2.775029     1.913650
C       -2.881986     2.784904     3.030117
C       -3.604024     3.929023     3.357486
C       -3.484822     5.077299     2.573365
C       -2.648547     5.082099     1.452388
C       -1.905407     3.938103     1.130347
C        0.042354     1.386405     1.629062
C        1.041357     2.292725     2.134712
C        1.266567     2.370419     3.519044
C        2.302078     3.170656     3.997491
C        3.053065     3.939852     3.102686
C        2.795435     3.881298     1.729442
C        1.770761     3.079053     1.253883
N        0.583469     0.217018     1.145730
O        1.876942    -0.139582     1.340072
Fe      -0.867669    -1.101426     0.554281
N       -0.807676    -1.944119     2.419507
C       -2.034479    -1.841563     3.128801
N       -2.024722    -2.507528     4.394471
C       -0.952997    -3.074046     4.837211
N        0.279464    -3.049742     4.115643
C        0.351139    -2.506456     2.960951
N       -2.274149    -2.427369    -0.122125
C       -1.843445    -3.800551    -0.055703
N       -2.854442    -4.728517    -0.448786
C       -4.002158    -4.325409    -0.881517
N       -4.322960    -2.941235    -1.019296
C       -3.488516    -2.044150    -0.655139
N        0.592244    -2.179770    -0.395142
O        1.446112    -3.021570     0.200397
C        0.874778    -1.629769    -1.677118
C        2.042872    -2.167920    -2.397974
C        2.053804    -3.533767    -2.695860
C        3.137317    -4.107077    -3.353025
C        4.221930    -3.311275    -3.723522
C        4.224935    -1.941190    -3.428486
C        3.124707    -1.358161    -2.785720
C        0.037890    -0.650545    -2.130413
C       -0.000221     0.010696    -3.403279
C       -0.653701    -0.642674    -4.453839
C       -0.815447     0.013469    -5.670903
C       -0.252504     1.282232    -5.852231
C        0.434301     1.906920    -4.806762
C        0.587946     1.254355    -3.593515
N       -0.939139    -0.188731    -1.275951
O       -1.861012     0.724623    -1.634396
H       -2.991527     1.887895     3.625823
H       -4.260775     3.922233     4.216147
H       -4.050595     5.958711     2.832814
H       -2.588166     5.970673     0.834754
H       -1.289366     3.941711     0.237715
H        0.732734     1.726374     4.213459
H        2.530815     3.181706     5.055481
H        3.847149     4.565120     3.471064
H        3.390199     4.440196     1.022952
H        1.604019     2.984119     0.186553
H        1.999074    -0.175246     2.324070
H       -2.927454    -1.359841     2.667898
H       -0.989167    -3.569837     5.776980
H        1.274053    -2.457522     2.416262
H       -0.852072    -4.067618     0.359506
H       -4.729222    -5.053748    -1.151816
H       -3.707760    -0.993532    -0.780316
H        1.222155    -4.155865    -2.388834
H        3.135025    -5.168739    -3.567335
H        5.061247    -3.763851    -4.229519
H        5.081960    -1.333380    -3.688842
H        3.157175    -0.306758    -2.527064
H       -1.150392    -1.595767    -4.285350
H       -1.389999    -0.454364    -6.460013
H       -0.364498     1.794471    -6.791847
H        0.836255     2.902147    -4.919079
H        1.062434     1.764058    -2.762320
H       -2.398334     0.272016    -2.332898
77
ex_0081 frame9 pucker-global-chair
O       -3.444419     0.419304     1.078378
N       -2.107041     0.415963     1.151676
C       -1.344774     1.553121     1.586245
C       -2.064089     2.781828     1.976464
C       -3.014895     2.766114     3.007310
C       -3.703564     3.935523     3.344797
C       -3.456606     5.120730     2.645861
C       -2.506347     5.143739     1.621145
C       -1.791465     3.986603     1.303906
C        0.023517     1.428667     1.621142
C        1.014240     2.405402     2.096645
C        1.161589     2.569129     3.483952
C        2.166713     3.402517     3.984663
C        2.980615     4.123086     3.105711
C        2.790943     4.010100     1.724601
C        1.799242     3.161764     1.221077
N        0.583469     0.217018     1.145730
O        1.897683    -0.053731     1.164680
Fe      -0.867669    -1.101426     0.554281
N       -0.738167    -1.715898     2.532077
C       -1.934036    -1.705602     3.240520
N       -2.003928    -2.300556     4.494811
C       -0.877951    -2.905806     5.040658
N        0.317917    -2.916102     4.332215
C        0.387810    -2.321148     3.077924
N       -2.269617    -2.426562    -0.133430
C       -1.969681    -3.777023     0.002194
N       -2.888757    -4.737319    -0.404294
C       -4.107768    -4.347154    -0.946404
N       -4.407703    -2.996693    -1.082028
C       -3.488628    -2.036397    -0.675541
N        0.592244    -2.179770    -0.395142
O        1.303641    -3.163953     0.170160
C        0.872900    -1.656938    -1.701908
C        2.010183    -2.234869    -2.456218
C        2.119695    -3.625307    -2.644233
C        3.218983    -4.153528    -3.326152
C        4.215434    -3.305124    -3.818759
C        4.104503    -1.922800    -3.648412
C        2.992615    -1.385728    -2.991268
C        0.062924    -0.664277    -2.160759
C        0.074343     0.002819    -3.469165
C       -0.481871    -0.677896    -4.561339
C       -0.593988    -0.035475    -5.797952
C       -0.090889     1.258692    -5.962582
C        0.521947     1.913489    -4.889499
C        0.618910     1.280908    -3.646144
N       -0.939139    -0.188731    -1.275951
O       -1.794491     0.794930    -1.597404
H       -3.219753     1.850180     3.548957
H       -4.436808     3.920782     4.141224
H       -4.004811     6.020360     2.893794
H       -2.329121     6.056073     1.067218
H       -1.073050     4.010686     0.494197
H        0.561488     1.985652     4.171933
H        2.330268     3.469906     5.053079
H        3.766677     4.757688     3.494051
H        3.428081     4.560370     1.044606
H        1.680694     3.053708     0.149077
H        2.105914    -0.244209     2.114626
H       -2.808895    -1.235335     2.816409
H       -0.932256    -3.368072     6.015215
H        1.316974    -2.329148     2.527479
H       -1.030984    -4.110090     0.419703
H       -4.831979    -5.038570    -1.331806
H       -3.743742    -0.993299    -0.790709
H        1.362534    -4.290343    -2.255903
H        3.303487    -5.223120    -3.461665
H        5.074618    -3.720538    -4.327506
H        4.887742    -1.268883    -4.009431
H        2.936461    -0.313656    -2.843988
H       -0.909105    -1.665497    -4.432502
H       -1.090117    -0.532251    -6.621904
H       -0.189636     1.759467    -6.916671
H        0.900417     2.919533    -5.014970
H        1.063239     1.807113    -2.810424
H       -2.471268     0.366381    -2.180627
77
ex_0081 frame10 Isomer 2
O        2.168629    -0.351881     2.300443
N        0.823759    -0.230455     1.990356
C       -0.118566    -1.095725     2.389198
C        0.450773    -2.192419     3.117060
C        0.563466    -3.458711     2.584608
C        1.237423    -4.434071     3.319648
C        1.715040    -4.153334     4.607424
C        1.560012    -2.884118     5.152908
C        0.898107    -1.915450     4.423136
C       -1.450785    -0.825576     2.058860
C       -2.627698    -1.671726     2.293254
C       -3.488053    -1.329753     3.338606
C       -4.640668    -2.080122     3.573973
C       -4.915320    -3.190329     2.773336
C       -4.057288    -3.540834     1.729638
C       -2.897810    -2.795932     1.500819
N       -1.712417     0.427592     1.411814
O       -2.925957     0.768643     0.925212
Fe       0.056511     1.352586     0.954662
N        0.110933     2.411591     2.708134
C        1.393150     2.585720     3.277621
N        1.361037     3.327308     4.477670
C        0.245681     3.719361     4.987620
N       -1.028617     3.403590     4.416031
C       -1.085118     2.767519     3.309217
N       -0.625875     2.999580    -0.052051
C        0.247131     4.109547     0.049185
N       -0.267696     5.281263    -0.567504
C       -1.405887     5.252506    -1.175217
N       -2.203367     4.072516    -1.292090
C       -1.815698     2.989420    -0.748747
N       -0.143952     0.260456    -0.763187
O       -1.288861    -0.327187    -1.140332
C        1.010674     0.162498    -1.485587
C        0.763873    -0.664815    -2.627775
C        0.862648    -2.057002    -2.563129
C        0.484325    -2.818651    -3.668682
C        0.094170    -2.185614    -4.847631
C        0.038957    -0.793993    -4.911567
C        0.419597    -0.035334    -3.814867
C        2.115618     0.833969    -1.007092
C        3.471077     0.856048    -1.581427
C        4.360004    -0.215779    -1.412981
C        5.659600    -0.121456    -1.921746
C        6.050749     1.016033    -2.638442
C        5.161934     2.072989    -2.827977
C        3.868673     1.983986    -2.312640
N        1.940708     1.606064     0.189683
O        2.925710     2.356452     0.705044
H        0.252137    -3.629927     1.558816
H        1.395705    -5.405241     2.892773
H        2.215340    -4.911926     5.182086
H        1.948511    -2.642601     6.132674
H        0.837594    -0.908527     4.830799
H       -3.280756    -0.447286     3.931029
H       -5.321008    -1.807289     4.372864
H       -5.795562    -3.780789     2.953288
H       -4.294468    -4.388638     1.102076
H       -2.258720    -3.041499     0.664409
H       -3.289577    -0.016065     0.423161
H        2.318568     2.246220     2.836326
H        0.291743     4.289054     5.866786
H       -2.032391     2.488218     2.844996
H        1.189952     4.040352     0.627475
H       -1.754209     6.138323    -1.620192
H       -2.368339     2.073321    -0.831262
H        1.085555    -2.549645    -1.620580
H        0.483331    -3.895546    -3.619575
H       -0.178262    -2.774988    -5.704747
H       -0.301799    -0.294643    -5.801415
H        0.295898     1.039427    -3.831578
H        4.081227    -1.078419    -0.821858
H        6.360521    -0.929239    -1.756799
H        7.043885     1.087118    -3.045538
H        5.480024     2.957592    -3.372271
H        3.191684     2.819204    -2.429923
H        3.676531     1.732351     0.893736
77
ex_0081 frame11 Isomer 3
O        0.733742     2.856982    -0.181778
N        0.071685     1.730623    -0.514251
C        0.087549     1.218297    -1.784070
C        1.016432     1.957721    -2.600160
C        2.311501     1.528299    -2.855926
C        3.194889     2.397640    -3.503327
C        2.744911     3.638111    -3.981896
C        1.418308     4.026086    -3.781874
C        0.544460     3.160144    -3.138688
C       -0.735994     0.153534    -2.040804
C       -0.806301    -0.665751    -3.287034
C       -1.618101    -0.227438    -4.330587
C       -1.788123    -1.020139    -5.473186
C       -1.098531    -2.229699    -5.605494
C       -0.246282    -2.660488    -4.586514
C       -0.073278    -1.870868    -3.436007
N       -1.644398    -0.225165    -0.986396
O       -2.379699    -1.351767    -1.129814
Fe      -1.202612     0.761675     0.755569
N       -2.521345    -0.129640     2.045465
C       -3.585220    -0.883470     1.563792
N       -4.555430    -1.355648     2.440057
C       -4.461763    -1.073997     3.797996
N       -3.397888    -0.320167     4.279670
C       -2.427679     0.152012     3.403404
N       -2.378918     2.435898     0.620327
C       -3.310576     2.425968    -0.411184
N       -4.214031     3.474207    -0.541816
C       -4.185827     4.532376     0.359063
N       -3.254169     4.542306     1.390574
C       -2.350715     3.494067     1.521206
N        0.113159     1.446154     2.170524
O        0.399116     2.741415     2.378579
C        1.193014     0.512719     2.369042
C        2.362058     0.977721     3.162217
C        2.160460     1.350849     4.491616
C        3.213932     1.840441     5.261639
C        4.492770     1.947120     4.712922
C        4.718572     1.566923     3.384076
C        3.663805     1.051227     2.608477
C        1.051531    -0.707138     1.817570
C        1.838236    -1.912844     1.962682
C        1.450448    -2.814969     2.970749
C        2.087250    -4.051257     3.076011
C        3.158422    -4.346071     2.229076
C        3.567129    -3.421090     1.261740
C        2.929533    -2.187080     1.155199
N       -0.002915    -0.882481     0.967990
O       -0.350388    -2.113993     0.568115
H        2.684462     0.618788    -2.400848
H        4.235938     2.122915    -3.594200
H        3.429450     4.314446    -4.472559
H        1.067263     5.006745    -4.083293
H       -0.458921     3.504574    -2.899654
H       -2.190256     0.680582    -4.214145
H       -2.473659    -0.706798    -6.249082
H       -1.238427    -2.842737    -6.488777
H        0.258909    -3.616854    -4.686163
H        0.557311    -2.253844    -2.641137
H       -1.754622    -2.119978    -1.242156
H       -3.657997    -1.102307     0.508702
H       -5.205304    -1.470137     4.457834
H       -1.617231     0.792155     3.813744
H       -3.332490     1.603794    -1.111147
H       -4.854643     5.357705     0.266200
H       -1.687371     3.465812     2.361668
H        1.168564     1.300219     4.915945
H        3.027965     2.149005     6.281494
H        5.299848     2.339153     5.318822
H        5.707740     1.689420     2.955044
H        3.859883     0.809883     1.569059
H        0.568518    -2.623324     3.581359
H        1.734667    -4.789450     3.788645
H        3.656071    -5.300447     2.299115
H        4.358235    -3.668282     0.571634
H        3.189895    -1.500550     0.361881
H       -0.861796    -2.497802     1.327721
77
ex_0081 frame12 Isomer 5
O        0.085281    -0.053179    -3.481826
N        0.782935    -0.022663    -2.315375
C        2.113993     0.457008    -2.184956
C        2.766113     0.716677    -3.453122
C        3.211357    -0.353279    -4.217287
C        3.724082    -0.133501    -5.491606
C        3.850905     1.169644    -5.982496
C        3.449485     2.256162    -5.194794
C        2.945700     2.037464    -3.904218
C        2.669807     0.634301    -0.914273
C        4.045657     0.953205    -0.582986
C        4.442059     2.258072    -0.284650
C        5.756864     2.504384     0.113869
C        6.685004     1.456716     0.168410
C        6.290872     0.155627    -0.160980
C        4.978724    -0.089455    -0.568888
N        1.863363     0.502470     0.184001
O        2.332712     0.295914     1.476528
Fe      -0.008169    -0.057330    -0.426820
N        0.536259    -2.022396    -0.226230
C        0.865773    -2.464944     1.049572
N        1.269859    -3.780305     1.246144
C        1.344432    -4.653117     0.166914
N        1.014917    -4.210569    -1.108888
C        0.610831    -2.895208    -1.305460
N       -0.601559     1.876234    -0.755637
C       -0.110419     2.856992     0.199068
N       -0.580377     4.204707    -0.034971
C       -1.426128     4.471378    -0.971833
N       -1.930584     3.452601    -1.834372
C       -1.536182     2.233773    -1.739460
N       -1.790073    -0.705004    -1.196934
O       -2.054537    -1.325752    -2.343197
C       -2.639258    -0.876465    -0.000472
C       -3.919512    -1.472889    -0.292331
C       -4.048439    -2.870788    -0.243397
C       -5.238743    -3.466848    -0.664801
C       -6.315407    -2.662468    -1.053450
C       -6.190473    -1.267079    -1.035692
C       -5.002719    -0.673689    -0.615602
C       -2.187550    -0.476518     1.271131
C       -2.961995    -0.395194     2.504878
C       -3.850678     0.675473     2.682887
C       -4.523952     0.822065     3.899227
C       -4.363165    -0.138932     4.904471
C       -3.505928    -1.227849     4.702791
C       -2.823407    -1.366159     3.495312
N       -0.837542    -0.096588     1.442342
O       -0.367449     0.479772     2.545188
H        3.052932    -1.361934    -3.856775
H        3.983265    -0.982417    -6.106649
H        4.229682     1.328387    -6.985278
H        3.492244     3.258962    -5.607363
H        2.572753     2.887490    -3.335980
H        3.711918     3.055343    -0.277286
H        6.038511     3.506069     0.400051
H        7.699615     1.651686     0.491107
H        6.996355    -0.663271    -0.075532
H        4.666740    -1.113596    -0.767091
H        1.891230     0.959670     2.079345
H        0.765246    -1.792900     1.930929
H        1.658545    -5.676744     0.294722
H        0.379516    -2.543333    -2.308680
H        0.642807     2.596102     0.973657
H       -1.762877     5.489844    -1.087596
H       -1.957676     1.473518    -2.387358
H       -3.196584    -3.508520    -0.008597
H       -5.315625    -4.547705    -0.731684
H       -7.234775    -3.116391    -1.399619
H       -6.994018    -0.637061    -1.384896
H       -4.875532     0.398284    -0.661669
H       -3.935610     1.458068     1.932561
H       -5.149392     1.691085     4.073941
H       -4.878748    -0.028715     5.849446
H       -3.345045    -1.957302     5.482873
H       -2.120906    -2.178257     3.353551
H       -0.863571     1.342463     2.601528
77
ex_0081 frame13 Isomer 6
O        2.661285     2.157627    -1.758026
N        1.476161     1.517607    -1.598741
C        0.060681     2.183822    -2.034114
C        0.427782     3.302011    -2.826009
C        1.127706     3.163544    -4.006926
C        1.496072     4.273639    -4.739711
C        1.144803     5.548009    -4.290454
C        0.417352     5.695998    -3.093643
C        0.042072     4.563444    -2.346931
C       -0.897291     1.576418    -1.575862
C       -2.314344     1.881820    -1.919862
C       -2.858686     1.456189    -3.148729
C       -4.238319     1.633890    -3.394924
C       -5.043609     2.314711    -2.470564
C       -4.475857     2.776062    -1.277246
C       -3.109569     2.593747    -1.021045
N       -0.742897     0.528167    -0.676807
O       -1.859777    -0.049110    -0.172337
Fe       1.190928    -0.032186    -0.289979
N        2.492166    -0.991297    -1.547914
C        1.893196    -1.641297    -2.646686
N        2.822122    -2.188530    -3.611585
C        4.106758    -2.078382    -3.472876
N        4.670211    -1.368343    -2.344790
C        3.907106    -0.845496    -1.434632
N        1.721223     1.434442     1.038995
C        0.739583     1.893496     1.909484
N        1.049609     2.859910     2.859235
C        2.341276     3.367270     2.938497
N        3.322916     2.908216     2.068008
C        3.012890     1.941802     1.118257
N        0.011125    -1.676737     0.029017
O       -0.762345    -2.265049    -0.904598
C        0.159808    -2.268717     1.270695
C       -0.910578    -3.182674     1.706348
C       -2.134942    -2.787176     2.308742
C       -3.113074    -3.769385     2.581049
C       -2.851554    -5.121923     2.308687
C       -1.624250    -5.487850     1.746527
C       -0.651948    -4.525665     1.488138
C        1.263256    -1.929351     1.913730
C        1.686158    -2.396569     3.225514
C        2.782843    -3.259490     3.282221
C        3.293938    -3.668603     4.508839
C        2.679714    -3.246732     5.691506
C        1.556490    -2.405882     5.633890
C        1.030398    -2.006414     4.398679
N        2.108320    -1.022335     1.251979
O        3.311187    -0.707889     1.769653
H        1.392959     2.172381    -4.343086
H        2.053263     4.122386    -5.652355
H        1.440532     6.409805    -4.875599
H        0.141977     6.678468    -2.739680
H       -0.521228     4.695182    -1.422016
H       -2.289451     0.841281    -3.845543
H       -4.706968     1.208190    -4.279996
H       -6.112993     2.449833    -2.653306
H       -5.102430     3.239759    -0.525248
H       -2.705971     2.879504    -0.058125
H       -2.336879    -0.414166    -0.976712
H        0.822093    -1.733494    -2.749829
H        4.768874    -2.525398    -4.187147
H        4.369340    -0.292279    -0.619763
H       -0.283707     1.423851     1.845944
H        2.611471     4.137201     3.651603
H        3.813369     1.546242     0.494552
H       -2.394515    -1.739806     2.477796
H       -4.088494    -3.490383     2.970882
H       -3.603319    -5.887543     2.502894
H       -1.425176    -6.514144     1.472838
H        0.271970    -4.799868     0.996424
H        3.283869    -3.546020     2.364660
H        4.185495    -4.283053     4.528396
H        3.093707    -3.550463     6.647317
H        1.117419    -2.032972     6.547432
H        0.196163    -1.305009     4.367339
H        3.923787    -1.412413     1.435424
77
ex_0081 frame14 Isomer 4
O        0.720658     3.245095    -0.537683
N        1.056134     1.969065    -0.320205
C        2.360468     1.470995    -0.633599
C        3.273119     2.482081    -1.090018
C        3.433113     2.665694    -2.466606
C        4.153985     3.764384    -2.926672
C        4.789182     4.609959    -2.011594
C        4.705747     4.351663    -0.638677
C        3.978642     3.257499    -0.179479
C        2.577395     0.148179    -0.467985
C        3.806712    -0.676756    -0.591479
C        4.025762    -1.458315    -1.727237
C        5.104981    -2.345742    -1.780862
C        6.019617    -2.404124    -0.728089
C        5.847589    -1.581435     0.390159
C        4.767795    -0.675947     0.445351
N        1.471703    -0.601705    -0.119399
O        1.627926    -1.896198     0.202068
Fe      -0.227684     0.483484     0.260942
N       -1.310842     1.208851    -1.320262
C       -1.538853     0.424097    -2.485518
N       -2.298391     1.088463    -3.522078
C       -2.827345     2.256157    -3.349698
N       -2.693074     2.952214    -2.120592
C       -1.987192     2.469509    -1.163257
N        0.445630     1.184348     2.065767
C        1.104052     0.346730     2.992211
N        1.379417     0.961429     4.274388
C        1.136320     2.207747     4.512238
N        0.570867     3.052369     3.522242
C        0.241177     2.585963     2.370573
N       -0.882294    -1.455009     0.173978
O       -0.507261    -2.251944    -0.851256
C       -2.118409    -1.694344     0.700670
C       -2.551314    -3.100286     0.520729
C       -2.094555    -4.129950     1.348758
C       -2.403314    -5.461466     1.043169
C       -3.233260    -5.760635    -0.041096
C       -3.747510    -4.728157    -0.830299
C       -3.450737    -3.392091    -0.520797
C       -2.716964    -0.641017     1.278555
C       -3.935619    -0.620770     2.055692
C       -5.113594    -0.167813     1.473723
C       -6.242965     0.015756     2.264258
C       -6.209869    -0.325348     3.620222
C       -5.046968    -0.863488     4.182129
C       -3.917004    -1.057482     3.386266
N       -2.082291     0.634168     1.115588
O       -2.525766     1.726020     1.752291
H        2.881208     2.051131    -3.173088
H        4.182035     3.981198    -3.985975
H        5.321232     5.480328    -2.364122
H        5.165874     5.019939     0.074319
H        3.854895     3.092387     0.884871
H        3.287224    -1.474206    -2.516190
H        5.211483    -3.012039    -2.627243
H        6.841938    -3.110554    -0.768390
H        6.535118    -1.676149     1.224696
H        4.616174    -0.110547     1.356222
H        2.160655    -1.894679     1.044238
H       -1.027790    -0.539397    -2.616295
H       -3.370292     2.721385    -4.160538
H       -1.913394     3.037135    -0.235420
H        1.192278    -0.727435     2.787656
H        1.345161     2.617841     5.490843
H       -0.211669     3.269356     1.653202
H       -1.392334    -3.917388     2.143631
H       -1.970236    -6.264439     1.625756
H       -3.450789    -6.793508    -0.288314
H       -4.345708    -4.969150    -1.702139
H       -3.793156    -2.613010    -1.191934
H       -5.115246     0.151013     0.438008
H       -7.126327     0.459287     1.829173
H       -7.076587    -0.147727     4.239153
H       -5.007572    -1.091683     5.239375
H       -2.996784    -1.411473     3.842080
H       -3.395533     1.938059     1.334682
77
ex_0081 frame15 Isomer 7
O       -2.005569    -0.991567     2.147344
N       -1.711112    -0.510942     0.933834
C       -2.582876    -0.701851    -0.180984
C       -3.820273    -1.314664     0.173969
C       -4.057984    -2.646571    -0.201127
C       -5.175380    -3.303696     0.322667
C       -6.094027    -2.601194     1.112201
C       -5.890844    -1.246855     1.391786
C       -4.774443    -0.597872     0.881892
C       -2.129397    -0.280003    -1.427745
C       -2.843889    -0.158332    -2.739910
C       -2.695189    -1.166116    -3.688026
C       -3.238825    -1.023883    -4.965280
C       -4.005286     0.100550    -5.283877
C       -4.205468     1.102734    -4.325965
C       -3.664596     0.957030    -3.034457
N       -0.807291     0.101917    -1.529244
O       -0.413253     0.759258    -2.654739
Fe       0.103283     0.196063     0.302685
N       -0.847847     1.930786     0.833502
C       -0.901223     2.992682     0.008558
N       -1.476458     4.165153     0.574650
C       -1.914146     4.197812     1.796641
N       -1.851258     3.068750     2.656212
C       -1.355434     1.983527     2.236958
N        0.905329    -1.632813     0.756646
C        0.928920    -1.805017     2.135736
N        1.232845    -3.049286     2.675666
C        1.513179    -4.121351     1.836506
N        1.489589    -3.949147     0.457416
C        1.185663    -2.704878    -0.082514
N        1.583119     0.768764     1.596068
O        1.439336     1.123826     2.870508
C        2.788688     1.064853     0.872446
C        3.820032     1.584671     1.727735
C        4.122778     2.950437     1.667344
C        4.974521     3.497348     2.628917
C        5.599493     2.662321     3.560739
C        5.358014     1.285506     3.546117
C        4.500953     0.742343     2.596779
C        2.810439     0.829308    -0.468908
C        3.927553     0.827968    -1.462111
C        4.100141     1.921151    -2.308002
C        5.058811     1.893134    -3.322654
C        5.909700     0.794190    -3.455895
C        5.781491    -0.297575    -2.588709
C        4.819313    -0.270465    -1.559993
N        1.592527     0.531851    -1.063916
O        1.680820    -0.155852    -2.225380
H       -3.311547    -3.219826    -0.738314
H       -5.302313    -4.367487     0.157836
H       -6.946944    -3.109813     1.534124
H       -6.564529    -0.705563     2.040676
H       -4.577763     0.432101     1.158840
H       -2.047248    -1.999020    -3.469754
H       -3.037350    -1.780307    -5.712024
H       -4.414007     0.200832    -6.282341
H       -4.755775     2.000921    -4.599465
H       -3.771125     1.787642    -2.341684
H       -1.009968     1.537532    -2.838670
H       -0.498122     2.837513    -1.001704
H       -2.333573     5.099593     2.166236
H       -1.310875     1.116472     2.907745
H        0.711106    -0.972046     2.787745
H        1.699395    -5.114545     2.185305
H        1.140462    -2.479184    -1.148641
H        3.576097     3.617354     1.005635
H        5.117438     4.569727     2.683787
H        6.245130     3.085470     4.314505
H        5.796935     0.640479     4.294484
H        4.253455    -0.312254     2.632238
H        3.397200     2.737218    -2.251280
H        5.120874     2.716903    -4.021620
H        6.644894     0.782963    -4.252083
H        6.410868    -1.171833    -2.736504
H        4.697465    -1.167241    -0.960357
H        1.872903     0.527164    -2.923222
