46
ex_0581 frame0 
C       -3.068606     0.705093    -1.562882
As      -1.245482     0.585090    -2.089527
C       -0.694474    -0.896140    -3.130706
C        0.003416     1.963319    -2.148682
C        0.445421     2.386202    -3.367470
C        1.327815     3.454751    -3.409891
C        1.796994     4.039224    -2.219286
C        1.382187     3.554869    -0.993696
C        0.472231     2.545979    -0.970211
As      -0.133827     1.960319     0.679473
C        1.239863     1.892932     1.941223
C       -1.912601     2.088965     1.331525
Re      -0.219301    -0.660459     0.068754
C        1.794301    -0.580894    -0.636076
O        2.831196    -0.540174    -1.019970
C       -1.851430    -1.925321    -0.132541
O       -2.689441    -2.567893    -0.253828
C       -0.361353    -0.895120     2.144779
O       -0.444797    -1.000665     3.243938
O        0.837392    -2.352131     0.537826
C        0.484161    -3.415139    -0.328141
C        1.524692    -3.917665    -1.332250
F        2.607015    -4.466414    -0.681037
F        0.935399    -4.920239    -2.070875
F        1.906645    -2.975772    -2.264779
C        0.082878    -4.562834     0.561752
F        1.183692    -4.962435     1.287175
F       -0.892234    -4.195799     1.461168
F       -0.370907    -5.601709    -0.224049
H       -3.346934     0.087330    -0.684238
H       -3.568040     0.309351    -2.441642
H       -3.275377     1.753269    -1.353797
H        0.409889    -0.961195    -3.234729
H       -1.150398    -1.848793    -2.806298
H       -1.141669    -0.567613    -4.053652
H        0.052143     1.887871    -4.252329
H        1.628367     3.832735    -4.361768
H        2.463805     4.872925    -2.232098
H        1.710475     3.954126    -0.035938
H        1.098195     2.922702     2.224525
H        2.222035     1.659321     1.483211
H        1.021317     1.208786     2.773040
H       -2.437342     2.738763     0.635816
H       -2.422205     1.101288     1.465156
H       -1.785403     2.553954     2.304104
H       -0.301778    -3.154583    -1.020766
