77
ex_0270 frame0 P-trans-conf3
O        3.169699    -0.000000    -0.000000
C        2.020000     0.000000     0.000000
Ir       0.000000     0.000000     0.000000
Cl      -2.380000     0.000000     0.000000
Cl       0.000000     2.380000     0.000000
P        0.000000     0.000000     2.300000
C        0.069889     1.681770     3.128962
C       -0.726564     1.921392     4.231931
C       -0.685679     3.088401     4.915303
C        0.165191     4.095771     4.476235
C        0.966658     3.927482     3.357972
C        0.874262     2.689063     2.694222
C        1.424813    -0.735502     3.198412
C        2.407346    -0.032487     3.830130
C        3.485992    -0.636931     4.487148
C        3.588128    -1.998753     4.527061
C        2.607897    -2.738505     3.908097
C        1.549138    -2.135987     3.263350
C       -1.459346    -0.876865     3.030564
C       -1.377316    -1.715041     4.073297
C       -2.495856    -2.339932     4.560833
C       -3.754109    -2.149901     4.027602
C       -3.858272    -1.294684     2.966930
C       -2.727245    -0.660967     2.471254
P        0.000000     0.000000    -2.300000
C       -1.390715    -0.953824    -3.076062
C       -2.709816    -0.672241    -2.760542
C       -3.772968    -1.376936    -3.313268
C       -3.505675    -2.384453    -4.210378
C       -2.205803    -2.679951    -4.546663
C       -1.176247    -1.963392    -3.981734
C        1.504598    -0.668292    -3.233122
C        1.534465    -0.547125    -4.604305
C        2.580344    -1.012129    -5.373822
C        3.644097    -1.618047    -4.754840
C        3.615007    -1.732530    -3.391022
C        2.541616    -1.254316    -2.614324
C       -0.103488     1.600313    -3.224943
C        0.977958     2.469277    -3.205637
C        0.999964     3.663133    -3.896282
C       -0.095150     4.047899    -4.634251
C       -1.177721     3.198465    -4.641452
C       -1.200224     1.997197    -3.945360
Te       0.000000    -2.790000     0.000000
Cl      -0.195948    -3.654319    -2.141391
Cl       2.007612    -3.306656     0.838747
Cl      -1.811664    -3.426240     1.302645
H       -1.396754     1.139313     4.583814
H       -1.312884     3.215461     5.786572
H        0.227442     5.047856     4.998134
H        1.638348     4.689032     2.989695
H        1.501266     2.597332     1.833481
H        2.365466     1.048259     3.820643
H        4.237127     0.000037     4.962765
H        4.390496    -2.500820     5.014798
H        2.699734    -3.829042     3.946373
H        0.829733    -2.799742     2.808286
H       -0.443415    -1.918446     4.568939
H       -2.407026    -3.008067     5.390737
H       -4.626080    -2.654672     4.428766
H       -4.835612    -1.129731     2.532358
H       -2.895110     0.002344     1.641792
H       -2.956935     0.092603    -2.068821
H       -4.803171    -1.143211    -3.047305
H       -4.276118    -2.978226    -4.683239
H       -2.000920    -3.484040    -5.262136
H       -0.175064    -2.240933    -4.278961
H        0.672090    -0.059082    -5.069683
H        2.492315    -0.865512    -6.441330
H        4.458443    -1.978954    -5.365835
H        4.460348    -2.212112    -2.917841
H        2.647143    -1.410225    -1.579075
H        1.842011     2.107042    -2.633541
H        1.870702     4.297438    -3.861548
H       -0.150033     4.967306    -5.199917
H       -2.083386     3.427232    -5.200049
H       -2.052069     1.348630    -3.974899
