41
ex_0030 frame0 conf3
O        0.809252     9.024082    -2.349290
N        0.668824     7.894714    -2.726117
O        0.290707     7.669762    -3.824596
C        0.955246     6.784488    -1.855707
C        0.198523     5.630034    -2.036834
C        0.376646     4.490121    -1.280925
N       -0.410568     3.420219    -1.530647
C       -0.243257     2.336854    -0.820539
C        0.806502     2.329241     0.233007
N        1.543771     3.385549     0.442774
C        1.342742     4.472190    -0.300019
C        2.120597     5.589344    -0.073139
C        1.966433     6.772773    -0.815676
N        2.820353     7.882566    -0.492344
O        3.157559     8.650077    -1.344014
O        3.182188     8.022322     0.627704
O        1.040061     1.299322     0.980877
Cu       0.000000     0.000000     0.000000
O       -0.962136    -1.345834     1.049620
C       -0.126415    -2.309226     0.849832
N       -0.246258    -3.293482     1.613730
C        0.539180    -4.329035     1.506531
C        0.338479    -5.348577     2.379306
C        1.098199    -6.500780     2.365882
N        0.791333    -7.507166     3.356847
O        0.949106    -8.673063     3.119995
O        0.380157    -7.158772     4.409819
C        2.145532    -6.598664     1.355055
N        3.008538    -7.723229     1.195754
O        3.318496    -8.375680     2.144280
O        3.406873    -7.992795     0.112669
C        2.319785    -5.509199     0.474935
C        1.533357    -4.385800     0.544571
N        1.729392    -3.349623    -0.316466
C        0.932806    -2.290471    -0.210172
O        1.090395    -1.274529    -1.020066
O       -1.014759     1.292214    -1.071877
H       -0.561479     5.635493    -2.788449
H        2.872102     5.548723     0.688834
H       -0.465120    -5.222681     3.091617
H        3.099153    -5.559036    -0.260017
41
ex_0030 frame1 see-saw O-O-ax-conf22
O        6.906746     1.963430     6.565120
N        6.648868     1.307984     5.604112
O        7.542172     0.849195     4.959409
C        5.281504     1.072873     5.223399
C        5.023567     0.793338     3.860839
C        3.720667     0.615828     3.383560
N        3.489551     0.403584     2.050729
C        2.215221     0.254102     1.584679
C        1.152988     0.267184     2.467941
N        1.368005     0.452434     3.804460
C        2.635535     0.655864     4.277981
C        2.863349     0.903228     5.642307
C        4.174978     1.092227     6.148184
N        4.324171     1.290189     7.566600
O        5.340752     1.003310     8.118399
O        3.426557     1.745970     8.207394
O       -0.080316     0.092831     1.964885
Cu       0.000000     0.000000     0.000000
O       -0.198194    -0.176692    -1.949962
C       -1.279975    -0.927288    -1.983378
N       -1.504087    -1.693757    -3.044820
C       -2.537505    -2.540691    -3.032294
C       -2.681888    -3.409795    -4.067912
C       -3.782718    -4.257295    -4.134167
N       -3.892865    -5.059046    -5.306605
O       -2.926720    -5.310537    -5.959482
O       -4.949385    -5.484071    -5.643758
C       -4.722926    -4.271787    -3.032747
N       -5.846047    -5.143268    -2.951012
O       -5.844569    -6.193379    -3.509601
O       -6.803223    -4.821095    -2.315629
C       -4.532048    -3.381413    -1.970254
C       -3.458576    -2.531392    -1.963643
N       -3.288793    -1.687290    -0.930427
C       -2.191810    -0.923252    -0.899355
O       -1.951358    -0.171455     0.122152
O        1.954192     0.091863     0.260188
H        5.842933     0.776535     3.153696
H        2.019760     0.924465     6.322953
H       -1.939492    -3.367203    -4.856446
H       -5.207167    -3.360372    -1.118232
41
ex_0030 frame2 conf2
O       -4.557147     7.200800     3.266371
N       -4.117329     6.778132     2.233304
O       -4.571225     7.156438     1.184425
C       -3.058774     5.825630     2.224783
C       -3.050775     4.890760     1.173473
C       -2.076803     3.930670     1.059147
N       -2.101206     3.048374     0.031886
C       -1.134896     2.162556    -0.024160
C       -0.069032     2.183199     1.032628
N       -0.107707     3.010929     1.963057
C       -1.068469     3.887245     2.019137
C       -1.049430     4.764494     3.058189
C       -2.022548     5.767767     3.206224
N       -1.903958     6.663686     4.335664
O       -1.356586     6.242704     5.312010
O       -2.327883     7.796431     4.329652
O        0.846884     1.408266     1.013844
Cu       0.000000     0.000000     0.000000
O       -0.863494    -1.372476     1.055854
C        0.027352    -2.194617     1.047626
N        0.043445    -3.067677     1.965902
C        1.014116    -3.974632     1.976426
C        1.019664    -4.903078     2.966091
C        1.987038    -5.910588     3.057550
N        1.859399    -6.821436     4.138049
O        2.823998    -7.312756     4.656899
O        0.756023    -7.096040     4.529728
C        3.023919    -5.962861     2.080893
N        4.084464    -6.954711     2.056232
O        5.123150    -6.639751     1.553665
O        3.957339    -8.066628     2.516940
C        3.006094    -4.972542     1.070119
C        2.015495    -3.996773     1.006906
N        2.036326    -3.091825     0.016376
C        1.095311    -2.184506    -0.018505
O        1.102285    -1.299687    -0.966282
O       -1.116788     1.286161    -0.980785
H       -3.839660     4.935453     0.444105
H       -0.223375     4.653579     3.744869
H        0.234676    -4.845282     3.696002
H        3.757913    -4.975844     0.307003
41
ex_0030 frame3 see-saw O-O-ax-conf26
O        6.957061     1.987252     6.532431
N        6.672432     1.289416     5.607819
O        7.543798     0.760675     4.984062
C        5.296831     1.082313     5.241580
C        5.027947     0.835100     3.883295
C        3.729471     0.633676     3.415875
N        3.496603     0.421042     2.085611
C        2.222804     0.239109     1.626609
C        1.171151     0.232613     2.497340
N        1.379333     0.424104     3.842026
C        2.650102     0.648573     4.312852
C        2.883429     0.891374     5.671126
C        4.188541     1.100635     6.172581
N        4.325456     1.316916     7.588332
O        5.315830     0.980156     8.162705
O        3.442539     1.838396     8.201224
O       -0.054292     0.031544     1.968641
Cu       0.000000     0.000000     0.000000
O       -0.205707    -0.084700    -1.951907
C       -1.350066    -0.732858    -2.017614
N       -1.660757    -1.378845    -3.092730
C       -2.782098    -2.070967    -3.169328
C       -3.022670    -2.757386    -4.308500
C       -4.174326    -3.504717    -4.472642
N       -4.303566    -4.179601    -5.723589
O       -5.359174    -4.364583    -6.236620
O       -3.312694    -4.569512    -6.268601
C       -5.138494    -3.538221    -3.386731
N       -6.376879    -4.259802    -3.414081
O       -6.828221    -4.649156    -2.378951
O       -6.967771    -4.483499    -4.424553
C       -4.847664    -2.811933    -2.216569
C       -3.690686    -2.089230    -2.101669
N       -3.429744    -1.398008    -0.962257
C       -2.266583    -0.729270    -0.883543
O       -1.954207    -0.074736     0.208375
O        1.943633     0.061628     0.313693
H        5.846371     0.843014     3.176493
H        2.050280     0.878501     6.356872
H       -2.276033    -2.704731    -5.086667
H       -5.524549    -2.819936    -1.384150
41
ex_0030 frame4 see-saw O-O-ax-conf12
O        6.984407    -0.648726     6.816093
N        6.632473    -0.131057     5.804683
O        7.447253     0.405002     5.114242
C        5.255635    -0.118668     5.389686
C        5.009989    -0.112928     3.996773
C        3.713361    -0.085297     3.478603
N        3.496171    -0.058528     2.124630
C        2.215960    -0.038521     1.634172
C        1.147858    -0.040152     2.498657
N        1.350946    -0.056747     3.846420
C        2.617470    -0.084516     4.352865
C        2.823455    -0.111940     5.728517
C        4.114241    -0.118571     6.289060
N        4.191324    -0.126262     7.724665
O        5.087058    -0.647260     8.308369
O        3.325693     0.409168     8.351872
O       -0.083776    -0.025043     1.975847
Cu       0.000000     0.000000     0.000000
O       -0.250207    -0.087334    -1.936593
C       -1.283976    -0.881242    -1.961538
N       -1.481561    -1.663590    -3.004309
C       -2.505652    -2.517711    -2.984624
C       -2.645804    -3.371392    -4.026671
C       -3.739809    -4.221823    -4.101304
N       -3.849291    -5.029967    -5.271929
O       -2.871667    -5.312548    -5.898101
O       -4.909532    -5.429332    -5.635663
C       -4.679628    -4.239408    -3.002845
N       -5.819050    -5.081196    -2.935614
O       -5.818000    -6.147494    -3.461292
O       -6.791479    -4.717599    -2.345262
C       -4.476629    -3.382351    -1.919817
C       -3.418731    -2.529245    -1.906340
N       -3.251450    -1.701790    -0.862758
C       -2.182242    -0.896098    -0.858600
O       -1.957540    -0.115497     0.163895
O        1.945889    -0.017431     0.305956
H        5.842694    -0.103736     3.310203
H        1.961091    -0.102284     6.378498
H       -1.911822    -3.294570    -4.820619
H       -5.148896    -3.375686    -1.074076
41
ex_0030 frame5 see-saw O-O-ax-conf16
O        6.989648    -0.653818     6.811547
N        6.634467    -0.130952     5.804178
O        7.446080     0.412546     5.115470
C        5.257376    -0.120339     5.392045
C        5.011606    -0.116663     4.001754
C        3.717218    -0.085985     3.485229
N        3.501128    -0.055933     2.130820
C        2.219098    -0.038461     1.643202
C        1.159349    -0.048207     2.497927
N        1.357940    -0.055864     3.847558
C        2.621983    -0.085447     4.357434
C        2.825234    -0.114895     5.732249
C        4.114836    -0.120162     6.292532
N        4.189588    -0.126480     7.727510
O        5.080390    -0.653216     8.312830
O        3.326516     0.416440     8.352335
O       -0.054444    -0.050014     1.987304
Cu       0.000000     0.000000     0.000000
O       -0.228289    -0.048165    -1.950977
C       -1.364283    -0.706463    -2.006617
N       -1.658827    -1.366581    -3.113479
C       -2.784109    -2.069600    -3.185709
C       -3.023988    -2.762154    -4.318065
C       -4.175528    -3.507093    -4.475946
N       -4.310206    -4.182018    -5.724909
O       -5.367684    -4.371999    -6.229265
O       -3.323584    -4.567704    -6.279241
C       -5.138733    -3.537864    -3.386071
N       -6.374294    -4.259142    -3.414288
O       -6.839965    -4.647026    -2.384707
O       -6.950771    -4.483943    -4.428981
C       -4.850688    -2.812911    -2.219202
C       -3.695410    -2.088155    -2.111771
N       -3.429986    -1.391909    -0.977440
C       -2.265826    -0.717269    -0.901867
O       -1.953601    -0.064098     0.192072
O        1.944600    -0.012863     0.312563
H        5.842843    -0.105329     3.314300
H        1.962394    -0.102705     6.381855
H       -2.272834    -2.708699    -5.093072
H       -5.529017    -2.819551    -1.378731
41
ex_0030 frame6 trans-SS O0+O0
O        2.641510     4.342506     7.248970
N        3.327564     4.702016     6.340616
O        3.960673     5.699489     6.464060
C        3.361657     3.917663     5.133114
C        2.229911     3.116187     4.852506
C        2.165504     2.332285     3.706084
N        1.062584     1.580849     3.449647
C        0.967648     0.913995     2.275314
C        2.049031     0.887336     1.390937
N        3.184983     1.546101     1.692468
C        3.243911     2.314842     2.806481
C        4.366874     3.079136     3.052169
C        4.472520     3.896666     4.191797
N        5.688582     4.654581     4.332071
O        6.685644     4.255818     3.809677
O        5.735717     5.666717     4.951531
O        1.940862     0.204634     0.251375
Cu       0.000000     0.000000     0.000000
O       -1.961599     0.057325     0.118932
C       -2.195046     0.876753    -0.895971
N       -3.266366     1.658342    -0.881795
C       -3.454603     2.524021    -1.886132
C       -4.499924     3.397285    -1.820044
C       -4.782167     4.248238    -2.888404
N       -5.953638     5.048528    -2.767217
O       -6.400225     5.307009    -1.691212
O       -6.496049     5.465557    -3.738147
C       -3.887795     4.264974    -4.025258
N       -4.035891     5.128093    -5.147407
O       -4.576879     6.181362    -5.037701
O       -3.613783     4.795373    -6.213421
C       -2.801090     3.385647    -4.044604
C       -2.582377     2.531514    -2.997247
N       -1.527725     1.696296    -3.032956
C       -1.297920     0.908745    -1.983381
O       -0.227545     0.148355    -1.947967
O       -0.155730     0.273323     1.942627
H        1.381193     3.112149     5.527988
H        5.170495     3.041978     2.326939
H       -5.131721     3.348408    -0.942764
H       -2.098372     3.368197    -4.874108
41
ex_0030 frame7 see-saw O-O-ax-conf5
O        6.597508    -4.316297     4.050339
N        5.561962    -4.698729     4.508286
O        5.552747    -5.706385     5.136944
C        4.368930    -3.919341     4.292509
C        4.313867    -3.130601     3.120365
C        3.210715    -2.331342     2.838107
N        3.184408    -1.565084     1.712093
C        2.055182    -0.881298     1.398403
C        0.981522    -0.854240     2.284442
N        1.042592    -1.528859     3.450834
C        2.114469    -2.313391     3.719487
C        2.124459    -3.092959     4.860210
C        3.225033    -3.896740     5.196730
N        3.132519    -4.645060     6.425372
O        2.451134    -4.223051     7.312823
O        3.710901    -5.669293     6.588202
O       -0.102298    -0.152416     1.959493
Cu       0.000000     0.000000     0.000000
O       -0.234496    -0.063907    -1.942677
C       -1.371289    -0.724145    -2.024460
N       -1.666125    -1.363993    -3.137299
C       -2.788110    -2.073351    -3.209782
C       -3.030072    -2.766896    -4.335207
C       -4.186145    -3.514273    -4.483416
N       -4.323585    -4.187161    -5.733509
O       -5.385547    -4.384735    -6.224247
O       -3.342488    -4.561946    -6.301741
C       -5.147654    -3.542996    -3.388524
N       -6.381133    -4.262730    -3.416833
O       -6.865586    -4.641034    -2.391754
O       -6.939175    -4.495309    -4.437806
C       -4.859068    -2.819058    -2.223512
C       -3.696679    -2.095627    -2.134476
N       -3.427554    -1.407044    -1.015541
C       -2.264099    -0.746300    -0.922567
O       -1.953176    -0.119651     0.191282
O        1.941392    -0.224324     0.237976
H        5.150465    -3.122309     2.433972
H        1.264178    -3.047487     5.512523
H       -2.275834    -2.718307    -5.107389
H       -5.538011    -2.822288    -1.372946
41
ex_0030 frame8 square-planar trans-conf2
O        4.871696     6.120748    -5.187067
N        3.798749     5.691218    -4.903195
O        2.821761     6.239620    -5.313773
C        3.684449     4.534817    -4.078534
C        2.522723     4.423908    -3.287635
C        2.366240     3.345834    -2.433061
N        1.267237     3.246733    -1.650718
C        1.101174     2.135668    -0.908711
C        2.116280     1.148462    -0.856571
N        3.222232     1.297209    -1.559932
C        3.356505     2.345082    -2.377218
C        4.468002     2.420950    -3.150245
C        4.673694     3.482591    -4.020166
N        5.867453     3.448103    -4.804680
O        6.813657     2.829326    -4.417637
O        5.937018     4.027141    -5.841536
O        1.960157     0.044976    -0.085165
Cu       0.000000     0.000000     0.000000
O       -1.955691    -0.192555    -0.066083
C       -2.012039    -1.107000    -1.005213
N       -3.014233    -1.120324    -1.880800
C       -3.003222    -2.037057    -2.862833
C       -3.958123    -1.976276    -3.832568
C       -4.037541    -2.954292    -4.821394
N       -5.121010    -2.833125    -5.735467
O       -5.583897    -3.801970    -6.245476
O       -5.572912    -1.760198    -5.997016
C       -3.041001    -4.000892    -4.855115
N       -3.004253    -5.031389    -5.845846
O       -2.473710    -6.073092    -5.601181
O       -3.496593    -4.867808    -6.917347
C       -2.045814    -4.017359    -3.864746
C       -2.017089    -3.047193    -2.889275
N       -1.042888    -3.064242    -1.957443
C       -0.993594    -2.063795    -1.071673
O        0.018285    -1.953002    -0.236265
O       -0.013340     1.954234    -0.225397
H        1.763403     5.199037    -3.306268
H        5.164853     1.596453    -3.075986
H       -4.686425    -1.178161    -3.765405
H       -1.268524    -4.772879    -3.858393
41
ex_0030 frame9 see-saw O-O-ax
O        6.588755    -4.290234     4.060097
N        5.561181    -4.699846     4.509949
O        5.566951    -5.719051     5.123825
C        4.366121    -3.927592     4.297796
C        4.304601    -3.137761     3.123781
C        3.206203    -2.330433     2.835698
N        3.180976    -1.556202     1.709858
C        2.057242    -0.848280     1.408535
C        0.991685    -0.829954     2.286505
N        1.044684    -1.525938     3.441960
C        2.117175    -2.313854     3.710541
C        2.130591    -3.098948     4.849386
C        3.229083    -3.903387     5.195583
N        3.132713    -4.644024     6.425115
O        2.459974    -4.195431     7.306195
O        3.691810    -5.678749     6.600186
O       -0.083139    -0.110989     1.963662
Cu       0.000000     0.000000     0.000000
O       -0.237977    -0.109036    -1.936426
C       -1.277500    -0.898992    -1.947978
N       -1.477372    -1.677180    -2.979003
C       -2.499707    -2.516229    -2.966121
C       -2.645230    -3.364038    -4.019840
C       -3.735322    -4.215369    -4.097217
N       -3.845189    -5.028593    -5.270359
O       -2.862643    -5.316471    -5.889626
O       -4.903049    -5.424650    -5.641133
C       -4.675835    -4.236043    -2.999340
N       -5.820557    -5.076501    -2.931656
O       -5.815772    -6.144267    -3.450824
O       -6.790989    -4.704472    -2.348979
C       -4.468968    -3.381323    -1.911729
C       -3.412740    -2.530935    -1.892652
N       -3.247520    -1.705325    -0.841776
C       -2.182287    -0.911374    -0.836365
O       -1.956622    -0.135009     0.190250
O        1.950340    -0.160661     0.264802
H        5.136981    -3.124319     2.444318
H        1.276352    -3.048019     5.498015
H       -1.910702    -3.281544    -4.811976
H       -5.140008    -3.379325    -1.071269
41
ex_0030 frame10 trans-SS O0+O0
O       -6.585256     4.280129     4.064105
N       -5.561292     4.697250     4.514278
O       -5.572430     5.722723     5.117571
C       -4.366040     3.930417     4.301244
C       -4.301579     3.141471     3.125567
C       -3.204208     2.329603     2.833249
N       -3.178699     1.549200     1.704137
C       -2.062627     0.815344     1.416791
C       -1.000000     0.797243     2.290802
N       -1.041199     1.524435     3.437429
C       -2.116154     2.314130     3.706937
C       -2.133436     3.102793     4.846226
C       -3.231207     3.906336     5.196574
N       -3.131910     4.642158     6.425669
O       -2.463632     4.184418     7.303856
O       -3.683347     5.680817     6.604349
O        0.074748     0.038510     1.971625
Cu       0.000000     0.000000     0.000000
O        1.962198    -0.108664     0.086945
C        2.154344    -0.894426    -0.884245
N        3.203565    -1.679827    -0.866754
C        3.392773    -2.514393    -1.869629
C        4.454939    -3.355699    -1.801807
C        4.745208    -4.215587    -2.856287
N        5.919265    -5.028986    -2.733451
O        6.326732    -5.319920    -1.649253
O        6.500246    -5.423005    -3.696506
C        3.852499    -4.232362    -3.991052
N        4.013909    -5.066277    -5.125611
O        4.518510    -6.138006    -5.028509
O        3.639245    -4.690360    -6.194206
C        2.746953    -3.380569    -3.998841
C        2.519256    -2.529982    -2.974504
N        1.458980    -1.712249    -3.030892
C        1.222838    -0.920707    -1.997160
O        0.141741    -0.143978    -1.958057
O       -1.945908     0.087359     0.288034
H       -5.131484     3.124615     2.448794
H       -1.281580     3.047833     5.492422
H        5.089551    -3.273163    -0.928581
H        2.059827    -3.380883    -4.821710
41
ex_0030 frame11 conf5
O        2.647452     7.299890    -4.771170
N        1.729709     6.779598    -4.200996
O        0.598701     7.013240    -4.543959
C        1.918792     5.882636    -3.100116
C        0.988479     4.854366    -2.982107
C        1.014465     3.954518    -1.974152
N        0.059998     3.056955    -1.943725
C        0.057897     2.203845    -1.017366
C        1.112848     2.181583     0.035658
N        2.063041     3.091216    -0.004172
C        2.023314     3.993334    -1.011945
C        2.986130     4.971538    -1.103788
C        2.975405     5.948630    -2.113987
N        4.025712     6.925347    -2.065875
O        4.498317     7.413253    -3.055147
O        4.434031     7.253994    -0.980933
O        1.108770     1.281765     0.988217
Cu       0.000000     0.000000     0.000000
O       -0.920963    -1.340830     1.090866
C        0.140612    -2.053812     1.185063
N        0.273621    -2.777172     2.210275
C        1.360361    -3.519552     2.334952
C        1.473734    -4.278819     3.451976
C        2.541814    -5.142425     3.682272
N        2.478824    -5.911418     4.884307
O        3.456937    -6.215435     5.508392
O        1.391534    -6.256911     5.267183
C        3.593463    -5.189925     2.713261
N        4.774197    -6.014782     2.793821
O        5.248875    -6.355975     1.751887
O        5.291000    -6.366916     3.826919
C        3.467245    -4.354270     1.571986
C        2.372335    -3.542073     1.365495
N        2.293158    -2.796976     0.256850
C        1.232960    -2.050248     0.124975
O        1.132545    -1.323664    -0.902325
O       -0.829193     1.416887    -1.033767
H        0.174732     4.767991    -3.688581
H        3.755976     4.995203    -0.354846
H        0.666507    -4.230249     4.171605
H        4.231110    -4.367123     0.817355
41
ex_0030 frame12 see-saw O-O-ax-conf11
O        3.794573     7.133986     0.549246
N        3.239283     7.002992     1.587988
O        3.355302     7.854147     2.426148
C        2.442630     5.853310     1.869087
C        2.786812     4.675416     1.201748
C        2.086950     3.524375     1.426720
N        2.444682     2.411729     0.781127
C        1.705831     1.339114     0.967789
C        0.633583     1.322567     1.852443
N        0.309021     2.379416     2.553216
C        0.998844     3.508638     2.329815
C        0.634756     4.643266     2.987569
C        1.329402     5.836757     2.784486
N        0.834599     6.970830     3.482272
O        0.277085     6.857787     4.502216
O        0.992075     8.084308     3.012430
O       -0.028577     0.222356     1.954291
Cu       0.000000     0.000000     0.000000
O       -0.210190    -0.078866    -1.950300
C       -1.351106    -0.726792    -2.020030
N       -1.647288    -1.372100    -3.126854
C       -2.777225    -2.072094    -3.197841
C       -3.026014    -2.763145    -4.327435
C       -4.181239    -3.509943    -4.482073
N       -4.316717    -4.183530    -5.730607
O       -5.375460    -4.375938    -6.231075
O       -3.330996    -4.565442    -6.288682
C       -5.142107    -3.540432    -3.391877
N       -6.378735    -4.260854    -3.416347
O       -6.845366    -4.641532    -2.384398
O       -6.955646    -4.492208    -4.429757
C       -4.850465    -2.813851    -2.224586
C       -3.686579    -2.090620    -2.125287
N       -3.417822    -1.401106    -1.002791
C       -2.257660    -0.739252    -0.917845
O       -1.951857    -0.094647     0.193080
O        1.942652     0.257240     0.260304
H        3.610463     4.640267     0.503463
H       -0.203422     4.587680     3.669673
H       -2.275623    -2.712792    -5.103035
H       -5.526994    -2.818865    -1.381503
41
ex_0030 frame13 see-saw O-O-ax-conf7
O        3.798395     7.136515     0.549638
N        3.241555     7.003212     1.585765
O        3.353992     7.852787     2.426826
C        2.446930     5.855371     1.865637
C        2.794497     4.677597     1.197811
C        2.097709     3.524773     1.420936
N        2.452702     2.398589     0.776246
C        1.710637     1.324916     0.975546
C        0.636008     1.327824     1.850935
N        0.319786     2.389772     2.550105
C        1.007770     3.516909     2.326353
C        0.642321     4.649113     2.981617
C        1.331706     5.839216     2.780714
N        0.835476     6.972157     3.479881
O        0.276200     6.857518     4.500551
O        0.993140     8.083623     3.011703
O       -0.047803     0.233010     1.951585
Cu       0.000000     0.000000     0.000000
O       -0.239041    -0.099157    -1.947394
C       -1.276657    -0.894511    -1.962342
N       -1.477241    -1.675187    -2.996865
C       -2.499736    -2.523724    -2.986890
C       -2.643108    -3.373922    -4.031405
C       -3.738222    -4.223453    -4.104681
N       -3.847644    -5.030535    -5.274188
O       -2.871103    -5.313388    -5.901419
O       -4.908674    -5.428904    -5.635774
C       -4.678910    -4.240896    -3.004846
N       -5.818373    -5.082789    -2.936090
O       -5.815600    -6.148836    -3.462155
O       -6.791048    -4.720894    -2.345366
C       -4.475486    -3.383768    -1.923571
C       -3.414016    -2.533795    -1.909513
N       -3.247036    -1.708690    -0.864056
C       -2.179502    -0.916189    -0.858738
O       -1.953638    -0.143668     0.175795
O        1.928406     0.230007     0.310794
H        3.620655     4.640978     0.498322
H       -0.198698     4.587815     3.663139
H       -1.909311    -3.296494    -4.824040
H       -5.146738    -3.374962    -1.074564
41
ex_0030 frame14 conf4
O       -6.454652     3.039970     4.857589
N       -6.115961     2.308887     3.885868
O       -6.937588     1.867402     3.237787
C       -4.735033     2.155971     3.705897
C       -4.385990     1.999882     2.380981
C       -3.087040     1.913182     2.043689
N       -2.783156     1.800346     0.756763
C       -1.527464     1.637599     0.469338
C       -0.514895     1.659591     1.474560
N       -0.796521     1.856576     2.705550
C       -2.076751     1.941583     3.032192
C       -2.381721     2.055414     4.331448
C       -3.701769     2.159806     4.718667
N       -3.972444     2.336164     6.094192
O       -3.070057     2.780741     6.796483
O       -4.994757     2.083704     6.585087
O        0.676568     1.476932     1.106380
Cu       0.000000     0.000000     0.000000
O       -1.004761    -1.366527     0.990454
C       -0.543515    -2.454548     0.465234
N       -1.031033    -3.587168     0.883313
C       -0.607182    -4.732240     0.388964
C       -1.173926    -5.857790     0.858974
C       -0.761676    -7.097485     0.419652
N       -1.403116    -8.223150     1.013611
O       -2.494399    -8.109395     1.487592
O       -0.863285    -9.281212     1.044063
C        0.265423    -7.167961    -0.596213
N        0.743764    -8.379173    -1.159126
O        0.037055    -9.333040    -1.228831
O        1.863113    -8.446634    -1.567290
C        0.838915    -5.975993    -1.073164
C        0.401055    -4.768175    -0.593451
N        0.937009    -3.622431    -1.063831
C        0.499513    -2.448574    -0.574193
O        1.021678    -1.314411    -1.042965
O       -1.177252     1.392995    -0.732343
H       -5.116553     1.972728     1.579812
H       -1.555191     2.070455     5.033205
H       -1.930543    -5.730658     1.624811
H        1.603150    -5.981129    -1.841792
41
ex_0030 frame15 trans-SQ O0+O0|O0+O0
O        4.580955     3.233001     7.161003
N        4.254283     2.340324     6.485201
O        4.684612     1.231274     6.726707
C        3.359135     2.503201     5.389250
C        3.493709     1.599775     4.326273
C        2.659216     1.680011     3.248762
N        2.792654     0.803458     2.243743
C        1.926859     0.885143     1.248125
C        0.942552     1.895050     1.197082
N        0.842670     2.771528     2.152949
C        1.662425     2.679957     3.194047
C        1.513786     3.567880     4.192945
C        2.330459     3.530057     5.310730
N        2.055570     4.476061     6.339524
O        0.912603     4.925483     6.425268
O        2.848555     4.840353     7.093511
O        0.127398     1.955567     0.191481
Cu       0.000000     0.000000     0.000000
O       -0.169554    -1.946865     0.246796
C       -0.838364    -1.773042     1.330162
N       -0.580341    -2.526827     2.366722
C       -1.224516    -2.250323     3.498711
C       -0.892250    -2.936766     4.616862
C       -1.563472    -2.694837     5.809672
N       -1.173648    -3.496793     6.914569
O       -0.083081    -3.975660     6.976673
O       -1.948441    -3.693438     7.791922
C       -2.588957    -1.675260     5.844050
N       -3.327542    -1.327381     7.005085
O       -2.868303    -1.459927     8.093497
O       -4.433508    -0.892478     6.884526
C       -2.889999    -0.977547     4.679361
C       -2.234609    -1.259322     3.529091
N       -2.559003    -0.583981     2.421280
C       -1.801948    -0.789946     1.383713
O       -1.943142    -0.045984     0.337209
O        1.942827    -0.017015     0.316807
H        4.246836     0.817112     4.330601
H        0.726423     4.302610     4.074588
H       -0.056368    -3.629627     4.544707
H       -3.643213    -0.194603     4.653007
41
ex_0030 frame16 
O       -5.630995    -3.667288     5.534522
N       -5.191967    -2.532592     5.833446
O       -5.907839    -1.809263     6.694048
C       -3.969745    -2.118748     5.226724
C       -3.671544    -2.652182     3.971237
C       -2.518655    -2.319449     3.290390
N       -2.208123    -2.816908     2.079660
C       -1.078992    -2.488404     1.422740
C       -0.190610    -1.583975     2.027077
N       -0.529479    -1.114582     3.220917
C       -1.650145    -1.432893     3.890425
C       -1.904210    -0.881941     5.131817
C       -3.081170    -1.235468     5.805487
N       -3.260527    -0.624335     7.082028
O       -3.833678    -1.162376     8.035333
O       -2.775081     0.620538     7.264950
O        0.985631    -1.273448     1.275934
Cu       0.737927    -2.343883    -0.414482
O       -0.292159    -0.557276    -0.878085
C        0.619392     0.175725    -1.674748
N        0.666767     1.425166    -2.188156
C        1.730461     1.862470    -2.893121
C        1.721147     3.144894    -3.369615
C        2.763204     3.691627    -4.103096
N        2.629699     5.040561    -4.534592
O        1.463176     5.458654    -4.736190
O        3.624627     5.901752    -4.744923
C        3.844439     2.879269    -4.353725
N        4.981995     3.306927    -5.103103
O        6.089710     2.777757    -4.837827
O        4.965909     4.226785    -6.066769
C        3.878688     1.559952    -3.871787
C        2.816748     1.064034    -3.145909
N        2.787529    -0.193227    -2.659497
C        1.746178    -0.624103    -1.997224
O        1.948114    -1.800409    -1.733447
O       -0.916189    -3.070803     0.234496
H       -4.338127    -3.344385     3.487192
H       -1.195509    -0.192640     5.561989
H        0.851012     3.747398    -3.151906
H        4.736923     0.933791    -4.074598
41
ex_0030 frame17 square-planar trans
O        3.093397     6.845380     4.342000
N        4.081479     6.278067     3.983595
O        5.141628     6.786725     4.166201
C        3.983919     5.001622     3.346286
C        2.792461     4.725425     2.671362
C        2.610590     3.547804     1.993619
N        1.456136     3.345355     1.342798
C        1.218162     2.183888     0.745120
C        2.214132     1.191217     0.690159
N        3.409274     1.399313     1.301423
C        3.615940     2.564713     1.978303
C        4.809750     2.792745     2.654027
C        5.022978     3.997822     3.359628
N        6.270107     4.147361     4.050875
O        7.234046     3.550506     3.675970
O        6.362997     4.861605     4.999642
O        1.966997     0.052739     0.033591
Cu       0.000000     0.000000     0.000000
O       -1.962329    -0.115909    -0.066983
C       -2.200181    -1.266893     0.580057
N       -3.388613    -1.501819     1.126308
C       -3.632088    -2.657179     1.771964
C       -4.840800    -2.832122     2.392419
C       -5.181281    -4.036171     3.014631
N       -6.494269    -4.118900     3.578781
O       -7.057169    -3.126722     3.932292
O       -7.038225    -5.170083     3.702019
C       -4.204228    -5.098333     3.048474
N       -4.425456    -6.365836     3.683037
O       -3.836891    -7.332786     3.303273
O       -5.191805    -6.472032     4.589202
C       -2.952917    -4.886490     2.422548
C       -2.659710    -3.668637     1.808451
N       -1.442421    -3.448036     1.243818
C       -1.181870    -2.239793     0.684333
O        0.028020    -1.954113     0.228321
O        0.028638     1.957606     0.194537
H        1.989963     5.451544     2.630662
H        5.565798     2.020670     2.658889
H       -5.543364    -2.016146     2.335850
H       -2.200883    -5.662609     2.445953
41
ex_0030 frame18 trans-SQ O0+O0|O0+O0
O        6.857734     3.101621    -4.334583
N        6.283105     4.088009    -3.984114
O        6.786220     5.149523    -4.170700
C        5.005345     3.988299    -3.349159
C        4.731528     2.795076    -2.678651
C        3.556170     2.611030    -1.999652
N        3.352404     1.450937    -1.357122
C        2.181919     1.209167    -0.767523
C        1.202674     2.213548    -0.689270
N        1.415751     3.412775    -1.288430
C        2.574748     3.619138    -1.973137
C        2.798012     4.815569    -2.646078
C        3.999928     5.026635    -3.359531
N        4.146273     6.270560    -4.055415
O        3.542621     7.233515    -3.689980
O        4.865691     6.361373    -5.000006
O        0.087875     1.975523    -0.032970
Cu       0.000000     0.000000     0.000000
O       -0.118899    -1.963140     0.049396
C       -1.269509    -2.201804    -0.591577
N       -1.503852    -3.407602    -1.120579
C       -2.659548    -3.647621    -1.772585
C       -2.834329    -4.852488    -2.394765
C       -4.039581    -5.187483    -3.015264
N       -4.124559    -6.499627    -3.577665
O       -3.134506    -7.069508    -3.924643
O       -5.178035    -7.036169    -3.705736
C       -5.101005    -4.207106    -3.048728
N       -6.365713    -4.424043    -3.687355
O       -7.331867    -3.828311    -3.317218
O       -6.470145    -5.195158    -4.588794
C       -4.890919    -2.959477    -2.418948
C       -3.671077    -2.671888    -1.811969
N       -3.447573    -1.455999    -1.256306
C       -2.237012    -1.189682    -0.712989
O       -1.946855     0.030034    -0.287587
O        1.946681     0.012273    -0.254119
H        5.455962     1.990730    -2.644623
H        2.022308     5.571520    -2.646361
H       -2.015612    -5.555005    -2.343708
H       -5.664066    -2.199511    -2.439348
41
ex_0030 frame19 trans-SQ O0+O0|O0+O0
O        3.086562     6.831525     4.349020
N        4.077149     6.273266     3.984470
O        5.135297     6.789882     4.162154
C        3.979536     5.000293     3.344542
C        2.786912     4.725361     2.661655
C        2.601538     3.549464     1.982876
N        1.449003     3.348856     1.312067
C        1.216538     2.174572     0.719812
C        2.206249     1.167020     0.747621
N        3.396850     1.397102     1.336340
C        3.602744     2.565245     1.987311
C        4.798810     2.795432     2.659468
C        5.017648     3.998903     3.359980
N        6.269544     4.149147     4.048019
O        7.232189     3.557342     3.661376
O        6.368347     4.856486     5.002687
O        1.958257    -0.002957     0.192976
Cu       0.000000     0.000000     0.000000
O       -0.089461    -1.955741    -0.086407
C       -1.266366    -2.180003    -0.634382
N       -1.507157    -3.370308    -1.173262
C       -2.667769    -3.618247    -1.784696
C       -2.842719    -4.831204    -2.392371
C       -4.038861    -5.177336    -3.016121
N       -4.117061    -6.489979    -3.580194
O       -3.120346    -7.042063    -3.938727
O       -5.163939    -7.044914    -3.699231
C       -5.099982    -4.204532    -3.050564
N       -6.366856    -4.428431    -3.681915
O       -7.331420    -3.844805    -3.289913
O       -6.478055    -5.188399    -4.594081
C       -4.888438    -2.948702    -2.426060
C       -3.680323    -2.651138    -1.799185
N       -3.467270    -1.436548    -1.200566
C       -2.247913    -1.179700    -0.648678
O       -1.973084     0.021083    -0.117188
O        0.057251     1.962867     0.109472
H        1.989357     5.451020     2.618672
H        5.555566     2.024257     2.669931
H       -2.022205    -5.528667    -2.328911
H       -5.662491    -2.205126    -2.451832
41
ex_0030 frame20 trans-SQ O0+O0|O0+O0
O        6.831525     3.086562    -4.349020
N        6.273266     4.077149    -3.984470
O        6.789882     5.135297    -4.162154
C        5.000293     3.979536    -3.344542
C        4.725361     2.786912    -2.661655
C        3.549464     2.601538    -1.982876
N        3.348856     1.449003    -1.312067
C        2.174573     1.216539    -0.719812
C        1.167021     2.206249    -0.747621
N        1.397102     3.396850    -1.336340
C        2.565245     3.602744    -1.987311
C        2.795432     4.798810    -2.659468
C        3.998903     5.017648    -3.359980
N        4.149147     6.269544    -4.048019
O        3.557342     7.232189    -3.661376
O        4.856486     6.368347    -5.002687
O       -0.002958     1.958257    -0.192975
Cu       0.000000     0.000000     0.000000
O       -1.955742    -0.089462     0.086406
C       -2.180003    -1.266367     0.634381
N       -3.370308    -1.507157     1.173262
C       -3.618247    -2.667769     1.784696
C       -4.831204    -2.842719     2.392371
C       -5.177336    -4.038861     3.016121
N       -6.489979    -4.117061     3.580194
O       -7.042063    -3.120346     3.938727
O       -7.044914    -5.163939     3.699231
C       -4.204532    -5.099982     3.050564
N       -4.428431    -6.366856     3.681915
O       -3.844805    -7.331420     3.289913
O       -5.188399    -6.478055     4.594081
C       -2.948702    -4.888438     2.426060
C       -2.651138    -3.680323     1.799185
N       -1.436548    -3.467270     1.200566
C       -1.179700    -2.247913     0.648677
O        0.021082    -1.973084     0.117186
O        1.962867     0.057251    -0.109471
H        5.451020     1.989357    -2.618672
H        2.024257     5.555565    -2.669931
H       -5.528667    -2.022205     2.328911
H       -2.205126    -5.662491     2.451832
41
ex_0030 frame21 square-planar trans-conf5
O        5.172192     7.147505    -3.457811
N        4.403778     6.839712    -2.602990
O        3.732236     7.683662    -2.087086
C        4.279731     5.478742    -2.187575
C        3.035673     5.089382    -1.708658
C        2.799349     3.807496    -1.288347
N        1.580396     3.491082    -0.847417
C        1.302757     2.250590    -0.464003
C        2.293733     1.262354    -0.465834
N        3.553713     1.567712    -0.869098
C        3.815940     2.836507    -1.317312
C        5.074654     3.181283    -1.801975
C        5.344337     4.501746    -2.230628
N        6.671010     4.786388    -2.683942
O        7.131671     5.878890    -2.566858
O        7.328988     3.924811    -3.185765
O        1.967139     0.008285    -0.059697
Cu       0.000000     0.000000     0.000000
O       -1.950897    -0.065636     0.153791
C       -2.202746    -1.249600     0.633093
N       -3.413430    -1.516153     1.110951
C       -3.678416    -2.699675     1.664670
C       -4.907062    -2.896674     2.207296
C       -5.271293    -4.104913     2.784242
N       -6.604604    -4.173922     3.300804
O       -6.885331    -4.848714     4.237248
O       -7.461944    -3.529958     2.770084
C       -4.289620    -5.176149     2.817700
N       -4.516717    -6.475090     3.375588
O       -5.252330    -6.649131     4.293856
O       -3.947470    -7.413122     2.901385
C       -3.011777    -4.935311     2.263696
C       -2.708451    -3.710229     1.682620
N       -1.482879    -3.482061     1.132345
C       -1.196110    -2.247572     0.646777
O        0.024138    -1.962413     0.181595
O        0.069049     1.956273    -0.077322
H        2.210709     5.792848    -1.682770
H        5.866904     2.446418    -1.809062
H       -5.597382    -2.069025     2.152545
H       -2.267134    -5.715838     2.275769
41
ex_0030 frame22 see-saw O-O-ax-conf12
O        7.001164    -0.656214     6.801948
N        6.639194    -0.122764     5.802138
O        7.446494     0.423995     5.109777
C        5.260664    -0.115906     5.397170
C        5.013480    -0.110528     4.006491
C        3.723718    -0.087869     3.483707
N        3.507431    -0.069164     2.123266
C        2.224969    -0.053825     1.646426
C        1.173007    -0.037333     2.506239
N        1.366407    -0.054592     3.848297
C        2.627127    -0.084031     4.358907
C        2.830882    -0.110132     5.734907
C        4.120896    -0.115825     6.295472
N        4.184035    -0.121472     7.730794
O        5.067719    -0.654648     8.321832
O        3.319800     0.427858     8.350049
O       -0.061303    -0.003320     1.969219
Cu       0.000000     0.000000     0.000000
O       -0.194278     0.047346    -1.954688
C       -1.448466     0.451245    -2.063539
N       -1.855489     0.855693    -3.244812
C       -3.096075     1.300308    -3.416482
C       -3.451720     1.745873    -4.647315
C       -4.736103     2.191036    -4.926924
N       -4.997193     2.600019    -6.276054
O       -4.102114     2.998246    -6.954406
O       -6.093918     2.548837    -6.731512
C       -5.700387     2.210728    -3.855699
N       -7.051344     2.662045    -4.003383
O       -7.897973     2.228754    -3.284819
O       -7.347611     3.464996    -4.833127
C       -5.300816     1.760327    -2.578190
C       -4.011479     1.308533    -2.355273
N       -3.625128     0.875407    -1.126727
C       -2.354824     0.459179    -0.950631
O       -1.949296     0.060766     0.243420
O        1.966271    -0.054350     0.272713
H        5.840001    -0.105073     3.318339
H        1.968253    -0.103428     6.379212
H       -2.690692     1.689255    -5.409189
H       -5.994634     1.777760    -1.760126
41
ex_0030 frame23 conf2
O        3.989412    -6.046091     5.030510
N        2.989268    -5.419204     4.911925
O        1.958513    -5.875902     5.316112
C        2.972228    -4.135333     4.301615
C        1.827675    -3.825601     3.617279
C        1.644638    -2.629203     3.086446
N        0.474911    -2.405116     2.552595
C        0.296106    -1.279267     1.979775
C        1.352044    -0.254401     1.967409
N        2.506804    -0.443703     2.555656
C        2.674663    -1.648711     3.103315
C        3.853712    -1.937355     3.685979
C        4.042101    -3.150686     4.342893
N        5.293671    -3.316758     5.008465
O        5.820320    -4.377188     5.111334
O        5.826751    -2.352391     5.477120
O        1.132402     0.832645     1.372737
Cu       0.000000     0.000000     0.000000
O       -1.026365     0.963554    -1.328000
C       -0.667496     0.342703    -2.412966
N       -1.265149     0.669764    -3.536927
C       -0.936598     0.049716    -4.663735
C       -1.582054     0.403135    -5.796174
C       -1.311967    -0.209369    -7.015117
N       -2.074016     0.246064    -8.137561
O       -3.171732     0.677142    -7.940013
O       -1.657987     0.211567    -9.251891
C       -0.295026    -1.242705    -7.050249
N        0.101645    -1.972573    -8.212852
O        0.094168    -1.490466    -9.299966
O        0.452706    -3.108405    -8.081748
C        0.362293    -1.565304    -5.860185
C        0.051571    -0.944846    -4.684944
N        0.698018    -1.295634    -3.560178
C        0.372974    -0.699136    -2.413913
O        1.004879    -1.069707    -1.305976
O       -0.839558    -1.071754     1.412275
H        0.980363    -4.493791     3.565287
H        4.604361    -1.170792     3.708232
H       -2.336646     1.168659    -5.693163
H        1.115952    -2.326866    -5.847273
41
ex_0030 frame24 see-saw O-O-ax-conf22
O        6.973173     1.994197     6.510928
N        6.682186     1.283719     5.599268
O        7.545930     0.735016     4.982817
C        5.308174     1.081123     5.239672
C        5.027819     0.850029     3.888551
C        3.739160     0.641823     3.431304
N        3.502067     0.427744     2.112360
C        2.205876     0.242875     1.682845
C        1.210616     0.242273     2.504764
N        1.393753     0.430279     3.859179
C        2.659353     0.650070     4.331554
C        2.893231     0.879277     5.674314
C        4.184771     1.097540     6.183582
N        4.315588     1.321742     7.596573
O        5.295295     0.970705     8.174048
O        3.437747     1.863866     8.200707
O       -0.033245     0.046519     1.969383
Cu       0.000000     0.000000     0.000000
O       -0.206795     0.044969    -1.952271
C       -1.427768     0.446696    -2.046271
N       -1.833240     0.858792    -3.204084
C       -3.074578     1.290379    -3.377412
C       -3.440709     1.723117    -4.618289
C       -4.740777     2.187695    -4.919951
N       -5.000326     2.593007    -6.261919
O       -4.095939     3.004969    -6.903126
O       -6.091109     2.531241    -6.756769
C       -5.694385     2.218684    -3.870931
N       -7.043563     2.671816    -4.015219
O       -7.862408     2.206089    -3.298146
O       -7.375867     3.495128    -4.823860
C       -5.278003     1.766845    -2.585011
C       -3.984209     1.305867    -2.332934
N       -3.603648     0.876222    -1.094725
C       -2.335185     0.450347    -0.922420
O       -1.945285     0.042323     0.278688
O        1.937071     0.053017     0.357637
H        5.842640     0.855585     3.188057
H        2.068989     0.869104     6.348231
H       -2.693809     1.676215    -5.383616
H       -5.980039     1.786723    -1.782643
41
ex_0030 frame25 trans-SS O0+O0
O        2.691521     4.276966     7.253993
N        3.325099     4.665859     6.356057
O        3.925929     5.720839     6.470768
C        3.374383     3.907913     5.141332
C        2.231546     3.127109     4.843738
C        2.150739     2.369871     3.680721
N        1.044465     1.638884     3.404719
C        0.977720     0.935686     2.262114
C        2.024294     0.957078     1.385930
N        3.132842     1.620672     1.655535
C        3.214559     2.359785     2.788373
C        4.343793     3.096615     3.054955
C        4.477082     3.880427     4.207969
N        5.702204     4.615005     4.324597
O        6.678247     4.181715     3.846490
O        5.756286     5.679617     4.908429
O        1.923852     0.311227     0.266993
Cu       0.000000     0.000000     0.000000
O       -1.937474    -0.036305     0.141923
C       -2.300813    -0.450921    -1.025602
N       -3.537954    -0.853789    -1.184146
C       -3.948550    -1.296993    -2.363447
C       -5.226371    -1.739297    -2.470729
C       -5.753761    -2.187911    -3.676474
N       -7.122078    -2.593056    -3.668881
O       -7.607165    -3.000840    -2.656938
O       -7.790886    -2.532534    -4.653011
C       -4.898112    -2.212451    -4.828663
N       -5.308103    -2.666700    -6.122488
O       -4.771411    -2.224916    -7.092167
O       -6.174139    -3.476942    -6.254201
C       -3.565252    -1.761704    -4.686406
C       -3.088746    -1.308803    -3.467827
N       -1.807821    -0.879933    -3.334219
C       -1.397073    -0.476192    -2.118641
O       -0.172188    -0.111613    -1.955354
O       -0.104161     0.252874     1.948900
H        1.397058     3.118212     5.516425
H        5.133240     3.052711     2.333620
H       -5.825619    -1.684801    -1.578710
H       -2.904802    -1.780337    -5.528974
41
ex_0030 frame26 trans-SS O0+O0
O        6.594202    -4.293625     4.057090
N        5.564560    -4.702916     4.518584
O        5.569846    -5.715263     5.126467
C        4.372814    -3.927646     4.301346
C        4.309336    -3.138621     3.134632
C        3.208383    -2.343136     2.850090
N        3.181178    -1.583532     1.722150
C        2.051210    -0.897270     1.410272
C        0.983705    -0.867394     2.290176
N        1.047453    -1.536076     3.462048
C        2.119931    -2.321290     3.727027
C        2.135687    -3.098914     4.863514
C        3.231050    -3.904854     5.205414
N        3.135215    -4.647495     6.429566
O        2.457200    -4.200119     7.310133
O        3.694995    -5.676313     6.602438
O       -0.098795    -0.170776     1.959082
Cu       0.000000     0.000000     0.000000
O       -1.958117    -0.058457     0.162378
C       -2.309300    -0.462671    -1.030729
N       -3.550380    -0.857147    -1.199928
C       -3.964193    -1.302745    -2.374661
C       -5.237736    -1.749731    -2.476435
C       -5.763456    -2.190537    -3.678043
N       -7.131635    -2.593217    -3.675016
O       -7.628032    -2.996092    -2.660090
O       -7.788022    -2.536815    -4.659009
C       -4.897523    -2.212442    -4.842052
N       -5.312450    -2.672089    -6.126698
O       -4.770519    -2.238183    -7.107971
O       -6.177733    -3.470723    -6.250776
C       -3.572076    -1.755487    -4.701402
C       -3.102276    -1.309603    -3.481710
N       -1.820280    -0.880089    -3.345380
C       -1.397695    -0.486784    -2.134820
O       -0.126609    -0.117487    -1.958582
O        1.939617    -0.236903     0.253908
H        5.139700    -3.124454     2.444385
H        1.274965    -3.049859     5.505963
H       -5.838477    -1.694618    -1.576773
H       -2.898110    -1.773909    -5.540905
41
ex_0030 frame27 trans-SS O0+O0
O        2.692950     4.280482     7.253692
N        3.338832     4.698243     6.340481
O        3.926921     5.725161     6.471079
C        3.367592     3.929875     5.129711
C        2.231061     3.140698     4.841024
C        2.154696     2.337818     3.713852
N        1.048531     1.564444     3.470919
C        0.950590     0.884602     2.286710
C        2.033478     0.872477     1.399712
N        3.161649     1.536821     1.714339
C        3.218686     2.319795     2.818693
C        4.337327     3.099565     3.051620
C        4.465983     3.905402     4.192801
N        5.688354     4.643118     4.333467
O        6.678789     4.184879     3.847314
O        5.756563     5.683022     4.908915
O        1.944855     0.208235     0.255072
Cu       0.000000     0.000000     0.000000
O       -0.201909     0.039354    -1.943361
C       -1.441824     0.454657    -2.065166
N       -1.849871     0.862809    -3.244272
C       -3.091324     1.300193    -3.413702
C       -3.450339     1.739065    -4.643152
C       -4.736050     2.187847    -4.922886
N       -4.998312     2.591974    -6.265889
O       -4.101261     2.999596    -6.940260
O       -6.094708     2.531057    -6.728676
C       -5.696965     2.213659    -3.857470
N       -7.045500     2.669720    -4.006516
O       -7.891106     2.228419    -3.289934
O       -7.344403     3.480444    -4.829948
C       -5.294744     1.762458    -2.578544
C       -4.004642     1.308375    -2.353339
N       -3.622866     0.877487    -1.132201
C       -2.344309     0.475131    -0.971345
O       -1.943869     0.102562     0.208599
O       -0.162507     0.223438     1.947452
H        1.398970     3.125164     5.513939
H        5.134166     3.048273     2.333829
H       -2.691793     1.684707    -5.403778
H       -5.990511     1.780872    -1.764211
41
ex_0030 frame28 conf5
O        3.995272    -5.946436     5.259030
N        3.248198    -5.714567     4.332136
O        2.611167    -6.584850     3.877879
C        3.184952    -4.385197     3.861804
C        1.967365    -4.033432     3.338028
C        1.762189    -2.795067     2.882684
N        0.563223    -2.516353     2.404496
C        0.349000    -1.326920     1.938991
C        1.393717    -0.335783     1.928640
N        2.572106    -0.582673     2.452617
C        2.790234    -1.817688     2.911131
C        4.012308    -2.125804     3.406074
C        4.250924    -3.408805     3.891917
N        5.532095    -3.677218     4.423994
O        5.992725    -4.755235     4.431817
O        6.168619    -2.754872     4.885693
O        1.146231     0.800327     1.393060
Cu       0.000000     0.000000     0.000000
O       -0.930725     1.045879    -1.374949
C        0.033987     1.032637    -2.272542
N        0.035880     1.965081    -3.184748
C        1.033353     2.029900    -4.049033
C        1.040491     3.059899    -4.902326
C        2.014152     3.178559    -5.866210
N        1.870752     4.295667    -6.734453
O        2.261104     4.261536    -7.852813
O        1.346471     5.290235    -6.331006
C        3.071306     2.181229    -5.918269
N        4.137468     2.175755    -6.857619
O        4.004694     2.635137    -7.943716
O        5.188527     1.700426    -6.551127
C        3.061308     1.136286    -4.984426
C        2.050901     1.050969    -4.070837
N        2.033435     0.031935    -3.196696
C        1.080364     0.014148    -2.264685
O        1.098185    -0.932872    -1.341061
O       -0.817858    -1.041606     1.447662
H        1.130273    -4.722310     3.281312
H        4.772144    -1.349296     3.410121
H        0.230397     3.774028    -4.799828
H        3.830992     0.370210    -4.972094
41
ex_0030 frame29 square-planar trans-conf2
O        4.624484     6.628347    -4.757250
N        3.627951     6.044318    -4.483705
O        2.575738     6.499796    -4.821250
C        3.649897     4.811663    -3.760485
C        2.546497     4.563871    -2.948389
C        2.447034     3.428938    -2.206634
N        1.365559     3.261545    -1.426879
C        1.220323     2.133764    -0.739253
C        2.183240     1.123792    -0.819141
N        3.312340     1.308284    -1.532203
C        3.451781     2.449690    -2.252024
C        4.578140     2.653397    -3.029933
C        4.713158     3.821181    -3.807233
N        5.905132     3.939947    -4.592285
O        6.387970     4.996185    -4.845914
O        6.429938     2.948643    -5.004570
O        1.962346    -0.012139    -0.181946
Cu       0.000000     0.000000     0.000000
O       -1.949790    -0.020305    -0.205110
C       -2.178361    -1.198272    -0.759852
N       -3.364488    -1.441757    -1.310510
C       -3.575653    -2.585635    -1.973485
C       -4.760750    -2.761147    -2.632410
C       -5.049926    -3.944506    -3.317029
N       -6.331610    -4.019775    -3.954639
O       -7.235146    -3.375880    -3.509565
O       -6.526250    -4.699449    -4.909180
C       -4.045729    -4.994340    -3.334030
N       -4.195194    -6.260090    -3.987749
O       -4.848223    -6.391074    -4.972090
O       -3.644536    -7.215131    -3.527105
C       -2.829164    -4.769496    -2.664317
C       -2.593323    -3.588198    -1.990344
N       -1.418514    -3.393091    -1.345781
C       -1.166279    -2.198692    -0.769752
O        0.021682    -1.954086    -0.212834
O        0.163260     1.957054     0.026428
H        1.724489     5.261509    -2.888285
H        5.344885     1.891474    -3.049810
H       -5.473859    -1.949577    -2.585482
H       -2.060773    -5.529066    -2.658156
41
ex_0030 frame30 see-saw O-O-ax-conf16
O        6.991415    -0.654704     6.809507
N        6.633843    -0.127992     5.804716
O        7.444374     0.413187     5.112680
C        5.257140    -0.120901     5.392612
C        5.010790    -0.115114     4.001832
C        3.716804    -0.085699     3.484464
N        3.500426    -0.057409     2.130241
C        2.220423    -0.039152     1.638212
C        1.152303    -0.041928     2.503833
N        1.356363    -0.056146     3.851332
C        2.621538    -0.084938     4.357868
C        2.826490    -0.113391     5.731462
C        4.115179    -0.120203     6.292219
N        4.187881    -0.126153     7.726721
O        5.077890    -0.653203     8.313840
O        3.323812     0.417461     8.349735
O       -0.082069    -0.030178     1.969711
Cu       0.000000     0.000000     0.000000
O       -0.255348    -0.048127    -1.940921
C       -1.382403     0.660525    -2.010336
N       -1.661865     1.305782    -3.105128
C       -2.783193     2.022816    -3.182266
C       -3.019965     2.712470    -4.316912
C       -4.197707     3.413851    -4.510089
N       -4.344343     4.041131    -5.784781
O       -4.950590     5.052397    -5.925345
O       -3.838272     3.527733    -6.739838
C       -5.164818     3.455545    -3.424476
N       -6.421190     4.133912    -3.473480
O       -6.579307     5.123360    -4.112945
O       -7.340340     3.690057    -2.850768
C       -4.858523     2.784282    -2.228695
C       -3.693810     2.059350    -2.111382
N       -3.424904     1.385354    -0.973477
C       -2.270364     0.705577    -0.885824
O       -1.951836     0.082730     0.224345
O        1.946566    -0.018034     0.305884
H        5.840603    -0.105669     3.314602
H        1.964187    -0.103052     6.379394
H       -2.274100     2.632658    -5.091151
H       -5.561884     2.784472    -1.408044
41
ex_0030 frame31 see-saw O-O-ax
O        6.565215    -4.251754     4.065692
N        5.558870    -4.698015     4.519293
O        5.596390    -5.738652     5.110267
C        4.364528    -3.934661     4.316750
C        4.296691    -3.139740     3.141317
C        3.206223    -2.338592     2.847814
N        3.182362    -1.571708     1.725855
C        2.064490    -0.875774     1.425100
C        1.027819    -0.849696     2.284819
N        1.066954    -1.539222     3.431409
C        2.130309    -2.319621     3.706686
C        2.147050    -3.098109     4.841863
C        3.244754    -3.909752     5.198863
N        3.136079    -4.641805     6.424820
O        2.469362    -4.155695     7.284446
O        3.669079    -5.694337     6.626199
O       -0.013223    -0.132008     1.964051
Cu       0.000000     0.000000     0.000000
O       -0.183998     0.015117    -1.938057
C       -1.432507     0.438128    -2.040939
N       -1.841778     0.858474    -3.198189
C       -3.078201     1.291715    -3.381294
C       -3.443411     1.724539    -4.621594
C       -4.738725     2.185906    -4.915954
N       -4.999563     2.592176    -6.259164
O       -4.090276     3.005898    -6.907239
O       -6.091176     2.531171    -6.750212
C       -5.690667     2.216448    -3.867609
N       -7.041829     2.670871    -4.014239
O       -7.866376     2.204933    -3.293276
O       -7.369065     3.492389    -4.825532
C       -5.280998     1.766960    -2.583515
C       -3.988465     1.307418    -2.336223
N       -3.609168     0.878410    -1.098963
C       -2.344098     0.446543    -0.917011
O       -1.946798     0.036732     0.276622
O        1.936215    -0.197127     0.288454
H        5.117508    -3.126825     2.457037
H        1.293876    -3.050382     5.479193
H       -2.693354     1.676995    -5.385452
H       -5.981533     1.786195    -1.780499
41
ex_0030 frame32 see-saw O-O-ax-conf5
O        6.587590    -4.286825     4.060205
N        5.562189    -4.696779     4.514670
O        5.569632    -5.719441     5.123055
C        4.368528    -3.927411     4.301522
C        4.308991    -3.138758     3.126899
C        3.214155    -2.333805     2.834703
N        3.191162    -1.557784     1.706645
C        2.059153    -0.866000     1.399186
C        0.988388    -0.867000     2.276341
N        1.052991    -1.543261     3.435315
C        2.124364    -2.319826     3.707230
C        2.136548    -3.097876     4.849491
C        3.232415    -3.902833     5.197368
N        3.132851    -4.642037     6.426162
O        2.460029    -4.191528     7.305077
O        3.690125    -5.678458     6.602511
O       -0.105483    -0.189311     1.956249
Cu       0.000000     0.000000     0.000000
O       -0.267659    -0.006837    -1.942181
C       -1.377670     0.684304    -1.993806
N       -1.661123     1.345447    -3.083747
C       -2.788028     2.037331    -3.167124
C       -3.026802     2.711864    -4.310543
C       -4.199265     3.412919    -4.508894
N       -4.340868     4.038893    -5.785728
O       -4.940950     5.053792    -5.927192
O       -3.837393     3.521014    -6.740432
C       -5.167948     3.455482    -3.424263
N       -6.422337     4.134134    -3.471503
O       -6.580518     5.127547    -4.105087
O       -7.341130     3.685146    -2.852039
C       -4.865821     2.783263    -2.227269
C       -3.702282     2.066376    -2.100032
N       -3.433803     1.391581    -0.957937
C       -2.272417     0.720326    -0.876809
O       -1.950198     0.090338     0.233590
O        1.944641    -0.172954     0.256493
H        5.136800    -3.125193     2.445903
H        1.278578    -3.047877     5.495371
H       -2.273629     2.630431    -5.081131
H       -5.564069     2.786526    -1.409478
41
ex_0030 frame33 see-saw O-O-ax-conf26
O        6.966347     1.989194     6.506507
N        6.676256     1.284667     5.601430
O        7.534589     0.740651     4.989098
C        5.316110     1.080834     5.241181
C        5.030446     0.845073     3.884909
C        3.736719     0.639262     3.427292
N        3.504004     0.425308     2.096665
C        2.224774     0.237654     1.643558
C        1.178473     0.238566     2.508316
N        1.380286     0.428984     3.861066
C        2.654900     0.649213     4.328906
C        2.888534     0.880545     5.674409
C        4.185158     1.098291     6.192190
N        4.319325     1.319443     7.591314
O        5.291589     0.972934     8.166230
O        3.447234     1.857662     8.191495
O       -0.029575     0.046735     1.968952
Cu       0.000000     0.000000     0.000000
O       -0.262563     0.101598    -1.943102
C       -1.337498     0.716589    -1.987632
N       -1.639932     1.356920    -3.062939
C       -2.771175     2.028881    -3.137504
C       -3.011942     2.693094    -4.290555
C       -4.184214     3.408995    -4.525667
N       -4.326445     4.027485    -5.790865
O       -4.902194     5.046024    -5.941495
O       -3.841578     3.488094    -6.729645
C       -5.172787     3.453459    -3.421486
N       -6.423225     4.126567    -3.462414
O       -6.593632     5.127155    -4.067355
O       -7.326629     3.652392    -2.858581
C       -4.849040     2.773346    -2.231751
C       -3.678331     2.055961    -2.080893
N       -3.418767     1.387912    -0.917900
C       -2.253983     0.718899    -0.836442
O       -1.950981     0.095331     0.227153
O        1.938076     0.046444     0.346729
H        5.840976     0.855283     3.188586
H        2.068967     0.869175     6.349783
H       -2.272719     2.626208    -5.057859
H       -5.549713     2.793417    -1.429696
41
ex_0030 frame34 see-saw O-O-ax-conf4
O        6.590363    -4.316458     4.039224
N        5.560874    -4.696201     4.509605
O        5.557468    -5.704494     5.139042
C        4.367732    -3.918022     4.294849
C        4.311561    -3.124431     3.121484
C        3.206418    -2.322743     2.835545
N        3.177373    -1.555874     1.708654
C        2.049019    -0.872129     1.394831
C        0.979124    -0.835852     2.282755
N        1.040152    -1.519699     3.444892
C        2.113426    -2.304549     3.715392
C        2.126992    -3.085531     4.859317
C        3.227646    -3.895316     5.196590
N        3.132217    -4.644804     6.423779
O        2.444237    -4.224281     7.304946
O        3.713546    -5.667525     6.592089
O       -0.097674    -0.117517     1.963541
Cu       0.000000     0.000000     0.000000
O       -0.100279     0.233859    -1.948883
C       -1.213317     0.955842    -1.999268
N       -1.433577     1.746565    -3.047833
C       -2.492718     2.569690    -3.003626
C       -2.709044     3.445988    -4.022090
C       -3.828136     4.289591    -3.997809
N       -4.011880     5.145275    -5.121930
O       -3.565884     4.814073    -6.180082
O       -4.593897     6.175802    -5.038846
C       -4.715485     4.241467    -2.844067
N       -5.883804     5.028079    -2.658681
O       -5.992439     6.118113    -3.114662
O       -6.789264     4.574894    -2.020412
C       -4.422633     3.363793    -1.821676
C       -3.377502     2.525841    -1.905668
N       -3.203714     1.652920    -0.919579
C       -2.150628     0.874461    -0.935401
O       -1.965161     0.029918     0.021005
O        1.943049    -0.222203     0.229652
H        5.146983    -3.118859     2.433848
H        1.265405    -3.044031     5.511081
H       -2.014509     3.429845    -4.855495
H       -5.047333     3.276844    -0.940696
41
ex_0030 frame35 see-saw O-O-ax-conf25
O        6.951704     1.986277     6.534933
N        6.668224     1.291345     5.609268
O        7.541752     0.764917     4.983620
C        5.296304     1.078509     5.242019
C        5.028444     0.834827     3.881975
C        3.727790     0.632931     3.415712
N        3.492829     0.422078     2.092493
C        2.202983     0.299719     1.626316
C        1.166267     0.258799     2.492371
N        1.378720     0.420198     3.843244
C        2.648908     0.646168     4.312631
C        2.882889     0.889236     5.671138
C        4.189187     1.096873     6.171505
N        4.327751     1.313671     7.584540
O        5.318495     0.980446     8.157314
O        3.443186     1.833744     8.199407
O       -0.058857     0.055483     1.968022
Cu       0.000000     0.000000     0.000000
O       -0.142842     0.142762    -1.956598
C       -1.196255     0.912050    -1.993047
N       -1.404295     1.715726    -3.034587
C       -2.463084     2.551982    -2.982847
C       -2.686849     3.433328    -3.999782
C       -3.810949     4.273633    -3.981672
N       -3.999142     5.125764    -5.112401
O       -3.577408     4.769376    -6.172658
O       -4.558557     6.172156    -5.033471
C       -4.691698     4.219767    -2.827891
N       -5.870629     4.993028    -2.638696
O       -5.980345     6.092266    -3.071104
O       -6.778874     4.513618    -2.021962
C       -4.386029     3.353581    -1.809022
C       -3.344450     2.522520    -1.881681
N       -3.170507     1.675515    -0.888858
C       -2.128962     0.883586    -0.897879
O       -1.960092     0.077864     0.098858
O        1.949570     0.214134     0.195794
H        5.845974     0.841669     3.174848
H        2.048490     0.879782     6.355311
H       -2.010711     3.416442    -4.836834
H       -5.009616     3.258959    -0.934691
41
ex_0030 frame36 see-saw O-O-ax-conf15
O        7.031488    -0.677985     6.781193
N        6.645660    -0.126451     5.797034
O        7.422356     0.450100     5.095912
C        5.267484    -0.119380     5.404266
C        5.004516    -0.112564     4.026013
C        3.727265    -0.084066     3.508897
N        3.528641    -0.056152     2.154030
C        2.238228    -0.029366     1.666650
C        1.173946    -0.030253     2.525123
N        1.372118    -0.056206     3.880721
C        2.639757    -0.083888     4.376451
C        2.847889    -0.111608     5.729060
C        4.122411    -0.118453     6.302918
N        4.175122    -0.123890     7.733016
O        5.037811    -0.675319     8.343250
O        3.308860     0.454156     8.319733
O       -0.056034    -0.004596     1.969034
Cu       0.000000     0.000000     0.000000
O       -0.124172     0.083755    -1.960780
C       -1.150684     0.888543    -1.979751
N       -1.348066     1.709692    -3.010885
C       -2.432201     2.529316    -2.951575
C       -2.691686     3.405655    -3.979857
C       -3.824878     4.269819    -3.971440
N       -4.002998     5.128862    -5.112427
O       -3.584497     4.722184    -6.145446
O       -4.536410     6.201292    -5.072546
C       -4.684295     4.203954    -2.825324
N       -5.867366     4.977115    -2.629345
O       -5.984519     6.091442    -3.036951
O       -6.765266     4.467760    -2.029570
C       -4.349863     3.317498    -1.812267
C       -3.290271     2.494724    -1.857607
N       -3.095855     1.669648    -0.849060
C       -2.060859     0.886153    -0.891331
O       -1.928183     0.124127     0.109180
O        1.942358    -0.000915     0.330945
H        5.822981    -0.111820     3.334575
H        1.989836    -0.110838     6.367530
H       -2.023055     3.411225    -4.814917
H       -4.977910     3.258618    -0.950858
41
ex_0030 frame37 square-planar trans-conf4
O        3.914389     5.891450    -5.997879
N        3.390712     5.825863    -4.935608
O        2.808965     6.781203    -4.517579
C        3.434299     4.637256    -4.142481
C        2.368200     4.445673    -3.268295
C        2.304334     3.353734    -2.461964
N        1.268037     3.230596    -1.627159
C        1.129229     2.114348    -0.918506
C        2.114961     1.111232    -0.980883
N        3.217640     1.280322    -1.714992
C        3.309768     2.368317    -2.502884
C        4.383770     2.513946    -3.344023
C        4.489266     3.634692    -4.183243
N        5.643311     3.701142    -5.023792
O        5.630196     4.276962    -6.061894
O        6.649928     3.163109    -4.674024
O        1.945104    -0.001704    -0.308593
Cu       0.000000     0.000000     0.000000
O       -1.940955     0.002208    -0.331443
C       -1.874818    -0.838879    -1.327374
N       -2.710702    -0.703417    -2.330443
C       -2.480679    -1.468979    -3.405441
C       -3.219524    -1.273943    -4.534202
C       -2.997917    -2.070524    -5.664296
N       -3.827775    -1.811425    -6.793878
O       -4.317565    -0.732645    -6.936731
O       -4.043194    -2.652963    -7.601282
C       -1.958902    -3.089668    -5.607349
N       -1.588472    -3.975798    -6.655988
O       -2.384686    -4.334706    -7.455802
O       -0.464617    -4.367374    -6.738774
C       -1.239423    -3.243449    -4.437089
C       -1.481822    -2.467884    -3.367366
N       -0.754439    -2.667428    -2.271363
C       -0.905560    -1.844251    -1.287074
O       -0.142822    -1.946982    -0.232085
O        0.070651     1.958153    -0.165758
H        1.554485     5.158443    -3.201216
H        5.141962     1.735522    -3.342632
H       -3.964723    -0.482956    -4.519560
H       -0.419586    -3.949289    -4.349884
41
ex_0030 frame38 conf4
O        4.125427    -6.182637     4.703236
N        3.397963    -5.852943     3.830075
O        2.725596    -6.680304     3.286052
C        3.297904    -4.500938     3.408391
C        2.075042    -4.127343     2.943157
C        1.840455    -2.878599     2.606305
N        0.612010    -2.597251     2.254797
C        0.377169    -1.409579     1.852795
C        1.411015    -0.371903     1.853091
N        2.604390    -0.641131     2.285631
C        2.869210    -1.884851     2.623773
C        4.099621    -2.222363     2.984212
C        4.365268    -3.508697     3.432888
N        5.685784    -3.737298     3.883765
O        5.927034    -4.514065     4.745589
O        6.580629    -3.127835     3.378700
O        1.090245     0.815882     1.408216
Cu       0.000000     0.000000     0.000000
O       -0.991950     1.088064    -1.324354
C       -0.411899     0.733843    -2.414467
N       -0.750915     1.317793    -3.553615
C       -0.103742     0.938692    -4.687016
C       -0.419983     1.539862    -5.871847
C        0.246681     1.184197    -7.054553
N       -0.134659     1.872895    -8.248137
O       -0.557718     2.988040    -8.160863
O       -0.044704     1.373355    -9.321646
C        1.266720     0.149159    -6.984886
N        2.041295    -0.336977    -8.071630
O        1.614754    -0.388094    -9.174553
O        3.159788    -0.705451    -7.861150
C        1.528556    -0.431961    -5.770025
C        0.885731    -0.061535    -4.661620
N        1.204927    -0.657005    -3.555012
C        0.637748    -0.323284    -2.425184
O        1.067284    -0.998135    -1.283028
O       -0.809959    -1.093226     1.425362
H        1.221243    -4.798101     2.902518
H        4.840888    -1.441179     2.989032
H       -1.170081     2.311479    -5.865026
H        2.276099    -1.194185    -5.650482
41
ex_0030 frame39 see-saw O-O-ax-conf7
O        3.796653     7.134442     0.551127
N        3.240741     7.004226     1.592685
O        3.354216     7.854718     2.427144
C        2.445303     5.854427     1.872872
C        2.784132     4.680964     1.200052
C        2.077889     3.537160     1.423004
N        2.430847     2.430521     0.767946
C        1.706694     1.362605     0.954514
C        0.645822     1.328994     1.846662
N        0.310207     2.388294     2.536246
C        0.994080     3.516953     2.327186
C        0.636209     4.644889     2.993271
C        1.335866     5.835623     2.793759
N        0.832820     6.962745     3.492185
O        0.274771     6.859278     4.501863
O        0.993041     8.084631     3.012808
O        0.007400     0.212991     1.966363
Cu       0.000000     0.000000     0.000000
O       -0.176515     0.106088    -1.953554
C       -1.438658     0.490332    -2.074789
N       -1.861677     0.846125    -3.265912
C       -3.100225     1.299745    -3.433012
C       -3.453113     1.745435    -4.660014
C       -4.738603     2.187419    -4.929905
N       -5.002326     2.590054    -6.272531
O       -4.112323     2.988153    -6.962802
O       -6.103639     2.534616    -6.717624
C       -5.702812     2.210597    -3.855571
N       -7.047246     2.672062    -4.002930
O       -7.901413     2.250552    -3.282980
O       -7.332161     3.474141    -4.835878
C       -5.307273     1.753954    -2.581163
C       -4.013572     1.315254    -2.367100
N       -3.624898     0.902777    -1.141737
C       -2.345296     0.529049    -0.957227
O       -1.939879     0.202266     0.251757
O        1.938348     0.289880     0.248171
H        3.606253     4.643581     0.497112
H       -0.199385     4.584964     3.676012
H       -2.692950     1.696942    -5.425272
H       -5.999056     1.772955    -1.753339
41
ex_0030 frame40 see-saw O-O-ax-conf10
O        3.796591     7.134137     0.550321
N        3.241264     7.005534     1.597034
O        3.354802     7.854900     2.426310
C        2.447701     5.854269     1.874629
C        2.785934     4.680539     1.200184
C        2.079042     3.535970     1.416321
N        2.429366     2.427571     0.757804
C        1.700876     1.358943     0.946599
C        0.627633     1.343954     1.838916
N        0.301462     2.400181     2.533201
C        0.993739     3.520049     2.321191
C        0.637365     4.646664     2.990776
C        1.338541     5.835256     2.795465
N        0.832532     6.961094     3.494879
O        0.275190     6.859671     4.502083
O        0.992420     8.085097     3.012632
O       -0.044809     0.241896     1.962183
Cu       0.000000     0.000000     0.000000
O       -0.129090     0.197543    -1.951843
C       -1.212129     0.939508    -1.986634
N       -1.434556     1.726090    -3.037548
C       -2.486360     2.557731    -2.986178
C       -2.698839     3.438393    -4.005823
C       -3.819297     4.279950    -3.986508
N       -4.004972     5.133830    -5.115930
O       -3.572985     4.787108    -6.174185
O       -4.572948     6.172186    -5.033773
C       -4.704280     4.230726    -2.833833
N       -5.877052     5.011121    -2.648502
O       -5.984243     6.105532    -3.091071
O       -6.783827     4.543147    -2.024013
C       -4.408572     3.360629    -1.810936
C       -3.368337     2.525386    -1.888730
N       -3.196473     1.666952    -0.898062
C       -2.141938     0.897791    -0.897998
O       -1.959260     0.098687     0.108975
O        1.926680     0.288704     0.261394
H        3.608469     4.643434     0.498216
H       -0.200400     4.586899     3.673639
H       -2.011622     3.420128    -4.840785
H       -5.033881     3.269879    -0.934053
41
ex_0030 frame41 see-saw O-O-ax-conf11
O        3.780412     7.134768     0.541663
N        3.235321     7.001929     1.590633
O        3.360533     7.850569     2.425506
C        2.440088     5.843514     1.863627
C        2.778248     4.660477     1.195587
C        2.068887     3.507381     1.411103
N        2.420884     2.395849     0.760735
C        1.691423     1.324578     0.959148
C        0.622011     1.312251     1.841190
N        0.279889     2.371475     2.526611
C        0.978214     3.495974     2.311007
C        0.625499     4.633572     2.970383
C        1.327414     5.826947     2.776089
N        0.835989     6.959116     3.482984
O        0.290429     6.842751     4.506082
O        0.986150     8.077175     3.012901
O       -0.016312     0.213727     1.953811
Cu       0.000000     0.000000     0.000000
O       -0.210497     0.120846    -1.934340
C       -1.343034     0.737904    -2.005435
N       -1.649945     1.354046    -3.113761
C       -2.779593     2.042209    -3.188528
C       -3.023254     2.715541    -4.318505
C       -4.197209     3.414204    -4.511739
N       -4.339895     4.038993    -5.785405
O       -4.936878     5.055244    -5.928544
O       -3.838730     3.516756    -6.739211
C       -5.165142     3.454719    -3.425751
N       -6.420888     4.132916    -3.470866
O       -6.581825     5.128779    -4.100264
O       -7.339038     3.679407    -2.852494
C       -4.858482     2.781672    -2.234583
C       -3.690764     2.066159    -2.121973
N       -3.422653     1.390729    -0.991856
C       -2.254471     0.748819    -0.883175
O       -1.933692     0.105015     0.298589
O        1.926855     0.256265     0.297544
H        3.603798     4.632883     0.502740
H       -0.212801     4.585432     3.649348
H       -2.272045     2.633041    -5.085011
H       -5.558365     2.784145    -1.412836
41
ex_0030 frame42 
O       -4.099781     7.078772     3.084272
N       -3.825298     5.907735     2.836926
O       -4.834350     5.021665     2.714603
C       -2.502964     5.400339     2.665899
C       -2.368559     4.345918     1.766968
C       -1.115547     3.797238     1.548696
N       -1.009112     2.785752     0.682636
C        0.148670     2.154498     0.373972
C        1.277559     2.673386     1.060753
N        1.195290     3.659684     1.914811
C        0.010627     4.252299     2.185386
C       -0.122296     5.299482     3.076534
C       -1.380102     5.872033     3.314294
N       -1.407048     6.950201     4.252846
O       -2.370372     7.182480     4.995899
O       -0.339953     7.771944     4.353829
O        2.437867     2.328755     0.991565
Cu       2.605465     0.878676    -0.180496
O        1.905634    -0.809131     0.674132
C        1.818996    -1.709110    -0.415631
N        1.427428    -2.979393    -0.401744
C        1.370364    -3.783272    -1.473956
C        0.951391    -5.096731    -1.371845
C        0.890170    -5.935687    -2.481728
N        0.443325    -7.273156    -2.257006
O       -0.197385    -7.934942    -3.087033
O        0.736719    -7.841685    -1.077309
C        1.261915    -5.417566    -3.702484
N        1.244978    -6.167449    -4.917857
O        1.466157    -7.384438    -4.974913
O        0.974834    -5.529548    -6.075782
C        1.685074    -4.093647    -3.807237
C        1.741058    -3.266812    -2.686333
N        2.144583    -1.987892    -2.758016
C        2.196097    -1.192704    -1.677350
O        2.614141     0.051996    -1.913676
O        0.524691     1.086160    -0.478018
H       -3.192251     3.923515     1.222008
H        0.742438     5.679116     3.593577
H        0.659945    -5.487959    -0.397518
H        1.979661    -3.681756    -4.763006
41
ex_0030 frame43 conf3_mirror
O        0.809252     9.024082     2.349290
N        0.668824     7.894714     2.726117
O        0.290707     7.669762     3.824596
C        0.955246     6.784488     1.855707
C        0.198523     5.630034     2.036834
C        0.376646     4.490121     1.280925
N       -0.410568     3.420219     1.530647
C       -0.243257     2.336854     0.820539
C        0.806502     2.329241    -0.233007
N        1.543771     3.385549    -0.442774
C        1.342742     4.472190     0.300019
C        2.120597     5.589344     0.073139
C        1.966433     6.772773     0.815676
N        2.820353     7.882566     0.492344
O        3.157559     8.650077     1.344014
O        3.182188     8.022322    -0.627704
O        1.040061     1.299322    -0.980877
Cu       0.000000     0.000000     0.000000
O       -0.962136    -1.345834    -1.049620
C       -0.126415    -2.309226    -0.849832
N       -0.246258    -3.293482    -1.613730
C        0.539180    -4.329035    -1.506531
C        0.338479    -5.348577    -2.379306
C        1.098199    -6.500780    -2.365882
N        0.791333    -7.507166    -3.356847
O        0.949106    -8.673063    -3.119995
O        0.380157    -7.158772    -4.409819
C        2.145532    -6.598664    -1.355055
N        3.008538    -7.723229    -1.195754
O        3.318496    -8.375680    -2.144280
O        3.406873    -7.992795    -0.112669
C        2.319785    -5.509199    -0.474935
C        1.533357    -4.385800    -0.544571
N        1.729392    -3.349623     0.316466
C        0.932806    -2.290471     0.210172
O        1.090395    -1.274529     1.020066
O       -1.014759     1.292214     1.071877
H       -0.561479     5.635493     2.788449
H        2.872102     5.548723    -0.688834
H       -0.465120    -5.222681    -3.091617
H        3.099153    -5.559036     0.260017
