34
ex_0408 frame0 cis
C       -2.660574     2.013481     3.172150
N       -1.275663     2.376043     3.010657
C       -0.777436     3.704032     2.948299
C        0.630681     3.614740     2.785729
N        0.951759     2.234114     2.753500
C        2.279187     1.688843     2.601886
C       -0.204706     1.517455     2.974818
Se      -0.257672    -0.372072     3.191224
Cu      -2.089387    -1.661918     2.330342
Br      -3.322551    -2.986870     3.907015
Se      -2.748257    -1.566315     0.024534
C       -1.258741    -1.319589    -1.129661
N       -1.030040    -0.179998    -1.855155
C       -1.813872     1.028041    -1.803324
C        0.108948    -0.398592    -2.662147
C        0.578737    -1.706258    -2.371963
N       -0.299466    -2.256077    -1.413752
C       -0.205693    -3.569582    -0.835276
H       -3.286411     2.264049     2.380928
H       -2.742516     0.926838     3.458776
H       -3.011487     2.552657     4.155231
H       -1.366581     4.606296     3.013240
H        1.332051     4.433217     2.701685
H        2.444690     1.075359     3.617444
H        2.443804     1.045301     1.811592
H        3.052174     2.498452     2.703178
H       -1.779259     1.569288    -0.837313
H       -2.861038     0.694354    -1.986957
H       -1.522968     1.711834    -2.627530
H        0.463479     0.262496    -3.442455
H        1.361332    -2.244555    -2.890879
H       -0.333703    -3.606420     0.265619
H       -1.052074    -4.117288    -1.308767
H        0.744546    -4.077578    -1.102828
34
ex_0408 frame1 trans
C       -1.896861     3.565006    -3.082120
N       -1.934181     2.159822    -3.019223
C       -2.256081     1.328704    -4.133222
C       -2.215192    -0.018649    -3.651651
N       -1.850242     0.008687    -2.263245
C       -1.704515    -1.113801    -1.445822
C       -1.675214     1.354460    -1.876848
Se      -1.214446     1.949037    -0.258013
Cu       0.937850     2.956832     0.076606
Br       1.195164     5.330726    -0.158484
Se       2.407378     1.945214     1.681946
C        1.918685     0.481704     2.481874
N        1.851753    -0.773489     1.879537
C        2.189653    -1.047158     0.521078
C        1.392759    -1.764063     2.818193
C        1.175894    -1.071388     4.068776
N        1.519820     0.310798     3.843363
C        1.473992     1.361725     4.822158
H       -2.747950     3.949483    -2.507246
H       -0.944081     3.965454    -2.643348
H       -1.935930     3.887523    -4.144921
H       -2.493242     1.625262    -5.060954
H       -2.390346    -0.895868    -4.172462
H       -1.244758    -0.887313    -0.456770
H       -1.084528    -1.845117    -2.022175
H       -2.677077    -1.588659    -1.289957
H        1.757362    -0.254359    -0.156041
H        3.285747    -1.001316     0.398440
H        1.791189    -2.031028     0.203043
H        1.267615    -2.741303     2.653233
H        0.871744    -1.447360     4.962599
H        0.394690     1.619757     5.046814
H        1.911589     1.000954     5.754058
H        2.042858     2.231904     4.506627
34
ex_0408 frame2 trans-conf4
C        4.617063     0.165301    -2.492273
N        5.098905     0.096577    -1.130288
C        6.457175     0.100564    -0.723176
C        6.466032    -0.020149     0.703717
N        5.113078    -0.061261     1.126718
C        4.659294    -0.165197     2.498718
C        4.290428     0.012153     0.001375
Se       2.400000     0.000000     0.000000
Cu       0.000000     0.000000     0.000000
Br      -1.201247     2.076920    -0.065102
Se      -1.200026    -2.078446     0.000000
C       -2.111347    -3.680847    -0.033017
N       -1.627029    -4.846707     0.468988
C       -0.313492    -5.029252     1.039416
C       -2.628074    -5.829670     0.332193
C       -3.751782    -5.183889    -0.255410
N       -3.375168    -3.844255    -0.507834
C       -4.183983    -2.833140    -1.152147
H        4.155186    -0.812744    -2.750046
H        5.444502     0.377092    -3.197707
H        3.839877     0.954363    -2.598815
H        7.311888     0.141394    -1.381057
H        7.328832    -0.084034     1.348927
H        3.548996    -0.156573     2.560812
H        5.038385     0.692045     3.091116
H        5.017968    -1.117392     2.938941
H       -0.270117    -4.297904     1.883627
H       -0.198010    -6.047596     1.462355
H        0.530454    -4.805843     0.357421
H       -2.575152    -6.839143     0.716169
H       -4.733565    -5.603070    -0.428680
H       -3.981648    -1.865099    -0.635629
H       -5.258670    -3.062032    -0.993918
H       -3.962618    -2.694572    -2.227174
34
ex_0408 frame3 trans-conf2
C        4.586339     2.500864     0.103625
N        5.057526     1.132802     0.036464
C        6.410254     0.724605     0.007179
C        6.415321    -0.707088    -0.044775
N        5.063129    -1.124950    -0.055053
C        4.590001    -2.492303    -0.104114
C        4.246722     0.000530    -0.006541
Se       2.400000     0.000000     0.000000
Cu       0.000000     0.000000     0.000000
Br      -1.188190     2.084942     0.000490
Se      -1.200026    -2.078446     0.000000
C       -2.117259    -3.687639     0.000320
N       -2.492510    -4.385113    -1.132843
C       -2.200433    -3.960960    -2.480922
C       -3.192931    -5.553667    -0.743910
C       -3.218792    -5.563292     0.688468
N       -2.556536    -4.386471     1.117587
C       -2.360654    -3.966014     2.485581
H        4.762574     3.001141    -0.868777
H        3.495442     2.549300     0.325173
H        5.117739     3.038042     0.913500
H        7.258898     1.385485     0.043623
H        7.272374    -1.358543    -0.064232
H        3.920641    -2.687278     0.763614
H        4.008816    -2.668212    -1.037053
H        5.441287    -3.199081    -0.066097
H       -1.107444    -4.026361    -2.674642
H       -2.498504    -2.891656    -2.586729
H       -2.759012    -4.568087    -3.215512
H       -3.628484    -6.278263    -1.412134
H       -3.687569    -6.291083     1.330986
H       -1.328725    -3.577563     2.637721
H       -3.075413    -3.139399     2.696644
H       -2.534342    -4.803109     3.187576
34
ex_0408 frame4 trans-2
C        4.604069     2.297276    -0.944441
N        5.027238     1.039456    -0.416838
C        6.359088     0.654702    -0.248749
C        6.355030    -0.646574     0.272561
N        5.028389    -1.030171     0.425465
C        4.613645    -2.298851     0.933192
C        4.206826    -0.000045     0.004284
Se       2.400000     0.000000     0.000000
Cu       0.000000     0.000000     0.000000
Br      -1.198750     2.078805    -0.000143
Se      -1.200026    -2.078446     0.000000
C       -2.091083    -3.610142    -0.007367
N       -2.154199    -4.474144    -1.065870
C       -1.497631    -4.271750    -2.330919
C       -2.953564    -5.565535    -0.706397
C       -3.388740    -5.361140     0.622737
N       -2.839408    -4.145805     1.047551
C       -3.026543    -3.563434     2.356252
H        4.183578     2.102908    -1.945953
H        3.833743     2.771657    -0.305456
H        5.480380     2.983912    -0.991194
H        7.199179     1.246092    -0.491530
H        7.196226    -1.229272     0.518179
H        3.526452    -2.352068     1.139571
H        5.225912    -2.482854     1.836795
H        4.881113    -3.091744     0.211935
H       -1.615723    -3.215362    -2.674706
H       -0.407502    -4.448451    -2.204308
H       -1.925378    -4.949382    -3.090735
H       -3.164956    -6.382941    -1.325179
H       -3.996414    -6.003354     1.197779
H       -4.060185    -3.167007     2.471712
H       -2.889885    -4.338841     3.133097
H       -2.258172    -2.797835     2.562581
34
ex_0408 frame5 trans-conf5
C        4.554120    -1.829207     1.670690
N        5.016815    -0.816304     0.754598
C        6.356187    -0.516121     0.462356
C        6.342592     0.532096    -0.503705
N        4.990011     0.832345    -0.756752
C        4.490099     1.823125    -1.672721
C        4.200015    -0.000420     0.004724
Se       2.400000     0.000000     0.000000
Cu       0.000000     0.000000     0.000000
Br      -1.199134     2.077397    -0.000102
Se      -1.200026    -2.078446     0.000000
C       -2.092330    -3.630079    -0.008001
N       -1.701275    -4.807422    -0.617084
C       -0.507432    -5.029940    -1.360741
C       -2.669909    -5.777072    -0.394339
C       -3.683398    -5.206616     0.367906
N       -3.324733    -3.878657     0.608263
C       -4.112392    -2.959510     1.362475
H        5.046581    -1.766916     2.662984
H        4.769173    -2.825172     1.244136
H        3.458712    -1.712497     1.829008
H        7.194806    -0.976117     0.896893
H        7.167791     1.015043    -0.933543
H        3.400817     1.959260    -1.501956
H        4.591203     1.499042    -2.729569
H        4.973367     2.786804    -1.461897
H       -0.749702    -5.038047    -2.441212
H       -0.113563    -6.030192    -1.086770
H        0.262979    -4.288104    -1.122040
H       -2.630365    -6.761549    -0.735432
H       -4.546431    -5.705694     0.697216
H       -4.961922    -2.586127     0.751764
H       -3.481559    -2.149151     1.773402
H       -4.571981    -3.535343     2.189086
34
ex_0408 frame6 trans-conf3
C        4.465528    -1.842674    -1.650411
N        4.945366    -0.848676    -0.748837
C        6.299476    -0.565908    -0.486739
C        6.343269     0.491896     0.444084
N        5.007264     0.830907     0.745742
C        4.616623     1.874106     1.665999
C        4.159538    -0.001380     0.003114
Se       2.400000     0.000000     0.000000
Cu       0.000000     0.000000     0.000000
Br      -1.199463     2.078083     0.000235
Se      -1.200026    -2.078446     0.000000
C       -2.069734    -3.604100     0.018834
N       -2.409307    -4.332536    -1.121271
C       -2.123674    -3.963735    -2.473015
C       -3.083704    -5.499607    -0.736729
C       -3.171352    -5.485965     0.675232
N       -2.546692    -4.297632     1.122936
C       -2.433270    -3.890701     2.496950
H        4.413306    -2.818327    -1.119100
H        3.475481    -1.548141    -2.069886
H        5.161124    -1.937040    -2.490712
H        7.095163    -1.069730    -0.929980
H        7.189600     0.942309     0.856174
H        4.724939     2.850150     1.162200
H        3.573826     1.733955     2.035563
H        5.314292     1.878308     2.524167
H       -3.048971    -3.979391    -3.061613
H       -1.718915    -2.924041    -2.498640
H       -1.410574    -4.691331    -2.927282
H       -3.450740    -6.211541    -1.390750
H       -3.634019    -6.210350     1.274162
H       -3.433421    -3.980601     2.945958
H       -2.143799    -2.826148     2.583413
H       -1.705527    -4.545231     3.051285
34
ex_0408 frame7 trans-conf6
C        4.564498     0.073445    -2.447057
N        5.007378     0.032128    -1.068135
C        6.293111     0.019167    -0.632498
C        6.239650    -0.022602     0.746695
N        4.950971    -0.033117     1.104601
C        4.444950    -0.074046     2.475535
C        4.203925     0.000037     0.000001
Se       2.400000     0.000000     0.000000
Cu       0.000000     0.000000     0.000000
Br      -1.200089     2.078555    -0.000000
Se      -1.200026    -2.078446     0.000000
C       -2.102347    -3.663966     0.031684
N       -2.829802    -4.194004    -0.990371
C       -2.996709    -3.556001    -2.289179
C       -3.353636    -5.376640    -0.604107
C       -2.921061    -5.560458     0.702256
N       -2.164210    -4.498803     1.050529
C       -1.515771    -4.288712     2.328233
H        5.357810     0.372534    -3.137245
H        3.734581     0.833398    -2.527758
H        4.107920    -0.906586    -2.685338
H        7.201542     0.036500    -1.222435
H        7.096718    -0.041611     1.392879
H        3.349697     0.115073     2.483876
H        4.645492    -1.079612     2.916975
H        4.960989     0.699537     3.089623
H       -3.212703    -2.474534    -2.102517
H       -2.051313    -3.634122    -2.878851
H       -3.769886    -4.071943    -2.858587
H       -3.976553    -6.033096    -1.196507
H       -3.169042    -6.428761     1.315718
H       -1.693428    -3.249739     2.694943
H       -1.897541    -5.030160     3.063148
H       -0.404298    -4.410418     2.231046
34
ex_0408 frame8 T-shaped Br-Se-ax/Se-eq-conf3
C        4.493446    -1.863825    -1.660271
N        4.999498    -0.857762    -0.753889
C        6.357200    -0.572011    -0.506595
C        6.393110     0.502895     0.436975
N        5.054095     0.830535     0.745047
C        4.632530     1.869888     1.663981
C        4.217336    -0.002789     0.002826
Se       2.400000     0.000000     0.000000
Cu       0.000000     0.000000     0.000000
Br      -2.394715    -0.157562     0.000218
Se       0.000000     2.400000     0.000000
C        0.000883     4.220936    -0.015460
N        1.123591     5.007535    -0.195510
C        2.471054     4.516293    -0.377560
C        0.734779     6.365714    -0.171830
C       -0.680355     6.391479     0.042370
N       -1.107605     5.045591     0.154189
C       -2.466365     4.609274     0.402528
H        4.404517    -2.834744    -1.131739
H        3.493523    -1.568873    -2.064126
H        5.177517    -1.952588    -2.522886
H        7.185213    -1.084023    -0.960237
H        7.259326     0.979492     0.858986
H        4.739555     2.856274     1.165600
H        3.575660     1.741206     1.997304
H        5.284012     1.860447     2.559393
H        3.125724     4.969364     0.388359
H        2.526107     3.408565    -0.253213
H        2.826019     4.771346    -1.394368
H        1.407913     7.197918    -0.259838
H       -1.311068     7.254568     0.155298
H       -2.859656     5.154816     1.281287
H       -2.521365     3.518617     0.636044
H       -3.108768     4.810997    -0.479715
34
ex_0408 frame9 T-shaped Br-Se-ax/Se-eq-conf2
C        4.646685     2.455228     0.144372
N        5.101742     1.108862     0.046362
C        6.451661     0.696205     0.000874
C        6.442596    -0.731510    -0.048542
N        5.080880    -1.138583    -0.061095
C        4.599127    -2.499391    -0.108960
C        4.279769    -0.007265    -0.004996
Se       2.400000     0.000000     0.000000
Cu       0.000000     0.000000     0.000000
Br      -2.393088    -0.183887     0.000558
Se       0.000000     2.400000     0.000000
C       -0.007765     4.280809    -0.005779
N       -1.089753     5.062962     0.358370
C       -2.361031     4.537545     0.792023
C       -0.735939     6.431133     0.232774
C        0.619562     6.470207    -0.219327
N        1.032762     5.129365    -0.375785
C        2.313011     4.697950    -0.839413
H        4.712271     2.976940    -0.836268
H        3.618217     2.386145     0.533401
H        5.207756     2.996770     0.925779
H        7.298857     1.359252     0.052240
H        7.294576    -1.387050    -0.051033
H        3.927477    -2.679423     0.761248
H        4.014879    -2.675715    -1.039476
H        5.443671    -3.212106    -0.064795
H       -2.256879     4.038089     1.780021
H       -2.692383     3.767429     0.057114
H       -3.118566     5.339706     0.842872
H       -1.378410     7.270900     0.430840
H        1.224130     7.334988    -0.441189
H        2.596785     3.897772    -0.186839
H        2.228896     4.283715    -1.867443
H        3.084161     5.486180    -0.746883
34
ex_0408 frame10 T-shaped Br-Se-ax/Se-eq
C        4.605696     2.296356    -0.943767
N        5.027301     1.039013    -0.416612
C        6.359042     0.654196    -0.248664
C        6.353882    -0.646292     0.272598
N        5.027635    -1.030303     0.425596
C        4.613265    -2.298017     0.933029
C        4.203823     0.000676     0.004025
Se       2.400000     0.000000     0.000000
Cu       0.000000     0.000000     0.000000
Br      -2.400670    -0.022955     0.000113
Se       0.000000     2.400000     0.000000
C       -0.008018     4.172847    -0.003733
N       -0.870977     4.951686     0.716794
C       -1.896801     4.448257     1.593054
C       -0.584760     6.296519     0.455668
C        0.496649     6.336548    -0.453627
N        0.849572     5.010407    -0.725073
C        1.919244     4.600315    -1.602678
H        4.184095     2.102424    -1.945787
H        3.840056     2.768520    -0.300532
H        5.480542     2.983909    -0.990817
H        7.198490     1.245917    -0.491492
H        7.195682    -1.228818     0.518130
H        3.526606    -2.352172     1.139594
H        5.226439    -2.482673     1.836391
H        4.881072    -3.091831     0.212029
H       -2.437386     3.592008     1.120816
H       -1.420953     4.056192     2.518327
H       -2.620713     5.248814     1.826192
H       -1.087194     7.109462     0.880891
H        0.964705     7.196808    -0.844893
H        1.650780     4.772891    -2.668470
H        2.824580     5.202332    -1.396532
H        2.203859     3.555692    -1.412837
34
ex_0408 frame11 T-shaped Br-Se-ax/Se-eq-conf5
C        4.557538    -1.833249     1.670111
N        5.012172    -0.822338     0.755828
C        6.377590    -0.520499     0.457523
C        6.363551     0.529750    -0.515481
N        4.982735     0.830256    -0.758420
C        4.494948     1.827445    -1.674774
C        4.171519    -0.010125     0.010867
Se       2.400000     0.000000     0.000000
Cu       0.000000     0.000000     0.000000
Br      -2.280787    -0.748215    -0.003240
Se       0.000000     2.400000     0.000000
C       -0.000431     4.188350    -0.009224
N       -0.738229     5.022000    -0.857053
C       -1.638732     4.607380    -1.878202
C       -0.453327     6.357605    -0.545459
C        0.473568     6.368054     0.518113
N        0.747472     5.028016     0.847175
C        1.641349     4.619827     1.883938
H        5.047697    -1.760612     2.662376
H        4.769570    -2.826000     1.244568
H        3.459358    -1.719204     1.830754
H        7.201096    -0.981511     0.898293
H        7.173609     1.015233    -0.938326
H        3.400236     1.963894    -1.506749
H        4.599516     1.499457    -2.727756
H        4.974869     2.791389    -1.463906
H       -1.140407     4.738776    -2.856439
H       -2.515253     5.275098    -1.834000
H       -1.978352     3.574895    -1.722536
H       -0.867996     7.181035    -1.011789
H        0.861263     7.218995     0.971330
H        2.686705     4.719158     1.533951
H        1.391830     3.599439     2.231923
H        1.517448     5.341039     2.703604
34
ex_0408 frame12 T-shaped Br-Se-ax/Se-eq-conf4
C        4.567763     0.164468    -2.480802
N        5.037413     0.090870    -1.119085
C        6.391142     0.074200    -0.718820
C        6.405760    -0.044766     0.689852
N        4.993419    -0.067938     1.141560
C        4.610877    -0.169045     2.492993
C        4.181088     0.003431     0.070044
Se       2.400000     0.000000     0.000000
Cu       0.000000     0.000000     0.000000
Br      -2.399996    -0.028142    -0.000053
Se       0.000000     2.400000     0.000000
C       -0.001107     4.134476     0.009990
N        0.282040     4.935827     1.069976
C        0.628541     4.438885     2.381755
C        0.190044     6.281473     0.709688
C       -0.165790     6.316765    -0.692012
N       -0.280808     4.939103    -1.072651
C       -0.637503     4.469566    -2.396796
H        4.232426    -0.840539    -2.773546
H        5.391114     0.445907    -3.155968
H        3.698596     0.894575    -2.584518
H        7.219650     0.117258    -1.353086
H        7.236471    -0.096817     1.335676
H        3.508027    -0.140209     2.550947
H        4.992091     0.680755     3.077978
H        4.977167    -1.117441     2.948675
H        1.533223     3.803814     2.303313
H        0.828543     5.283752     3.080396
H       -0.192403     3.781559     2.764603
H        0.347509     7.101376     1.327346
H       -0.324407     7.138692    -1.308966
H       -0.172236     3.465978    -2.545881
H       -0.278157     5.146722    -3.203155
H       -1.725708     4.335250    -2.454787
34
ex_0408 frame13 T-shaped Br-Se-ax/Se-eq-conf6
C        4.563687     0.073729    -2.446450
N        5.006947     0.032385    -1.070371
C        6.295496     0.019418    -0.633198
C        6.242850    -0.022849     0.747244
N        4.949993    -0.033291     1.107162
C        4.445445    -0.074125     2.475152
C        4.203925     0.000071     0.000002
Se       2.400000     0.000000     0.000000
Cu       0.000000     0.000000     0.000000
Br      -2.400151    -0.001050    -0.000005
Se       0.000000     2.400000     0.000000
C        0.000038     4.225318    -0.000035
N        0.717304     5.044831     0.775901
C        1.649973     4.578421     1.784131
C        0.435167     6.335029     0.471453
C       -0.507139     6.279625    -0.547928
N       -0.757281     4.977187    -0.819271
C       -1.677913     4.471951    -1.815858
H        5.358269     0.372283    -3.137413
H        3.735046     0.833344    -2.527922
H        4.107952    -0.906618    -2.685596
H        7.201390     0.036511    -1.222647
H        7.096757    -0.041627     1.393192
H        3.349794     0.114946     2.484233
H        4.645600    -1.079443     2.916972
H        4.960791     0.699614     3.089542
H        1.147854     3.749741     2.343651
H        2.569891     4.172756     1.297615
H        1.964262     5.411617     2.413607
H        0.862472     7.213132     0.932843
H       -0.948362     7.151679    -1.026095
H       -2.315107     3.661405    -1.388679
H       -2.310747     5.304922    -2.191816
H       -1.117820     4.021721    -2.677300
34
ex_0408 frame14 T-shaped Se-Se-ax/Br-eq-conf6
C        4.593240     0.101314    -2.507568
N        5.040338     0.050219    -1.135139
C        6.398905     0.038913    -0.716357
C        6.403128    -0.015160     0.707472
N        5.047944    -0.036827     1.133719
C        4.620184    -0.091787     2.513904
C        4.203915     0.004543     0.000174
Se       2.400000     0.000000     0.000000
Cu       0.000000     0.000000     0.000000
Br       0.004844     2.441600     0.340075
Se      -2.400000     0.000000     0.000000
C       -4.224702    -0.023589     0.028982
N       -5.048291     0.844977     0.766663
C       -4.609401     1.916793     1.616181
C       -6.400152     0.498044     0.542220
C       -6.405734    -0.616181    -0.359104
N       -5.050783    -0.905457    -0.667627
C       -4.606596    -1.952109    -1.564513
H        5.463520     0.130829    -3.197962
H        3.980345     1.012541    -2.664895
H        3.984985    -0.797956    -2.736313
H        7.266052     0.067752    -1.363019
H        7.271533    -0.035377     1.353290
H        3.514159    -0.102616     2.596695
H        5.018422    -1.012044     2.990158
H        5.006186     0.795856     3.057089
H       -3.974021     1.501669     2.415581
H       -4.052318     2.654922     1.024204
H       -5.497045     2.421768     2.083559
H       -7.295627     0.957293     0.965973
H       -7.297039    -1.154580    -0.779884
H       -3.960139    -2.664769    -1.007586
H       -5.484552    -2.529390    -1.989654
H       -4.037745    -1.522900    -2.415116
34
ex_0408 frame15 T-shaped Se-Se-ax/Br-eq-conf2
C        4.736167     2.509960    -0.061737
N        5.158081     1.135018    -0.090902
C        6.516376     0.708078    -0.039333
C        6.511830    -0.706877    -0.091019
N        5.150223    -1.120295    -0.173315
C        4.708104    -2.484784    -0.244780
C        4.351803     0.009088    -0.093480
Se       2.400000     0.000000     0.000000
Cu       0.000000     0.000000     0.000000
Br      -0.001421     2.380694     0.239424
Se      -2.400000     0.000000     0.000000
C       -4.300200     0.101402    -0.090047
N       -5.023020     0.959962     0.648001
C       -4.585045     2.073047     1.449488
C       -6.354738     0.552861     0.487228
C       -6.370232    -0.480831    -0.462608
N       -5.052885    -0.723410    -0.813945
C       -4.607832    -1.694027    -1.785538
H        5.167789     3.130119    -0.797629
H        3.626749     2.586604    -0.029344
H        5.075028     2.897969     0.992727
H        7.383088     1.351325     0.026875
H        7.375624    -1.358143    -0.072037
H        4.048671    -2.629000     0.713026
H        4.138140    -2.733584    -1.094569
H        5.566812    -3.182822    -0.081203
H       -4.183202     2.967091     0.937314
H       -3.795767     1.611988     2.081400
H       -5.416671     2.375642     2.124881
H       -7.210679     0.955480     1.008440
H       -7.237601    -1.022669    -0.809715
H       -4.072548    -1.371218    -2.696361
H       -3.933631    -2.298244    -1.140529
H       -5.464022    -2.346825    -2.067495
34
ex_0408 frame16 T-shaped Se-Se-ax/Br-eq
C        4.658677     2.400244    -0.692674
N        5.091793     1.109828    -0.235143
C        6.437717     0.671330    -0.233709
C        6.442120    -0.633865     0.284790
N        5.101925    -0.967423     0.589660
C        4.691967    -2.230046     1.144475
C        4.344429     0.049542     0.128515
Se       2.400000     0.000000     0.000000
Cu       0.000000     0.000000     0.000000
Br       0.001259     2.268993     0.787843
Se      -2.400000     0.000000     0.000000
C       -4.298854    -0.101199     0.057241
N       -4.993626    -0.786379    -0.859769
C       -4.562303    -1.742752    -1.834536
C       -6.317455    -0.356381    -0.667623
C       -6.339748     0.482610     0.453632
N       -5.032088     0.566112     0.960301
C       -4.659405     1.232224     2.172474
H        3.933603     2.109271    -1.566930
H        4.161351     3.038505    -0.022370
H        5.501299     2.911981    -1.233361
H        7.293160     1.234295    -0.567521
H        7.300933    -1.267254     0.426324
H        3.596193    -2.275529     1.290481
H        5.232499    -2.562644     2.012244
H        4.917079    -2.968880     0.283413
H       -3.737143    -1.196944    -2.340984
H       -4.204889    -2.732167    -1.491829
H       -5.374506    -1.879452    -2.581946
H       -7.159989    -0.616167    -1.291360
H       -7.203093     0.991176     0.856617
H       -4.759849     2.295045     1.855002
H       -5.309365     1.062762     3.054066
H       -3.601629     1.050055     2.447371
34
ex_0408 frame17 T-shaped Se-Se-ax/Br-eq-conf3
C        4.559721    -2.066110    -1.479082
N        4.993738    -0.981212    -0.633411
C        6.313225    -0.486975    -0.587196
C        6.330782     0.555768     0.346387
N        5.023109     0.682853     0.856041
C        4.635503     1.654538     1.848099
C        4.328000    -0.111792     0.080913
Se       2.400000     0.000000     0.000000
Cu       0.000000     0.000000     0.000000
Br      -0.012623     2.363455     0.410996
Se      -2.400000     0.000000     0.000000
C       -4.336242     0.005686    -0.050769
N       -5.105046    -1.094003    -0.318976
C       -4.673670    -2.395279    -0.760131
C       -6.441805    -0.730860    -0.083597
C       -6.453415     0.631334     0.269879
N       -5.123785     1.084634     0.246092
C       -4.714342     2.442457     0.494425
H        4.251897    -2.999465    -0.916228
H        3.711721    -1.679390    -2.038407
H        5.368107    -2.343316    -2.183853
H        7.143445    -0.849540    -1.164574
H        7.176325     1.154597     0.630021
H        4.717355     2.611587     1.352500
H        3.593177     1.487597     2.197803
H        5.306872     1.650737     2.762725
H       -5.215432    -2.813776    -1.631192
H       -3.584513    -2.430201    -0.945441
H       -4.895772    -3.026834     0.131767
H       -7.301295    -1.382582    -0.137777
H       -7.323464     1.213298     0.535834
H       -5.268215     3.223068    -0.063650
H       -3.626835     2.580298     0.350904
H       -4.940317     2.556529     1.580478
34
ex_0408 frame18 T-shaped Se-Se-ax/Br-eq-conf5
C        4.610207    -1.611322     1.913743
N        5.005251    -0.646167     0.919195
C        6.319739    -0.509341     0.431949
C        6.307046     0.521873    -0.511050
N        4.983726     1.000712    -0.586457
C        4.563149     2.072420    -1.454400
C        4.320589     0.130456     0.123859
Se       2.400000     0.000000     0.000000
Cu       0.000000     0.000000     0.000000
Br       0.001848     2.396122     0.095933
Se      -2.400000     0.000000     0.000000
C       -4.300663    -0.068959     0.090070
N       -5.009204    -0.964792    -0.612716
C       -4.613160    -2.156656    -1.301874
C       -6.323563    -0.473842    -0.540269
C       -6.329013     0.624083     0.327948
N       -5.018326     0.817790     0.792651
C       -4.629906     1.768186     1.791167
H        5.255012    -1.618820     2.831647
H        4.712313    -2.572222     1.400941
H        3.553797    -1.470263     2.223774
H        7.164810    -1.095153     0.737124
H        7.139998     0.888859    -1.077058
H        3.509502     2.363509    -1.258883
H        4.655241     1.661751    -2.456331
H        5.203913     2.997997    -1.373089
H       -4.696221    -1.814273    -2.358574
H       -5.259139    -3.046973    -1.166289
H       -3.557000    -2.428454    -1.106565
H       -7.172538    -0.872608    -1.075644
H       -7.183169     1.231583     0.588260
H       -4.714814     2.712809     1.207380
H       -3.573924     1.646938     2.104632
H       -5.279592     1.844746     2.685597
34
ex_0408 frame19 T-shaped Se-Se-ax/Br-eq-conf4
C        4.581984    -0.154775    -2.518155
N        5.001979    -0.160115    -1.134752
C        6.321714     0.089576    -0.708072
C        6.330274    -0.003564     0.688807
N        5.013555    -0.308996     1.091544
C        4.609935    -0.487711     2.466847
C        4.331691    -0.173731    -0.016230
Se       2.400000     0.000000     0.000000
Cu       0.000000     0.000000     0.000000
Br      -0.015901     2.401420    -0.068212
Se      -2.400000     0.000000     0.000000
C       -4.273633    -0.173044    -0.007309
N       -4.956429    -0.191761     1.134461
C       -4.554791    -0.420003     2.492998
C       -6.266582     0.081050     0.705644
C       -6.276314     0.076697    -0.693775
N       -4.970806    -0.206895    -1.140138
C       -4.589882    -0.455987    -2.501334
H        4.253755    -1.174477    -2.901056
H        5.415662     0.192401    -3.169494
H        3.760902     0.539722    -2.576239
H        7.162419     0.309882    -1.337319
H        7.163078     0.127640     1.345883
H        3.558299    -0.869269     2.537549
H        4.701967     0.467455     2.929160
H        5.266439    -1.243899     3.017232
H       -3.700910     0.279337     2.613145
H       -5.366848    -0.070302     3.170849
H       -4.243552    -1.440426     2.788592
H       -7.109791     0.267787     1.354125
H       -7.128549     0.259451    -1.331503
H       -3.720192     0.225006    -2.643009
H       -5.403452    -0.101984    -3.170415
H       -4.302016    -1.488633    -2.786804
34
ex_0408 frame20 cis
C       -2.651457     2.013761     3.250961
N       -1.265857     2.379247     3.085156
C       -0.775162     3.704102     2.967960
C        0.632113     3.614784     2.798106
N        0.959151     2.238261     2.832639
C        2.290477     1.689190     2.699486
C       -0.198687     1.515798     3.029335
Se      -0.257672    -0.372072     3.191224
Cu      -2.089387    -1.661918     2.330342
Br      -3.322551    -2.986870     3.907015
Se      -2.748257    -1.566315     0.024534
C       -1.271502    -1.327856    -1.147423
N       -1.034440    -0.182566    -1.860741
C       -1.813872     1.028041    -1.803324
C        0.108948    -0.398592    -2.662147
C        0.578737    -1.706258    -2.371963
N       -0.303728    -2.258879    -1.419326
C       -0.205693    -3.569582    -0.835276
H       -3.286411     2.264049     2.380928
H       -2.742516     0.926838     3.458776
H       -3.011487     2.552657     4.155231
H       -1.353793     4.615398     3.001509
H        1.315258     4.442820     2.679494
H        2.444690     1.075359     3.617444
H        2.443804     1.045301     1.811592
H        3.052174     2.498452     2.703178
H       -1.779259     1.569288    -0.837313
H       -2.861038     0.694354    -1.986957
H       -1.522968     1.711834    -2.627530
H        0.549244     0.297792    -3.360422
H        1.441595    -2.186939    -2.808794
H       -0.333703    -3.606420     0.265619
H       -1.052074    -4.117288    -1.308767
H        0.744546    -4.077578    -1.102828
34
ex_0408 frame21 trans
C       -1.896861     3.565006    -3.082120
N       -1.936531     2.159916    -3.018619
C       -2.256081     1.328704    -4.133222
C       -2.215192    -0.018649    -3.651651
N       -1.852556     0.008820    -2.262643
C       -1.704515    -1.113801    -1.445822
C       -1.676797     1.354546    -1.876427
Se      -1.214446     1.949037    -0.258013
Cu       0.937850     2.956832     0.076606
Br       1.195164     5.330726    -0.158484
Se       2.407378     1.945214     1.681946
C        1.920171     0.481430     2.482277
N        1.852235    -0.773581     1.879675
C        2.189653    -1.047158     0.521078
C        1.392759    -1.764063     2.818193
C        1.175894    -1.071388     4.068776
N        1.520288     0.310702     3.843488
C        1.473992     1.361725     4.822158
H       -2.747950     3.949483    -2.507246
H       -0.944081     3.965454    -2.643348
H       -1.935930     3.887523    -4.144921
H       -2.493242     1.625262    -5.060954
H       -2.390346    -0.895868    -4.172462
H       -1.244758    -0.887313    -0.456770
H       -1.084528    -1.845117    -2.022175
H       -2.677077    -1.588659    -1.289957
H        1.757362    -0.254359    -0.156041
H        3.285747    -1.001316     0.398440
H        1.791189    -2.031028     0.203043
H        1.267615    -2.741303     2.653233
H        0.871744    -1.447360     4.962599
H        0.394690     1.619757     5.046814
H        1.911589     1.000954     5.754058
H        2.042858     2.231904     4.506627
34
ex_0408 frame22 trans-conf4
C        4.617063     0.165301    -2.492273
N        5.098925     0.095652    -1.130342
C        6.457175     0.100564    -0.723176
C        6.466032    -0.020149     0.703717
N        5.113086    -0.062190     1.126651
C        4.659294    -0.165197     2.498718
C        4.290432     0.011505     0.001330
Se       2.400000     0.000000     0.000000
Cu       0.000000     0.000000     0.000000
Br      -1.201247     2.076920    -0.065102
Se      -1.200026    -2.078446     0.000000
C       -2.119181    -3.676509    -0.014545
N       -1.629392    -4.845181     0.474994
C       -0.313492    -5.029252     1.039416
C       -2.628074    -5.829670     0.332193
C       -3.751782    -5.183889    -0.255410
N       -3.377689    -3.842468    -0.501934
C       -4.183983    -2.833140    -1.152147
H        4.155186    -0.812744    -2.750046
H        5.444502     0.377092    -3.197707
H        3.839877     0.954363    -2.598815
H        7.311888     0.141394    -1.381057
H        7.328832    -0.084034     1.348927
H        3.548996    -0.156573     2.560812
H        5.038385     0.692045     3.091116
H        5.017968    -1.117392     2.938941
H       -0.270117    -4.297904     1.883627
H       -0.198010    -6.047596     1.462355
H        0.530454    -4.805843     0.357421
H       -2.575152    -6.839143     0.716169
H       -4.702343    -5.641355    -0.486839
H       -3.981648    -1.865099    -0.635629
H       -5.258670    -3.062032    -0.993918
H       -3.962618    -2.694572    -2.227174
34
ex_0408 frame23 trans-conf2
C        4.586339     2.500864     0.103625
N        5.057536     1.132752     0.037560
C        6.410254     0.724605     0.007179
C        6.415321    -0.707088    -0.044775
N        5.063135    -1.124992    -0.053960
C        4.590001    -2.492303    -0.104114
C        4.246724     0.000499    -0.005781
Se       2.400000     0.000000     0.000000
Cu       0.000000     0.000000     0.000000
Br      -1.188190     2.084942     0.000490
Se      -1.200026    -2.078446     0.000000
C       -2.122264    -3.684766     0.000179
N       -2.494095    -4.384183    -1.132897
C       -2.200433    -3.960960    -2.480922
C       -3.192931    -5.553667    -0.743910
C       -3.218792    -5.563292     0.688468
N       -2.558137    -4.385554     1.117537
C       -2.360654    -3.966014     2.485581
H        4.762574     3.001141    -0.868777
H        3.495442     2.549300     0.325173
H        5.117739     3.038042     0.913500
H        7.258898     1.385485     0.043623
H        7.272374    -1.358543    -0.064232
H        3.920641    -2.687278     0.763614
H        4.008816    -2.668212    -1.037053
H        5.441287    -3.199081    -0.066097
H       -1.107444    -4.026361    -2.674642
H       -2.498504    -2.891656    -2.586729
H       -2.759012    -4.568087    -3.215512
H       -3.628484    -6.278263    -1.412134
H       -3.687569    -6.291083     1.330986
H       -1.328725    -3.577563     2.637721
H       -3.075413    -3.139399     2.696644
H       -2.534342    -4.803109     3.187576
34
ex_0408 frame24 trans-2
C        4.604069     2.297276    -0.944441
N        5.027258     1.038499    -0.419148
C        6.359088     0.654702    -0.248749
C        6.355030    -0.646574     0.272561
N        5.028397    -1.031114     0.423129
C        4.613645    -2.298851     0.933192
C        4.206828    -0.000696     0.002685
Se       2.400000     0.000000     0.000000
Cu       0.000000     0.000000     0.000000
Br      -1.198750     2.078805    -0.000143
Se      -1.200026    -2.078446     0.000000
C       -2.090149    -3.610686    -0.006980
N       -2.153901    -4.474321    -1.065744
C       -1.497631    -4.271750    -2.330919
C       -2.953564    -5.565535    -0.706397
C       -3.388740    -5.361140     0.622737
N       -2.839108    -4.145983     1.047673
C       -3.026543    -3.563434     2.356252
H        4.183578     2.102908    -1.945953
H        3.833743     2.771657    -0.305456
H        5.480380     2.983912    -0.991194
H        7.199179     1.246092    -0.491530
H        7.196226    -1.229272     0.518179
H        3.526452    -2.352068     1.139571
H        5.225912    -2.482854     1.836795
H        4.881113    -3.091744     0.211935
H       -1.615723    -3.215362    -2.674706
H       -0.407502    -4.448451    -2.204308
H       -1.925378    -4.949382    -3.090735
H       -3.164956    -6.382941    -1.325179
H       -3.996414    -6.003354     1.197779
H       -4.060185    -3.167007     2.471712
H       -2.889885    -4.338841     3.133097
H       -2.258172    -2.797835     2.562581
34
ex_0408 frame25 trans-conf5
C        4.554120    -1.829207     1.670690
N        5.016781    -0.821544     0.748853
C        6.356187    -0.516121     0.462356
C        6.342592     0.532096    -0.503705
N        4.989960     0.827112    -0.762450
C        4.490099     1.823125    -1.672721
C        4.200009    -0.004044     0.000771
Se       2.400000     0.000000     0.000000
Cu       0.000000     0.000000     0.000000
Br      -1.199134     2.077397    -0.000102
Se      -1.200026    -2.078446     0.000000
C       -2.091997    -3.630273    -0.007412
N       -1.701167    -4.807486    -0.616892
C       -0.507432    -5.029940    -1.360741
C       -2.669909    -5.777072    -0.394339
C       -3.683398    -5.206616     0.367906
N       -3.324625    -3.878721     0.608453
C       -4.112392    -2.959510     1.362475
H        5.046581    -1.766916     2.662984
H        4.769173    -2.825172     1.244136
H        3.458712    -1.712497     1.829008
H        7.194806    -0.976117     0.896893
H        7.167791     1.015043    -0.933543
H        3.400817     1.959260    -1.501956
H        4.591203     1.499042    -2.729569
H        4.973367     2.786804    -1.461897
H       -0.749702    -5.038047    -2.441212
H       -0.113563    -6.030192    -1.086770
H        0.262979    -4.288104    -1.122040
H       -2.630365    -6.761549    -0.735432
H       -4.546431    -5.705694     0.697216
H       -4.961922    -2.586127     0.751764
H       -3.481559    -2.149151     1.773402
H       -4.571981    -3.535343     2.189086
34
ex_0408 frame26 trans-conf3
C        4.465528    -1.842674    -1.650411
N        4.945382    -0.846912    -0.750798
C        6.299476    -0.565908    -0.486739
C        6.343269     0.491896     0.444084
N        5.007267     0.832674     0.743749
C        4.616623     1.874106     1.665999
C        4.159539    -0.000177     0.001762
Se       2.400000     0.000000     0.000000
Cu       0.000000     0.000000     0.000000
Br      -1.199463     2.078083     0.000235
Se      -1.200026    -2.078446     0.000000
C       -2.072215    -3.602683     0.018660
N       -2.410113    -4.332087    -1.121319
C       -2.123674    -3.963735    -2.473015
C       -3.083704    -5.499607    -0.736729
C       -3.171352    -5.485965     0.675232
N       -2.547501    -4.297183     1.122870
C       -2.433270    -3.890701     2.496950
H        4.413306    -2.818327    -1.119100
H        3.475481    -1.548141    -2.069886
H        5.161124    -1.937040    -2.490712
H        7.095163    -1.069730    -0.929980
H        7.189600     0.942309     0.856174
H        4.724939     2.850150     1.162200
H        3.573826     1.733955     2.035563
H        5.314292     1.878308     2.524167
H       -3.048971    -3.979391    -3.061613
H       -1.718915    -2.924041    -2.498640
H       -1.410574    -4.691331    -2.927282
H       -3.450740    -6.211541    -1.390750
H       -3.634019    -6.210350     1.274162
H       -3.433421    -3.980601     2.945958
H       -2.143799    -2.826148     2.583413
H       -1.705527    -4.545231     3.051285
34
ex_0408 frame27 T-shaped Br-Se-ax/Se-eq-conf3
C        4.493446    -1.863825    -1.660271
N        4.999496    -0.854006    -0.758092
C        6.357200    -0.572011    -0.506595
C        6.393110     0.502895     0.436975
N        5.054065     0.834297     0.740813
C        4.632530     1.869888     1.663981
C        4.217336    -0.000194    -0.000097
Se       2.400000     0.000000     0.000000
Cu       0.000000     0.000000     0.000000
Br      -2.394715    -0.157562     0.000218
Se       0.000000     2.400000     0.000000
C        0.001169     4.220949    -0.013638
N        1.123676     5.007549    -0.194921
C        2.471054     4.516293    -0.377560
C        0.734779     6.365714    -0.171830
C       -0.680355     6.391479     0.042370
N       -1.107503     5.045608     0.154775
C       -2.466365     4.609274     0.402528
H        4.404517    -2.834744    -1.131739
H        3.493523    -1.568873    -2.064126
H        5.177517    -1.952588    -2.522886
H        7.185213    -1.084023    -0.960237
H        7.259326     0.979492     0.858986
H        4.739555     2.856274     1.165600
H        3.575660     1.741206     1.997304
H        5.284012     1.860447     2.559393
H        3.125724     4.969364     0.388359
H        2.526107     3.408565    -0.253213
H        2.826019     4.771346    -1.394368
H        1.407913     7.197918    -0.259838
H       -1.311068     7.254568     0.155298
H       -2.859656     5.154816     1.281287
H       -2.521365     3.518617     0.636044
H       -3.108768     4.810997    -0.479715
34
ex_0408 frame28 T-shaped Br-Se-ax/Se-eq-conf2
C        4.646685     2.455228     0.144372
N        5.101825     1.108568     0.051012
C        6.451661     0.696205     0.000874
C        6.442596    -0.731510    -0.048542
N        5.080910    -1.138774    -0.056425
C        4.599127    -2.499391    -0.108960
C        4.279771    -0.007421    -0.001741
Se       2.400000     0.000000     0.000000
Cu       0.000000     0.000000     0.000000
Br      -2.393088    -0.183887     0.000558
Se       0.000000     2.400000     0.000000
C       -0.009149     4.280781    -0.009783
N       -1.090189     5.062959     0.357092
C       -2.361031     4.537545     0.792023
C       -0.735939     6.431133     0.232774
C        0.619562     6.470207    -0.219327
N        1.032306     5.129374    -0.377058
C        2.313011     4.697950    -0.839413
H        4.712271     2.976940    -0.836268
H        3.618217     2.386145     0.533401
H        5.207756     2.996770     0.925779
H        7.298857     1.359252     0.052240
H        7.294576    -1.387050    -0.051033
H        3.927477    -2.679423     0.761248
H        4.014879    -2.675715    -1.039476
H        5.443671    -3.212106    -0.064795
H       -2.256879     4.038089     1.780021
H       -2.692383     3.767429     0.057114
H       -3.118566     5.339706     0.842872
H       -1.378410     7.270900     0.430840
H        1.224130     7.334988    -0.441189
H        2.596785     3.897772    -0.186839
H        2.228896     4.283715    -1.867443
H        3.084161     5.486180    -0.746883
34
ex_0408 frame29 T-shaped Br-Se-ax/Se-eq
C        4.605696     2.296356    -0.943767
N        5.027320     1.038070    -0.418887
C        6.359042     0.654196    -0.248664
C        6.353882    -0.646292     0.272598
N        5.027643    -1.031230     0.423299
C        4.613265    -2.298017     0.933029
C        4.203825     0.000037     0.002455
Se       2.400000     0.000000     0.000000
Cu       0.000000     0.000000     0.000000
Br      -2.400670    -0.022955     0.000113
Se       0.000000     2.400000     0.000000
C       -0.007305     4.172851    -0.002882
N       -0.870747     4.951690     0.717066
C       -1.896801     4.448257     1.593054
C       -0.584760     6.296519     0.455668
C        0.496649     6.336548    -0.453627
N        0.849800     5.010411    -0.724797
C        1.919244     4.600315    -1.602678
H        4.184095     2.102424    -1.945787
H        3.840056     2.768520    -0.300532
H        5.480542     2.983909    -0.990817
H        7.198490     1.245917    -0.491492
H        7.195682    -1.228818     0.518130
H        3.526606    -2.352172     1.139594
H        5.226439    -2.482673     1.836391
H        4.881072    -3.091831     0.212029
H       -2.437386     3.592008     1.120816
H       -1.420953     4.056192     2.518327
H       -2.620713     5.248814     1.826192
H       -1.087194     7.109462     0.880891
H        0.964705     7.196808    -0.844893
H        1.650780     4.772891    -2.668470
H        2.824580     5.202332    -1.396532
H        2.203859     3.555692    -1.412837
34
ex_0408 frame30 T-shaped Br-Se-ax/Se-eq-conf5
C        4.557538    -1.833249     1.670111
N        5.012119    -0.828035     0.749580
C        6.377590    -0.520499     0.457523
C        6.363551     0.529750    -0.515481
N        4.982643     0.824553    -0.764654
C        4.494948     1.827445    -1.674774
C        4.171504    -0.014019     0.006618
Se       2.400000     0.000000     0.000000
Cu       0.000000     0.000000     0.000000
Br      -2.280787    -0.748215    -0.003240
Se       0.000000     2.400000     0.000000
C       -0.001299     4.188353    -0.008467
N       -0.738508     5.022002    -0.856808
C       -1.638732     4.607380    -1.878202
C       -0.453327     6.357605    -0.545459
C        0.473568     6.368054     0.518113
N        0.747192     5.028018     0.847417
C        1.641349     4.619827     1.883938
H        5.047697    -1.760612     2.662376
H        4.769570    -2.826000     1.244568
H        3.459358    -1.719204     1.830754
H        7.201096    -0.981511     0.898293
H        7.173609     1.015233    -0.938326
H        3.400236     1.963894    -1.506749
H        4.599516     1.499457    -2.727756
H        4.974869     2.791389    -1.463906
H       -1.140407     4.738776    -2.856439
H       -2.515253     5.275098    -1.834000
H       -1.978352     3.574895    -1.722536
H       -0.867996     7.181035    -1.011789
H        0.861263     7.218995     0.971330
H        2.686705     4.719158     1.533951
H        1.391830     3.599439     2.231923
H        1.517448     5.341039     2.703604
34
ex_0408 frame31 T-shaped Br-Se-ax/Se-eq-conf4
C        4.567763     0.164468    -2.480802
N        5.037469     0.085304    -1.119428
C        6.391142     0.074200    -0.718820
C        6.405760    -0.044766     0.689852
N        4.993407    -0.074013     1.141130
C        4.610877    -0.169045     2.492993
C        4.181098    -0.000548     0.069764
Se       2.400000     0.000000     0.000000
Cu       0.000000     0.000000     0.000000
Br      -2.399996    -0.028142    -0.000053
Se       0.000000     2.400000     0.000000
C        0.003002     4.134474     0.008911
N        0.283376     4.935826     1.069624
C        0.628541     4.438885     2.381755
C        0.190044     6.281473     0.709688
C       -0.165790     6.316765    -0.692012
N       -0.279462     4.939091    -1.073011
C       -0.637503     4.469566    -2.396796
H        4.232426    -0.840539    -2.773546
H        5.391114     0.445907    -3.155968
H        3.698596     0.894575    -2.584518
H        7.219650     0.117258    -1.353086
H        7.236471    -0.096817     1.335676
H        3.508027    -0.140209     2.550947
H        4.992091     0.680755     3.077978
H        4.977167    -1.117441     2.948675
H        1.533223     3.803814     2.303313
H        0.828543     5.283752     3.080396
H       -0.192403     3.781559     2.764603
H        0.347509     7.101376     1.327346
H       -0.324407     7.138692    -1.308966
H       -0.172236     3.465978    -2.545881
H       -0.278157     5.146722    -3.203155
H       -1.725708     4.335250    -2.454787
34
ex_0408 frame32 T-shaped Se-Se-ax/Br-eq-conf6
C        4.593240     0.101314    -2.507568
N        5.040337     0.050482    -1.135129
C        6.398905     0.038913    -0.716357
C        6.403128    -0.015160     0.707472
N        5.047943    -0.036563     1.133729
C        4.620184    -0.091787     2.513904
C        4.203915     0.004723     0.000181
Se       2.400000     0.000000     0.000000
Cu       0.000000     0.000000     0.000000
Br       0.004844     2.441600     0.340075
Se      -2.400000     0.000000     0.000000
C       -4.224654    -0.024989     0.030690
N       -5.048268     0.844529     0.767217
C       -4.609401     1.916793     1.616181
C       -6.400152     0.498044     0.542220
C       -6.405734    -0.616181    -0.359104
N       -5.050757    -0.905916    -0.667079
C       -4.606596    -1.952109    -1.564513
H        5.463520     0.130829    -3.197962
H        3.980345     1.012541    -2.664895
H        3.984985    -0.797956    -2.736313
H        7.266052     0.067752    -1.363019
H        7.271533    -0.035377     1.353290
H        3.514159    -0.102616     2.596695
H        5.018422    -1.012044     2.990158
H        5.006186     0.795856     3.057089
H       -3.974021     1.501669     2.415581
H       -4.052318     2.654922     1.024204
H       -5.497045     2.421768     2.083559
H       -7.295627     0.957293     0.965973
H       -7.297039    -1.154580    -0.779884
H       -3.960139    -2.664769    -1.007586
H       -5.484552    -2.529390    -1.989654
H       -4.037745    -1.522900    -2.415116
34
ex_0408 frame33 T-shaped Se-Se-ax/Br-eq-conf2
C        4.732696     2.507404     0.008531
N        5.157334     1.131828    -0.024146
C        6.515628     0.707527    -0.024186
C        6.511104    -0.707411    -0.076324
N        5.149501    -1.121987    -0.106914
C        4.704645    -2.487331    -0.174753
C        4.347790     0.007365    -0.046214
Se       2.400000     0.000000     0.000000
Cu       0.000000     0.000000     0.000000
Br      -0.001421     2.380694     0.239424
Se      -2.400000     0.000000     0.000000
C       -4.301975     0.079521    -0.064815
N       -5.022168     0.953408     0.656788
C       -4.585045     2.073047     1.449488
C       -6.354738     0.552861     0.487228
C       -6.370232    -0.480831    -0.462608
N       -5.052306    -0.731100    -0.806122
C       -4.607832    -1.694027    -1.785538
H        5.167789     3.130119    -0.797629
H        3.626749     2.586604    -0.029344
H        5.075028     2.897969     0.992727
H        7.392174     1.337323     0.013554
H        7.383529    -1.343961    -0.085248
H        4.048671    -2.629000     0.713026
H        4.138140    -2.733584    -1.094569
H        5.566812    -3.182822    -0.081203
H       -4.183202     2.967091     0.937314
H       -3.795767     1.611988     2.081400
H       -5.416671     2.375642     2.124881
H       -7.210679     0.955480     1.008440
H       -7.237601    -1.022669    -0.809715
H       -4.072548    -1.371218    -2.696361
H       -3.933631    -2.298244    -1.140529
H       -5.464022    -2.346825    -2.067495
34
ex_0408 frame34 T-shaped Se-Se-ax/Br-eq
C        4.648782     2.365578    -0.779683
N        5.086516     1.084811    -0.295641
C        6.438494     0.675993    -0.222074
C        6.443141    -0.627735     0.300086
N        5.097399    -0.989023     0.534724
C        4.684392    -2.259224     1.071334
C        4.351415     0.032540     0.087528
Se       2.400000     0.000000     0.000000
Cu       0.000000     0.000000     0.000000
Br       0.001259     2.268993     0.787843
Se      -2.400000     0.000000     0.000000
C       -4.309496    -0.053725     0.021672
N       -4.984733    -0.724421    -0.907626
C       -4.539759    -1.606950    -1.935171
C       -6.319156    -0.366629    -0.660029
C       -6.341912     0.469572     0.463294
N       -5.022957     0.631722     0.913554
C       -4.635757     1.374677     2.066911
H        3.933603     2.109271    -1.566930
H        4.161351     3.038505    -0.022370
H        5.501299     2.911981    -1.233361
H        7.305856     1.249561    -0.509844
H        7.316241    -1.233841     0.484689
H        3.596193    -2.275529     1.290481
H        5.232499    -2.562644     2.012244
H        4.917079    -2.968880     0.283413
H       -3.737143    -1.196944    -2.340984
H       -4.204889    -2.732167    -1.491829
H       -5.374506    -1.879452    -2.581946
H       -7.168277    -0.666092    -1.254364
H       -7.212271     0.935887     0.897588
H       -4.759849     2.295045     1.855002
H       -5.309365     1.062762     3.054066
H       -3.601629     1.050055     2.447371
34
ex_0408 frame35 T-shaped Se-Se-ax/Br-eq-conf3
C        4.548116    -2.011057    -1.540237
N        4.985233    -0.943340    -0.675259
C        6.316824    -0.501691    -0.570850
C        6.334534     0.540427     0.363427
N        5.014996     0.719423     0.815106
C        4.624895     1.706874     1.789961
C        4.349896    -0.085326     0.051216
Se       2.400000     0.000000     0.000000
Cu       0.000000     0.000000     0.000000
Br      -0.012623     2.363455     0.410996
Se      -2.400000     0.000000     0.000000
C       -4.336572    -0.000905    -0.025367
N       -5.104370    -1.096603    -0.310814
C       -4.673670    -2.395279    -0.760131
C       -6.441805    -0.730860    -0.083597
C       -6.453415     0.631334     0.269879
N       -5.123117     1.082951     0.254487
C       -4.714342     2.442457     0.494425
H        4.251897    -2.999465    -0.916228
H        3.711721    -1.679390    -2.038407
H        5.368107    -2.343316    -2.183853
H        7.165098    -0.893325    -1.110195
H        7.199537     1.102510     0.678991
H        4.717355     2.611587     1.352500
H        3.593177     1.487597     2.197803
H        5.306872     1.650737     2.762725
H       -5.215432    -2.813776    -1.631192
H       -3.584513    -2.430201    -0.945441
H       -4.895772    -3.026834     0.131767
H       -7.301295    -1.382582    -0.137777
H       -7.323464     1.213298     0.535834
H       -5.268215     3.223068    -0.063650
H       -3.626835     2.580298     0.350904
H       -4.940317     2.556529     1.580478
34
ex_0408 frame36 T-shaped Se-Se-ax/Br-eq-conf5
C        4.599405    -1.669161     1.850475
N        4.997381    -0.686188     0.875338
C        6.322751    -0.494878     0.447758
C        6.310260     0.537304    -0.494183
N        4.976384     0.962025    -0.628576
C        4.553577     2.017928    -1.514032
C        4.343113     0.103089     0.093139
Se       2.400000     0.000000     0.000000
Cu       0.000000     0.000000     0.000000
Br       0.001848     2.396122     0.095933
Se      -2.400000     0.000000     0.000000
C       -4.312069    -0.031513     0.042535
N       -4.999104    -0.914374    -0.679199
C       -4.587189    -2.042822    -1.445980
C       -6.325820    -0.483734    -0.527747
C       -6.331062     0.615103     0.339317
N       -5.008364     0.870230     0.728905
C       -4.604403     1.879966     1.649662
H        5.255012    -1.618820     2.831647
H        4.712313    -2.572222     1.400941
H        3.553797    -1.470263     2.223774
H        7.188248    -1.043547     0.784800
H        7.163939     0.934677    -1.020403
H        3.509502     2.363509    -1.258883
H        4.655241     1.661751    -2.456331
H        5.203913     2.997997    -1.373089
H       -4.696221    -1.814273    -2.358574
H       -5.259139    -3.046973    -1.166289
H       -3.557000    -2.428454    -1.106565
H       -7.182125    -0.914627    -1.022452
H       -7.192359     1.191304     0.639251
H       -4.714814     2.712809     1.207380
H       -3.573924     1.646938     2.104632
H       -5.279592     1.844746     2.685597
34
ex_0408 frame37 T-shaped Se-Se-ax/Br-eq-conf4
C        4.571828    -0.072658    -2.512423
N        4.994457    -0.104421    -1.130654
C        6.325040     0.067577    -0.709595
C        6.333933    -0.027766     0.687132
N        5.006870    -0.256600     1.094792
C        4.601677    -0.413195     2.472068
C        4.356013    -0.135774    -0.013359
Se       2.400000     0.000000     0.000000
Cu       0.000000     0.000000     0.000000
Br      -0.015901     2.401420    -0.068212
Se      -2.400000     0.000000     0.000000
C       -4.292946    -0.106400    -0.007573
N       -4.943239    -0.090631     1.136151
C       -4.519911    -0.193995     2.491482
C       -6.269214     0.063998     0.705758
C       -6.279478     0.056197    -0.693638
N       -4.957331    -0.103712    -1.143166
C       -4.553811    -0.222258    -2.502902
H        4.253755    -1.174477    -2.901056
H        5.415662     0.192401    -3.169494
H        3.760902     0.539722    -2.576239
H        7.180000     0.240768    -1.344425
H        7.195738     0.057989     1.330327
H        3.558299    -0.869269     2.537549
H        4.701967     0.467455     2.929160
H        5.266439    -1.243899     3.017232
H       -3.700910     0.279337     2.613145
H       -5.366848    -0.070302     3.170849
H       -4.243552    -1.440426     2.788592
H       -7.120299     0.199698     1.354582
H       -7.140079     0.184739    -1.331002
H       -3.720192     0.225006    -2.643009
H       -5.403452    -0.101984    -3.170415
H       -4.302016    -1.488633    -2.786804
