47
ex_0518 frame0 T-4-1
Cd       0.000000     0.000000     0.000000
F        4.996561     4.940851     4.870687
C        4.217819     4.153884     4.073442
C        3.007680     3.719649     4.614295
F        2.638517     4.075287     5.880736
C        2.164484     2.912986     3.853592
F        0.968768     2.469558     4.355665
C        2.560562     2.560562     2.560562
Se       1.524205     1.524205     1.524205
C        3.762515     2.993409     2.026871
F        4.182136     2.681016     0.794649
C        4.594529     3.797802     2.796500
F        5.793262     4.246764     2.303214
F        4.919525    -4.882853    -5.005721
C        4.129424    -4.087402    -4.228318
C        3.991825    -4.458866    -2.890933
F        4.624549    -5.567077    -2.402915
C        3.199137    -3.690186    -2.041739
F        3.043332    -4.028023    -0.722636
C        2.560562    -2.560562    -2.560562
Se       1.524205    -1.524205    -1.524205
C        2.699374    -2.194776    -3.888645
F        2.107143    -1.122358    -4.428299
C        3.493198    -2.970437    -4.725197
F        3.655515    -2.640835    -6.046891
N       -1.241303     1.241303    -1.241303
C       -2.523836     0.915784    -1.513452
C       -3.362085     1.682741    -2.306910
C       -2.856255     2.856253    -2.856259
C       -1.539072     3.218414    -2.594251
C       -0.778212     2.386264    -1.788596
H       -2.871989    -0.008698    -1.061969
H       -4.384170     1.372688    -2.491977
H       -3.483330     3.483328    -3.483335
H       -1.115053     4.126533    -3.007251
H        0.255148     2.625540    -1.554869
N       -1.241303    -1.241303     1.241303
C       -1.658396    -2.460118     0.834557
C       -2.458281    -3.295541     1.597914
C       -2.856259    -2.856254     2.856254
C       -2.442880    -1.605615     3.303241
C       -1.643652    -0.841930     2.467490
H       -1.321624    -2.757844    -0.154208
H       -2.763422    -4.264842     1.220572
H       -3.483336    -3.483329     3.483329
H       -2.735807    -1.234381     4.278649
H       -1.295214     0.141003     2.771050
47
ex_0518 frame1 T-4-1-conf2
Cd       0.000000     0.000000     0.000000
F        4.996561     4.940851     4.870687
C        4.217819     4.153884     4.073442
C        3.007680     3.719649     4.614295
F        2.638517     4.075287     5.880736
C        2.164484     2.912986     3.853592
F        0.968768     2.469558     4.355665
C        2.560562     2.560562     2.560562
Se       1.524205     1.524205     1.524205
C        3.762515     2.993409     2.026871
F        4.182136     2.681016     0.794649
C        4.594529     3.797802     2.796500
F        5.793262     4.246764     2.303214
F        4.919525    -4.882853    -5.005721
C        4.129424    -4.087402    -4.228318
C        3.991825    -4.458866    -2.890933
F        4.624549    -5.567077    -2.402915
C        3.199137    -3.690186    -2.041739
F        3.043332    -4.028023    -0.722636
C        2.560562    -2.560562    -2.560562
Se       1.524205    -1.524205    -1.524205
C        2.699374    -2.194776    -3.888645
F        2.107143    -1.122358    -4.428299
C        3.493198    -2.970437    -4.725197
F        3.655515    -2.640835    -6.046891
N       -1.241303     1.241303    -1.241303
C       -2.523836     0.915784    -1.513452
C       -3.362085     1.682741    -2.306910
C       -2.856255     2.856253    -2.856259
C       -1.539072     3.218414    -2.594251
C       -0.778212     2.386264    -1.788596
H       -2.871989    -0.008698    -1.061969
H       -4.384170     1.372688    -2.491977
H       -3.483330     3.483328    -3.483335
H       -1.115053     4.126533    -3.007251
H        0.255148     2.625540    -1.554869
N       -1.241303    -1.241303     1.241303
C       -1.122370    -1.243751     2.586951
C       -1.898488    -2.025250     3.427998
C       -2.856253    -2.856257     2.856255
C       -3.002669    -2.875909     1.473159
C       -2.179678    -2.058297     0.715097
H       -0.361380    -0.578829     2.985053
H       -1.759572    -1.986894     4.502369
H       -3.483326    -3.483336     3.483331
H       -3.739647    -3.512335     0.996856
H       -2.255459    -2.038013    -0.368212
47
ex_0518 frame2 T-4-1-conf3
Cd       0.000000     0.000000     0.000000
F        4.996561     4.940851     4.870687
C        4.217819     4.153884     4.073442
C        3.007680     3.719649     4.614295
F        2.638517     4.075287     5.880736
C        2.164484     2.912986     3.853592
F        0.968768     2.469558     4.355665
C        2.560562     2.560562     2.560562
Se       1.524205     1.524205     1.524205
C        3.762515     2.993409     2.026871
F        4.182136     2.681016     0.794649
C        4.594529     3.797802     2.796500
F        5.793262     4.246764     2.303214
F        4.919525    -4.882853    -5.005721
C        4.129424    -4.087402    -4.228318
C        3.991825    -4.458866    -2.890933
F        4.624549    -5.567077    -2.402915
C        3.199137    -3.690186    -2.041739
F        3.043332    -4.028023    -0.722636
C        2.560562    -2.560562    -2.560562
Se       1.524205    -1.524205    -1.524205
C        2.699374    -2.194776    -3.888645
F        2.107143    -1.122358    -4.428299
C        3.493198    -2.970437    -4.725197
F        3.655515    -2.640835    -6.046891
N       -1.241303     1.241303    -1.241303
C       -0.727877     2.259236    -1.965958
C       -1.486506     3.085755    -2.779475
C       -2.856256     2.856257    -2.856253
C       -3.414652     1.815404    -2.121681
C       -2.574171     1.042812    -1.336089
H        0.345317     2.397982    -1.872596
H       -1.020789     3.888643    -3.339403
H       -3.483332     3.483335    -3.483326
H       -4.478436     1.610586    -2.159816
H       -2.962158     0.218860    -0.744242
N       -1.241303    -1.241303     1.241303
C       -1.658396    -2.460118     0.834557
C       -2.458281    -3.295541     1.597914
C       -2.856259    -2.856254     2.856254
C       -2.442880    -1.605615     3.303241
C       -1.643652    -0.841930     2.467490
H       -1.321624    -2.757844    -0.154208
H       -2.763422    -4.264842     1.220572
H       -3.483336    -3.483329     3.483329
H       -2.735807    -1.234381     4.278649
H       -1.295214     0.141003     2.771050
47
ex_0518 frame3 T-4-1-conf4
Cd       0.000000     0.000000     0.000000
F        4.996561     4.940851     4.870687
C        4.217819     4.153884     4.073442
C        3.007680     3.719649     4.614295
F        2.638517     4.075287     5.880736
C        2.164484     2.912986     3.853592
F        0.968768     2.469558     4.355665
C        2.560562     2.560562     2.560562
Se       1.524205     1.524205     1.524205
C        3.762515     2.993409     2.026871
F        4.182136     2.681016     0.794649
C        4.594529     3.797802     2.796500
F        5.793262     4.246764     2.303214
F        4.979691    -4.961183    -4.939415
C        4.180706    -4.175357    -4.169070
C        2.953628    -3.735224    -4.658829
F        2.548145    -4.088660    -5.908981
C        2.189098    -2.941404    -3.830386
F        0.990456    -2.525793    -4.340011
C        2.579113    -2.579113    -2.579113
Se       1.524205    -1.524205    -1.524205
C        3.799053    -3.021792    -2.103346
F        4.220728    -2.680264    -0.860037
C        4.615657    -3.828980    -2.899423
F        5.787773    -4.225247    -2.378855
N       -1.241303     1.241303    -1.241303
C       -2.523836     0.915784    -1.513452
C       -3.362085     1.682741    -2.306910
C       -2.856255     2.856253    -2.856259
C       -1.539072     3.218414    -2.594251
C       -0.778212     2.386264    -1.788596
H       -2.871989    -0.008698    -1.061969
H       -4.384170     1.372688    -2.491977
H       -3.483330     3.483328    -3.483335
H       -1.115053     4.126533    -3.007251
H        0.255148     2.625540    -1.554869
N       -1.241303    -1.241303     1.241303
C       -1.658396    -2.460118     0.834557
C       -2.458281    -3.295541     1.597914
C       -2.856259    -2.856254     2.856254
C       -2.442880    -1.605615     3.303241
C       -1.643652    -0.841930     2.467490
H       -1.321624    -2.757844    -0.154208
H       -2.763422    -4.264842     1.220572
H       -3.483336    -3.483329     3.483329
H       -2.735807    -1.234381     4.278649
H       -1.295214     0.141003     2.771050
47
ex_0518 frame4 T-4-1-conf5
Cd       0.000000     0.000000     0.000000
F        4.949500     4.947444     4.983345
C        4.171982     4.171390     4.181761
C        4.230039     4.319367     2.798275
F        5.063903     5.239914     2.241968
C        3.417672     3.503646     2.039569
F        3.497764     3.673192     0.685305
C        2.579113     2.579113     2.579113
Se       1.524205     1.524205     1.524205
C        2.529733     2.440922     3.953535
F        1.705064     1.529079     4.526886
C        3.330966     3.241088     4.772008
F        3.236049     3.057487     6.098339
F        4.919525    -4.882853    -5.005721
C        4.129424    -4.087402    -4.228318
C        3.991825    -4.458866    -2.890933
F        4.624549    -5.567077    -2.402915
C        3.199137    -3.690186    -2.041739
F        3.043332    -4.028023    -0.722636
C        2.560562    -2.560562    -2.560562
Se       1.524205    -1.524205    -1.524205
C        2.699374    -2.194776    -3.888645
F        2.107143    -1.122358    -4.428299
C        3.493198    -2.970437    -4.725197
F        3.655515    -2.640835    -6.046891
N       -1.241303     1.241303    -1.241303
C       -2.523836     0.915784    -1.513452
C       -3.362085     1.682741    -2.306910
C       -2.856255     2.856253    -2.856259
C       -1.539072     3.218414    -2.594251
C       -0.778212     2.386264    -1.788596
H       -2.871989    -0.008698    -1.061969
H       -4.384170     1.372688    -2.491977
H       -3.483330     3.483328    -3.483335
H       -1.115053     4.126533    -3.007251
H        0.255148     2.625540    -1.554869
N       -1.241303    -1.241303     1.241303
C       -1.658396    -2.460118     0.834557
C       -2.458281    -3.295541     1.597914
C       -2.856259    -2.856254     2.856254
C       -2.442880    -1.605615     3.303241
C       -1.643652    -0.841930     2.467490
H       -1.321624    -2.757844    -0.154208
H       -2.763422    -4.264842     1.220572
H       -3.483336    -3.483329     3.483329
H       -2.735807    -1.234381     4.278649
H       -1.295214     0.141003     2.771050
47
ex_0518 frame5 T-4-1-conf6
Cd       0.000000     0.000000     0.000000
F        4.996561     4.940851     4.870687
C        4.217819     4.153884     4.073442
C        3.007680     3.719649     4.614295
F        2.638517     4.075287     5.880736
C        2.164484     2.912986     3.853592
F        0.968768     2.469558     4.355665
C        2.560562     2.560562     2.560562
Se       1.524205     1.524205     1.524205
C        3.762515     2.993409     2.026871
F        4.182136     2.681016     0.794649
C        4.594529     3.797802     2.796500
F        5.793262     4.246764     2.303214
F        4.919525    -4.882853    -5.005721
C        4.129424    -4.087402    -4.228318
C        3.991825    -4.458866    -2.890933
F        4.624549    -5.567077    -2.402915
C        3.199137    -3.690186    -2.041739
F        3.043332    -4.028023    -0.722636
C        2.560562    -2.560562    -2.560562
Se       1.524205    -1.524205    -1.524205
C        2.699374    -2.194776    -3.888645
F        2.107143    -1.122358    -4.428299
C        3.493198    -2.970437    -4.725197
F        3.655515    -2.640835    -6.046891
N       -1.241303     1.241303    -1.241303
C       -0.727877     2.259236    -1.965958
C       -1.486506     3.085755    -2.779475
C       -2.856256     2.856257    -2.856253
C       -3.414652     1.815404    -2.121681
C       -2.574171     1.042812    -1.336089
H        0.345317     2.397982    -1.872596
H       -1.020789     3.888643    -3.339403
H       -3.483332     3.483335    -3.483326
H       -4.478436     1.610586    -2.159816
H       -2.962158     0.218860    -0.744242
N       -1.241303    -1.241303     1.241303
C       -1.122370    -1.243751     2.586951
C       -1.898488    -2.025250     3.427998
C       -2.856253    -2.856257     2.856255
C       -3.002669    -2.875909     1.473159
C       -2.179678    -2.058297     0.715097
H       -0.361380    -0.578829     2.985053
H       -1.759572    -1.986894     4.502369
H       -3.483326    -3.483336     3.483331
H       -3.739647    -3.512335     0.996856
H       -2.255459    -2.038013    -0.368212
47
ex_0518 frame6 T-4-1-conf7
Cd       0.000000     0.000000     0.000000
F        4.996561     4.940851     4.870687
C        4.217819     4.153884     4.073442
C        3.007680     3.719649     4.614295
F        2.638517     4.075287     5.880736
C        2.164484     2.912986     3.853592
F        0.968768     2.469558     4.355665
C        2.560562     2.560562     2.560562
Se       1.524205     1.524205     1.524205
C        3.762515     2.993409     2.026871
F        4.182136     2.681016     0.794649
C        4.594529     3.797802     2.796500
F        5.793262     4.246764     2.303214
F        4.979691    -4.961183    -4.939415
C        4.180706    -4.175357    -4.169070
C        2.953628    -3.735224    -4.658829
F        2.548145    -4.088660    -5.908981
C        2.189098    -2.941404    -3.830386
F        0.990456    -2.525793    -4.340011
C        2.579113    -2.579113    -2.579113
Se       1.524205    -1.524205    -1.524205
C        3.799053    -3.021792    -2.103346
F        4.220728    -2.680264    -0.860037
C        4.615657    -3.828980    -2.899423
F        5.787773    -4.225247    -2.378855
N       -1.241303     1.241303    -1.241303
C       -2.523836     0.915784    -1.513452
C       -3.362085     1.682741    -2.306910
C       -2.856255     2.856253    -2.856259
C       -1.539072     3.218414    -2.594251
C       -0.778212     2.386264    -1.788596
H       -2.871989    -0.008698    -1.061969
H       -4.384170     1.372688    -2.491977
H       -3.483330     3.483328    -3.483335
H       -1.115053     4.126533    -3.007251
H        0.255148     2.625540    -1.554869
N       -1.241303    -1.241303     1.241303
C       -1.122370    -1.243751     2.586951
C       -1.898488    -2.025250     3.427998
C       -2.856253    -2.856257     2.856255
C       -3.002669    -2.875909     1.473159
C       -2.179678    -2.058297     0.715097
H       -0.361380    -0.578829     2.985053
H       -1.759572    -1.986894     4.502369
H       -3.483326    -3.483336     3.483331
H       -3.739647    -3.512335     0.996856
H       -2.255459    -2.038013    -0.368212
47
ex_0518 frame7 T-4-1-conf8
Cd       0.000000     0.000000     0.000000
F        4.996561     4.940851     4.870687
C        4.217819     4.153884     4.073442
C        3.007680     3.719649     4.614295
F        2.638517     4.075287     5.880736
C        2.164484     2.912986     3.853592
F        0.968768     2.469558     4.355665
C        2.560562     2.560562     2.560562
Se       1.524205     1.524205     1.524205
C        3.762515     2.993409     2.026871
F        4.182136     2.681016     0.794649
C        4.594529     3.797802     2.796500
F        5.793262     4.246764     2.303214
F        4.979691    -4.961183    -4.939415
C        4.180706    -4.175357    -4.169070
C        2.953628    -3.735224    -4.658829
F        2.548145    -4.088660    -5.908981
C        2.189098    -2.941404    -3.830386
F        0.990456    -2.525793    -4.340011
C        2.579113    -2.579113    -2.579113
Se       1.524205    -1.524205    -1.524205
C        3.799053    -3.021792    -2.103346
F        4.220728    -2.680264    -0.860037
C        4.615657    -3.828980    -2.899423
F        5.787773    -4.225247    -2.378855
N       -1.241303     1.241303    -1.241303
C       -0.727877     2.259236    -1.965958
C       -1.486506     3.085755    -2.779475
C       -2.856256     2.856257    -2.856253
C       -3.414652     1.815404    -2.121681
C       -2.574171     1.042812    -1.336089
H        0.345317     2.397982    -1.872596
H       -1.020789     3.888643    -3.339403
H       -3.483332     3.483335    -3.483326
H       -4.478436     1.610586    -2.159816
H       -2.962158     0.218860    -0.744242
N       -1.241303    -1.241303     1.241303
C       -1.658396    -2.460118     0.834557
C       -2.458281    -3.295541     1.597914
C       -2.856259    -2.856254     2.856254
C       -2.442880    -1.605615     3.303241
C       -1.643652    -0.841930     2.467490
H       -1.321624    -2.757844    -0.154208
H       -2.763422    -4.264842     1.220572
H       -3.483336    -3.483329     3.483329
H       -2.735807    -1.234381     4.278649
H       -1.295214     0.141003     2.771050
47
ex_0518 frame8 T-4-1-conf9
Cd       0.000000     0.000000     0.000000
F        4.949500     4.947444     4.983345
C        4.171982     4.171390     4.181761
C        4.230039     4.319367     2.798275
F        5.063903     5.239914     2.241968
C        3.417672     3.503646     2.039569
F        3.497764     3.673192     0.685305
C        2.579113     2.579113     2.579113
Se       1.524205     1.524205     1.524205
C        2.529733     2.440922     3.953535
F        1.705064     1.529079     4.526886
C        3.330966     3.241088     4.772008
F        3.236049     3.057487     6.098339
F        4.919525    -4.882853    -5.005721
C        4.129424    -4.087402    -4.228318
C        3.991825    -4.458866    -2.890933
F        4.624549    -5.567077    -2.402915
C        3.199137    -3.690186    -2.041739
F        3.043332    -4.028023    -0.722636
C        2.560562    -2.560562    -2.560562
Se       1.524205    -1.524205    -1.524205
C        2.699374    -2.194776    -3.888645
F        2.107143    -1.122358    -4.428299
C        3.493198    -2.970437    -4.725197
F        3.655515    -2.640835    -6.046891
N       -1.241303     1.241303    -1.241303
C       -2.523836     0.915784    -1.513452
C       -3.362085     1.682741    -2.306910
C       -2.856255     2.856253    -2.856259
C       -1.539072     3.218414    -2.594251
C       -0.778212     2.386264    -1.788596
H       -2.871989    -0.008698    -1.061969
H       -4.384170     1.372688    -2.491977
H       -3.483330     3.483328    -3.483335
H       -1.115053     4.126533    -3.007251
H        0.255148     2.625540    -1.554869
N       -1.241303    -1.241303     1.241303
C       -1.122370    -1.243751     2.586951
C       -1.898488    -2.025250     3.427998
C       -2.856253    -2.856257     2.856255
C       -3.002669    -2.875909     1.473159
C       -2.179678    -2.058297     0.715097
H       -0.361380    -0.578829     2.985053
H       -1.759572    -1.986894     4.502369
H       -3.483326    -3.483336     3.483331
H       -3.739647    -3.512335     0.996856
H       -2.255459    -2.038013    -0.368212
47
ex_0518 frame9 T-4-1-conf10
Cd       0.000000     0.000000     0.000000
F        4.949500     4.947444     4.983345
C        4.171982     4.171390     4.181761
C        4.230039     4.319367     2.798275
F        5.063903     5.239914     2.241968
C        3.417672     3.503646     2.039569
F        3.497764     3.673192     0.685305
C        2.579113     2.579113     2.579113
Se       1.524205     1.524205     1.524205
C        2.529733     2.440922     3.953535
F        1.705064     1.529079     4.526886
C        3.330966     3.241088     4.772008
F        3.236049     3.057487     6.098339
F        4.919525    -4.882853    -5.005721
C        4.129424    -4.087402    -4.228318
C        3.991825    -4.458866    -2.890933
F        4.624549    -5.567077    -2.402915
C        3.199137    -3.690186    -2.041739
F        3.043332    -4.028023    -0.722636
C        2.560562    -2.560562    -2.560562
Se       1.524205    -1.524205    -1.524205
C        2.699374    -2.194776    -3.888645
F        2.107143    -1.122358    -4.428299
C        3.493198    -2.970437    -4.725197
F        3.655515    -2.640835    -6.046891
N       -1.241303     1.241303    -1.241303
C       -0.727877     2.259236    -1.965958
C       -1.486506     3.085755    -2.779475
C       -2.856256     2.856257    -2.856253
C       -3.414652     1.815404    -2.121681
C       -2.574171     1.042812    -1.336089
H        0.345317     2.397982    -1.872596
H       -1.020789     3.888643    -3.339403
H       -3.483332     3.483335    -3.483326
H       -4.478436     1.610586    -2.159816
H       -2.962158     0.218860    -0.744242
N       -1.241303    -1.241303     1.241303
C       -1.658396    -2.460118     0.834557
C       -2.458281    -3.295541     1.597914
C       -2.856259    -2.856254     2.856254
C       -2.442880    -1.605615     3.303241
C       -1.643652    -0.841930     2.467490
H       -1.321624    -2.757844    -0.154208
H       -2.763422    -4.264842     1.220572
H       -3.483336    -3.483329     3.483329
H       -2.735807    -1.234381     4.278649
H       -1.295214     0.141003     2.771050
47
ex_0518 frame10 SP-4-1
Cd       0.000000     0.000000     0.000000
F        8.549460    -0.085714    -0.024702
C        7.185208    -0.098319    -0.028304
C        6.548089     1.094176     0.314557
F        7.271461     2.208092     0.634803
C        5.156351     1.150353     0.330728
F        4.499863     2.306608     0.663205
C        4.435024    -0.000000     0.000000
Se       2.640000     0.000000     0.000000
C        5.070749    -1.182043    -0.339854
F        4.421233    -2.307022    -0.663265
C        6.459875    -1.224525    -0.352088
F        7.126373    -2.376858    -0.683403
F        0.088522     8.549460    -0.010993
C        0.101536     7.185208    -0.012580
C       -1.129906     6.548089     0.139569
F       -2.280199     7.271461     0.281670
C       -1.187920     5.156351     0.146755
F       -2.381944     4.499863     0.294315
C       -0.000000     4.435024     0.000000
Se       0.000000     2.640000     0.000000
C        1.220648     5.070749    -0.150814
F        2.382363     4.421233    -0.294311
C        1.264521     6.459875    -0.156253
F        2.454489     7.126373    -0.303279
N       -2.150000     0.000000     0.000000
C       -2.859657    -0.054236     1.148200
C       -4.244527    -0.056644     1.199104
C       -4.947180    -0.000004     0.000000
C       -4.244527     0.056640    -1.199103
C       -2.859657     0.054236    -1.148200
H       -2.266250    -0.097156     2.056902
H       -4.762467    -0.101575     2.150292
H       -6.033307    -0.000005     0.000000
H       -4.762468     0.101570    -2.150292
H       -2.266250     0.097159    -2.056902
N        0.000000    -2.150000     0.000000
C        1.044629    -2.859657    -0.479641
C        1.090939    -4.244527    -0.500909
C       -0.000001    -4.947180    -0.000004
C       -1.090941    -4.244527     0.500904
C       -1.044629    -2.859657     0.479641
H        1.871364    -2.266250    -0.859233
H        1.956328    -4.762467    -0.898253
H       -0.000002    -6.033307    -0.000005
H       -1.956329    -4.762468     0.898247
H       -1.871363    -2.266250     0.859236
47
ex_0518 frame11 SP-4-2
Cd       0.000000     0.000000     0.000000
F        8.549460    -0.085714    -0.024702
C        7.185208    -0.098319    -0.028304
C        6.548089     1.094176     0.314557
F        7.271461     2.208092     0.634803
C        5.156351     1.150353     0.330728
F        4.499863     2.306608     0.663205
C        4.435024    -0.000000     0.000000
Se       2.640000     0.000000     0.000000
C        5.070749    -1.182043    -0.339854
F        4.421233    -2.307022    -0.663265
C        6.459875    -1.224525    -0.352088
F        7.126373    -2.376858    -0.683403
N        0.000000     2.150000     0.000000
C       -1.149434     2.859657     0.010322
C       -1.200393     4.244527     0.010776
C       -0.000001     4.947180    -0.000004
C        1.200392     4.244527    -0.010780
C        1.149434     2.859657    -0.010322
H       -2.059112     2.266250     0.018493
H       -2.152603     4.762467     0.019325
H       -0.000001     6.033307    -0.000005
H        2.152602     4.762468    -0.019331
H        2.059113     2.266250    -0.018490
F       -8.549460     0.088752    -0.008952
C       -7.185208     0.101798    -0.010239
C       -6.548089    -1.132820     0.113524
F       -7.271461    -2.286078     0.229109
C       -5.156351    -1.190984     0.119372
F       -4.499863    -2.388088     0.239409
C       -4.435024     0.000000     0.000000
Se      -2.640000     0.000000     0.000000
C       -5.070749     1.223796    -0.122676
F       -4.421233     2.388506    -0.239394
C       -6.459875     1.267783    -0.127105
F       -7.126373     2.460819    -0.246700
N        0.000000    -2.150000     0.000000
C        1.044629    -2.859657    -0.479641
C        1.090939    -4.244527    -0.500909
C       -0.000001    -4.947180    -0.000004
C       -1.090941    -4.244527     0.500904
C       -1.044629    -2.859657     0.479641
H        1.871364    -2.266250    -0.859233
H        1.956328    -4.762467    -0.898253
H       -0.000002    -6.033307    -0.000005
H       -1.956329    -4.762468     0.898247
H       -1.871363    -2.266250     0.859236
