47
ex_0087 frame0 trans-OC-6-1
Pt       0.000000     0.000000     0.000000
Br       2.560000     0.000000     0.000000
Br      -2.560000     0.000000     0.000000
Br       0.000000     2.560000     0.000000
Br       0.000000    -2.560000     0.000000
N        0.000000     0.000000     2.070000
C       -0.353598     1.091071     2.779728
C       -0.367584     1.139819     4.165221
C       -0.000008    -0.000002     4.889815
C       -0.000011    -0.000005     6.361181
C        0.708871     0.973330     7.085147
C        0.709853     0.973557     8.482742
C       -0.000017    -0.000011     9.180635
C       -0.709883    -0.973577     8.482735
C       -0.708894    -0.973344     7.085139
C        0.367575    -1.139820     4.165220
C        0.353597    -1.091070     2.779727
H       -0.637755     1.956404     2.187847
H       -0.673734     2.051556     4.667931
H        1.280544     1.736619     6.560884
H        1.267820     1.732954     9.024421
H       -0.000018    -0.000014    10.267495
H       -1.267848    -1.732981     9.024408
H       -1.280563    -1.736631     6.560871
H        0.673731    -2.051555     4.667931
H        0.637766    -1.956399     2.187846
N        0.000000     0.000000    -2.070000
C        0.224698     1.124712    -2.779728
C        0.232937     1.174754    -4.165221
C        0.000008    -0.000001    -4.889815
C        0.000012    -0.000003    -6.361181
C       -0.816952     0.884568    -7.085147
C       -0.817954     0.884679    -8.482742
C        0.000018    -0.000009    -9.180635
C        0.817986    -0.884696    -8.482735
C        0.816976    -0.884579    -7.085139
C       -0.232928    -1.174754    -4.165220
C       -0.224697    -1.124712    -2.779727
H        0.406599     2.017158    -2.187847
H        0.431302     2.115840    -4.667931
H       -1.473275     1.576419    -6.560884
H       -1.460212     1.574255    -9.024421
H        0.000019    -0.000012   -10.267495
H        1.460243    -1.574278    -9.024408
H        1.473295    -1.576429    -6.560871
H       -0.431299    -2.115839    -4.667931
H       -0.406610    -2.017154    -2.187846
47
ex_0087 frame1 trans-OC-6-1-conf2
Pt       0.000000     0.000000     0.000000
Br       2.560000     0.000000     0.000000
Br      -2.560000     0.000000     0.000000
Br       0.000000     2.560000     0.000000
Br       0.000000    -2.560000     0.000000
N        0.000000     0.000000     2.070000
C       -0.358377     1.105818     2.779728
C       -0.367584     1.139819     4.165221
C       -0.000008    -0.000002     4.889815
C       -0.000011    -0.000005     6.361181
C        0.708871     0.973330     7.085147
C        0.709853     0.973557     8.482742
C       -0.000017    -0.000011     9.180635
C       -0.709883    -0.973577     8.482735
C       -0.708894    -0.973344     7.085139
C        0.367575    -1.139820     4.165220
C        0.358377    -1.105818     2.779727
H       -0.637755     1.956404     2.187847
H       -0.673734     2.051556     4.667931
H        1.280544     1.736619     6.560884
H        1.267820     1.732954     9.024421
H       -0.000018    -0.000014    10.267495
H       -1.267848    -1.732981     9.024408
H       -1.280563    -1.736631     6.560871
H        0.673731    -2.051555     4.667931
H        0.637766    -1.956399     2.187846
N        0.000000     0.000000    -2.070000
C        0.212190    -1.138006    -2.783383
C        0.217785    -1.167994    -4.173527
C        0.000001     0.000004    -4.926890
C        0.000000     0.000006    -6.428588
C        0.218152    -1.170370    -7.177793
C        0.219309    -1.176570    -8.581843
C        0.000002     0.000008    -9.283619
C       -0.219305     1.176584    -8.581840
C       -0.218151     1.170383    -7.177789
C       -0.217784     1.168001    -4.173527
C       -0.212190     1.138007    -2.783383
H        0.376375    -2.018573    -2.195926
H        0.397410    -2.131314    -4.631969
H        0.397055    -2.130172    -6.699276
H        0.392455    -2.105411    -9.119682
H        0.000004     0.000008   -10.369921
H       -0.392441     2.105427    -9.119680
H       -0.397049     2.130184    -6.699265
H       -0.397408     2.131324    -4.631966
H       -0.376378     2.018572    -2.195926
47
ex_0087 frame2 trans-OC-6-1-conf3
Pt       0.000000     0.000000     0.000000
Br       2.560000     0.000000     0.000000
Br      -2.560000     0.000000     0.000000
Br       0.000000     2.560000     0.000000
Br       0.000000    -2.560000     0.000000
N        0.000000     0.000000     2.070000
C       -0.627418    -0.972846     2.783383
C       -0.643955    -0.998480     4.173527
C        0.000001     0.000004     4.926890
C        0.000002     0.000005     6.428588
C       -0.645194    -1.000540     7.177793
C       -0.648614    -1.005839     8.581843
C        0.000001     0.000008     9.283619
C        0.648615     1.005855     8.581840
C        0.645199     1.000553     7.177789
C        0.643956     0.998487     4.173527
C        0.627419     0.972847     2.783383
H       -1.112899    -1.725616     2.195926
H       -1.175069    -1.821990     4.631969
H       -1.174308    -1.821068     6.699276
H       -1.160672    -1.799894     9.119682
H       -0.000001     0.000009    10.369921
H        1.160665     1.799913     9.119680
H        1.174307     1.821081     6.699265
H        1.175070     1.822000     4.631966
H        1.112901     1.725614     2.195926
N        0.000000     0.000000    -2.070000
C        0.227735     1.139914    -2.779728
C        0.232937     1.174754    -4.165221
C        0.000008    -0.000001    -4.889815
C        0.000012    -0.000003    -6.361181
C       -0.816952     0.884568    -7.085147
C       -0.817954     0.884679    -8.482742
C        0.000018    -0.000009    -9.180635
C        0.817986    -0.884696    -8.482735
C        0.816976    -0.884579    -7.085139
C       -0.232928    -1.174754    -4.165220
C       -0.227735    -1.139914    -2.779727
H        0.406599     2.017158    -2.187847
H        0.431302     2.115840    -4.667931
H       -1.473275     1.576419    -6.560884
H       -1.460212     1.574255    -9.024421
H        0.000019    -0.000012   -10.267495
H        1.460243    -1.574278    -9.024408
H        1.473295    -1.576429    -6.560871
H       -0.431299    -2.115839    -4.667931
H       -0.406610    -2.017154    -2.187846
47
ex_0087 frame3 trans-OC-6-1-conf4
Pt       0.000000     0.000000     0.000000
Br       2.560000     0.000000     0.000000
Br      -2.560000     0.000000     0.000000
Br       0.000000     2.560000     0.000000
Br       0.000000    -2.560000     0.000000
N        0.000000     0.000000     2.070000
C       -0.353598     1.091071     2.779728
C       -0.367584     1.139819     4.165221
C       -0.000008    -0.000002     4.889815
C       -0.000011    -0.000005     6.361181
C        0.708871     0.973330     7.085147
C        0.709853     0.973557     8.482742
C       -0.000017    -0.000011     9.180635
C       -0.709883    -0.973577     8.482735
C       -0.708894    -0.973344     7.085139
C        0.367575    -1.139820     4.165220
C        0.353597    -1.091070     2.779727
H       -0.637755     1.956404     2.187847
H       -0.673734     2.051556     4.667931
H        1.280544     1.736619     6.560884
H        1.267820     1.732954     9.024421
H       -0.000018    -0.000014    10.267495
H       -1.267848    -1.732981     9.024408
H       -1.280563    -1.736631     6.560871
H        0.673731    -2.051555     4.667931
H        0.637766    -1.956399     2.187846
N        0.000000     0.000000    -2.070000
C        0.601761     0.976396    -2.779728
C        0.626886     1.020451    -4.165221
C        0.000004    -0.000003    -4.889816
C        0.000007    -0.000005    -6.361182
C        0.458391    -1.113462    -7.085141
C        0.459294    -1.113922    -8.482737
C        0.000011    -0.000010    -9.180637
C       -0.459274     1.113905    -8.482742
C       -0.458373     1.113451    -7.085147
C       -0.626881    -1.020453    -4.165220
C       -0.601761    -0.976395    -2.779728
H        1.082637     1.749898    -2.187847
H        1.140111     1.833835    -4.667931
H        0.833176    -1.990360    -6.560875
H        0.821679    -1.983804    -9.024411
H        0.000012    -0.000012   -10.267496
H       -0.821655     1.983786    -9.024421
H       -0.833158     1.990350    -6.560885
H       -1.140101    -1.833839    -4.667931
H       -1.082639    -1.749895    -2.187847
47
ex_0087 frame4 trans-OC-6-1-conf5
Pt       0.000000     0.000000     0.000000
Br       2.560000     0.000000     0.000000
Br      -2.560000     0.000000     0.000000
Br       0.000000     2.560000     0.000000
Br       0.000000    -2.560000     0.000000
N        0.000000     0.000000     2.070000
C       -0.627418    -0.972846     2.783383
C       -0.643955    -0.998480     4.173527
C        0.000001     0.000004     4.926890
C        0.000002     0.000005     6.428588
C       -0.645194    -1.000540     7.177793
C       -0.648614    -1.005839     8.581843
C        0.000001     0.000008     9.283619
C        0.648615     1.005855     8.581840
C        0.645199     1.000553     7.177789
C        0.643956     0.998487     4.173527
C        0.627419     0.972847     2.783383
H       -1.112899    -1.725616     2.195926
H       -1.175069    -1.821990     4.631969
H       -1.174308    -1.821068     6.699276
H       -1.160672    -1.799894     9.119682
H       -0.000001     0.000009    10.369921
H        1.160665     1.799913     9.119680
H        1.174307     1.821081     6.699265
H        1.175070     1.822000     4.631966
H        1.112901     1.725614     2.195926
N        0.000000     0.000000    -2.070000
C        0.212190    -1.138006    -2.783383
C        0.217785    -1.167994    -4.173527
C        0.000001     0.000004    -4.926890
C        0.000000     0.000006    -6.428588
C        0.218152    -1.170370    -7.177793
C        0.219309    -1.176570    -8.581843
C        0.000002     0.000008    -9.283619
C       -0.219305     1.176584    -8.581840
C       -0.218151     1.170383    -7.177789
C       -0.217784     1.168001    -4.173527
C       -0.212190     1.138007    -2.783383
H        0.376375    -2.018573    -2.195926
H        0.397410    -2.131314    -4.631969
H        0.397055    -2.130172    -6.699276
H        0.392455    -2.105411    -9.119682
H        0.000004     0.000008   -10.369921
H       -0.392441     2.105427    -9.119680
H       -0.397049     2.130184    -6.699265
H       -0.397408     2.131324    -4.631966
H       -0.376378     2.018572    -2.195926
47
ex_0087 frame5 trans-OC-6-1-conf6
Pt       0.000000     0.000000     0.000000
Br       2.560000     0.000000     0.000000
Br      -2.560000     0.000000     0.000000
Br       0.000000     2.560000     0.000000
Br       0.000000    -2.560000     0.000000
N        0.000000     0.000000     2.070000
C       -0.405381     1.072908     2.779728
C       -0.421682     1.120933     4.165221
C       -0.000005    -0.000002     4.889816
C       -0.000008    -0.000003     6.361182
C       -0.661508    -1.006145     7.085141
C       -0.662482    -1.006425     8.482737
C       -0.000012    -0.000008     9.180637
C        0.662459     1.006412     8.482742
C        0.661489     1.006137     7.085147
C        0.421676    -1.120934     4.165220
C        0.405381    -1.072908     2.779728
H       -0.730608     1.923657     2.187847
H       -0.771095     2.016981     4.667931
H       -1.196006    -1.795908     6.560875
H       -1.183473    -1.791655     9.024411
H       -0.000015    -0.000010    10.267496
H        1.183446     1.791641     9.024421
H        1.195987     1.795902     6.560885
H        0.771086    -2.016984     4.667931
H        0.730611    -1.923655     2.187847
N        0.000000     0.000000    -2.070000
C        0.224698     1.124712    -2.779728
C        0.232937     1.174754    -4.165221
C        0.000008    -0.000001    -4.889815
C        0.000012    -0.000003    -6.361181
C       -0.816952     0.884568    -7.085147
C       -0.817954     0.884679    -8.482742
C        0.000018    -0.000009    -9.180635
C        0.817986    -0.884696    -8.482735
C        0.816976    -0.884579    -7.085139
C       -0.232928    -1.174754    -4.165220
C       -0.224697    -1.124712    -2.779727
H        0.406599     2.017158    -2.187847
H        0.431302     2.115840    -4.667931
H       -1.473275     1.576419    -6.560884
H       -1.460212     1.574255    -9.024421
H        0.000019    -0.000012   -10.267495
H        1.460243    -1.574278    -9.024408
H        1.473295    -1.576429    -6.560871
H       -0.431299    -2.115839    -4.667931
H       -0.406610    -2.017154    -2.187846
47
ex_0087 frame6 trans-OC-6-1-conf7
Pt       0.000000     0.000000     0.000000
Br       2.560000     0.000000     0.000000
Br      -2.560000     0.000000     0.000000
Br       0.000000     2.560000     0.000000
Br       0.000000    -2.560000     0.000000
N        0.000000     0.000000     2.070000
C       -0.353598     1.091071     2.779728
C       -0.367584     1.139819     4.165221
C       -0.000008    -0.000002     4.889815
C       -0.000011    -0.000005     6.361181
C        0.708871     0.973330     7.085147
C        0.709853     0.973557     8.482742
C       -0.000017    -0.000011     9.180635
C       -0.709883    -0.973577     8.482735
C       -0.708894    -0.973344     7.085139
C        0.367575    -1.139820     4.165220
C        0.353597    -1.091070     2.779727
H       -0.637755     1.956404     2.187847
H       -0.673734     2.051556     4.667931
H        1.280544     1.736619     6.560884
H        1.267820     1.732954     9.024421
H       -0.000018    -0.000014    10.267495
H       -1.267848    -1.732981     9.024408
H       -1.280563    -1.736631     6.560871
H        0.673731    -2.051555     4.667931
H        0.637766    -1.956399     2.187846
N        0.000000     0.000000    -2.070000
C       -0.284481     1.111098    -2.779728
C       -0.295382     1.160627    -4.165221
C       -0.000006    -0.000002    -4.889816
C       -0.000017    -0.000004    -6.361181
C        0.768490     0.926973    -7.085151
C        0.769473     0.927142    -8.482746
C       -0.000043    -0.000004    -9.180636
C       -0.769543    -0.927153    -8.482733
C       -0.768533    -0.926985    -7.085137
C        0.295375    -1.160628    -4.165220
C        0.284481    -1.111096    -2.779727
H       -0.513818     1.992545    -2.187848
H       -0.543759     2.089766    -4.667931
H        1.386902     1.652910    -6.560892
H        1.373948     1.650066    -9.024428
H       -0.000053    -0.000004   -10.267496
H       -1.374023    -1.650081    -9.024404
H       -1.386928    -1.652931    -6.560867
H        0.543744    -2.089771    -4.667930
H        0.513816    -1.992545    -2.187846
47
ex_0087 frame7 trans-OC-6-1-conf8
Pt       0.000000     0.000000     0.000000
Br       2.560000     0.000000     0.000000
Br      -2.560000     0.000000     0.000000
Br       0.000000     2.560000     0.000000
Br       0.000000    -2.560000     0.000000
N        0.000000     0.000000     2.070000
C       -0.627418    -0.972846     2.783383
C       -0.643955    -0.998480     4.173527
C        0.000001     0.000004     4.926890
C        0.000002     0.000005     6.428588
C       -0.645194    -1.000540     7.177793
C       -0.648614    -1.005839     8.581843
C        0.000001     0.000008     9.283619
C        0.648615     1.005855     8.581840
C        0.645199     1.000553     7.177789
C        0.643956     0.998487     4.173527
C        0.627419     0.972847     2.783383
H       -1.112899    -1.725616     2.195926
H       -1.175069    -1.821990     4.631969
H       -1.174308    -1.821068     6.699276
H       -1.160672    -1.799894     9.119682
H       -0.000001     0.000009    10.369921
H        1.160665     1.799913     9.119680
H        1.174307     1.821081     6.699265
H        1.175070     1.822000     4.631966
H        1.112901     1.725614     2.195926
N        0.000000     0.000000    -2.070000
C        0.609895     0.989593    -2.779728
C        0.626886     1.020451    -4.165221
C        0.000004    -0.000003    -4.889816
C        0.000007    -0.000005    -6.361182
C        0.458391    -1.113462    -7.085141
C        0.459294    -1.113922    -8.482737
C        0.000011    -0.000010    -9.180637
C       -0.459274     1.113905    -8.482742
C       -0.458373     1.113451    -7.085147
C       -0.626881    -1.020453    -4.165220
C       -0.609895    -0.989593    -2.779728
H        1.082637     1.749898    -2.187847
H        1.140111     1.833835    -4.667931
H        0.833176    -1.990360    -6.560875
H        0.821679    -1.983804    -9.024411
H        0.000012    -0.000012   -10.267496
H       -0.821655     1.983786    -9.024421
H       -0.833158     1.990350    -6.560885
H       -1.140101    -1.833839    -4.667931
H       -1.082639    -1.749895    -2.187847
47
ex_0087 frame8 trans-OC-6-1-conf9
Pt       0.000000     0.000000     0.000000
Br       2.560000     0.000000     0.000000
Br      -2.560000     0.000000     0.000000
Br       0.000000     2.560000     0.000000
Br       0.000000    -2.560000     0.000000
N        0.000000     0.000000     2.070000
C       -0.410860     1.087410     2.779728
C       -0.421682     1.120933     4.165221
C       -0.000005    -0.000002     4.889816
C       -0.000008    -0.000003     6.361182
C       -0.661508    -1.006145     7.085141
C       -0.662482    -1.006425     8.482737
C       -0.000012    -0.000008     9.180637
C        0.662459     1.006412     8.482742
C        0.661489     1.006137     7.085147
C        0.421676    -1.120934     4.165220
C        0.410860    -1.087410     2.779728
H       -0.730608     1.923657     2.187847
H       -0.771095     2.016981     4.667931
H       -1.196006    -1.795908     6.560875
H       -1.183473    -1.791655     9.024411
H       -0.000015    -0.000010    10.267496
H        1.183446     1.791641     9.024421
H        1.195987     1.795902     6.560885
H        0.771086    -2.016984     4.667931
H        0.730611    -1.923655     2.187847
N        0.000000     0.000000    -2.070000
C        0.212190    -1.138006    -2.783383
C        0.217785    -1.167994    -4.173527
C        0.000001     0.000004    -4.926890
C        0.000000     0.000006    -6.428588
C        0.218152    -1.170370    -7.177793
C        0.219309    -1.176570    -8.581843
C        0.000002     0.000008    -9.283619
C       -0.219305     1.176584    -8.581840
C       -0.218151     1.170383    -7.177789
C       -0.217784     1.168001    -4.173527
C       -0.212190     1.138007    -2.783383
H        0.376375    -2.018573    -2.195926
H        0.397410    -2.131314    -4.631969
H        0.397055    -2.130172    -6.699276
H        0.392455    -2.105411    -9.119682
H        0.000004     0.000008   -10.369921
H       -0.392441     2.105427    -9.119680
H       -0.397049     2.130184    -6.699265
H       -0.397408     2.131324    -4.631966
H       -0.376378     2.018572    -2.195926
47
ex_0087 frame9 trans-OC-6-1-conf10
Pt       0.000000     0.000000     0.000000
Br       2.560000     0.000000     0.000000
Br      -2.560000     0.000000     0.000000
Br       0.000000     2.560000     0.000000
Br       0.000000    -2.560000     0.000000
N        0.000000     0.000000     2.070000
C       -0.385244     1.080303     2.779728
C       -0.403893     1.127464     4.165221
C        0.000006     0.000002     4.889816
C        0.000016     0.000006     6.361181
C       -1.155392     0.339005     7.085151
C       -1.156302     0.338596     8.482746
C        0.000038     0.000021     9.180636
C        1.156366    -0.338567     8.482733
C        1.155435    -0.338991     7.085137
C        0.403899    -1.127461     4.165220
C        0.385244    -1.080302     2.779727
H       -0.687833     1.939364     2.187848
H       -0.717355     2.036713     4.667931
H       -2.073964     0.595217     6.560892
H       -2.061633     0.600100     9.024428
H        0.000046     0.000026    10.267496
H        2.061704    -0.600072     9.024404
H        2.073997    -0.595220     6.560867
H        0.717371    -2.036708     4.667930
H        0.687834    -1.939362     2.187846
N        0.000000     0.000000    -2.070000
C        0.224698     1.124712    -2.779728
C        0.232937     1.174754    -4.165221
C        0.000008    -0.000001    -4.889815
C        0.000012    -0.000003    -6.361181
C       -0.816952     0.884568    -7.085147
C       -0.817954     0.884679    -8.482742
C        0.000018    -0.000009    -9.180635
C        0.817986    -0.884696    -8.482735
C        0.816976    -0.884579    -7.085139
C       -0.232928    -1.174754    -4.165220
C       -0.224697    -1.124712    -2.779727
H        0.406599     2.017158    -2.187847
H        0.431302     2.115840    -4.667931
H       -1.473275     1.576419    -6.560884
H       -1.460212     1.574255    -9.024421
H        0.000019    -0.000012   -10.267495
H        1.460243    -1.574278    -9.024408
H        1.473295    -1.576429    -6.560871
H       -0.431299    -2.115839    -4.667931
H       -0.406610    -2.017154    -2.187846
47
ex_0087 frame10 cis-OC-6-2
Pt       0.000000     0.000000     0.000000
Br       2.560000     0.000000     0.000000
Br      -2.560000     0.000000     0.000000
Br       0.000000     2.560000     0.000000
N        0.000000    -2.070000     0.000000
C        1.125137    -2.779728     0.222562
C        1.175194    -4.165221     0.230706
C       -0.000001    -4.889815     0.000008
C       -0.000003    -6.361181     0.000012
C        0.883015    -7.085147    -0.818630
C        0.883125    -8.482742    -0.819631
C       -0.000009    -9.180635     0.000018
C       -0.883141    -8.482735     0.819664
C       -0.883027    -7.085139     0.818654
C       -1.175194    -4.165220    -0.230698
C       -1.125136    -2.779727    -0.222562
H        2.017926    -2.187847     0.402769
H        2.116655    -4.667931     0.427285
H        1.573620    -6.560884    -1.476265
H        1.571480    -9.024421    -1.463198
H       -0.000012   -10.267495     0.000019
H       -1.571503    -9.024408     1.463229
H       -1.573630    -6.560871     1.476285
H       -2.116653    -4.667931    -0.427282
H       -2.017922    -2.187846    -0.402781
Br       0.000000     0.000000     2.560000
N        0.000000     0.000000    -2.070000
C        0.224698     1.124712    -2.779728
C        0.232937     1.174754    -4.165221
C        0.000008    -0.000001    -4.889815
C        0.000012    -0.000003    -6.361181
C       -0.816952     0.884568    -7.085147
C       -0.817954     0.884679    -8.482742
C        0.000018    -0.000009    -9.180635
C        0.817986    -0.884696    -8.482735
C        0.816976    -0.884579    -7.085139
C       -0.232928    -1.174754    -4.165220
C       -0.224697    -1.124712    -2.779727
H        0.406599     2.017158    -2.187847
H        0.431302     2.115840    -4.667931
H       -1.473275     1.576419    -6.560884
H       -1.460212     1.574255    -9.024421
H        0.000019    -0.000012   -10.267495
H        1.460243    -1.574278    -9.024408
H        1.473295    -1.576429    -6.560871
H       -0.431299    -2.115839    -4.667931
H       -0.406610    -2.017154    -2.187846
47
ex_0087 frame11 cis-OC-6-2-conf2
Pt       0.000000     0.000000     0.000000
Br       2.560000     0.000000     0.000000
Br      -2.560000     0.000000     0.000000
Br       0.000000     2.560000     0.000000
N        0.000000    -2.070000     0.000000
C        1.140345    -2.779728     0.225570
C        1.175194    -4.165221     0.230706
C       -0.000001    -4.889815     0.000008
C       -0.000003    -6.361181     0.000012
C        0.883015    -7.085147    -0.818630
C        0.883125    -8.482742    -0.819631
C       -0.000009    -9.180635     0.000018
C       -0.883141    -8.482735     0.819664
C       -0.883027    -7.085139     0.818654
C       -1.175194    -4.165220    -0.230698
C       -1.140344    -2.779727    -0.225570
H        2.017926    -2.187847     0.402769
H        2.116655    -4.667931     0.427285
H        1.573620    -6.560884    -1.476265
H        1.571480    -9.024421    -1.463198
H       -0.000012   -10.267495     0.000019
H       -1.571503    -9.024408     1.463229
H       -1.573630    -6.560871     1.476285
H       -2.116653    -4.667931    -0.427282
H       -2.017922    -2.187846    -0.402781
Br       0.000000     0.000000     2.560000
N        0.000000     0.000000    -2.070000
C        0.212190    -1.138006    -2.783383
C        0.217785    -1.167994    -4.173527
C        0.000001     0.000004    -4.926890
C        0.000000     0.000006    -6.428588
C        0.218152    -1.170370    -7.177793
C        0.219309    -1.176570    -8.581843
C        0.000002     0.000008    -9.283619
C       -0.219305     1.176584    -8.581840
C       -0.218151     1.170383    -7.177789
C       -0.217784     1.168001    -4.173527
C       -0.212190     1.138007    -2.783383
H        0.376375    -2.018573    -2.195926
H        0.397410    -2.131314    -4.631969
H        0.397055    -2.130172    -6.699276
H        0.392455    -2.105411    -9.119682
H        0.000004     0.000008   -10.369921
H       -0.392441     2.105427    -9.119680
H       -0.397049     2.130184    -6.699265
H       -0.397408     2.131324    -4.631966
H       -0.376378     2.018572    -2.195926
47
ex_0087 frame12 cis-OC-6-2-conf3
Pt       0.000000     0.000000     0.000000
Br       2.560000     0.000000     0.000000
Br      -2.560000     0.000000     0.000000
Br       0.000000     2.560000     0.000000
N        0.000000    -2.070000     0.000000
C        1.125137    -2.779728     0.222562
C        1.175194    -4.165221     0.230706
C       -0.000001    -4.889815     0.000008
C       -0.000003    -6.361181     0.000012
C        0.883015    -7.085147    -0.818630
C        0.883125    -8.482742    -0.819631
C       -0.000009    -9.180635     0.000018
C       -0.883141    -8.482735     0.819664
C       -0.883027    -7.085139     0.818654
C       -1.175194    -4.165220    -0.230698
C       -1.125136    -2.779727    -0.222562
H        2.017926    -2.187847     0.402769
H        2.116655    -4.667931     0.427285
H        1.573620    -6.560884    -1.476265
H        1.571480    -9.024421    -1.463198
H       -0.000012   -10.267495     0.000019
H       -1.571503    -9.024408     1.463229
H       -1.573630    -6.560871     1.476285
H       -2.116653    -4.667931    -0.427282
H       -2.017922    -2.187846    -0.402781
Br       0.000000     0.000000     2.560000
N        0.000000     0.000000    -2.070000
C        0.601761     0.976396    -2.779728
C        0.626886     1.020451    -4.165221
C        0.000004    -0.000003    -4.889816
C        0.000007    -0.000005    -6.361182
C        0.458391    -1.113462    -7.085141
C        0.459294    -1.113922    -8.482737
C        0.000011    -0.000010    -9.180637
C       -0.459274     1.113905    -8.482742
C       -0.458373     1.113451    -7.085147
C       -0.626881    -1.020453    -4.165220
C       -0.601761    -0.976395    -2.779728
H        1.082637     1.749898    -2.187847
H        1.140111     1.833835    -4.667931
H        0.833176    -1.990360    -6.560875
H        0.821679    -1.983804    -9.024411
H        0.000012    -0.000012   -10.267496
H       -0.821655     1.983786    -9.024421
H       -0.833158     1.990350    -6.560885
H       -1.140101    -1.833839    -4.667931
H       -1.082639    -1.749895    -2.187847
47
ex_0087 frame13 cis-OC-6-2-conf4
Pt       0.000000     0.000000     0.000000
Br       2.560000     0.000000     0.000000
Br      -2.560000     0.000000     0.000000
Br       0.000000     2.560000     0.000000
N        0.000000    -2.070000     0.000000
C        0.983294    -2.779728    -0.590422
C        1.025861    -4.165221    -0.617993
C        0.000003    -4.889816     0.000004
C        0.000004    -6.361182     0.000008
C       -0.104848    -7.085141     1.199553
C       -0.104257    -8.482737     1.200377
C        0.000005    -9.180637     0.000014
C        0.104267    -8.482742    -1.200352
C        0.104858    -7.085147    -1.199534
C       -1.025857    -4.165220     0.617998
C       -0.983294    -2.779728     0.590422
H        1.765955    -2.187847    -1.056242
H        1.855585    -4.667931    -1.104358
H       -0.175179    -6.560875     2.150587
H       -0.182375    -9.024411     2.139480
H        0.000005   -10.267496     0.000017
H        0.182387    -9.024421    -2.139453
H        0.175190    -6.560885    -2.150571
H       -1.855579    -4.667931     1.104366
H       -1.765956    -2.187847     1.056239
Br       0.000000     0.000000     2.560000
N        0.000000     0.000000    -2.070000
C        0.224698     1.124712    -2.779728
C        0.232937     1.174754    -4.165221
C        0.000008    -0.000001    -4.889815
C        0.000012    -0.000003    -6.361181
C       -0.816952     0.884568    -7.085147
C       -0.817954     0.884679    -8.482742
C        0.000018    -0.000009    -9.180635
C        0.817986    -0.884696    -8.482735
C        0.816976    -0.884579    -7.085139
C       -0.232928    -1.174754    -4.165220
C       -0.224697    -1.124712    -2.779727
H        0.406599     2.017158    -2.187847
H        0.431302     2.115840    -4.667931
H       -1.473275     1.576419    -6.560884
H       -1.460212     1.574255    -9.024421
H        0.000019    -0.000012   -10.267495
H        1.460243    -1.574278    -9.024408
H        1.473295    -1.576429    -6.560871
H       -0.431299    -2.115839    -4.667931
H       -0.406610    -2.017154    -2.187846
47
ex_0087 frame14 cis-OC-6-2-conf5
Pt       0.000000     0.000000     0.000000
Br       2.560000     0.000000     0.000000
Br      -2.560000     0.000000     0.000000
Br       0.000000     2.560000     0.000000
N        0.000000    -2.070000     0.000000
C        1.125137    -2.779728     0.222562
C        1.175194    -4.165221     0.230706
C       -0.000001    -4.889815     0.000008
C       -0.000003    -6.361181     0.000012
C        0.883015    -7.085147    -0.818630
C        0.883125    -8.482742    -0.819631
C       -0.000009    -9.180635     0.000018
C       -0.883141    -8.482735     0.819664
C       -0.883027    -7.085139     0.818654
C       -1.175194    -4.165220    -0.230698
C       -1.125136    -2.779727    -0.222562
H        2.017926    -2.187847     0.402769
H        2.116655    -4.667931     0.427285
H        1.573620    -6.560884    -1.476265
H        1.571480    -9.024421    -1.463198
H       -0.000012   -10.267495     0.000019
H       -1.571503    -9.024408     1.463229
H       -1.573630    -6.560871     1.476285
H       -2.116653    -4.667931    -0.427282
H       -2.017922    -2.187846    -0.402781
Br       0.000000     0.000000     2.560000
N        0.000000     0.000000    -2.070000
C       -0.284481     1.111098    -2.779728
C       -0.295382     1.160627    -4.165221
C       -0.000006    -0.000002    -4.889816
C       -0.000017    -0.000004    -6.361181
C        0.768490     0.926973    -7.085151
C        0.769473     0.927142    -8.482746
C       -0.000043    -0.000004    -9.180636
C       -0.769543    -0.927153    -8.482733
C       -0.768533    -0.926985    -7.085137
C        0.295375    -1.160628    -4.165220
C        0.284481    -1.111096    -2.779727
H       -0.513818     1.992545    -2.187848
H       -0.543759     2.089766    -4.667931
H        1.386902     1.652910    -6.560892
H        1.373948     1.650066    -9.024428
H       -0.000053    -0.000004   -10.267496
H       -1.374023    -1.650081    -9.024404
H       -1.386928    -1.652931    -6.560867
H        0.543744    -2.089771    -4.667930
H        0.513816    -1.992545    -2.187846
47
ex_0087 frame15 cis-OC-6-2-conf6
Pt       0.000000     0.000000     0.000000
Br       2.560000     0.000000     0.000000
Br      -2.560000     0.000000     0.000000
Br       0.000000     2.560000     0.000000
N        0.000000    -2.070000     0.000000
C       -1.016524    -2.779728    -0.563867
C       -1.048128    -4.165221    -0.579425
C        0.000002    -4.889816    -0.000004
C        0.000005    -6.361182    -0.000008
C        1.091267    -7.085141    -0.508976
C        1.091685    -8.482737    -0.509899
C        0.000010    -9.180637    -0.000011
C       -1.091669    -8.482742     0.509878
C       -1.091256    -7.085147     0.508958
C        1.048130    -4.165220     0.579419
C        1.016524    -2.779728     0.563867
H       -1.797710    -2.187847    -1.001241
H       -1.884194    -4.667931    -1.054805
H        1.950053    -6.560875    -0.923584
H        1.944032    -9.024411    -0.911799
H        0.000012   -10.267496    -0.000013
H       -1.944014    -9.024421     0.911774
H       -1.950044    -6.560885     0.923566
H        1.884199    -4.667931     1.054795
H        1.797707    -2.187847     1.001243
Br       0.000000     0.000000     2.560000
N        0.000000     0.000000    -2.070000
C        0.212190    -1.138006    -2.783383
C        0.217785    -1.167994    -4.173527
C        0.000001     0.000004    -4.926890
C        0.000000     0.000006    -6.428588
C        0.218152    -1.170370    -7.177793
C        0.219309    -1.176570    -8.581843
C        0.000002     0.000008    -9.283619
C       -0.219305     1.176584    -8.581840
C       -0.218151     1.170383    -7.177789
C       -0.217784     1.168001    -4.173527
C       -0.212190     1.138007    -2.783383
H        0.376375    -2.018573    -2.195926
H        0.397410    -2.131314    -4.631969
H        0.397055    -2.130172    -6.699276
H        0.392455    -2.105411    -9.119682
H        0.000004     0.000008   -10.369921
H       -0.392441     2.105427    -9.119680
H       -0.397049     2.130184    -6.699265
H       -0.397408     2.131324    -4.631966
H       -0.376378     2.018572    -2.195926
47
ex_0087 frame16 cis-OC-6-2-conf7
Pt       0.000000     0.000000     0.000000
Br       2.560000     0.000000     0.000000
Br      -2.560000     0.000000     0.000000
Br       0.000000     2.560000     0.000000
N        0.000000    -2.070000     0.000000
C        1.012986    -2.779728    -0.537892
C        1.058560    -4.165221    -0.560139
C       -0.000003    -4.889816    -0.000006
C       -0.000008    -6.361181    -0.000015
C        1.081749    -7.085151     0.528842
C        1.082145    -8.482746     0.529758
C       -0.000014    -9.180636    -0.000041
C       -1.082172    -8.482733    -0.529823
C       -1.081771    -7.085137    -0.528881
C       -1.058562    -4.165220     0.560133
C       -1.012984    -2.779727     0.537891
H        1.815740    -2.187848    -0.968160
H        1.903188    -4.667931    -1.020133
H        1.932798    -6.560892     0.959114
H        1.926986    -9.024428     0.947193
H       -0.000017   -10.267496    -0.000051
H       -1.927019    -9.024404    -0.947262
H       -1.932825    -6.560867    -0.959134
H       -1.903197    -4.667930     1.020119
H       -1.815740    -2.187846     0.968158
Br       0.000000     0.000000     2.560000
N        0.000000     0.000000    -2.070000
C        0.224698     1.124712    -2.779728
C        0.232937     1.174754    -4.165221
C        0.000008    -0.000001    -4.889815
C        0.000012    -0.000003    -6.361181
C       -0.816952     0.884568    -7.085147
C       -0.817954     0.884679    -8.482742
C        0.000018    -0.000009    -9.180635
C        0.817986    -0.884696    -8.482735
C        0.816976    -0.884579    -7.085139
C       -0.232928    -1.174754    -4.165220
C       -0.224697    -1.124712    -2.779727
H        0.406599     2.017158    -2.187847
H        0.431302     2.115840    -4.667931
H       -1.473275     1.576419    -6.560884
H       -1.460212     1.574255    -9.024421
H        0.000019    -0.000012   -10.267495
H        1.460243    -1.574278    -9.024408
H        1.473295    -1.576429    -6.560871
H       -0.431299    -2.115839    -4.667931
H       -0.406610    -2.017154    -2.187846
47
ex_0087 frame17 cis-OC-6-2-conf8
Pt       0.000000     0.000000     0.000000
Br       2.560000     0.000000     0.000000
Br      -2.560000     0.000000     0.000000
Br       0.000000     2.560000     0.000000
N        0.000000    -2.070000     0.000000
C        0.796977    -2.779728    -0.824799
C        0.830957    -4.165221    -0.862448
C        0.000004    -4.889816     0.000003
C        0.000006    -6.361182     0.000006
C        0.209192    -7.085141     1.185816
C        0.209976    -8.482737     1.186459
C        0.000008    -9.180637     0.000012
C       -0.209960    -8.482742    -1.186437
C       -0.209177    -7.085147    -1.185801
C       -0.830952    -4.165220     0.862451
C       -0.796977    -2.779728     0.824799
H        1.432406    -2.187847    -1.477314
H        1.506528    -4.667931    -1.546989
H        0.387403    -6.560875     2.122648
H        0.377578    -9.024411     2.113781
H        0.000010   -10.267496     0.000015
H       -0.377558    -9.024421    -2.113758
H       -0.387388    -6.560885    -2.122635
H       -1.506520    -4.667931     1.546995
H       -1.432408    -2.187847     1.477311
Br       0.000000     0.000000     2.560000
N        0.000000     0.000000    -2.070000
C        0.601761     0.976396    -2.779728
C        0.626886     1.020451    -4.165221
C        0.000004    -0.000003    -4.889816
C        0.000007    -0.000005    -6.361182
C        0.458391    -1.113462    -7.085141
C        0.459294    -1.113922    -8.482737
C        0.000011    -0.000010    -9.180637
C       -0.459274     1.113905    -8.482742
C       -0.458373     1.113451    -7.085147
C       -0.626881    -1.020453    -4.165220
C       -0.601761    -0.976395    -2.779728
H        1.082637     1.749898    -2.187847
H        1.140111     1.833835    -4.667931
H        0.833176    -1.990360    -6.560875
H        0.821679    -1.983804    -9.024411
H        0.000012    -0.000012   -10.267496
H       -0.821655     1.983786    -9.024421
H       -0.833158     1.990350    -6.560885
H       -1.140101    -1.833839    -4.667931
H       -1.082639    -1.749895    -2.187847
47
ex_0087 frame18 cis-OC-6-2-conf9
Pt       0.000000     0.000000     0.000000
Br       2.560000     0.000000     0.000000
Br      -2.560000     0.000000     0.000000
Br       0.000000     2.560000     0.000000
N        0.000000    -2.070000     0.000000
C       -1.111458    -2.779728    -0.340483
C       -1.144593    -4.165221    -0.352437
C       -0.000002    -4.889816     0.000006
C       -0.000005    -6.361181     0.000016
C       -0.390964    -7.085151    -1.138860
C       -0.390597    -8.482746    -1.139788
C       -0.000019    -9.180636     0.000039
C        0.390570    -8.482733     1.139853
C        0.390952    -7.085137     1.138903
C        1.144590    -4.165220     0.352443
C        1.111457    -2.779727     0.340482
H       -1.968515    -2.187848    -0.599330
H       -2.067100    -4.667931    -0.624414
H       -0.688498    -6.560892    -2.044891
H       -0.692818    -9.024428    -2.032352
H       -0.000024   -10.267496     0.000048
H        0.692793    -9.024404     2.032424
H        0.688503    -6.560867     2.044924
H        2.067096    -4.667930     0.624430
H        1.968513    -2.187846     0.599331
Br       0.000000     0.000000     2.560000
N        0.000000     0.000000    -2.070000
C        0.212190    -1.138006    -2.783383
C        0.217785    -1.167994    -4.173527
C        0.000001     0.000004    -4.926890
C        0.000000     0.000006    -6.428588
C        0.218152    -1.170370    -7.177793
C        0.219309    -1.176570    -8.581843
C        0.000002     0.000008    -9.283619
C       -0.219305     1.176584    -8.581840
C       -0.218151     1.170383    -7.177789
C       -0.217784     1.168001    -4.173527
C       -0.212190     1.138007    -2.783383
H        0.376375    -2.018573    -2.195926
H        0.397410    -2.131314    -4.631969
H        0.397055    -2.130172    -6.699276
H        0.392455    -2.105411    -9.119682
H        0.000004     0.000008   -10.369921
H       -0.392441     2.105427    -9.119680
H       -0.397049     2.130184    -6.699265
H       -0.397408     2.131324    -4.631966
H       -0.376378     2.018572    -2.195926
47
ex_0087 frame19 cis-OC-6-2-conf10
Pt       0.000000     0.000000     0.000000
Br       2.560000     0.000000     0.000000
Br      -2.560000     0.000000     0.000000
Br       0.000000     2.560000     0.000000
N        0.000000    -2.070000     0.000000
C        1.140345    -2.779728     0.225570
C        1.175194    -4.165221     0.230706
C       -0.000001    -4.889815     0.000008
C       -0.000003    -6.361181     0.000012
C        0.883015    -7.085147    -0.818630
C        0.883125    -8.482742    -0.819631
C       -0.000009    -9.180635     0.000018
C       -0.883141    -8.482735     0.819664
C       -0.883027    -7.085139     0.818654
C       -1.175194    -4.165220    -0.230698
C       -1.140344    -2.779727    -0.225570
H        2.017926    -2.187847     0.402769
H        2.116655    -4.667931     0.427285
H        1.573620    -6.560884    -1.476265
H        1.571480    -9.024421    -1.463198
H       -0.000012   -10.267495     0.000019
H       -1.571503    -9.024408     1.463229
H       -1.573630    -6.560871     1.476285
H       -2.116653    -4.667931    -0.427282
H       -2.017922    -2.187846    -0.402781
Br       0.000000     0.000000     2.560000
N        0.000000     0.000000    -2.070000
C        1.127799    -0.261064    -2.783385
C        1.157527    -0.267943    -4.173528
C        0.000008     0.000002    -4.926891
C        0.000009     0.000008    -6.428588
C        1.159819    -0.268717    -7.177790
C        1.165973    -0.270138    -8.581842
C        0.000022     0.000011    -9.283623
C       -1.165937     0.270144    -8.581845
C       -1.159798     0.268727    -7.177793
C       -1.157514     0.267943    -4.173527
C       -1.127798     0.261064    -2.783383
H        2.000466    -0.463078    -2.195932
H        2.112216    -0.488917    -4.631961
H        2.110943    -0.489109    -6.699256
H        2.086435    -0.483387    -9.119683
H        0.000023     0.000005   -10.369926
H       -2.086396     0.483403    -9.119685
H       -2.110931     0.489118    -6.699274
H       -2.112199     0.488919    -4.631966
H       -2.000468     0.463077    -2.195934
