57
ex_0276 frame0 cis-SP-4-1
Pt       0.000000     0.000000     0.000000
Cl       2.380000     0.000000     0.000000
C        1.297151     1.917839     2.430967
C        0.802006     3.043108     1.537662
P        0.000000     2.430000     0.000000
C       -1.730420     3.042789    -0.100691
C       -2.036081     4.359130     0.589047
C        0.950585     3.043688    -1.452482
C        2.105887     2.123649    -1.813441
H        0.818093     0.964337     2.185676
H        1.068875     2.143007     3.478035
H        2.381182     1.783974     2.346422
H        1.661289     3.660874     1.254004
H        0.126410     3.691792     2.103612
H       -1.989147     3.137379    -1.161689
H       -2.392207     2.270252     0.306618
H       -1.440157     5.182951     0.185416
H       -1.863546     4.307053     1.667972
H       -3.090410     4.617387     0.441504
H        0.274323     3.109811    -2.311898
H        1.339179     4.049936    -1.266585
H        2.623922     2.503012    -2.700477
H        1.757250     1.109573    -2.037980
H        2.839533     2.057398    -1.003127
C       -4.423306     1.240145     1.540665
C       -3.047381     0.602551     1.639092
P       -2.430000     0.000000     0.000000
C       -3.046009     1.113242    -1.340462
C       -3.972966     0.395864    -2.308300
C       -3.046731    -1.724682    -0.262186
C       -3.102204    -2.547058     1.011916
H       -4.424190     2.085854     0.844194
H       -4.733035     1.615064     2.521780
H       -5.181577     0.525950     1.204173
H       -3.068703    -0.220784     2.361149
H       -2.343227     1.350570     2.020157
H       -2.191827     1.488125    -1.913892
H       -3.549477     1.987617    -0.915120
H       -3.469969    -0.451123    -2.788158
H       -4.872201     0.015305    -1.816636
H       -4.292857     1.083441    -3.098338
H       -4.060530    -1.657234    -0.673217
H       -2.433667    -2.240735    -1.008926
H       -3.355811    -3.590835     0.806806
H       -3.875628    -2.150702     1.678409
H       -2.149987    -2.524838     1.552576
Se       0.000000    -2.560000     0.000000
C        0.000000    -4.331193     0.000000
C       -1.183289    -5.039850     0.002717
C       -1.240359    -6.418989     0.002847
N       -0.064013    -7.112240     0.000148
C        1.113212    -6.462966    -0.002555
C        1.168838    -5.083545    -0.002683
H       -2.109475    -4.443502     0.004841
H       -2.189602    -6.910275     0.005029
H        2.036629    -7.027501    -0.004673
H        2.115695    -4.595840    -0.004852
57
ex_0276 frame1 cis-SP-4-1-conf1
Pt       0.000000     0.000000     0.000000
Cl       2.380000     0.000000     0.000000
C        2.348047     2.710363    -1.538404
C        1.732921     3.046386    -0.191948
P        0.000000     2.430000     0.000000
C       -1.009695     3.054605    -1.427771
C       -0.400580     4.274278    -2.086675
C       -0.716001     3.057711     1.628132
C        0.255287     3.908327     2.370914
H        3.240076     2.236161    -1.463781
H        1.679548     2.048346    -2.099106
H        2.499609     3.606694    -2.146448
H        2.368560     2.655014     0.609641
H        1.720108     4.136508    -0.086472
H       -1.062828     2.235126    -2.195612
H       -2.039069     3.255379    -1.105305
H        0.101153     4.905058    -1.364276
H        0.305541     3.985162    -2.824088
H       -1.196285     4.867998    -2.555420
H       -0.928457     2.146023     2.242386
H       -1.657340     3.534487     1.442712
H        1.191457     3.384958     2.595297
H        0.506073     4.818239     1.819074
H       -0.193019     4.210422     3.323256
C       -3.044838    -2.397004     1.364744
C       -3.046386    -1.743489     0.010289
P       -2.430000     0.000000     0.000000
C       -3.047426     0.871961     1.513212
C       -2.423847     0.334251     2.790156
C       -3.059480     0.905470    -1.473012
C       -4.253992     0.162787    -2.123401
H       -3.604803    -1.776299     2.105175
H       -3.529411    -3.357347     1.351308
H       -2.018668    -2.550155     1.738408
H       -2.461198    -2.359624    -0.680860
H       -4.077991    -1.742001    -0.357737
H       -2.797775     1.935078     1.423678
H       -4.138680     0.799648     1.573329
H       -3.149335    -0.238101     3.366583
H       -1.580226    -0.226140     2.579999
H       -2.072754     1.163569     3.413116
H       -2.292532     0.965848    -2.225840
H       -3.370192     1.921033    -1.213984
H       -3.979892    -0.815924    -2.438603
H       -5.119773     0.096902    -1.419565
H       -4.604724     0.732718    -3.015106
Se       0.000000    -2.560000     0.000000
C        0.000000    -4.331193     0.000000
C       -0.595485    -5.039795    -1.025964
C       -0.624055    -6.418936    -1.075188
N       -0.032135    -7.112240    -0.055362
C        0.560228    -6.463019     0.965222
C        0.588231    -5.083600     1.013467
H       -1.054782    -4.460021    -1.818949
H       -1.099157    -6.910275    -1.893737
H        1.022361    -7.027501     1.761436
H        1.062050    -4.595840     1.829819
57
ex_0276 frame2 cis-SP-4-1-conf2
Pt       0.000000     0.000000     0.000000
Cl       2.380000     0.000000     0.000000
C        2.348047     2.710363    -1.538404
C        1.732921     3.046386    -0.191948
P        0.000000     2.430000     0.000000
C       -1.009695     3.054605    -1.427771
C       -0.400580     4.274278    -2.086675
C       -0.716001     3.057711     1.628132
C        0.255287     3.908327     2.370914
H        3.240076     2.236161    -1.463781
H        1.679548     2.048346    -2.099106
H        2.499609     3.606694    -2.146448
H        2.368560     2.655014     0.609641
H        1.720108     4.136508    -0.086472
H       -1.062828     2.235126    -2.195612
H       -2.039069     3.255379    -1.105305
H        0.101153     4.905058    -1.364276
H        0.305541     3.985162    -2.824088
H       -1.196285     4.867998    -2.555420
H       -0.928457     2.146023     2.242386
H       -1.657340     3.534487     1.442712
H        1.191457     3.384958     2.595297
H        0.506073     4.818239     1.819074
H       -0.193019     4.210422     3.323256
C       -3.044838    -2.397004     1.364744
C       -3.046386    -1.743489     0.010289
P       -2.430000     0.000000     0.000000
C       -3.047426     0.871961     1.513212
C       -2.423847     0.334251     2.790156
C       -3.059480     0.905470    -1.473012
C       -4.253992     0.162787    -2.123401
H       -3.604803    -1.776299     2.105175
H       -3.529411    -3.357347     1.351308
H       -2.018668    -2.550155     1.738408
H       -2.461198    -2.359624    -0.680860
H       -4.077991    -1.742001    -0.357737
H       -2.797775     1.935078     1.423678
H       -4.138680     0.799648     1.573329
H       -3.143890    -0.241899     3.377146
H       -1.580226    -0.226140     2.579999
H       -2.072754     1.163569     3.413116
H       -2.292532     0.965848    -2.225840
H       -3.370192     1.921033    -1.213984
H       -3.979892    -0.815924    -2.438603
H       -5.119773     0.096902    -1.419565
H       -4.604724     0.732718    -3.015106
Se       0.000000    -2.560000     0.000000
C        0.000000    -4.355658     0.000000
C        0.644454    -5.030256     1.018036
C        0.677878    -6.424689     1.071019
N        0.054161    -7.077989     0.085924
C       -0.588050    -6.469827    -0.928557
C       -0.636019    -5.091178    -1.004521
H        1.137194    -4.427554     1.796312
H        1.197044    -6.895452     1.891130
H       -1.081137    -7.042252    -1.707255
H       -1.138128    -4.581205    -1.797492
57
ex_0276 frame3 trans-SP-4-2
Pt       0.000000     0.000000     0.000000
Cl       2.380000     0.000000     0.000000
C        0.825696     2.557243     2.675172
C        1.172655     3.043108     1.277693
P        0.000000     2.430000     0.000000
C       -1.697518     3.042789     0.350606
C       -1.885098     4.546497     0.425437
C        0.542265     3.043688    -1.649020
C        1.804847     2.349179    -2.133816
H       -0.144508     2.939851     3.008558
H        1.580518     2.902164     3.389618
H        0.793642     1.463301     2.724712
H        2.175327     2.680045     1.026103
H        1.227378     4.136033     1.271328
H       -2.361633     2.647350    -0.426687
H       -2.034482     2.598880     1.294044
H       -1.613620     5.041875    -0.511379
H       -1.298182     4.993760     1.232929
H       -2.937436     4.778109     0.622956
H       -0.258843     2.858624    -2.373089
H        0.715140     4.124255    -1.624779
H        2.074940     2.715278    -3.129874
H        1.666005     1.264597    -2.202516
H        2.653307     2.540051    -1.468296
Se      -2.560000     0.000000     0.000000
C       -4.331193    -0.000000     0.000000
C       -5.039850     1.182914    -0.029918
C       -6.418989     1.239965    -0.031361
N       -7.112240     0.063992    -0.001617
C       -6.462966    -1.112859     0.028147
C       -5.083545    -1.168467     0.029553
H       -4.443502     2.108806    -0.053337
H       -6.910275     2.188908    -0.055358
H       -7.027501    -2.035983     0.051496
H       -4.595840    -2.115024     0.053497
C        2.181679    -2.479062    -1.787871
C        1.678125    -3.046386    -0.473029
P        0.000000    -2.430000     0.000000
C       -0.418712    -3.047426     1.695526
C        0.451650    -2.423847     2.773572
C       -1.271275    -3.046206    -1.192456
C       -1.442030    -2.122203    -2.386979
H        3.182329    -2.045274    -1.687757
H        2.233824    -3.272619    -2.540927
H        1.510407    -1.708231    -2.176858
H        1.684032    -4.140717    -0.519474
H        2.381873    -2.755959     0.314402
H       -1.465034    -2.797775     1.903959
H       -0.332578    -4.138680     1.733261
H        1.506703    -2.687340     2.647926
H        0.373330    -1.331137     2.771000
H        0.137191    -2.779343     3.760413
H       -2.234915    -3.106169    -0.673849
H       -1.027478    -4.059139    -1.529143
H       -2.465443    -1.735514    -2.448434
H       -0.763705    -1.265569    -2.349389
H       -1.236779    -2.667911    -3.313946
57
ex_0276 frame4 trans-SP-4-2-conf1
Pt       0.000000     0.000000     0.000000
Cl       2.380000     0.000000     0.000000
C       -1.913892     2.479062    -2.072010
C       -1.596728     3.046386    -0.700229
P        0.000000     2.430000     0.000000
C        0.180567     3.047426     1.737102
C       -0.830324     2.423847     2.684633
C        1.423761     3.046206    -1.005482
C        1.531570     2.344365    -2.349216
H       -2.985125     2.287794    -2.195994
H       -1.607538     3.187864    -2.848728
H       -1.374677     1.545486    -2.255804
H       -1.596164     4.140717    -0.747044
H       -2.402470     2.755959    -0.017522
H        1.188082     2.797775     2.088024
H        0.090047     4.138680     1.762581
H       -1.857919     2.687340     2.414499
H       -0.752399     1.331137     2.692900
H       -0.655150     2.779343     3.705443
H        2.349841     2.854908    -0.451467
H        1.356511     4.129644    -1.148553
H        1.660116     1.263308    -2.224842
H        0.648651     2.505420    -2.973615
H        2.400393     2.721225    -2.899050
Se      -2.560000     0.000000     0.000000
C       -4.331193    -0.000000     0.000000
C       -5.039850     1.182914    -0.029918
C       -6.418989     1.239965    -0.031361
N       -7.112240     0.063992    -0.001617
C       -6.462966    -1.112859     0.028147
C       -5.083545    -1.168467     0.029553
H       -4.443502     2.108806    -0.053337
H       -6.910275     2.188908    -0.055358
H       -7.027501    -2.035983     0.051496
H       -4.595840    -2.115024     0.053497
C        2.181679    -2.479062    -1.787871
C        1.678125    -3.046386    -0.473029
P        0.000000    -2.430000     0.000000
C       -0.418712    -3.047426     1.695526
C        0.451650    -2.423847     2.773572
C       -1.271275    -3.046206    -1.192456
C       -1.442030    -2.122203    -2.386979
H        3.182329    -2.045274    -1.687757
H        2.233824    -3.272619    -2.540927
H        1.510407    -1.708231    -2.176858
H        1.684032    -4.140717    -0.519474
H        2.381873    -2.755959     0.314402
H       -1.465034    -2.797775     1.903959
H       -0.332578    -4.138680     1.733261
H        1.506703    -2.687340     2.647926
H        0.373330    -1.331137     2.771000
H        0.137191    -2.779343     3.760413
H       -2.234915    -3.106169    -0.673849
H       -1.027478    -4.059139    -1.529143
H       -2.465443    -1.735514    -2.448434
H       -0.763705    -1.265569    -2.349389
H       -1.236779    -2.667911    -3.313946
57
ex_0276 frame5 trans-SP-4-2-conf2
Pt       0.000000     0.000000     0.000000
Cl       2.380000     0.000000     0.000000
C       -1.913892     2.479062    -2.072010
C       -1.596728     3.046386    -0.700229
P        0.000000     2.430000     0.000000
C        0.180567     3.047426     1.737102
C       -0.830324     2.423847     2.684633
C        1.423761     3.046206    -1.005482
C        1.531570     2.344365    -2.349216
H       -2.985125     2.287794    -2.195994
H       -1.607538     3.187864    -2.848728
H       -1.374677     1.545486    -2.255804
H       -1.596164     4.140717    -0.747044
H       -2.402470     2.755959    -0.017522
H        1.188082     2.797775     2.088024
H        0.090047     4.138680     1.762581
H       -1.857919     2.687340     2.414499
H       -0.752399     1.331137     2.692900
H       -0.655150     2.779343     3.705443
H        2.349841     2.854908    -0.451467
H        1.356511     4.129644    -1.148553
H        1.660116     1.263308    -2.224842
H        0.648651     2.505420    -2.973615
H        2.400393     2.721225    -2.899050
Se      -2.560000     0.000000     0.000000
C       -4.331193    -0.000000     0.000000
C       -5.039850     1.182914    -0.029918
C       -6.418989     1.239965    -0.031361
N       -7.112240     0.063992    -0.001617
C       -6.462966    -1.112859     0.028147
C       -5.083545    -1.168467     0.029553
H       -4.443502     2.108806    -0.053337
H       -6.910275     2.188908    -0.055358
H       -7.027501    -2.035983     0.051496
H       -4.595840    -2.115024     0.053497
C        0.768502    -2.557243    -2.692160
C        1.145162    -3.043108    -1.302392
P        0.000000    -2.430000     0.000000
C       -1.704604    -3.042789    -0.314353
C       -1.893735    -4.546497    -0.385169
C        0.577282    -3.043688     1.637090
C        1.849908    -2.349179     2.094871
H       -0.208587    -2.939851    -3.004795
H        1.507928    -2.902164    -3.422529
H        0.735399    -1.463301    -2.741006
H        2.152967    -2.680045    -1.072226
H        1.200008    -4.136033    -1.297195
H       -2.352004    -2.647350     0.476915
H       -2.061595    -2.598880    -1.250396
H       -1.602356    -5.041875     0.545649
H       -1.324161    -4.993760    -1.204986
H       -2.950044    -4.778109    -0.560219
H       -0.208215    -2.858624     2.378066
H        0.749601    -4.124255     1.609171
H        2.141165    -2.715278     3.084947
H        1.712562    -1.264597     2.166514
H        2.683993    -2.540051     1.411421
57
ex_0276 frame6 trans-SP-4-2-conf3
Pt       0.000000     0.000000     0.000000
Cl       2.380000     0.000000     0.000000
C       -1.913892     2.479062    -2.072010
C       -1.596728     3.046386    -0.700229
P        0.000000     2.430000     0.000000
C        0.180567     3.047426     1.737102
C       -0.830324     2.423847     2.684633
C        1.423761     3.046206    -1.005482
C        1.531570     2.344365    -2.349216
H       -2.985125     2.287794    -2.195994
H       -1.607538     3.187864    -2.848728
H       -1.374677     1.545486    -2.255804
H       -1.596164     4.140717    -0.747044
H       -2.402470     2.755959    -0.017522
H        1.188082     2.797775     2.088024
H        0.090047     4.138680     1.762581
H       -1.857919     2.687340     2.414499
H       -0.752399     1.331137     2.692900
H       -0.655150     2.779343     3.705443
H        2.349841     2.854908    -0.451467
H        1.356511     4.129644    -1.148553
H        1.660116     1.263308    -2.224842
H        0.648651     2.505420    -2.973615
H        2.400393     2.721225    -2.899050
Se      -2.560000     0.000000     0.000000
C       -4.355658     0.000000     0.000000
C       -5.030256    -1.202058    -0.082299
C       -6.424723    -1.262784    -0.086359
N       -7.077989    -0.101345    -0.006742
C       -6.469793     1.094740     0.075154
C       -5.091178     1.186158     0.081313
H       -4.427554    -2.121048    -0.145271
H       -6.895452    -2.232923    -0.152784
H       -7.042252     2.016045     0.138353
H       -4.576098     2.124398     0.145548
C        2.181679    -2.479062    -1.787871
C        1.678125    -3.046386    -0.473029
P        0.000000    -2.430000     0.000000
C       -0.418712    -3.047426     1.695526
C        0.451650    -2.423847     2.773572
C       -1.271275    -3.046206    -1.192456
C       -1.442030    -2.122203    -2.386979
H        3.182329    -2.045274    -1.687757
H        2.233824    -3.272619    -2.540927
H        1.510407    -1.708231    -2.176858
H        1.684032    -4.140717    -0.519474
H        2.381873    -2.755959     0.314402
H       -1.465034    -2.797775     1.903959
H       -0.332578    -4.138680     1.733261
H        1.506703    -2.687340     2.647926
H        0.373330    -1.331137     2.771000
H        0.137191    -2.779343     3.760413
H       -2.234915    -3.106169    -0.673849
H       -1.027478    -4.059139    -1.529143
H       -2.465443    -1.735514    -2.448434
H       -0.763705    -1.265569    -2.349389
H       -1.236779    -2.667911    -3.313946
57
ex_0276 frame7 trans-SP-4-2-conf5
Pt       0.000000     0.000000     0.000000
Cl       2.380000     0.000000     0.000000
C       -1.913892     2.479062    -2.072010
C       -1.596728     3.046386    -0.700229
P        0.000000     2.430000     0.000000
C        0.180567     3.047426     1.737102
C       -0.830324     2.423847     2.684633
C        1.423761     3.046206    -1.005482
C        1.531570     2.344365    -2.349216
H       -2.985125     2.287794    -2.195994
H       -1.607538     3.187864    -2.848728
H       -1.374677     1.545486    -2.255804
H       -1.596164     4.140717    -0.747044
H       -2.402470     2.755959    -0.017522
H        1.188082     2.797775     2.088024
H        0.090047     4.138680     1.762581
H       -1.857919     2.687340     2.414499
H       -0.752399     1.331137     2.692900
H       -0.655150     2.779343     3.705443
H        2.349841     2.854908    -0.451467
H        1.356511     4.129644    -1.148553
H        1.660116     1.263308    -2.224842
H        0.648651     2.505420    -2.973615
H        2.400393     2.721225    -2.899050
Se      -2.560000     0.000000     0.000000
C       -4.331193    -0.000000     0.000000
C       -5.039850     1.182914    -0.029918
C       -6.418989     1.239965    -0.031361
N       -7.112240     0.063992    -0.001617
C       -6.462966    -1.112859     0.028147
C       -5.083545    -1.168467     0.029553
H       -4.443502     2.108806    -0.053337
H       -6.910275     2.188908    -0.055358
H       -7.027501    -2.035983     0.051496
H       -4.595840    -2.115024     0.053497
C       -0.481850    -2.349195     2.752902
C        0.363722    -3.043688     1.697358
P        0.000000    -2.430000     0.000000
C        1.288783    -3.042789    -1.159107
C        1.412990    -4.546496    -1.318353
C       -1.657077    -3.043108    -0.511581
C       -2.062544    -2.557208    -1.893207
H       -0.327338    -1.264610     2.742173
H       -0.212540    -2.715288     3.749175
H       -1.550170    -2.540092     2.606324
H        0.202244    -4.124257     1.763638
H        1.420694    -2.858609     1.918382
H        2.254329    -2.647351    -0.823023
H        1.103764    -2.598878    -2.143681
H        2.221954    -4.778109    -2.019786
H        0.498866    -4.993756    -1.719472
H        1.651199    -5.041879    -0.372533
H       -2.395871    -2.680070     0.211504
H       -1.701107    -4.136035    -0.478507
H       -2.022730    -3.385779    -2.608081
H       -3.083964    -2.161133    -1.897010
H       -1.393461    -1.771791    -2.259647
57
ex_0276 frame8 trans-SP-4-2-conf6
Pt       0.000000     0.000000     0.000000
Cl       2.380000     0.000000     0.000000
C       -1.913892     2.479062    -2.072010
C       -1.596728     3.046386    -0.700229
P        0.000000     2.430000     0.000000
C        0.180567     3.047426     1.737102
C       -0.830324     2.423847     2.684633
C        1.423761     3.046206    -1.005482
C        1.531570     2.344365    -2.349216
H       -2.985125     2.287794    -2.195994
H       -1.607538     3.187864    -2.848728
H       -1.374677     1.545486    -2.255804
H       -1.596164     4.140717    -0.747044
H       -2.402470     2.755959    -0.017522
H        1.188082     2.797775     2.088024
H        0.090047     4.138680     1.762581
H       -1.857919     2.687340     2.414499
H       -0.752399     1.331137     2.692900
H       -0.655150     2.779343     3.705443
H        2.349841     2.854908    -0.451467
H        1.356511     4.129644    -1.148553
H        1.660116     1.263308    -2.224842
H        0.648651     2.505420    -2.973615
H        2.400393     2.721225    -2.899050
Se      -2.560000     0.000000     0.000000
C       -4.355658     0.000000     0.000000
C       -5.030256    -1.202058    -0.082299
C       -6.424723    -1.262784    -0.086359
N       -7.077989    -0.101345    -0.006742
C       -6.469793     1.094740     0.075154
C       -5.091178     1.186158     0.081313
H       -4.427554    -2.121048    -0.145271
H       -6.895452    -2.232923    -0.152784
H       -7.042252     2.016045     0.138353
H       -4.576098     2.124398     0.145548
C        0.768502    -2.557243    -2.692160
C        1.145162    -3.043108    -1.302392
P        0.000000    -2.430000     0.000000
C       -1.704604    -3.042789    -0.314353
C       -1.893735    -4.546497    -0.385169
C        0.577282    -3.043688     1.637090
C        1.849908    -2.349179     2.094871
H       -0.208587    -2.939851    -3.004795
H        1.507928    -2.902164    -3.422529
H        0.735399    -1.463301    -2.741006
H        2.152967    -2.680045    -1.072226
H        1.200008    -4.136033    -1.297195
H       -2.352004    -2.647350     0.476915
H       -2.061595    -2.598880    -1.250396
H       -1.602356    -5.041875     0.545649
H       -1.324161    -4.993760    -1.204986
H       -2.950044    -4.778109    -0.560219
H       -0.208215    -2.858624     2.378066
H        0.749601    -4.124255     1.609171
H        2.141165    -2.715278     3.084947
H        1.712562    -1.264597     2.166514
H        2.683993    -2.540051     1.411421
57
ex_0276 frame9 trans-SP-4-2-conf8
Pt       0.000000     0.000000     0.000000
Cl       2.380000     0.000000     0.000000
C        0.825696     2.557243     2.675172
C        1.172655     3.043108     1.277693
P        0.000000     2.430000     0.000000
C       -1.697518     3.042789     0.350606
C       -1.885098     4.546497     0.425437
C        0.542265     3.043688    -1.649020
C        1.804847     2.349179    -2.133816
H       -0.144508     2.939851     3.008558
H        1.580518     2.902164     3.389618
H        0.793642     1.463301     2.724712
H        2.175327     2.680045     1.026103
H        1.227378     4.136033     1.271328
H       -2.361633     2.647350    -0.426687
H       -2.034482     2.598880     1.294044
H       -1.613620     5.041875    -0.511379
H       -1.298182     4.993760     1.232929
H       -2.937436     4.778109     0.622956
H       -0.258843     2.858624    -2.373089
H        0.715140     4.124255    -1.624779
H        2.074940     2.715278    -3.129874
H        1.666005     1.264597    -2.202516
H        2.653307     2.540051    -1.468296
Se      -2.560000     0.000000     0.000000
C       -4.355658     0.000000     0.000000
C       -5.030256    -1.202058    -0.082299
C       -6.424723    -1.262784    -0.086359
N       -7.077989    -0.101345    -0.006742
C       -6.469793     1.094740     0.075154
C       -5.091178     1.186158     0.081313
H       -4.427554    -2.121048    -0.145271
H       -6.895452    -2.232923    -0.152784
H       -7.042252     2.016045     0.138353
H       -4.576098     2.124398     0.145548
C        2.181679    -2.479062    -1.787871
C        1.678125    -3.046386    -0.473029
P        0.000000    -2.430000     0.000000
C       -0.418712    -3.047426     1.695526
C        0.451650    -2.423847     2.773572
C       -1.271275    -3.046206    -1.192456
C       -1.442030    -2.122203    -2.386979
H        3.182329    -2.045274    -1.687757
H        2.233824    -3.272619    -2.540927
H        1.510407    -1.708231    -2.176858
H        1.684032    -4.140717    -0.519474
H        2.381873    -2.755959     0.314402
H       -1.465034    -2.797775     1.903959
H       -0.332578    -4.138680     1.733261
H        1.506703    -2.687340     2.647926
H        0.373330    -1.331137     2.771000
H        0.137191    -2.779343     3.760413
H       -2.234915    -3.106169    -0.673849
H       -1.027478    -4.059139    -1.529143
H       -2.465443    -1.735514    -2.448434
H       -0.763705    -1.265569    -2.349389
H       -1.236779    -2.667911    -3.313946
57
ex_0276 frame10 trans-SP-4-2-conf9
Pt       0.000000     0.000000     0.000000
Cl       2.380000     0.000000     0.000000
C       -1.300784     2.349195    -2.473582
C       -0.172879     3.043688    -1.727261
P        0.000000     2.430000     0.000000
C        1.581551     3.042789     0.709356
C        1.748514     4.546496     0.822979
C       -1.421182     3.043108     0.993911
C       -1.384620     2.557208     2.433341
H       -1.150396     1.264610    -2.510628
H       -1.349110     2.715288    -3.504481
H       -2.273070     2.540092    -2.007263
H       -0.346891     4.124257    -1.740973
H        0.765832     2.858609    -2.260987
H        2.398024     2.647351     0.094048
H        1.706550     2.598878     1.703335
H        2.733254     4.778109     1.243358
H        1.000891     4.993756     1.484476
H        1.686009     5.041879    -0.150372
H       -2.345738     2.680070     0.531455
H       -1.473219     4.136035     0.975890
H       -2.276063     2.902136     2.967676
H       -1.364061     1.463265     2.488614
H       -0.509449     2.939784     2.968637
Se      -2.560000     0.000000     0.000000
C       -4.331193    -0.000000     0.000000
C       -5.039850     1.182914    -0.029918
C       -6.418989     1.239965    -0.031361
N       -7.112240     0.063992    -0.001617
C       -6.462966    -1.112859     0.028147
C       -5.083545    -1.168467     0.029553
H       -4.443502     2.108806    -0.053337
H       -6.910275     2.188908    -0.055358
H       -7.027501    -2.035983     0.051496
H       -4.595840    -2.115024     0.053497
C        2.181679    -2.479062    -1.787871
C        1.678125    -3.046386    -0.473029
P        0.000000    -2.430000     0.000000
C       -0.418712    -3.047426     1.695526
C        0.451650    -2.423847     2.773572
C       -1.271275    -3.046206    -1.192456
C       -1.442030    -2.122203    -2.386979
H        3.182329    -2.045274    -1.687757
H        2.233824    -3.272619    -2.540927
H        1.510407    -1.708231    -2.176858
H        1.684032    -4.140717    -0.519474
H        2.381873    -2.755959     0.314402
H       -1.465034    -2.797775     1.903959
H       -0.332578    -4.138680     1.733261
H        1.506703    -2.687340     2.647926
H        0.373330    -1.331137     2.771000
H        0.137191    -2.779343     3.760413
H       -2.234915    -3.106169    -0.673849
H       -1.027478    -4.059139    -1.529143
H       -2.465443    -1.735514    -2.448434
H       -0.763705    -1.265569    -2.349389
H       -1.236779    -2.667911    -3.313946
57
ex_0276 frame11 T-4-1
Pt       0.000000     0.000000     0.000000
Cl       1.374094     1.374094     1.374094
C        3.536332    -1.187897     0.430367
C        2.720111    -2.187524    -0.368859
P        1.402961    -1.402961    -1.402961
C        0.369222    -2.729402    -2.179672
C       -0.457283    -3.495174    -1.160335
C        2.161395    -0.375261    -2.739528
C        2.436290     1.050175    -2.289649
H        3.487341    -0.183112    -0.002649
H        3.155544    -1.130306     1.455661
H        4.587194    -1.484467     0.492263
H        3.387963    -2.790275    -0.993695
H        2.236685    -2.872618     0.335841
H       -0.311197    -2.258919    -2.898167
H        1.003375    -3.423778    -2.741251
H        0.060628    -3.583484    -0.199960
H       -1.423104    -3.010432    -0.980419
H       -0.654560    -4.508977    -1.524204
H        1.463910    -0.332317    -3.583816
H        3.081274    -0.839422    -3.109939
H        1.515708     1.551951    -1.971171
H        3.144504     1.093605    -1.457840
H        2.860442     1.628116    -3.117460
C       -3.595189     1.298138     0.329183
C       -3.173393     0.998087    -1.100342
P       -1.402961     1.402961    -1.402961
C       -1.001336     1.098003    -3.170926
C       -1.758440     1.916142    -4.200180
C       -1.117074     3.170827    -0.982916
C        0.331224     3.592044    -1.168395
H       -2.989634     0.740875     1.052423
H       -4.641622     1.012342     0.478891
H       -3.505198     2.364207     0.562917
H       -3.822046     1.549820    -1.788047
H       -3.327272    -0.069241    -1.293808
H       -1.176447     0.035093    -3.373807
H        0.072819     1.262205    -3.312004
H       -1.439021     1.628967    -5.207938
H       -1.567989     2.988008    -4.093442
H       -2.838447     1.751898    -4.142445
H       -1.387701     3.322254     0.067938
H       -1.768631     3.826183    -1.569008
H        0.461415     4.633163    -0.854898
H        1.009859     2.975095    -0.569213
H        0.643768     3.520326    -2.215297
Se      -1.478017    -1.478017     1.478017
C       -2.500615    -2.500615     2.500615
C       -3.873857    -2.482266     2.373154
C       -4.716601    -3.257894     3.143520
N       -4.158409    -4.083127     4.077226
C       -2.824393    -4.133571     4.236222
C       -1.982662    -3.357258     3.465038
H       -4.284176    -1.803357     1.608839
H       -5.773652    -3.198598     2.996697
H       -2.397964    -4.793111     4.980914
H       -0.929623    -3.417754     3.612850
