87
ex_0264 frame0 OC-6-1
Ni       0.000000     0.000000     0.000000
C        6.794227     1.693478     2.696620
C        5.646702     1.675965     1.685120
C        6.047473     2.459402     0.433122
C        5.263595     0.223944     1.357166
N        4.090378     0.116354     0.620361
C        2.763724     0.182216     1.059280
N        1.950000     0.000000     0.000000
C        2.783892    -0.192620    -1.118974
N        4.109555    -0.131476    -0.760930
H        7.062362     2.721172     2.963776
H        7.687289     1.203808     2.293449
H        6.508902     1.174035     3.617564
H        4.786349     2.182429     2.141244
H        6.355419     3.477426     0.695102
H        5.211283     2.542098    -0.268149
H        6.882398     1.977617    -0.086932
H        6.068330    -0.284816     0.812647
H        5.087937    -0.342843     2.279797
H        2.493161     0.346738     2.042764
H        2.464332    -0.356841    -2.066528
C       -6.794227    -1.995791    -2.481219
C       -5.646702    -1.045460    -2.134362
C       -6.047473     0.393734    -2.466014
C       -5.263595    -1.209639    -0.654847
N       -4.090378    -0.548358    -0.312554
C       -2.763724    -0.941708    -0.518133
N       -1.950000     0.000000     0.000000
C       -2.783892     0.994732     0.547460
N       -4.109555     0.676283     0.372749
H       -7.062362    -1.912710    -3.539815
H       -7.687289    -1.774622    -1.886737
H       -6.508902    -3.035873    -2.290984
H       -4.786349    -1.311194    -2.762008
H       -6.355419     0.478550    -3.513780
H       -5.211283     1.083567    -2.315178
H       -6.882398     0.727954    -1.840818
H       -6.068330    -0.861104     0.003834
H       -5.087937    -2.266775    -0.420415
H       -2.493161    -1.817554    -0.994790
H       -2.464332     1.836716     1.012100
C       -3.204734     4.972666    -1.053662
C       -2.015792     5.894916    -0.781313
C       -2.021061     6.358863     0.675603
C       -0.674619     5.263889    -1.196644
N       -0.334895     4.091059    -0.536103
C       -0.542116     2.763700    -0.928137
N        0.000000     1.950000     0.000000
C        0.572656     2.783848     0.979903
N        0.390204     4.109343     0.665934
H       -3.189857     4.088952    -0.407687
H       -4.148018     5.499144    -0.872008
H       -3.206814     4.636401    -2.095736
H       -2.148572     6.788443    -1.405879
H       -2.932632     6.925898     0.893659
H       -1.983821     5.514747     1.371577
H       -1.166296     7.011825     0.880393
H       -0.693109     5.021504    -2.266388
H        0.142375     5.981306    -1.050563
H       -1.036358     2.492331    -1.793735
H        1.059882     2.464427     1.809167
C       -0.259968    -6.794227    -3.173648
C       -0.710638    -5.646702    -2.267925
C       -1.982956    -6.047473    -1.517939
C        0.426795    -5.263595    -1.307630
N        0.182674    -4.090378    -0.604166
C        0.326527    -2.763724    -1.024040
N        0.000000    -1.950000     0.000000
C       -0.344807    -2.783892     1.081810
N       -0.234043    -4.109555     0.735884
H       -1.048857    -7.062362    -3.884411
H       -0.011239    -7.687289    -2.590161
H        0.625483    -6.508902    -3.751520
H       -0.949865    -4.786349    -2.906144
H       -2.765649    -6.355419    -2.219651
H       -2.379568    -5.211283    -0.933713
H       -1.795097    -6.882398    -0.834358
H        0.627317    -6.068330    -0.589905
H        1.355039    -5.087937    -1.865177
H        0.633822    -2.493161    -1.972658
H       -0.635808    -2.464332     1.998404
N        0.000000     0.000000     1.950000
C       -0.000000     0.000000     3.411305
S        0.000001     0.000004     5.209651
N        0.000000     0.000000    -1.950000
C       -0.000000     0.000000    -3.411305
S        0.000001     0.000004    -5.209651
87
ex_0264 frame1 OC-6-1-conf4
Ni       0.000000     0.000000     0.000000
C        6.794227     1.693478     2.696620
C        5.646702     1.675965     1.685120
C        6.047473     2.459402     0.433122
C        5.263595     0.223944     1.357166
N        4.090378     0.116354     0.620361
C        2.763724     0.182216     1.059280
N        1.950000     0.000000     0.000000
C        2.783892    -0.192620    -1.118974
N        4.109555    -0.131476    -0.760930
H        7.062362     2.721172     2.963776
H        7.687289     1.203808     2.293449
H        6.508902     1.174035     3.617564
H        4.786349     2.182429     2.141244
H        6.355419     3.477426     0.695102
H        5.211283     2.542098    -0.268149
H        6.882398     1.977617    -0.086932
H        6.068330    -0.284816     0.812647
H        5.087937    -0.342843     2.279797
H        2.493161     0.346738     2.042764
H        2.464332    -0.356841    -2.066528
C       -6.358881    -1.997084    -0.743475
C       -5.894922    -2.041031     0.712783
C       -4.972673    -3.238495     0.944810
C       -5.263890    -0.714654     1.173174
N       -4.091059    -0.352817     0.524482
C       -2.763700    -0.573162     0.909293
N       -1.950000     0.000000     0.000000
C       -2.809189     0.575537    -0.907612
N       -4.109343     0.412474    -0.652375
H       -7.011849    -1.135892    -0.919269
H       -5.514772    -1.936351    -1.437802
H       -6.925915    -2.900771    -0.992195
H       -6.788444    -2.194830     1.332515
H       -5.499154    -4.175104     0.731403
H       -4.088963    -3.201811     0.299700
H       -4.636398    -3.275773     1.986216
H       -5.021501    -0.769266     2.241682
H       -5.981304     0.106810     1.054773
H       -2.492330    -1.096365     1.757699
H       -2.583795     1.098858    -1.720206
C       -2.938709     6.794227    -1.226222
C       -1.938138     5.646702    -1.375540
C       -0.832268     6.047473    -2.354481
C       -1.375516     5.263595     0.002638
N       -0.631053     4.090378    -0.012592
C       -1.019045     2.783909    -0.007655
N        0.000000     1.950000     0.000000
C        1.135417     2.783892     0.005696
N        0.772193     4.109555     0.004356
H       -3.371476     7.062362    -2.195881
H       -2.460395     7.687289    -0.809640
H       -3.761525     6.508902    -0.562193
H       -2.471446     4.786349    -1.799965
H       -1.258338     6.355419    -3.315456
H       -0.154193     5.211283    -2.551547
H       -0.239966     6.882398    -1.964929
H       -0.754640     6.068330     0.414769
H       -2.192198     5.087937     0.713641
H       -2.013557     2.607343    -0.009327
H        2.097078     2.464332     0.011613
C       -0.259968    -6.794227    -3.173648
C       -0.710638    -5.646702    -2.267925
C       -1.982956    -6.047473    -1.517939
C        0.426795    -5.263595    -1.307630
N        0.182674    -4.090378    -0.604166
C        0.326527    -2.763724    -1.024040
N        0.000000    -1.950000     0.000000
C       -0.344807    -2.783892     1.081810
N       -0.234043    -4.109555     0.735884
H       -1.048857    -7.062362    -3.884411
H       -0.011239    -7.687289    -2.590161
H        0.625483    -6.508902    -3.751520
H       -0.949865    -4.786349    -2.906144
H       -2.765649    -6.355419    -2.219651
H       -2.379568    -5.211283    -0.933713
H       -1.795097    -6.882398    -0.834358
H        0.627317    -6.068330    -0.589905
H        1.355039    -5.087937    -1.865177
H        0.633822    -2.493161    -1.972658
H       -0.635808    -2.464332     1.998404
N        0.000000     0.000000     1.950000
C       -0.000000     0.000000     3.411305
S        0.000001     0.000004     5.209651
N        0.000000     0.000000    -1.950000
C       -0.000000     0.000000    -3.411305
S        0.000001     0.000004    -5.209651
87
ex_0264 frame2 OC-6-1-conf9
Ni       0.000000     0.000000     0.000000
C        6.794227     1.693478     2.696620
C        5.646702     1.675965     1.685120
C        6.047473     2.459402     0.433122
C        5.263595     0.223944     1.357166
N        4.090378     0.116354     0.620361
C        2.763724     0.182216     1.059280
N        1.950000     0.000000     0.000000
C        2.783892    -0.192620    -1.118974
N        4.109555    -0.131476    -0.760930
H        7.062362     2.721172     2.963776
H        7.687289     1.203808     2.293449
H        6.508902     1.174035     3.617564
H        4.786349     2.182429     2.141244
H        6.355419     3.477426     0.695102
H        5.211283     2.542098    -0.268149
H        6.882398     1.977617    -0.086932
H        6.068330    -0.284816     0.812647
H        5.087937    -0.342843     2.279797
H        2.493161     0.346738     2.042764
H        2.464332    -0.356841    -2.066528
C       -6.358881    -2.121460    -0.201259
C       -5.894922    -1.787003     1.216753
C       -4.972673    -2.883611     1.750801
C       -5.263890    -0.386663     1.318165
N       -4.091059    -0.205049     0.597927
C       -2.763700    -0.318289     1.026655
N       -1.950000     0.000000     0.000000
C       -2.809189     0.321019    -1.025645
N       -4.109343     0.229572    -0.736902
H       -7.011849    -1.335111    -0.593955
H       -5.514772    -2.242502    -0.887646
H       -6.925915    -3.058729    -0.207612
H       -6.788444    -1.775163     1.855174
H       -5.499154    -3.843539     1.787078
H       -4.088963    -3.015144     1.118177
H       -4.636398    -2.650084     2.766370
H       -5.021501    -0.162863     2.364399
H       -5.981304     0.376166     0.991188
H       -2.529975    -0.634118     1.954169
H       -2.583795     0.616193    -1.945997
C       -2.938709     6.794227    -1.226222
C       -1.938138     5.646702    -1.375540
C       -0.832268     6.047473    -2.354481
C       -1.375516     5.263595     0.002638
N       -0.631053     4.090378    -0.012592
C       -1.019045     2.783909    -0.007655
N        0.000000     1.950000     0.000000
C        1.135417     2.783892     0.005696
N        0.772193     4.109555     0.004356
H       -3.371476     7.062362    -2.195881
H       -2.460395     7.687289    -0.809640
H       -3.761525     6.508902    -0.562193
H       -2.471446     4.786349    -1.799965
H       -1.258338     6.355419    -3.315456
H       -0.154193     5.211283    -2.551547
H       -0.239966     6.882398    -1.964929
H       -0.754640     6.068330     0.414769
H       -2.192198     5.087937     0.713641
H       -2.013557     2.607343    -0.009327
H        2.097078     2.464332     0.011613
C       -0.753365    -6.358881    -1.993374
C        0.702658    -5.894922    -2.044539
C        0.928746    -4.972673    -3.243138
C        1.169617    -5.263890    -0.720460
N        0.522727    -4.091059    -0.355413
C        0.906441    -2.763700    -0.577662
N        0.000000    -1.950000     0.000000
C       -0.924288    -2.796129     0.603792
N       -0.650322    -4.109343     0.415702
H       -0.924888    -7.011849    -1.131321
H       -1.447383    -5.514772    -1.929201
H       -1.006561    -6.925915    -2.895818
H        1.321619    -6.788444    -2.201408
H        0.710699    -5.499154    -4.178678
H        0.283826    -4.088963    -3.203257
H        1.969954    -4.636398    -3.285578
H        2.237842    -5.021501    -0.780368
H        1.055289    -5.981304     0.101580
H        1.752243    -2.492330    -1.105064
H       -1.733339    -2.482571     1.184418
N        0.000000     0.000000     1.950000
C       -0.000000     0.000000     3.411305
S        0.000001     0.000004     5.209651
N        0.000000     0.000000    -1.950000
C       -0.000000     0.000000    -3.411305
S        0.000001     0.000004    -5.209651
87
ex_0264 frame3 OC-6-1-conf10
Ni       0.000000     0.000000     0.000000
C        6.794227     1.693478     2.696620
C        5.646702     1.675965     1.685120
C        6.047473     2.459402     0.433122
C        5.263595     0.223944     1.357166
N        4.090378     0.116354     0.620361
C        2.763724     0.182216     1.059280
N        1.950000     0.000000     0.000000
C        2.783892    -0.192620    -1.118974
N        4.109555    -0.131476    -0.760930
H        7.062362     2.721172     2.963776
H        7.687289     1.203808     2.293449
H        6.508902     1.174035     3.617564
H        4.786349     2.182429     2.141244
H        6.355419     3.477426     0.695102
H        5.211283     2.542098    -0.268149
H        6.882398     1.977617    -0.086932
H        6.068330    -0.284816     0.812647
H        5.087937    -0.342843     2.279797
H        2.493161     0.346738     2.042764
H        2.464332    -0.356841    -2.066528
C       -6.358881    -1.357787    -1.642410
C       -5.894922    -2.123976    -0.403227
C       -4.972673    -3.277024    -0.801018
C       -5.263890    -1.205495     0.658672
N       -4.091059    -0.567790     0.277806
C       -2.763700    -0.951019     0.500890
N       -1.950000     0.000000     0.000000
C       -2.802067     0.961837    -0.515895
N       -4.109343     0.683400    -0.358736
H       -7.011849    -0.524077    -1.364056
H       -5.514772    -0.958028    -2.213349
H       -6.925915    -2.016044    -2.309651
H       -6.788444    -2.567036     0.056577
H       -5.499154    -3.981447    -1.454138
H       -4.088963    -2.922699    -1.341358
H       -4.636398    -3.830011     0.082227
H       -5.021501    -1.787045     1.556721
H       -5.981304    -0.434886     0.966865
H       -2.492330    -1.828329     0.974030
H       -2.585797     1.743292    -1.013606
C       -1.078520     6.358881    -1.837904
C       -2.032502     5.894922    -0.736751
C       -3.107366     4.972673    -1.313313
C       -1.295101     5.263890     0.458019
N       -0.604823     4.091059     0.183714
C       -0.969637     2.780566     0.343241
N        0.000000     1.950000     0.000000
C        1.075768     2.783848    -0.361755
N        0.731859     4.109343    -0.245173
H       -0.299863     7.011849    -1.430170
H       -0.592836     5.514772    -2.337793
H       -1.621958     6.925915    -2.601572
H       -2.543212     6.788444    -0.353479
H       -3.698632     5.499154    -2.070402
H       -2.671414     4.088963    -1.790240
H       -3.794117     4.636398    -0.529548
H       -2.012409     5.021501     1.251846
H       -0.583496     5.981304     0.885148
H       -1.871159     2.579314     0.765875
H        1.988123     2.464427    -0.666182
C       -0.259968    -6.794227    -3.173648
C       -0.710638    -5.646702    -2.267925
C       -1.982956    -6.047473    -1.517939
C        0.426795    -5.263595    -1.307630
N        0.182674    -4.090378    -0.604166
C        0.326527    -2.763724    -1.024040
N        0.000000    -1.950000     0.000000
C       -0.344807    -2.783892     1.081810
N       -0.234043    -4.109555     0.735884
H       -1.048857    -7.062362    -3.884411
H       -0.011239    -7.687289    -2.590161
H        0.625483    -6.508902    -3.751520
H       -0.949865    -4.786349    -2.906144
H       -2.765649    -6.355419    -2.219651
H       -2.379568    -5.211283    -0.933713
H       -1.795097    -6.882398    -0.834358
H        0.627317    -6.068330    -0.589905
H        1.355039    -5.087937    -1.865177
H        0.633822    -2.493161    -1.972658
H       -0.635808    -2.464332     1.998404
N        0.000000     0.000000     1.950000
C       -0.000000     0.000000     3.411305
S        0.000001     0.000004     5.209651
N        0.000000     0.000000    -1.950000
C       -0.000000     0.000000    -3.411305
S        0.000001     0.000004    -5.209651
87
ex_0264 frame4 OC-6-2
Ni       0.000000     0.000000     0.000000
C        6.794227     1.693478     2.696620
C        5.646702     1.675965     1.685120
C        6.047473     2.459402     0.433122
C        5.263595     0.223944     1.357166
N        4.090378     0.116354     0.620361
C        2.763724     0.182216     1.059280
N        1.950000     0.000000     0.000000
C        2.783892    -0.192620    -1.118974
N        4.109555    -0.131476    -0.760930
H        7.062362     2.721172     2.963776
H        7.687289     1.203808     2.293449
H        6.508902     1.174035     3.617564
H        4.786349     2.182429     2.141244
H        6.355419     3.477426     0.695102
H        5.211283     2.542098    -0.268149
H        6.882398     1.977617    -0.086932
H        6.068330    -0.284816     0.812647
H        5.087937    -0.342843     2.279797
H        2.493161     0.346738     2.042764
H        2.464332    -0.356841    -2.066528
C       -6.794227    -1.995791    -2.481219
C       -5.646702    -1.045460    -2.134362
C       -6.047473     0.393734    -2.466014
C       -5.263595    -1.209639    -0.654847
N       -4.090378    -0.548358    -0.312554
C       -2.763724    -0.941708    -0.518133
N       -1.950000     0.000000     0.000000
C       -2.783892     0.994732     0.547460
N       -4.109555     0.676283     0.372749
H       -7.062362    -1.912710    -3.539815
H       -7.687289    -1.774622    -1.886737
H       -6.508902    -3.035873    -2.290984
H       -4.786349    -1.311194    -2.762008
H       -6.355419     0.478550    -3.513780
H       -5.211283     1.083567    -2.315178
H       -6.882398     0.727954    -1.840818
H       -6.068330    -0.861104     0.003834
H       -5.087937    -2.266775    -0.420415
H       -2.493161    -1.817554    -0.994790
H       -2.464332     1.836716     1.012100
C       -3.368243     4.972666    -0.188313
C       -2.149325     5.894916    -0.232965
C       -1.777336     6.358863     1.175671
C       -0.961346     5.263889    -0.981265
N       -0.462238     4.091059    -0.431159
C       -0.763863     2.763700    -0.756202
N        0.000000     1.950000     0.000000
C        0.806761     2.783848     0.798299
N        0.549265     4.109343     0.542251
H       -3.186683     4.088952     0.431800
H       -4.232370     5.499144     0.231291
H       -3.639961     4.636401    -1.194341
H       -2.439229     6.788443    -0.801884
H       -2.601409     6.925898     1.622230
H       -1.561234     5.514747     1.838292
H       -0.898693     7.011825     1.152254
H       -1.256076     5.021504    -2.009773
H       -0.134382     5.981306    -1.051615
H       -1.465298     2.492331    -1.464385
H        1.492014     2.464427     1.473203
N        0.000000    -1.950000     0.000000
C       -0.000000    -3.411305     0.000000
S        0.000004    -5.209651     0.000000
C        2.216073    -2.286556     6.794275
C        1.989096    -1.300719     5.646730
C        2.495711     0.086588     6.047489
C        0.500635    -1.281177     5.263595
N        0.242527    -0.582724     4.090377
C        0.398017    -0.998428     2.763723
N        0.000000     0.000000     1.950000
C       -0.420580     1.054664     2.783892
N       -0.286483     0.717097     4.109554
H        1.653392    -1.993738     7.687322
H        3.276828    -2.334666     7.062432
H        1.899016    -3.295239     6.508962
H        2.579192    -1.641848     4.786394
H        3.545928     0.041533     6.355471
H        2.431138     0.789740     5.211281
H        1.916483     0.495384     6.882386
H       -0.110050    -0.854072     6.068321
H        0.137621    -2.301330     5.087928
H        0.763000    -1.926381     2.493161
H       -0.777813     1.947531     2.464332
N        0.000000     0.000000    -1.950000
C       -0.000000     0.000000    -3.411305
S        0.000001     0.000004    -5.209651
87
ex_0264 frame5 OC-6-2-conf4
Ni       0.000000     0.000000     0.000000
C        6.794227     0.118285     3.182081
C        5.646702     0.608868     2.297339
C        6.047473     1.913343     1.604796
C        5.263595    -0.484642     1.287312
N        4.090378    -0.209415     0.595426
C        2.763724    -0.371836     1.008471
N        1.950000     0.000000     0.000000
C        2.783892     0.392673    -1.065370
N        4.109555     0.266603    -0.724723
H        7.062362     0.874716     3.927291
H        7.687289    -0.104196     2.588089
H        6.508902    -0.792038     3.719920
H        4.786349     0.819417     2.945586
H        6.355419     2.663989     2.340689
H        5.211283     2.335596     1.038825
H        6.882398     1.756133     0.913523
H        6.068330    -0.652981     0.561365
H        5.087937    -1.436809     1.802941
H        2.530891    -0.735429     1.914615
H        2.464332     0.724230    -1.968086
C       -6.358881    -1.937868     0.886435
C       -5.894922    -0.939213     1.947241
C       -4.972673    -1.621880     2.958044
C       -5.263890     0.324223     1.334896
N       -4.091059     0.121385     0.620344
C       -2.763700     0.237681     1.048254
N       -1.950000     0.000000     0.000000
C       -2.809189    -0.234812    -1.048744
N       -4.109343    -0.169636    -0.752962
H       -7.011849    -1.453218     0.153176
H       -5.514772    -2.385887     0.352527
H       -6.925915    -2.752743     1.349567
H       -6.788444    -0.609749     2.494209
H       -5.499154    -2.435064     3.469424
H       -4.088963    -2.052102     2.475942
H       -4.636398    -0.911855     3.720788
H       -5.021501     1.041156     2.129062
H       -5.981304     0.821363     0.670311
H       -2.492330     0.467634     2.018128
H       -2.583795    -0.439359    -1.993380
C       -2.938709     6.794227    -1.226222
C       -1.938138     5.646702    -1.375540
C       -0.832268     6.047473    -2.354481
C       -1.375516     5.263595     0.002638
N       -0.631053     4.090378    -0.012592
C       -1.019045     2.783909    -0.007655
N        0.000000     1.950000     0.000000
C        1.135417     2.783892     0.005696
N        0.772193     4.109555     0.004356
H       -3.371476     7.062362    -2.195881
H       -2.460395     7.687289    -0.809640
H       -3.761525     6.508902    -0.562193
H       -2.471446     4.786349    -1.799965
H       -1.258338     6.355419    -3.315456
H       -0.154193     5.211283    -2.551547
H       -0.239966     6.882398    -1.964929
H       -0.754640     6.068330     0.414769
H       -2.192198     5.087937     0.713641
H       -2.013557     2.607343    -0.009327
H        2.097078     2.464332     0.011613
N        0.000000    -1.950000     0.000000
C       -0.000000    -3.411305     0.000000
S        0.000004    -5.209651     0.000000
C       -2.998991    -1.070365     6.794227
C       -2.359308    -0.286628     5.646702
C       -2.199981     1.181666     6.047473
C       -1.015744    -0.927531     5.263595
N       -0.475286    -0.415318     4.090378
C       -0.798631    -0.719351     2.763724
N        0.000000     0.000000     1.950000
C        0.815240     0.747499     2.795111
N        0.574151     0.516383     4.109555
H       -3.971605    -0.644280     7.062362
H       -2.364848    -1.056670     7.687289
H       -3.160836    -2.115241     6.508902
H       -3.039409    -0.331527     4.786349
H       -3.161797     1.605834     6.355419
H       -1.830989     1.783717     5.211283
H       -1.499705     1.292057     6.882398
H       -0.279139    -0.814614     6.068330
H       -1.141443    -2.003029     5.087937
H       -1.536458    -1.390110     2.493161
H        1.519364     1.447441     2.482267
N        0.000000     0.000000    -1.950000
C       -0.000000     0.000000    -3.411305
S        0.000001     0.000004    -5.209651
87
ex_0264 frame6 OC-6-2-conf5
Ni       0.000000     0.000000     0.000000
C        6.358881     1.800855     1.139307
C        5.894922     0.668452     2.055977
C        4.972673     1.208790     3.149499
C        5.263890    -0.501021     1.279080
N        4.104818    -0.210142     0.615836
C        2.763235    -0.394544     1.054491
N        1.950000     0.000000     0.000000
C        2.777202     0.409587    -1.095723
N        4.109343     0.269482    -0.723262
H        7.011849     1.419357     0.347465
H        5.514772     2.316687     0.670590
H        6.925915     2.545944     1.707949
H        6.788444     0.268336     2.553599
H        5.499154     1.945708     3.765722
H        4.088963     1.700012     2.729720
H        4.636398     0.402524     3.809688
H        5.021501    -1.318364     1.969473
H        5.981304    -0.904144     0.553605
H        2.492330    -0.735128     1.936778
H        2.464427     0.732216    -1.964762
C       -6.794227    -0.343249     3.165724
C       -5.646702    -0.769970     2.248474
C       -6.047473    -2.022147     1.465323
C       -5.263595     0.392297     1.318391
N       -4.111257     0.174142     0.635735
C       -2.762712     0.316312     1.091772
N       -1.950000     0.000000     0.000000
C       -2.799030    -0.285981    -1.082494
N       -4.109555    -0.214631    -0.741778
H       -7.062362    -1.150537     3.855517
H       -7.687289    -0.079278     2.588972
H       -6.508902     0.526716     3.766656
H       -4.786349    -1.025881     2.880189
H       -6.355419    -2.823004     2.146232
H       -5.211283    -2.403276     0.870881
H       -6.882398    -1.816396     0.786914
H       -6.068330     0.611604     0.606181
H       -5.087937     1.305573     1.900130
H       -2.493161     0.581782     1.988628
H       -2.510935    -0.452109    -2.040888
C       -2.938709     6.794227    -1.226222
C       -1.938138     5.646702    -1.375540
C       -0.832268     6.047473    -2.354481
C       -1.375516     5.263595     0.002638
N       -0.649819     4.104257    -0.012787
C       -1.085173     2.766228    -0.007287
N        0.000000     1.950000     0.000000
C        1.173055     2.777169     0.005959
N        0.773815     4.110746     0.004366
H       -3.371476     7.062362    -2.195881
H       -2.460395     7.687289    -0.809640
H       -3.761525     6.508902    -0.562193
H       -2.471446     4.786349    -1.799965
H       -1.258338     6.355419    -3.315456
H       -0.154193     5.211283    -2.551547
H       -0.239966     6.882398    -1.964929
H       -0.754640     6.068330     0.414769
H       -2.192198     5.087937     0.713641
H       -2.017521     2.595008    -0.101984
H        2.097078     2.464332     0.011613
N        0.000000    -1.950000     0.000000
C       -0.000000    -3.411305     0.000000
S        0.000004    -5.209651     0.000000
C       -2.998991    -1.070365     6.794227
C       -2.359308    -0.286628     5.646702
C       -2.199981     1.181666     6.047473
C       -1.015744    -0.927531     5.263595
N       -0.489299    -0.427802     4.104257
C       -0.836445    -0.753407     2.763259
N        0.000000     0.000000     1.950000
C        0.869656     0.783075     2.777184
N        0.574151     0.516383     4.109555
H       -3.971605    -0.644280     7.062362
H       -2.364848    -1.056670     7.687289
H       -3.160836    -2.115241     6.508902
H       -3.039409    -0.331527     4.786349
H       -3.161797     1.605834     6.355419
H       -1.830989     1.783717     5.211283
H       -1.499705     1.292057     6.882398
H       -0.279139    -0.814614     6.068330
H       -1.141443    -2.003029     5.087937
H       -1.536458    -1.390110     2.493161
H        1.559101     1.402526     2.464332
N        0.000000     0.000000    -1.950000
C       -0.000000     0.000000    -3.411305
S        0.000001     0.000004    -5.209651
87
ex_0264 frame7 OC-6-2-conf6
Ni       0.000000     0.000000     0.000000
C        6.794227    -0.709328     3.104268
C        5.646702    -0.006474     2.376646
C        6.047473     1.432796     2.045323
C        5.263595    -0.801309     1.118014
N        4.095374    -0.360255     0.526476
C        2.786727    -0.584588     0.837325
N        1.950000     0.000000     0.000000
C        2.781397     0.663910    -0.940083
N        4.112422     0.447319    -0.634199
H        7.062362    -0.171547     4.019865
H        7.687289    -0.770492     2.472934
H        6.508902    -1.727836     3.388172
H        4.786349     0.029122     3.057298
H        6.355419     1.967401     2.950423
H        5.211283     1.987145     1.607924
H        6.882398     1.459857     1.336916
H        6.068330    -0.776023     0.373233
H        5.087937    -1.854487     1.369634
H        2.641575    -1.115162     1.639626
H        2.464332     1.208931    -1.713581
C       -6.794227    -1.285599    -2.913222
C       -5.646702    -0.457423    -2.332221
C       -6.047473     1.018569    -2.280081
C       -5.263595    -0.998934    -0.945612
N       -4.097894    -0.455943    -0.450908
C       -2.763359    -0.791467    -0.759739
N       -1.950000     0.000000     0.000000
C       -2.799186     0.784358     0.780150
N       -4.109555     0.556765     0.535083
H       -7.062362    -0.931364    -3.914244
H       -7.687289    -1.225830    -2.281754
H       -6.508902    -2.339478    -2.998662
H       -4.786349    -0.551656    -3.007257
H       -6.355419     1.371677    -3.270193
H       -5.211283     1.645857    -1.955842
H       -6.882398     1.179588    -1.589685
H       -6.068330    -0.832755    -0.219167
H       -5.087937    -2.080725    -0.992774
H       -2.493161    -1.498152    -1.431311
H       -2.495770     1.446444     1.511127
C       -2.531293     6.794227     1.931886
C       -2.160322     5.646702     0.990706
C       -2.455174     6.047473    -0.456475
C       -0.685473     5.263595     1.192551
N       -0.329870     4.095374     0.546028
C       -0.539501     2.766748     0.920089
N        0.000000     1.950000     0.000000
C        0.579498     2.781472    -0.992139
N        0.390164     4.109984    -0.667064
H       -3.587427     7.062362     1.821844
H       -1.931366     7.687289     1.725944
H       -2.367636     6.508902     2.976479
H       -2.794538     4.786349     1.240353
H       -3.500438     6.355419    -0.567975
H       -2.286801     5.211283    -1.142238
H       -1.821661     6.882398    -0.774647
H       -0.018120     6.068330     0.860922
H       -0.478068     5.087937     2.255320
H       -1.083168     2.569398     1.720091
H        1.058597     2.464332    -1.810316
N        0.000000    -1.950000     0.000000
C       -0.000000    -3.411305     0.000000
S        0.000004    -5.209651     0.000000
C       -1.518915    -3.012212     4.972666
C       -1.072639    -1.877049     5.894916
C        0.367265    -2.099105     6.358863
C       -1.283724    -0.488998     5.263889
N       -0.590955    -0.255879     4.099964
C       -1.021248    -0.406993     2.763196
N        0.000000     0.000000     1.950000
C        1.004686     0.398923     2.809937
N        0.716594     0.286741     4.109343
H       -0.877921    -3.093647     4.088952
H       -1.479681    -3.972026     5.499144
H       -2.549691    -2.859168     4.636401
H       -1.710011    -1.915390     6.788443
H        0.447215    -3.032978     6.925898
H        1.061030    -2.165868     5.514747
H        0.696997    -1.284342     7.011825
H       -2.344305    -0.348062     5.021504
H       -1.017670     0.297153     5.981306
H       -1.928005    -0.757837     2.492331
H        1.857502     0.755379     2.625386
N        0.000000     0.000000    -1.950000
C       -0.000000     0.000000    -3.411305
S        0.000001     0.000004    -5.209651
87
ex_0264 frame8 OC-6-2-conf8
Ni       0.000000     0.000000     0.000000
C        6.794227     0.118285     3.182081
C        5.646702     0.608868     2.297339
C        6.047473     1.913343     1.604796
C        5.263595    -0.484642     1.287312
N        4.090378    -0.209415     0.595426
C        2.763724    -0.371836     1.008471
N        1.950000     0.000000     0.000000
C        2.783892     0.392673    -1.065370
N        4.109555     0.266603    -0.724723
H        7.062362     0.874716     3.927291
H        7.687289    -0.104196     2.588089
H        6.508902    -0.792038     3.719920
H        4.786349     0.819417     2.945586
H        6.355419     2.663989     2.340689
H        5.211283     2.335596     1.038825
H        6.882398     1.756133     0.913523
H        6.068330    -0.652981     0.561365
H        5.087937    -1.436809     1.802941
H        2.530891    -0.735429     1.914615
H        2.464332     0.724230    -1.968086
C       -6.794227    -1.995791    -2.481219
C       -5.646702    -1.045460    -2.134362
C       -6.047473     0.393734    -2.466014
C       -5.263595    -1.209639    -0.654847
N       -4.090378    -0.548358    -0.312554
C       -2.763724    -0.941708    -0.518133
N       -1.950000     0.000000     0.000000
C       -2.783892     0.994732     0.547460
N       -4.109555     0.676283     0.372749
H       -7.062362    -1.912710    -3.539815
H       -7.687289    -1.774622    -1.886737
H       -6.508902    -3.035873    -2.290984
H       -4.786349    -1.311194    -2.762008
H       -6.355419     0.478550    -3.513780
H       -5.211283     1.083567    -2.315178
H       -6.882398     0.727954    -1.840818
H       -6.068330    -0.861104     0.003834
H       -5.087937    -2.266775    -0.420415
H       -2.493161    -1.817554    -0.994790
H       -2.464332     1.836716     1.012100
C       -3.302212     4.972666     0.689869
C       -2.136384     5.894916     0.331259
C       -1.412488     6.358863     1.595619
C       -1.182559     5.263889    -0.699014
N       -0.558079     4.091059    -0.296831
C       -0.933555     2.763700    -0.532732
N        0.000000     1.950000     0.000000
C        0.985886     2.783848     0.562293
N        0.670894     4.109343     0.381614
H       -2.966341     4.088952     1.241861
H       -4.028293     5.499144     1.318828
H       -3.825050     4.636401    -0.211554
H       -2.563658     6.788443    -0.143241
H       -2.092904     6.925898     2.240248
H       -1.032251     5.514747     2.179731
H       -0.569845     7.011825     1.345591
H       -1.733443     5.021504    -1.616195
H       -0.401981     5.981306    -0.981001
H       -1.794380     2.492331    -1.035240
H        1.793936     2.504430     1.024827
N        0.000000    -1.950000     0.000000
C       -0.000000    -3.411305     0.000000
S        0.000004    -5.209651     0.000000
C       -2.998991    -1.070365     6.794227
C       -2.359308    -0.286628     5.646702
C       -2.199981     1.181666     6.047473
C       -1.015744    -0.927531     5.263595
N       -0.475286    -0.415318     4.090378
C       -0.798631    -0.719351     2.763724
N        0.000000     0.000000     1.950000
C        0.809907     0.739326     2.796779
N        0.574151     0.516383     4.109555
H       -3.971605    -0.644280     7.062362
H       -2.364848    -1.056670     7.687289
H       -3.160836    -2.115241     6.508902
H       -3.039409    -0.331527     4.786349
H       -3.161797     1.605834     6.355419
H       -1.830989     1.783717     5.211283
H       -1.499705     1.292057     6.882398
H       -0.279139    -0.814614     6.068330
H       -1.141443    -2.003029     5.087937
H       -1.536458    -1.390110     2.493161
H        1.557959     1.385149     2.497877
N        0.000000     0.000000    -1.950000
C       -0.000000     0.000000    -3.411305
S        0.000001     0.000004    -5.209651
87
ex_0264 frame9 OC-6-2-conf9
Ni       0.000000     0.000000     0.000000
C        6.794227     1.693478     2.696620
C        5.646702     1.675965     1.685120
C        6.047473     2.459402     0.433122
C        5.263595     0.223944     1.357166
N        4.090378     0.116354     0.620361
C        2.763724     0.182216     1.059280
N        1.950000     0.000000     0.000000
C        2.783892    -0.192620    -1.118974
N        4.109555    -0.131476    -0.760930
H        7.062362     2.721172     2.963776
H        7.687289     1.203808     2.293449
H        6.508902     1.174035     3.617564
H        4.786349     2.182429     2.141244
H        6.355419     3.477426     0.695102
H        5.211283     2.542098    -0.268149
H        6.882398     1.977617    -0.086932
H        6.068330    -0.284816     0.812647
H        5.087937    -0.342843     2.279797
H        2.493161     0.346738     2.042764
H        2.464332    -0.356841    -2.066528
C       -6.358881    -1.997084    -0.743475
C       -5.894922    -2.041031     0.712783
C       -4.972673    -3.238495     0.944810
C       -5.263890    -0.714654     1.173174
N       -4.091059    -0.352817     0.524482
C       -2.763700    -0.573162     0.909293
N       -1.950000     0.000000     0.000000
C       -2.809189     0.575537    -0.907612
N       -4.109343     0.412474    -0.652375
H       -7.011849    -1.135892    -0.919269
H       -5.514772    -1.936351    -1.437802
H       -6.925915    -2.900771    -0.992195
H       -6.788444    -2.194830     1.332515
H       -5.499154    -4.175104     0.731403
H       -4.088963    -3.201811     0.299700
H       -4.636398    -3.275773     1.986216
H       -5.021501    -0.769266     2.241682
H       -5.981304     0.106810     1.054773
H       -2.492330    -1.096365     1.757699
H       -2.583795     1.098858    -1.720206
C       -2.938709     6.794227    -1.226222
C       -1.938138     5.646702    -1.375540
C       -0.832268     6.047473    -2.354481
C       -1.375516     5.263595     0.002638
N       -0.631053     4.090378    -0.012592
C       -1.019045     2.783909    -0.007655
N        0.000000     1.950000     0.000000
C        1.135417     2.783892     0.005696
N        0.772193     4.109555     0.004356
H       -3.371476     7.062362    -2.195881
H       -2.460395     7.687289    -0.809640
H       -3.761525     6.508902    -0.562193
H       -2.471446     4.786349    -1.799965
H       -1.258338     6.355419    -3.315456
H       -0.154193     5.211283    -2.551547
H       -0.239966     6.882398    -1.964929
H       -0.754640     6.068330     0.414769
H       -2.192198     5.087937     0.713641
H       -2.013557     2.607343    -0.009327
H        2.097078     2.464332     0.011613
N        0.000000    -1.950000     0.000000
C       -0.000000    -3.411305     0.000000
S        0.000004    -5.209651     0.000000
C       -2.108961     0.305586     6.358881
C       -1.844807    -1.127189     5.894922
C       -2.966407    -1.606533     4.972673
C       -0.451168    -1.297503     5.263890
N       -0.234273    -0.587092     4.091059
C       -0.368509    -1.009717     2.763700
N        0.000000     0.000000     1.950000
C        0.389361     1.066087     2.783848
N        0.265617     0.724690     4.109343
H       -1.304211     0.659044     7.011849
H       -2.196022     0.997105     5.514772
H       -3.044777     0.358131     6.925915
H       -1.864451    -1.765417     6.788444
H       -3.926956    -1.595448     5.499154
H       -3.066596    -0.968194     4.088963
H       -2.783223    -2.632378     4.636398
H       -0.279212    -2.353497     5.021501
H        0.326850    -1.008525     5.981304
H       -0.701023    -1.949382     2.492330
H        0.721433     1.968747     2.464427
N        0.000000     0.000000    -1.950000
C       -0.000000     0.000000    -3.411305
S        0.000001     0.000004    -5.209651
87
ex_0264 frame10 OC-6-2-conf10
Ni       0.000000     0.000000     0.000000
C        6.794227     0.118285     3.182081
C        5.646702     0.608868     2.297339
C        6.047473     1.913343     1.604796
C        5.263595    -0.484642     1.287312
N        4.090378    -0.209415     0.595426
C        2.763724    -0.371836     1.008471
N        1.950000     0.000000     0.000000
C        2.783892     0.392673    -1.065370
N        4.109555     0.266603    -0.724723
H        7.062362     0.874716     3.927291
H        7.687289    -0.104196     2.588089
H        6.508902    -0.792038     3.719920
H        4.786349     0.819417     2.945586
H        6.355419     2.663989     2.340689
H        5.211283     2.335596     1.038825
H        6.882398     1.756133     0.913523
H        6.068330    -0.652981     0.561365
H        5.087937    -1.436809     1.802941
H        2.530891    -0.735429     1.914615
H        2.464332     0.724230    -1.968086
C       -6.358881    -1.357787    -1.642410
C       -5.894922    -2.123976    -0.403227
C       -4.972673    -3.277024    -0.801018
C       -5.263890    -1.205495     0.658672
N       -4.091059    -0.567790     0.277806
C       -2.763700    -0.951019     0.500890
N       -1.950000     0.000000     0.000000
C       -2.802067     0.961837    -0.515895
N       -4.109343     0.683400    -0.358736
H       -7.011849    -0.524077    -1.364056
H       -5.514772    -0.958028    -2.213349
H       -6.925915    -2.016044    -2.309651
H       -6.788444    -2.567036     0.056577
H       -5.499154    -3.981447    -1.454138
H       -4.088963    -2.922699    -1.341358
H       -4.636398    -3.830011     0.082227
H       -5.021501    -1.787045     1.556721
H       -5.981304    -0.434886     0.966865
H       -2.492330    -1.828329     0.974030
H       -2.585797     1.743292    -1.013606
C       -1.078520     6.358881    -1.837904
C       -2.032502     5.894922    -0.736751
C       -3.107366     4.972673    -1.313313
C       -1.295101     5.263890     0.458019
N       -0.604823     4.091059     0.183714
C       -0.969637     2.780566     0.343241
N        0.000000     1.950000     0.000000
C        1.075768     2.783848    -0.361755
N        0.731859     4.109343    -0.245173
H       -0.299863     7.011849    -1.430170
H       -0.592836     5.514772    -2.337793
H       -1.621958     6.925915    -2.601572
H       -2.543212     6.788444    -0.353479
H       -3.698632     5.499154    -2.070402
H       -2.671414     4.088963    -1.790240
H       -3.794117     4.636398    -0.529548
H       -2.012409     5.021501     1.251846
H       -0.583496     5.981304     0.885148
H       -1.871159     2.579314     0.765875
H        1.988123     2.464427    -0.666182
N        0.000000    -1.950000     0.000000
C       -0.000000    -3.411305     0.000000
S        0.000004    -5.209651     0.000000
C       -2.998991    -1.070365     6.794227
C       -2.359308    -0.286628     5.646702
C       -2.199981     1.181666     6.047473
C       -1.015744    -0.927531     5.263595
N       -0.475286    -0.415318     4.090378
C       -0.798631    -0.719351     2.763724
N        0.000000     0.000000     1.950000
C        0.815240     0.747499     2.795111
N        0.574151     0.516383     4.109555
H       -3.971605    -0.644280     7.062362
H       -2.364848    -1.056670     7.687289
H       -3.160836    -2.115241     6.508902
H       -3.039409    -0.331527     4.786349
H       -3.161797     1.605834     6.355419
H       -1.830989     1.783717     5.211283
H       -1.499705     1.292057     6.882398
H       -0.279139    -0.814614     6.068330
H       -1.141443    -2.003029     5.087937
H       -1.536458    -1.390110     2.493161
H        1.519364     1.447441     2.482267
N        0.000000     0.000000    -1.950000
C       -0.000000     0.000000    -3.411305
S        0.000001     0.000004    -5.209651
