73
ex_0117 frame0 N2-trans-Δ-conf6
C        6.459895     4.977284     4.001488
C        5.270626     4.301750     3.395208
C        4.356862     5.006973     2.599213
C        3.245175     4.357897     2.048760
C        3.058229     2.975403     2.242034
B        1.858136     2.099917     1.584123
C        2.672274     1.419808     0.375925
C        3.979596     1.911158    -0.201464
C        4.555087     1.238280    -1.192654
C        3.953674    -0.006440    -1.702590
C        2.741455    -0.440187    -1.267277
N        2.123047     0.253152    -0.207870
Sc       0.000000     0.000000     0.000000
Cl      -2.368244    -0.306849     0.238403
N        0.279863     0.115787     2.128065
C       -0.001929    -0.681835     3.279136
C        0.661299    -0.161144     4.380340
C        1.398398     0.915814     3.942021
N        1.199273     1.066649     2.554977
N       -0.137803     2.146208    -0.035984
C       -1.281099     3.001608    -0.135328
C       -1.087711     4.177427     0.571698
C        0.129405     4.072029     1.194953
N        0.634407     2.786484     0.936277
N        0.306260    -2.127066     0.033686
C       -0.334720    -3.273546     0.592411
C        0.190547    -4.424942     0.028407
C        1.124607    -4.029277    -0.900358
N        1.150434    -2.620453    -0.942334
B        1.970927    -1.712284    -1.902782
C        3.188441    -2.522755    -2.581819
C        3.564208    -2.446205    -3.931743
C        4.688684    -3.144126    -4.386586
C        5.420657    -3.962692    -3.512167
C        6.622359    -4.717755    -3.976188
C        5.023372    -4.077986    -2.181464
C        3.921492    -3.373143    -1.725622
N        0.888403    -1.025197    -2.786948
C        0.548237    -0.951076    -4.172831
C       -0.518247    -0.078072    -4.339298
C       -0.898104     0.363717    -3.084288
N       -0.062136    -0.239230    -2.135890
C        3.977753     2.291990     3.067553
C        5.069719     2.941976     3.628722
H        6.514074     6.045342     3.705985
H        7.384637     4.465102     3.659759
H        6.396835     4.913756     5.108161
H        4.519231     6.054317     2.379267
H        2.622584     4.930089     1.386085
H        4.438268     2.841172     0.121994
H        5.459356     1.621750    -1.655695
H        4.469245    -0.457152    -2.533616
H       -0.645604    -1.549905     3.279246
H        0.622752    -0.520737     5.399778
H        2.024520     1.529859     4.572815
H       -2.151470     2.783019    -0.730890
H       -1.754555     5.030109     0.635500
H        0.550302     4.843583     1.822421
H       -1.137927    -3.231554     1.313419
H       -0.091572    -5.447337     0.240554
H        1.681199    -4.702370    -1.539792
H        3.081629    -1.775364    -4.615272
H        5.010043    -3.015339    -5.411524
H        7.513482    -4.341643    -3.430023
H        6.783203    -4.585878    -5.065308
H        6.490043    -5.798747    -3.759590
H        5.577795    -4.696422    -1.485260
H        3.677314    -3.456440    -0.672435
H        1.032295    -1.485195    -4.973488
H       -0.966950     0.207805    -5.280770
H       -1.693345     1.062764    -2.867537
H        3.898993     1.223169     3.224573
H        5.777235     2.373114     4.220060
73
ex_0117 frame1 N2-trans-Λ-conf8
C        6.426705     3.828467    -5.147778
C        5.241077     3.250741    -4.440786
C        4.293727     2.470062    -5.118904
C        3.183919     1.950057    -4.441304
C        3.032198     2.155831    -3.057835
B        1.834562     1.532565    -2.155955
C        2.652943     0.305173    -1.491535
C        3.956197    -0.283579    -1.984023
C        4.535914    -1.270800    -1.305812
C        3.933365    -1.788960    -0.065690
C        2.724441    -1.349256     0.371352
N        2.103541    -0.294542    -0.321338
Sc       0.000000     0.000000     0.000000
Cl      -2.347415     0.333479     0.372977
N       -0.307593     0.093669    -2.126106
C       -1.437890    -0.034831    -2.984928
C       -1.200251     0.612725    -4.187668
C        0.041164     1.199592    -4.099527
N        0.545032     0.964101    -2.810357
N        0.374816     2.113532    -0.112380
C        0.113224     3.275635     0.673881
C        0.783981     4.361971     0.135043
C        1.488117     3.905623    -0.956848
N        1.254994     2.522951    -1.101869
N       -0.138927    -2.140104     0.150259
C       -0.940447    -3.179545    -0.401400
C       -0.537493    -4.398934     0.119013
C        0.514791    -4.157400     0.979934
N        0.806793    -2.780193     0.954771
B        1.947708    -1.968776     1.650242
C        3.170743    -2.674502     2.452848
C        3.921658    -1.825052     3.303498
C        5.024881    -2.288129     4.003287
C        5.406353    -3.622528     3.893638
C        6.605034    -4.099208     4.647950
C        4.661411    -4.490283     3.080684
C        3.542101    -4.026359     2.379183
N        1.155977    -1.016335     2.596331
C        1.110674    -0.915157     4.007264
C        0.177436     0.045902     4.365907
C       -0.328761     0.576192     3.195453
N        0.315227    -0.055713     2.124736
C        3.988485     2.962595    -2.400136
C        5.077617     3.495792    -3.078318
H        6.455060     3.517817    -6.212481
H        6.381188     4.936803    -5.098566
H        7.356942     3.480869    -4.649555
H        4.426789     2.239683    -6.167954
H        2.532057     1.298265    -4.992718
H        4.418809     0.047661    -2.907181
H        5.448791    -1.721593    -1.682441
H        4.456620    -2.613084     0.393423
H       -2.322562    -0.590635    -2.734221
H       -1.855376     0.659515    -5.046535
H        0.492827     1.774715    -4.891459
H       -0.519578     3.291667     1.549939
H        0.769010     5.382915     0.491570
H        2.106489     4.525064    -1.589787
H       -1.742331    -3.017047    -1.108221
H       -0.964723    -5.368377    -0.098564
H        1.018619    -4.925617     1.536220
H        3.698136    -0.767648     3.391428
H        5.591575    -1.595489     4.615978
H        7.505086    -3.577790     4.257963
H        6.487229    -3.864840     5.727086
H        6.742659    -5.193328     4.531779
H        4.969990    -5.519160     2.956958
H        3.060242    -4.710677     1.712108
H        1.656563    -1.543348     4.700662
H       -0.112055     0.315443     5.372510
H       -1.092959     1.334044     3.115107
H        3.941850     3.126496    -1.330482
H        5.812318     4.073606    -2.529613
73
ex_0117 frame2 N2-trans-conf3
C        6.521754     3.809917     5.043363
C        5.357193     3.337321     4.230167
C        4.846733     2.054122     4.423820
C        3.770366     1.612261     3.666328
C        3.163103     2.435209     2.690931
B        1.940520     1.790473     1.841336
C        2.787020     1.060167     0.669555
C        4.212228     1.359715     0.270079
C        4.759524     0.731510    -0.773179
C        4.039461    -0.350995    -1.461780
C        2.771976    -0.678008    -1.113602
N        2.147004     0.034140    -0.068370
Sc       0.000000     0.000000     0.000000
Cl      -2.399390    -0.026829     0.044860
N        0.121585    -0.000896     2.145839
C       -0.641267    -0.516518     3.235241
C       -0.138226    -0.023990     4.427795
C        0.899066     0.825451     4.111024
N        1.010127     0.894737     2.707312
N       -0.029372     2.140637     0.197993
C       -0.841400     3.236630    -0.214789
C       -0.379778     4.405014     0.372568
C        0.704019     4.076007     1.159248
N        0.899296     2.684880     1.092704
N        0.016254    -0.127113    -2.146022
C       -0.480969     0.655848    -3.228317
C        0.115136     0.246666    -4.409367
C        0.993291    -0.769635    -4.098480
N        1.001725    -0.937621    -2.702721
B        1.912753    -1.847006    -1.825066
C        2.978317    -2.887063    -2.495436
C        2.924001    -3.413112    -3.795878
C        3.940133    -4.260361    -4.262052
C        5.024812    -4.600576    -3.437514
C        6.137093    -5.476024    -3.925402
C        5.071173    -4.114083    -2.133543
C        4.059461    -3.287126    -1.665519
N        0.985551    -2.706453    -0.910512
C        0.879384    -4.103252    -0.728556
C       -0.191189    -4.367320     0.119838
C       -0.703775    -3.149517     0.524906
N        0.059406    -2.146285    -0.081393
C        3.660381     3.741574     2.531059
C        4.769658     4.173553     3.270505
H        6.314858     4.822752     5.445869
H        7.428523     3.838244     4.404588
H        6.709804     3.131022     5.903619
H        5.305975     1.373869     5.131435
H        3.458402     0.584232     3.805264
H        4.782163     2.150565     0.739885
H        5.763525     1.017413    -1.050021
H        4.550642    -0.831005    -2.288305
H       -1.464222    -1.210933     3.151977
H       -0.501034    -0.232762     5.424908
H        1.470107     1.392235     4.832505
H       -1.710156     3.143762    -0.850795
H       -0.802407     5.394922     0.269340
H        1.235914     4.781128     1.774230
H       -1.227491     1.432010    -3.146607
H       -0.032973     0.670769    -5.393486
H        1.645775    -1.226078    -4.820160
H        2.102501    -3.208878    -4.454113
H        3.877620    -4.654404    -5.267231
H        6.163712    -6.404943    -3.318362
H        7.107605    -4.944725    -3.814409
H        6.002416    -5.743950    -4.993187
H        5.897745    -4.364521    -1.477400
H        4.146300    -2.929101    -0.644838
H        1.495946    -4.849073    -1.214352
H       -0.557159    -5.342259     0.412438
H       -1.541552    -2.991891     1.189164
H        3.289349     4.398824     1.766890
H        5.179921     5.158009     3.086014
73
ex_0117 frame3 N2-trans-Λ
C        5.748090     1.947671    -6.652673
C        4.753011     1.883599    -5.543898
C        4.606850     2.946812    -4.638518
C        3.650210     2.884198    -3.614782
C        2.879941     1.717511    -3.447681
B        1.793715     1.397075    -2.297354
C        2.708920     0.485463    -1.334127
C        4.219094     0.486872    -1.316384
C        4.874085    -0.246533    -0.424102
C        4.145973    -1.152138     0.469725
C        2.783684    -1.190346     0.487299
N        2.069032    -0.392631    -0.425673
Sc       0.000000     0.000000     0.000000
Cl      -2.317001     0.409678     0.471762
N       -0.368209     0.008643    -2.117063
C       -1.419003    -0.381254    -2.988580
C       -1.121955     0.024112    -4.278752
C        0.078997     0.699114    -4.228489
N        0.526071     0.719121    -2.891923
N        0.489369     2.083977    -0.202156
C        0.280516     3.278922     0.547461
C        0.870329     4.348549    -0.109245
C        1.469881     3.855904    -1.248955
N        1.280132     2.462134    -1.288955
N       -0.284569    -2.123839     0.157041
C       -1.313909    -3.056691    -0.130421
C       -0.937553    -4.306608     0.324606
C        0.292059    -4.166642     0.937625
N        0.671806    -2.808052     0.883734
B        1.931236    -2.106055     1.503985
C        3.047096    -3.166665     1.958691
C        3.777515    -3.153860     3.160520
C        4.778756    -4.111225     3.370886
C        5.013737    -5.115640     2.417668
C        6.068890    -6.144857     2.640231
C        4.254267    -5.153123     1.250715
C        3.286541    -4.196840     1.029913
N        1.294677    -1.155574     2.547405
C        1.313444    -1.041097     3.964286
C        0.454196    -0.024632     4.349563
C       -0.070931     0.534886     3.197106
N        0.488401    -0.126770     2.090301
C        3.045968     0.669922    -4.380604
C        3.959229     0.750008    -5.408760
H        5.638231     2.905788    -7.198284
H        5.589005     1.116034    -7.374235
H        6.767159     1.858799    -6.225316
H        5.244820     3.817764    -4.718128
H        3.625986     3.699340    -2.920800
H        4.800509     1.150978    -1.944239
H        5.951963    -0.178862    -0.424274
H        4.764004    -1.700004     1.168275
H       -2.315344    -0.881849    -2.654651
H       -1.722560    -0.134096    -5.161565
H        0.571610     1.159796    -5.074578
H       -0.264343     3.326149     1.479701
H        0.865044     5.385550     0.198267
H        1.984633     4.468455    -1.963564
H       -2.248139    -2.787269    -0.601689
H       -1.507131    -5.220094     0.239184
H        0.836379    -4.968813     1.416080
H        3.679184    -2.362316     3.882587
H        5.391392    -4.055638     4.261741
H        6.098640    -6.873630     1.800637
H        7.053991    -5.640653     2.706727
H        5.853920    -6.694237     3.578244
H        4.423657    -5.901037     0.487118
H        2.762376    -4.228903     0.081486
H        1.812677    -1.711169     4.645166
H        0.218856     0.254467     5.368499
H       -0.802734     1.329585     3.160277
H        2.502769    -0.263331    -4.280599
H        4.068540    -0.099647    -6.070749
73
ex_0117 frame4 N2-trans-Λ-conf3
C        6.486422     5.126006    -3.759429
C        5.331897     4.291304    -3.299938
C        4.781686     4.499714    -2.035766
C        3.714452     3.723319    -1.605375
C        3.155847     2.713301    -2.421094
B        1.938624     1.846616    -1.787641
C        2.793955     0.706817    -1.014015
C        4.239768     0.346721    -1.262812
C        4.797177    -0.666258    -0.596014
C        4.065980    -1.351366     0.482313
C        2.780204    -1.037937     0.767033
N        2.147512    -0.040219    -0.000569
Sc       0.000000     0.000000     0.000000
Cl      -2.399086    -0.035339    -0.022617
N        0.077771     2.147438    -0.042409
C       -0.735277     3.226027     0.416268
C       -0.256246     4.419073    -0.098202
C        0.813324     4.110563    -0.909902
N        0.966532     2.709434    -0.936158
N        0.013580     0.150370    -2.144690
C       -0.751931    -0.317262    -3.252268
C       -0.271782     0.250371    -4.423155
C        0.780009     1.075742    -4.085521
N        0.938112     1.050867    -2.688402
N        0.048067    -2.140935     0.188780
C       -0.380668    -3.249072    -0.598886
C        0.243276    -4.402487    -0.155831
C        1.078566    -4.046969     0.881448
N        1.037638    -2.649378     1.024163
B        1.908279    -1.731294     1.934977
C        2.962994    -2.354824     3.014226
C        2.929737    -3.645644     3.565962
C        3.935291    -4.066087     4.449465
C        4.987722    -3.204920     4.800535
C        6.088331    -3.642323     5.716681
C        5.012655    -1.911156     4.286366
C        4.011752    -1.488565     3.423040
N        0.937101    -0.825213     2.747017
C        0.791122    -0.625911     4.132631
C       -0.314966     0.188296     4.354708
C       -0.802392     0.561056     3.117906
N        0.012455    -0.031059     2.148360
C        3.692784     2.537227    -3.709548
C        4.793469     3.296934    -4.128932
H        6.298121     5.497456    -4.787751
H        7.411533     4.513448    -3.744841
H        6.629474     6.008089    -3.097405
H        5.203050     5.234686    -1.359953
H        3.371225     3.877276    -0.589563
H        4.819719     0.814059    -2.048768
H        5.817443    -0.916926    -0.846261
H        4.585829    -2.150546     0.995284
H       -1.574140     3.136942     1.090637
H       -0.656550     5.409524     0.069690
H        1.376430     4.832594    -1.484040
H       -1.602617    -0.978281    -3.167706
H       -0.660445     0.106739    -5.422017
H        1.317355     1.684099    -4.792251
H       -1.105529    -3.204166    -1.398236
H        0.143681    -5.396410    -0.571254
H        1.743189    -4.739216     1.364909
H        2.131931    -4.330502     3.354650
H        3.889303    -5.063951     4.863827
H        6.072491    -3.014546     6.632114
H        7.069916    -3.515381     5.209867
H        5.975900    -4.707294     6.005190
H        5.814041    -1.227349     4.544135
H        4.081007    -0.473710     3.045055
H        1.410377    -1.062610     4.906316
H       -0.718903     0.481965     5.314193
H       -1.655718     1.195412     2.924702
H        3.359979     1.748565    -4.358350
H        5.235381     3.101589    -5.097520
73
ex_0117 frame5 N2-trans-Λ-conf6
C        5.695466     6.585019    -2.474294
C        4.725734     5.468685    -2.283444
C        4.663814     4.386739    -3.174294
C        3.731436     3.361412    -2.977090
C        2.881444     3.386085    -1.852984
B        1.804750     2.259791    -1.447466
C        2.667459     1.477449    -0.328413
C        4.165641     1.531063    -0.150399
C        4.738805     0.860931     0.845127
C        3.927101     0.066284     1.783900
C        2.584400    -0.078071     1.614862
N        1.960194     0.649313     0.591108
Sc       0.000000     0.000000     0.000000
Cl      -2.192324    -0.739755    -0.642908
N       -0.502193     2.064001    -0.323710
C       -1.595364     2.916310    -0.023956
C       -1.302882     4.199118    -0.449212
C       -0.035141     4.171570    -0.997379
N        0.451597     2.849371    -0.940299
N        0.696815     0.036095    -2.034414
C        0.327597    -0.626102    -3.249015
C        0.874622     0.038769    -4.340051
C        1.520294     1.152586    -3.858176
N        1.361784     1.186065    -2.460349
N       -0.612401     0.098682     2.057808
C       -1.877187     0.093977     2.718454
C       -1.749744    -0.405384     4.000790
C       -0.436856    -0.783829     4.146484
N        0.219763    -0.585502     2.913704
B        1.655143    -1.046490     2.531105
C        2.568375    -1.202754     3.836393
C        3.483428    -2.233295     4.106474
C        4.252339    -2.184682     5.274087
C        4.080708    -1.137487     6.194794
C        4.877509    -1.064084     7.448695
C        3.147357    -0.137742     5.942259
C        2.402454    -0.174787     4.786208
N        1.449677    -2.229818     1.550453
C        1.814351    -3.603613     1.512654
C        1.456904    -4.131043     0.283219
C        0.798797    -3.135960    -0.425696
N        0.739496    -1.983247     0.380783
C        2.958889     4.489822    -0.982367
C        3.865076     5.511866    -1.190217
H        6.346857     6.406296    -3.353080
H        6.326998     6.668305    -1.564517
H        5.136464     7.533376    -2.620824
H        5.354405     4.323164    -4.005822
H        3.780968     2.521495    -3.645876
H        4.799561     2.075835    -0.840156
H        5.819119     0.877063     0.950568
H        4.490337    -0.482457     2.522936
H       -2.510322     2.570600     0.435350
H       -1.950004     5.060549    -0.381930
H        0.466109     5.022463    -1.436041
H       -0.253228    -1.534895    -3.305020
H        0.790372    -0.227829    -5.386091
H        1.992646     1.890872    -4.484869
H       -2.782989     0.476731     2.284446
H       -2.523544    -0.488407     4.753961
H       -0.017935    -1.216407     5.047772
H        3.699439    -3.007767     3.393607
H        5.008059    -2.939979     5.441350
H        5.528129    -0.165932     7.396738
H        5.503796    -1.968986     7.573175
H        4.191183    -0.973305     8.317355
H        2.999617     0.687828     6.627156
H        1.722579     0.652267     4.612800
H        2.317600    -4.148022     2.293946
H        1.667383    -5.138895    -0.051878
H        0.406770    -3.237250    -1.428169
H        2.355879     4.536192    -0.083982
H        3.911296     6.322079    -0.473914
73
ex_0117 frame6 N2-trans-Δ
C        6.459528     5.284116     3.448648
C        5.286829     4.423976     3.104779
C        4.725660     3.556188     4.054035
C        3.611344     2.767236     3.730657
C        3.090785     2.784107     2.422581
B        1.877999     1.879998     1.830614
C        2.751178     0.769687     1.058977
C        4.192800     0.444328     1.357912
C        4.792660    -0.556010     0.722734
C        4.109329    -1.257880    -0.367113
C        2.810075    -0.993122    -0.675839
N        2.147115     0.030281     0.020147
Sc       0.000000     0.000000     0.000000
Cl      -2.398282    -0.064390    -0.011562
N       -0.062699     2.144134     0.135384
C       -0.704997     3.234292    -0.520985
C       -0.189170     4.431949    -0.049343
C        0.786388     4.121729     0.869427
N        0.889149     2.719385     0.964263
N        0.122327     0.038125     2.146254
C       -0.524509    -0.614035     3.234463
C       -0.069895    -0.080822     4.430581
C        0.852540     0.899281     4.125727
N        0.982654     0.973777     2.725969
N        0.105482    -0.026184    -2.146134
C       -0.578782     0.550748    -3.252084
C       -0.029738     0.078167    -4.431473
C        0.971915    -0.806128    -4.090692
N        1.041447    -0.895056    -2.683706
B        1.981564    -1.791732    -1.802260
C        3.191555    -2.432720    -2.658965
C        3.639864    -3.762850    -2.582754
C        4.759986    -4.164940    -3.322368
C        5.403271    -3.265816    -4.187195
C        6.591613    -3.695782    -4.983031
C        4.927381    -1.960691    -4.302916
C        3.836671    -1.554779    -3.555119
N        0.954471    -2.708774    -1.085868
C        0.660554    -4.094029    -1.101997
C       -0.471950    -4.325230    -0.335032
C       -0.856448    -3.115227     0.210092
N        0.064970    -2.140063    -0.197030
C        3.668617     3.680395     1.492937
C        4.743292     4.484186     1.825024
H        6.259317     5.832733     4.390843
H        6.654207     6.030524     2.647249
H        7.358083     4.643926     3.562943
H        5.163503     3.479042     5.041147
H        3.270078     2.081809     4.477731
H        4.733950     0.919265     2.166433
H        5.809712    -0.782796     1.006588
H        4.671782    -2.065001    -0.816852
H       -1.478360     3.121835    -1.265841
H       -0.482793     5.431308    -0.337253
H        1.373636     4.846513     1.417473
H       -1.273932    -1.384412     3.120013
H       -0.387402    -0.357847     5.426486
H        1.340796     1.506641     4.863885
H       -1.412111     1.232007    -3.157175
H       -0.331501     0.335443    -5.436953
H        1.576240    -1.352791    -4.801081
H        3.225001    -4.463337    -1.881248
H        5.146055    -5.168900    -3.200203
H        6.960150    -2.871165    -5.631683
H        7.405617    -3.989192    -4.289005
H        6.313879    -4.554108    -5.627143
H        5.415198    -1.238945    -4.946326
H        3.539497    -0.515074    -3.631087
H        1.153036    -4.844165    -1.699464
H       -0.976563    -5.274153    -0.210624
H       -1.725596    -2.944817     0.828949
H        3.329686     3.714456     0.463552
H        5.174035     5.120719     1.061720
73
ex_0117 frame7 N2-trans
C        6.364814     5.616382     3.063667
C        5.219064     4.697428     2.790556
C        4.738145     3.828409     3.782038
C        3.646499     2.985298     3.524938
C        3.070580     2.950401     2.240664
B        1.873213     1.986475     1.717962
C        2.760937     0.890962     0.937340
C        4.227079     0.634716     1.181560
C        4.842754    -0.353766     0.543967
C        4.145097    -1.110274    -0.501844
C        2.824057    -0.907637    -0.760949
N        2.145099     0.099388    -0.053104
Sc       0.000000     0.000000     0.000000
Cl      -2.396832    -0.130960     0.043877
N       -0.134970     2.142999     0.094180
C       -0.857672     3.190840    -0.545519
C       -0.374981     4.417654    -0.117201
C        0.653275     4.166524     0.762060
N        0.820292     2.771559     0.876879
N        0.197448     0.090981     2.139217
C       -0.366212    -0.571903     3.267046
C        0.119953     0.000730     4.432714
C        0.984379     1.012931     4.070300
N        1.049619     1.065963     2.665479
N        0.036755    -0.063570    -2.147632
C       -0.730113     0.438605    -3.234676
C       -0.216333    -0.047638    -4.424188
C        0.841351    -0.873359    -4.105894
N        0.975593    -0.918124    -2.701820
B        1.981668    -1.757815    -1.838458
C        3.180057    -2.373395    -2.724599
C        3.688714    -3.681247    -2.635285
C        4.793518    -4.053260    -3.413318
C        5.358633    -3.149016    -4.326472
C        6.528410    -3.545992    -5.164603
C        4.822086    -1.868944    -4.451212
C        3.748487    -1.491848    -3.666824
N        1.022370    -2.698517    -1.057267
C        0.791872    -4.098931    -1.015905
C       -0.291433    -4.356154    -0.188747
C       -0.713459    -3.146335     0.332469
N        0.133113    -2.140393    -0.154902
C        3.569829     3.846893     1.267136
C        4.620338     4.703644     1.534550
H        6.183498     6.172371     4.005383
H        6.485214     6.356367     2.241801
H        7.296383     5.019816     3.144143
H        5.220556     3.793699     4.750554
H        3.366906     2.303865     4.300980
H        4.782608     1.152592     1.954219
H        5.879770    -0.529679     0.789025
H        4.724166    -1.898427    -0.960307
H       -1.660841     3.029165    -1.248799
H       -0.726556     5.397281    -0.407663
H        1.230638     4.925866     1.272225
H       -1.081905    -1.379040     3.200988
H       -0.136711    -0.272402     5.447129
H        1.481810     1.651852     4.774766
H       -1.595869     1.074388    -3.117531
H       -0.581057     0.158445    -5.420314
H        1.433115    -1.419635    -4.827137
H        3.335177    -4.381059    -1.899757
H        5.229033    -5.036085    -3.284919
H        6.830315    -2.721949    -5.847633
H        7.383954    -3.786037    -4.500983
H        6.260327    -4.430773    -5.776060
H        5.249035    -1.142440    -5.131284
H        3.404174    -0.467781    -3.753875
H        1.287249    -4.841203    -1.621160
H       -0.739476    -5.324252    -0.009047
H       -1.559613    -2.997750     0.987451
H        3.186798     3.842201     0.252694
H        4.989303     5.339722     0.739270
73
ex_0117 frame8 Isomer 1
C        7.395965    -1.598554    -1.380684
C        5.990173    -1.119439    -1.549829
C        5.714085     0.232925    -1.800992
C        4.393696     0.670752    -1.987522
C        3.321695    -0.233329    -1.850470
B        1.727691     0.092547    -1.943318
C        1.384727     0.139076    -0.383216
C        2.407809     0.366878     0.705705
C        2.025202     0.461589     1.969582
C        0.634317     0.212132     2.332891
C       -0.326765     0.004338     1.389430
N        0.039418    -0.042685     0.030075
Sc      -1.489475     0.244669    -1.454006
Cl      -3.181461     0.595157    -3.119405
N       -0.415794    -1.113912    -2.727352
C       -0.717072    -2.202302    -3.594450
C        0.455633    -2.702838    -4.139628
C        1.492286    -1.950969    -3.637976
N        0.963067    -0.981072    -2.764439
N       -0.196926     1.767099    -2.250688
C       -0.343368     3.110954    -2.696144
C        0.880222     3.587960    -3.140580
C        1.807326     2.581057    -2.969866
N        1.162761     1.471133    -2.393962
N       -2.589539    -1.320025    -0.474037
C       -3.384940    -2.438815    -0.845233
C       -3.839086    -3.082986     0.293761
C       -3.355162    -2.386483     1.379232
N       -2.599303    -1.290663     0.914165
B       -1.868851    -0.191026     1.755866
C       -1.772398    -0.571197     3.334889
C       -2.022906     0.297446     4.415245
C       -1.820894    -0.142691     5.732126
C       -1.427651    -1.464687     5.990032
C       -1.224276    -1.938526     7.393692
C       -1.225757    -2.341224     4.925104
C       -1.401069    -1.902091     3.622863
N       -2.606178     1.086773     1.300787
C       -3.448024     2.031013     1.936394
C       -3.927757     2.915964     0.985164
C       -3.351039     2.577217    -0.225555
N       -2.484255     1.495206    -0.014904
C        3.634929    -1.591306    -1.602414
C        4.939480    -2.027008    -1.457023
H        8.021001    -1.230331    -2.219207
H        7.439969    -2.710066    -1.379505
H        7.794413    -1.226009    -0.415110
H        6.523455     0.951097    -1.838863
H        4.248201     1.722419    -2.115369
H        3.447769     0.571972     0.489377
H        2.788129     0.669090     2.705303
H        0.422095     0.316397     3.388708
H       -1.717421    -2.556395    -3.790421
H        0.556703    -3.523827    -4.833961
H        2.537149    -2.090987    -3.882585
H       -1.280331     3.648786    -2.695313
H        1.083309     4.563449    -3.559453
H        2.837495     2.664391    -3.257809
H       -3.601866    -2.708295    -1.867830
H       -4.466639    -3.961173     0.338163
H       -3.553796    -2.640134     2.411680
H       -2.253409     1.336698     4.269396
H       -1.942497     0.553510     6.552904
H       -0.940771    -3.013634     7.418614
H       -0.410348    -1.349176     7.863598
H       -2.163811    -1.809920     7.968349
H       -0.900862    -3.360814     5.092741
H       -1.173701    -2.601626     2.827501
H       -3.772378     2.004128     2.964547
H       -4.645935     3.705873     1.157791
H       -3.548742     3.049969    -1.175768
H        2.853440    -2.327407    -1.451750
H        5.119197    -3.071075    -1.230764
73
ex_0117 frame9 N2-trans-Λ-conf2
C        5.729402     1.936438    -6.636094
C        4.740250     1.878436    -5.520860
C        4.601879     2.943830    -4.616699
C        3.644779     2.891490    -3.590685
C        2.866316     1.730309    -3.416818
B        1.768828     1.414793    -2.266857
C        2.712074     0.515016    -1.319013
C        4.218072     0.508643    -1.305176
C        4.873266    -0.230643    -0.418493
C        4.149093    -1.126850     0.488165
C        2.788188    -1.163226     0.499136
N        2.080622    -0.367158    -0.397106
Sc       0.000000     0.000000     0.000000
Cl      -2.331471     0.384947     0.439504
N       -0.393568     0.014381    -2.112055
C       -1.430045    -0.378646    -2.987619
C       -1.118716     0.018163    -4.276250
C        0.082081     0.694289    -4.219150
N        0.510773     0.725707    -2.877288
N        0.427233     2.102002    -0.148948
C        0.251989     3.304362     0.590714
C        0.858824     4.362757    -0.076387
C        1.437560     3.858650    -1.219194
N        1.235657     2.470160    -1.244680
N       -0.277541    -2.127175     0.109876
C       -1.323449    -3.044110    -0.137208
C       -0.953103    -4.287700     0.337201
C        0.285916    -4.149859     0.935523
N        0.666644    -2.794543     0.864956
B        1.920779    -2.083662     1.499123
C        3.041884    -3.142999     1.955504
C        3.782509    -3.130822     3.152849
C        4.780113    -4.093228     3.358957
C        5.003558    -5.100965     2.407301
C        6.052729    -6.135189     2.628543
C        4.238674    -5.136596     1.244515
C        3.274927    -4.176109     1.027553
N        1.279598    -1.126705     2.541647
C        1.312740    -1.027974     3.958567
C        0.459548    -0.015570     4.362418
C       -0.083663     0.556996     3.220050
N        0.465997    -0.090469     2.097354
C        3.033524     0.676396    -4.346537
C        3.944189     0.748466    -5.378302
H        5.641872     2.907400    -7.163310
H        5.541786     1.124284    -7.373458
H        6.748517     1.811315    -6.218099
H        5.245630     3.809862    -4.701404
H        3.627231     3.709759    -2.899445
H        4.793371     1.161789    -1.945343
H        5.953158    -0.170371    -0.357708
H        4.764690    -1.675522     1.186657
H       -2.325932    -0.870413    -2.645146
H       -1.712539    -0.146388    -5.160731
H        0.584203     1.151318    -5.062729
H       -0.270266     3.366674     1.533946
H        0.887446     5.400693     0.225967
H        1.965494     4.450765    -1.941432
H       -2.247353    -2.826229    -0.652308
H       -1.537874    -5.191329     0.279666
H        0.828495    -4.943497     1.430464
H        3.698398    -2.336238     3.873547
H        5.400191    -4.039313     4.244841
H        6.075134    -6.866335     1.790851
H        7.038977    -5.633117     2.689299
H        5.839034    -6.679835     3.569811
H        4.400389    -5.885939     0.480398
H        2.749819    -4.207480     0.079855
H        1.824378    -1.706630     4.620788
H        0.243628     0.246809     5.390257
H       -0.818970     1.349652     3.206173
H        2.492126    -0.257420    -4.242684
H        4.050027    -0.104494    -6.037696
73
ex_0117 frame10 N2-trans-Δ-conf4
C        6.443831     3.089251     5.533866
C        5.245302     2.789858     4.689883
C        4.258042     3.759653     4.433624
C        3.161715     3.468626     3.600648
C        3.040530     2.197129     3.021030
B        1.893331     1.688412     1.977541
C        2.745900     0.978046     0.813805
C        4.156747     1.350660     0.423850
C        4.778128     0.680611    -0.540382
C        4.107338    -0.441297    -1.213997
C        2.805270    -0.748009    -0.950064
N        2.144357    -0.076444     0.091578
Sc       0.000000     0.000000     0.000000
Cl      -2.397531     0.058712    -0.095776
N        0.165762     2.139088     0.145535
C       -0.345959     3.273103    -0.549419
C        0.240321     4.427206    -0.049091
C        1.110284     4.052802     0.957225
N        1.091125     2.651247     1.060581
N       -0.129290     0.073725     2.143994
C       -0.842675    -0.552307     3.208513
C       -0.284569    -0.181287     4.423780
C        0.790827     0.635255     4.147618
N        0.869703     0.813540     2.755196
N        0.024468    -2.147241    -0.082456
C       -0.724099    -3.238149     0.446133
C       -0.211439    -4.428731    -0.039967
C        0.836046    -4.110464    -0.878073
N        0.966067    -2.706642    -0.931101
B        1.970851    -1.849372    -1.773698
C        3.170569    -2.736862    -2.403714
C        3.660264    -2.627535    -3.717480
C        4.767868    -3.387884    -4.118463
C        5.356641    -4.309739    -3.239092
C        6.534828    -5.126048    -3.668680
C        4.835233    -4.462700    -1.954301
C        3.757633    -3.691335    -1.546469
N        0.998836    -1.063602    -2.703816
C        0.743893    -1.035946    -4.099151
C       -0.331640    -0.194604    -4.347719
C       -0.724791     0.348555    -3.138336
N        0.127966    -0.143298    -2.141464
C        4.015926     1.217310     3.363853
C        5.110765     1.518112     4.148351
H        6.199326     2.872488     6.592924
H        6.758223     4.145161     5.411566
H        7.301776     2.445192     5.233884
H        4.345704     4.745023     4.869641
H        2.430820     4.236323     3.428610
H        4.660724     2.194568     0.885357
H        5.771735     0.984474    -0.858573
H        4.670566    -0.891041    -2.020167
H       -1.056948     3.218002    -1.362649
H        0.072818     5.438594    -0.394168
H        1.732869     4.737009     1.504451
H       -1.690888    -1.207254     3.068844
H       -0.619630    -0.469090     5.410502
H        1.434368     1.098033     4.884611
H       -1.574839    -3.128624     1.104171
H       -0.567620    -5.426439     0.176398
H        1.425308    -4.832123    -1.425771
H        3.287381    -1.885611    -4.400227
H        5.186468    -3.238511    -5.105667
H        7.385918    -4.449560    -3.891175
H        6.848570    -5.832976    -2.869656
H        6.274449    -5.711941    -4.573147
H        5.281112    -5.152824    -1.248466
H        3.426507    -3.798902    -0.520233
H        1.215945    -1.661413    -4.840148
H       -0.796215    -0.019714    -5.308528
H       -1.557400     1.018870    -2.982079
H        3.973406     0.206740     2.969991
H        5.855107     0.749386     4.325913
73
ex_0117 frame11 N2-trans-conf5
C        6.541923     3.472685     5.172406
C        5.325840     3.106534     4.386440
C        4.282345     4.025470     4.166814
C        3.166161     3.672313     3.389230
C        3.083222     2.389546     2.833407
B        1.918738     1.813838     1.859128
C        2.738968     1.113914     0.666902
C        4.113209     1.539255     0.209858
C        4.722030     0.868612    -0.758530
C        4.070986    -0.294161    -1.376012
C        2.798268    -0.652846    -1.056882
N        2.148408     0.019998    -0.015000
Sc       0.000000     0.000000     0.000000
Cl      -2.399040    -0.043250    -0.006174
N        0.069150     2.145413     0.126937
C       -0.517200     3.235878    -0.575968
C        0.044819     4.425920    -0.136570
C        0.974966     4.115723     0.837937
N        1.023092     2.717767     0.972466
N        0.055884     0.056824     2.147581
C       -0.632536    -0.525230     3.250402
C       -0.065493    -0.082610     4.436220
C        0.965093     0.771108     4.102281
N        0.998665     0.898159     2.701917
N        0.101375    -2.145562    -0.063400
C       -0.563502    -3.248015     0.544543
C       -0.008770    -4.429623     0.086101
C        0.987726    -4.093041    -0.806310
N        1.049801    -2.686409    -0.913408
B        1.991952    -1.808783    -1.808287
C        3.197002    -2.658698    -2.459187
C        3.628390    -2.556530    -3.792890
C        4.745994    -3.280991    -4.222342
C        5.402151    -4.160552    -3.348311
C        6.589367    -4.939754    -3.809906
C        4.940061    -4.305975    -2.040009
C        3.852691    -3.567443    -1.604688
N        0.966131    -1.084617    -2.710557
C        0.643731    -1.128459    -4.086714
C       -0.476840    -0.344194    -4.310660
C       -0.819646     0.240379    -3.106372
N        0.116535    -0.157797    -2.141355
C        4.119174     1.461201     3.135863
C        5.232110     1.823622     3.863112
H        6.348622     3.257647     6.242232
H        6.797786     4.540642     5.024071
H        7.414899     2.864424     4.843344
H        4.339373     5.018563     4.589089
H        2.388038     4.398447     3.243032
H        4.602442     2.409698     0.636089
H        5.691819     1.196295    -1.118053
H        4.614640    -0.735397    -2.197750
H       -1.256793     3.124506    -1.357066
H       -0.176724     5.417967    -0.505350
H        1.598450     4.838470     1.332994
H       -1.473839    -1.196423     3.151223
H       -0.372294    -0.341906     5.439623
H        1.598066     1.298029     4.804491
H       -1.384331    -3.150731     1.241553
H       -0.300820    -5.433637     0.361536
H        1.596159    -4.807422    -1.342156
H        3.200772    -1.843331    -4.474543
H        5.118208    -3.136087    -5.228480
H        7.403595    -4.233431    -4.072483
H        6.955713    -5.622306    -3.012605
H        6.314113    -5.546458    -4.695969
H        5.439108    -4.962390    -1.338148
H        3.566568    -3.662369    -0.563528
H        1.107476    -1.756820    -4.831351
H       -1.004950    -0.239265    -5.248867
H       -1.677146     0.873054    -2.930698
H        4.105817     0.444467     2.754400
H        6.019979     1.093228     4.012271
73
ex_0117 frame12 N2-trans-Δ-conf8
C        5.642507     2.404636     6.637927
C        4.691214     2.224423     5.506551
C        4.666781     3.108443     4.417655
C        3.749487     2.921057     3.377811
C        2.877238     1.812828     3.399291
B        1.808587     1.416028     2.268298
C        2.669879     0.289536     1.488180
C        4.155404     0.074588     1.581537
C        4.713700    -0.952766     0.949214
C        3.905123    -1.864174     0.120345
C        2.576872    -1.653733    -0.073552
N        1.967352    -0.599682     0.618943
Sc       0.000000     0.000000     0.000000
Cl      -2.178604     0.716043    -0.708282
N        0.679978     2.038528     0.079191
C        0.346010     3.259514    -0.590865
C        0.917296     4.338241     0.073408
C        1.551305     3.842459     1.187957
N        1.369940     2.447051     1.216692
N       -0.469636     0.216746     2.084976
C       -1.611041     0.025177     2.890967
C       -1.339765     0.473227     4.168371
C       -0.056142     0.988674     4.163138
N        0.455444     0.892037     2.854196
N        0.690943    -0.343501    -2.007069
C        0.881866     0.403119    -3.210294
C        1.567272    -0.369546    -4.139219
C        1.863448    -1.571870    -3.537046
N        1.418249    -1.518136    -2.208315
B        1.636885    -2.540499    -1.056076
C        2.528969    -3.865667    -1.195137
C        2.305140    -4.820199    -0.171724
C        3.005133    -5.997539    -0.114232
C        3.954214    -6.276864    -1.087217
C        4.700320    -7.557360    -1.001185
C        4.190553    -5.357604    -2.122614
C        3.471031    -4.161676    -2.189475
N        0.191601    -2.916854    -0.667710
C       -0.524060    -4.118671    -0.815090
C       -1.848457    -3.895011    -0.470063
C       -1.927521    -2.589264    -0.051086
N       -0.635442    -2.050124    -0.083494
C        2.921637     0.948565     4.506981
C        3.809916     1.148162     5.542898
H        6.329232     3.253848     6.450797
H        5.070195     2.592020     7.570984
H        6.237263     1.473723     6.751156
H        5.373569     3.926762     4.361844
H        3.826415     3.583610     2.533526
H        4.783875     0.739479     2.159624
H        5.781506    -1.110630     1.029551
H        4.458517    -2.635139    -0.390013
H       -0.233052     3.328196    -1.499914
H        0.860920     5.385077    -0.197492
H        2.045227     4.456144     1.922136
H       -2.538602    -0.429933     2.576475
H       -2.018429     0.451097     5.004511
H        0.432337     1.447102     5.011108
H        0.510024     1.401407    -3.375560
H        1.831499    -0.099664    -5.153416
H        2.392845    -2.371845    -4.019738
H        1.614094    -4.645511     0.646249
H        2.804753    -6.677942     0.705260
H        5.360352    -7.514327    -0.109889
H        3.981917    -8.397741    -0.892412
H        5.309660    -7.714508    -1.911689
H        4.961884    -5.547763    -2.853761
H        3.743180    -3.456009    -2.950136
H       -0.138967    -5.065162    -1.175046
H       -2.668415    -4.597909    -0.533414
H       -2.831432    -2.104663     0.287302
H        2.305626     0.059284     4.547429
H        3.826769     0.435299     6.356687
73
ex_0117 frame13 N2-trans-conf8
C        6.461010     4.065625     4.863340
C        5.307785     3.568224     4.066426
C        4.689913     4.376616     3.105052
C        3.601626     3.897147     2.375443
C        3.141168     2.580708     2.572454
B        1.930246     1.886380     1.772357
C        2.775297     1.042102     0.711037
C        4.178277     1.301934     0.327021
C        4.799412     0.455914    -0.476454
C        4.091758    -0.660631    -1.099138
C        2.785144    -0.872010    -0.866290
N        2.145278    -0.055699     0.069769
Sc       0.000000     0.000000     0.000000
Cl      -2.399230     0.057458    -0.034354
N        0.091423     2.148534     0.052251
C       -0.797363     3.185493    -0.334655
C       -0.429745     4.374458     0.276519
C        0.652920     4.108244     1.083324
N        0.921539     2.736468     1.003919
N        0.102230     0.121282     2.142121
C       -0.556578    -0.481306     3.225129
C       -0.009594    -0.007163     4.399235
C        0.992397     0.881846     4.066797
N        1.034934     0.988259     2.668571
N        0.199932    -0.213344    -2.129839
C       -0.226128     0.488679    -3.280164
C        0.315277    -0.107912    -4.409000
C        1.109054    -1.157138    -3.995779
N        1.113425    -1.159822    -2.597503
B        1.938601    -2.012942    -1.612667
C        3.094497    -3.028244    -2.056404
C        3.473297    -3.979170    -1.077599
C        4.478734    -4.891239    -1.315113
C        5.130938    -4.887019    -2.544400
C        6.216758    -5.867534    -2.796845
C        4.761282    -3.963239    -3.530306
C        3.739351    -3.048850    -3.296539
N        0.846954    -2.783119    -0.857070
C        0.535526    -4.159068    -0.783377
C       -0.583772    -4.324653     0.011806
C       -0.973698    -3.068638     0.428922
N       -0.053587    -2.145996    -0.077621
C        3.780904     1.790060     3.546434
C        4.841450     2.275446     4.286909
H        6.775446     5.070140     4.515083
H        6.181147     4.112681     5.936656
H        7.305403     3.358723     4.729648
H        5.067879     5.369241     2.901129
H        3.224243     4.532017     1.594381
H        4.714311     2.128661     0.752419
H        5.837767     0.600956    -0.693272
H        4.648548    -1.218481    -1.824762
H       -1.609950     3.051988    -1.028054
H       -0.897643     5.335683     0.150882
H        1.167692     4.831622     1.690972
H       -1.378627    -1.162334     3.085847
H       -0.327505    -0.267882     5.389033
H        1.589865     1.446152     4.767702
H       -0.872772     1.348544    -3.236308
H        0.151277     0.192129    -5.427938
H        1.657026    -1.814859    -4.645930
H        3.026196    -3.990637    -0.087170
H        4.749509    -5.588264    -0.531066
H        7.098641    -5.571476    -2.193216
H        5.878672    -6.883372    -2.503546
H        6.491489    -5.871490    -3.870539
H        5.297124    -3.919017    -4.465728
H        3.558326    -2.305512    -4.045513
H        1.073997    -4.941124    -1.302423
H       -1.065959    -5.257853     0.250770
H       -1.826557    -2.830806     1.044102
H        3.506070     0.753684     3.697939
H        5.320911     1.622498     5.004515
73
ex_0117 frame14 N2-trans-Λ-conf9
C        6.396740     3.822405    -5.114876
C        5.226447     3.233600    -4.406639
C        4.298083     2.439271    -5.086258
C        3.200540     1.901152    -4.411363
C        3.033717     2.116124    -3.026894
B        1.824717     1.501496    -2.129645
C        2.614384     0.316871    -1.451782
C        3.830182    -0.311577    -1.978863
C        4.433693    -1.247350    -1.276606
C        3.836862    -1.781702    -0.064742
C        2.680534    -1.299342     0.400867
N        2.123863    -0.191801    -0.237610
Sc       0.000000     0.000000     0.000000
Cl      -2.373645     0.229191     0.275417
N       -0.241556     0.032615    -2.110980
C       -1.361550    -0.082017    -2.954937
C       -1.174423     0.636561    -4.114627
C        0.060768     1.224427    -4.041995
N        0.558176     0.938760    -2.784645
N        0.254433     2.129655    -0.094710
C        0.116673     3.260002     0.690130
C        0.817529     4.320622     0.147814
C        1.533506     3.851102    -0.926264
N        1.232733     2.495473    -1.082426
N       -0.133528    -2.142941     0.120719
C       -0.917913    -3.156577    -0.414733
C       -0.496751    -4.367552     0.094542
C        0.553961    -4.135005     0.965672
N        0.822024    -2.769230     0.943512
B        1.934864    -1.948429     1.647331
C        3.162326    -2.627090     2.438222
C        3.887118    -1.778787     3.308636
C        4.984000    -2.239700     4.011750
C        5.382658    -3.566708     3.873453
C        6.565956    -4.061933     4.624512
C        4.669023    -4.424835     3.030304
C        3.557314    -3.966679     2.330606
N        1.153178    -1.017335     2.588740
C        1.142296    -0.933945     4.000511
C        0.258184     0.047960     4.383225
C       -0.288015     0.590764     3.227620
N        0.292955    -0.068242     2.124308
C        3.985288     2.924360    -2.368573
C        5.058446     3.480687    -3.046953
H        6.448863     3.456961    -6.161097
H        6.323928     4.930260    -5.108035
H        7.317716     3.508222    -4.582815
H        4.440211     2.213343    -6.134839
H        2.575642     1.229971    -4.971374
H        4.264134     0.043270    -2.888005
H        5.360892    -1.645424    -1.617222
H        4.309108    -2.647370     0.345982
H       -2.262913    -0.591954    -2.670066
H       -1.864267     0.722275    -4.927435
H        0.543111     1.788097    -4.825716
H       -0.552130     3.265306     1.523337
H        0.841837     5.336063     0.514814
H        2.165499     4.448249    -1.569763
H       -1.714146    -2.936261    -1.104175
H       -0.927052    -5.316926    -0.144687
H        1.076369    -4.877408     1.535814
H        3.642385    -0.725756     3.409291
H        5.525126    -1.554049     4.652034
H        7.478133    -3.634643     4.160754
H        6.495112    -3.746414     5.686398
H        6.619651    -5.168502     4.576826
H        5.004335    -5.439419     2.876633
H        3.111142    -4.639395     1.627163
H        1.708011    -1.591732     4.649904
H        0.034317     0.315664     5.400260
H       -1.033169     1.366062     3.190910
H        3.945653     3.079650    -1.298096
H        5.781273     4.070682    -2.497883
73
ex_0117 frame15 N2-trans-Λ-conf4
C        6.437042     5.110278    -3.716707
C        5.317614     4.256042    -3.240521
C        4.773151     4.444992    -1.973111
C        3.725710     3.647327    -1.548451
C        3.176140     2.649377    -2.379614
B        1.945949     1.797122    -1.768501
C        2.752315     0.705093    -0.967837
C        4.117689     0.293654    -1.254441
C        4.694080    -0.634349    -0.523857
C        3.971623    -1.348037     0.498247
C        2.729087    -1.001119     0.810315
N        2.141966     0.050126     0.118611
Sc       0.000000     0.000000     0.000000
Cl      -2.396802    -0.061998    -0.105038
N        0.040389     2.143424    -0.090467
C       -0.759856     3.178483     0.352055
C       -0.225340     4.358550    -0.102110
C        0.874054     4.061525    -0.876914
N        0.982138     2.668144    -0.937363
N        0.148460    -0.014605    -2.142656
C       -0.687820    -0.326515    -3.207323
C       -0.253652     0.304564    -4.354502
C        0.825243     1.088191    -4.035808
N        1.001786     0.990059    -2.664134
N        0.078010    -2.145880     0.136586
C       -0.373149    -3.252200    -0.588704
C        0.269433    -4.378917    -0.121562
C        1.121392    -4.033416     0.904789
N        1.069445    -2.653942     1.021096
B        1.906298    -1.736380     1.929573
C        2.979215    -2.329326     2.982839
C        2.924552    -3.592911     3.571757
C        3.940273    -4.000947     4.429772
C        5.009320    -3.150983     4.729732
C        6.075764    -3.598833     5.658373
C        5.073778    -1.884974     4.157745
C        4.060368    -1.470218     3.320747
N        0.955270    -0.862574     2.734156
C        0.841584    -0.663706     4.117552
C       -0.229507     0.191836     4.342944
C       -0.743714     0.554097     3.117767
N       -0.003124    -0.084506     2.147438
C        3.733418     2.474506    -3.659946
C        4.809086     3.257151    -4.070981
H        6.295792     5.313443    -4.797214
H        7.396157     4.574650    -3.563784
H        6.441222     6.082146    -3.180560
H        5.171035     5.191572    -1.299883
H        3.377906     3.787756    -0.531717
H        4.652019     0.786061    -2.019191
H        5.717564    -0.881253    -0.764523
H        4.467534    -2.169482     0.978980
H       -1.630808     3.082764     0.983466
H       -0.629870     5.315921     0.102383
H        1.492387     4.765646    -1.411470
H       -1.507525    -1.006093    -3.109290
H       -0.689195     0.195111    -5.318905
H        1.389541     1.706744    -4.712144
H       -1.111720    -3.214940    -1.375803
H        0.138336    -5.354100    -0.534027
H        1.789347    -4.698889     1.415704
H        2.102070    -4.261399     3.414609
H        3.879537    -4.972655     4.890294
H        5.907277    -3.072709     6.619346
H        7.081509    -3.364113     5.249975
H        5.994890    -4.689006     5.838406
H        5.902428    -1.214986     4.350312
H        4.149942    -0.473902     2.895194
H        1.473314    -1.167285     4.842044
H       -0.595001     0.515276     5.288987
H       -1.574897     1.218867     2.921664
H        3.438641     1.678319    -4.316303
H        5.256598     3.084393    -5.038520
73
ex_0117 frame16 N2-trans-conf9
C        6.441339     4.057819     4.856544
C        5.292852     3.556738     4.059167
C        4.683465     4.363462     3.099556
C        3.606298     3.885658     2.358399
C        3.136319     2.569937     2.554875
B        1.917262     1.875589     1.756811
C        2.739628     1.003042     0.711960
C        4.092251     1.258459     0.350255
C        4.686748     0.467970    -0.503670
C        4.012781    -0.645474    -1.120665
C        2.743197    -0.878158    -0.873936
N        2.141465    -0.085470     0.088929
Sc       0.000000     0.000000     0.000000
Cl      -2.399074     0.055501    -0.054015
N        0.114721     2.146824     0.024201
C       -0.788151     3.166230    -0.316808
C       -0.419392     4.330363     0.304724
C        0.673136     4.074763     1.092344
N        0.937425     2.723075     0.999881
N       -0.040865     0.208120     2.133201
C       -0.567069    -0.481846     3.193212
C        0.007999    -0.001161     4.346210
C        1.008894     0.875768     4.020430
N        0.980214     1.002115     2.634086
N        0.178710    -0.187993    -2.133131
C       -0.224370     0.496710    -3.271729
C        0.333593    -0.110220    -4.375297
C        1.120870    -1.156394    -3.966829
N        1.097710    -1.138867    -2.585727
B        1.917902    -1.993955    -1.617153
C        3.081246    -3.010087    -2.044508
C        3.451062    -3.963946    -1.065351
C        4.452131    -4.881265    -1.304783
C        5.113509    -4.873189    -2.526266
C        6.197095    -5.853437    -2.788430
C        4.757674    -3.944007    -3.503225
C        3.741322    -3.028105    -3.274191
N        0.866257    -2.764715    -0.831875
C        0.555765    -4.135862    -0.795896
C       -0.543264    -4.304674     0.012968
C       -0.944957    -3.067065     0.448535
N       -0.000091    -2.147854     0.029448
C        3.773631     1.780408     3.526515
C        4.824181     2.267979     4.276142
H        6.772148     5.048259     4.481306
H        6.168076     4.115896     5.930909
H        7.276731     3.343929     4.732631
H        5.064975     5.354681     2.912235
H        3.250504     4.528025     1.575508
H        4.595334     2.069036     0.794599
H        5.684882     0.642764    -0.752680
H        4.570620    -1.228087    -1.796419
H       -1.605891     3.028795    -0.999844
H       -0.908072     5.255443     0.183052
H        1.201132     4.766693     1.704947
H       -1.374302    -1.136423     3.024958
H       -0.243336    -0.300861     5.352893
H        1.621775     1.447315     4.705700
H       -0.862195     1.343536    -3.215144
H        0.164480     0.201702    -5.367349
H        1.681603    -1.828954    -4.589770
H        2.991811    -3.978734    -0.079589
H        4.711942    -5.593392    -0.536903
H        7.096969    -5.538456    -2.224963
H        5.875315    -6.865049    -2.463287
H        6.447947    -5.869337    -3.868348
H        5.301420    -3.905609    -4.430167
H        3.580890    -2.279488    -4.017978
H        1.124071    -4.886038    -1.311594
H       -1.016152    -5.219141     0.260472
H       -1.804022    -2.867011     1.071742
H        3.500890     0.744492     3.675320
H        5.296353     1.621925     4.998808
73
ex_0117 frame17 N2-trans-Δ-conf7
C        6.413358     4.939693     3.991646
C        5.248376     4.263442     3.372860
C        4.366903     4.971719     2.562947
C        3.280390     4.334118     1.982624
C        3.073033     2.957372     2.192769
B        1.855379     2.098187     1.550452
C        2.615482     1.383303     0.391244
C        3.790752     1.872945    -0.205410
C        4.337224     1.232776    -1.197248
C        3.780718     0.024065    -1.726987
C        2.655899    -0.452288    -1.237104
N        2.133883     0.199132    -0.101576
Sc       0.000000     0.000000     0.000000
Cl      -2.387541    -0.216625     0.158900
N        0.225469     0.182445     2.129078
C        0.034688    -0.596716     3.236626
C        0.777884    -0.148752     4.286707
C        1.516777     0.929124     3.866799
N        1.254712     1.117559     2.545858
N       -0.162277     2.114534     0.040542
C       -1.258869     2.991973    -0.083322
C       -1.044695     4.119003     0.629234
C        0.172287     4.045552     1.244012
N        0.654534     2.798574     0.992214
N        0.236593    -2.133769    -0.042869
C       -0.346118    -3.263146     0.515059
C        0.232945    -4.381445    -0.018376
C        1.137219    -3.986989    -0.959801
N        1.125487    -2.599684    -0.990326
B        1.932867    -1.690557    -1.892405
C        3.170622    -2.473715    -2.550207
C        3.605501    -2.353374    -3.877071
C        4.710502    -3.069828    -4.311288
C        5.382978    -3.929920    -3.447886
C        6.562537    -4.690014    -3.931716
C        4.947226    -4.073183    -2.137117
C        3.860128    -3.351482    -1.693450
N        0.901726    -0.994513    -2.746827
C        0.625169    -0.980425    -4.105644
C       -0.410630    -0.096304    -4.294787
C       -0.837082     0.386803    -3.085584
N       -0.031655    -0.153945    -2.142398
C        3.977210     2.266670     3.014769
C        5.040338     2.912381     3.606970
H        6.491271     5.983872     3.624856
H        7.318987     4.395638     3.670160
H        6.339687     4.909041     5.099750
H        4.546559     6.014068     2.364480
H        2.702866     4.920036     1.295248
H        4.202527     2.754318     0.175810
H        5.205859     1.604194    -1.624336
H        4.290598    -0.422496    -2.527663
H       -0.644212    -1.401232     3.192309
H        0.754028    -0.586586     5.233070
H        2.203307     1.502379     4.467781
H       -2.153264     2.693821    -0.602132
H       -1.731547     4.884398     0.666772
H        0.677203     4.793428     1.790337
H       -1.101063    -3.208785     1.262370
H       -0.005121    -5.368056     0.267298
H        1.742057    -4.622339    -1.586368
H        3.196888    -1.634288    -4.555047
H        5.077312    -2.928335    -5.311608
H        7.462801    -4.218049    -3.496887
H        6.632196    -4.620105    -5.036881
H        6.505449    -5.754505    -3.618182
H        5.449431    -4.737757    -1.456378
H        3.577841    -3.455511    -0.650979
H        1.171711    -1.553485    -4.824159
H       -0.829760     0.189645    -5.206192
H       -1.623956     1.070744    -2.872193
H        3.900127     1.197435     3.161294
H        5.723094     2.350608     4.219012
73
ex_0117 frame18 N2-trans-conf4
C        6.465463     3.758778     5.018997
C        5.337799     3.268665     4.185560
C        4.831460     1.989881     4.355632
C        3.781646     1.551410     3.574977
C        3.186786     2.385396     2.615469
B        1.954524     1.766404     1.791563
C        2.709029     0.984503     0.679450
C        3.993602     1.298121     0.237445
C        4.538895     0.656885    -0.749952
C        3.881995    -0.399149    -1.422394
C        2.684210    -0.741886    -1.061426
N        2.149476    -0.058995     0.071743
Sc       0.000000     0.000000     0.000000
Cl      -2.400232     0.001173     0.015173
N        0.151849    -0.032208     2.146551
C       -0.611392    -0.460041     3.161082
C       -0.096019     0.026452     4.296648
C        0.972975     0.832408     4.015959
N        1.060857     0.890078     2.654153
N        0.168243     2.146105     0.054552
C       -0.756004     3.174227    -0.183251
C       -0.339426     4.272245     0.464324
C        0.781075     3.996061     1.195052
N        1.006809     2.667472     1.062387
N        0.052626    -0.110836    -2.144124
C       -0.424593     0.612106    -3.183516
C        0.168293     0.188966    -4.326043
C        1.052482    -0.811469    -4.045321
N        1.037078    -0.950895    -2.687241
B        1.897047    -1.834906    -1.833294
C        2.990962    -2.839891    -2.462847
C        2.924737    -3.412314    -3.726889
C        3.950489    -4.229844    -4.178066
C        5.046519    -4.511516    -3.371199
C        6.116889    -5.406396    -3.872355
C        5.129684    -3.953870    -2.105669
C        4.107158    -3.155263    -1.645109
N        1.009924    -2.674922    -0.947917
C        0.937700    -4.046668    -0.799788
C       -0.082214    -4.306835     0.084856
C       -0.639855    -3.139830     0.491498
N        0.029387    -2.146384    -0.054324
C        3.710779     3.679735     2.454460
C        4.785227     4.102495     3.225010
H        6.300075     4.831978     5.231176
H        7.421433     3.644199     4.466712
H        6.500554     3.219789     5.986482
H        5.258259     1.328880     5.085158
H        3.457483     0.530768     3.708724
H        4.473054     2.062945     0.722188
H        5.479273     0.910169    -1.068795
H        4.382122    -0.874245    -2.212912
H       -1.427862    -1.106145     2.979205
H       -0.500208    -0.215715     5.214694
H        1.584011     1.358647     4.706234
H       -1.585257     3.044052    -0.828789
H       -0.838293     5.163395     0.379490
H        1.334051     4.647472     1.802283
H       -1.119541     1.387712    -3.039886
H       -0.039086     0.626067    -5.247363
H        1.704960    -1.297423    -4.727635
H        2.088410    -3.275554    -4.367676
H        3.881396    -4.680500    -5.149182
H        5.959843    -6.393105    -3.393148
H        7.123262    -4.991881    -3.643658
H        6.005402    -5.553863    -4.964850
H        5.980976    -4.135125    -1.475223
H        4.219989    -2.730861    -0.653301
H        1.589549    -4.717140    -1.306956
H       -0.400386    -5.241045     0.428561
H       -1.439281    -2.991784     1.163007
H        3.386357     4.351116     1.689935
H        5.197907     5.085156     3.087647
73
ex_0117 frame19 N2-trans-Δ-conf9
C        5.594853     2.393972     6.607458
C        4.654414     2.203236     5.474990
C        4.654769     3.080852     4.397286
C        3.773144     2.901458     3.338320
C        2.884869     1.812771     3.337131
B        1.820050     1.442227     2.195933
C        2.619640     0.345716     1.408172
C        3.990846     0.150672     1.476868
C        4.524566    -0.889147     0.894697
C        3.782594    -1.772514     0.047034
C        2.521818    -1.578271    -0.137985
N        1.996719    -0.538493     0.557536
Sc       0.000000     0.000000     0.000000
Cl      -2.300332     0.562128    -0.396968
N        0.595984     2.064933     0.056719
C        0.306073     3.290909    -0.542104
C        0.936309     4.314205     0.119734
C        1.565422     3.809200     1.212360
N        1.352415     2.448913     1.193624
N       -0.382526     0.184934     2.085043
C       -1.504449     0.019178     2.787148
C       -1.277905     0.532014     3.989999
C        0.001420     1.027885     4.050137
N        0.510888     0.908850     2.797333
N        0.604068    -0.307458    -2.042201
C        0.905910     0.376796    -3.226212
C        1.641461    -0.397607    -4.070888
C        1.925735    -1.588274    -3.476534
N        1.412593    -1.485679    -2.205694
B        1.644659    -2.466073    -1.090905
C        2.513345    -3.805425    -1.174877
C        2.246978    -4.753540    -0.161429
C        2.930622    -5.946169    -0.105712
C        3.903751    -6.227954    -1.050605
C        4.653916    -7.507482    -0.988241
C        4.174923    -5.308278    -2.056950
C        3.480963    -4.111051    -2.130692
N        0.234470    -2.881369    -0.714010
C       -0.484413    -4.050434    -0.885863
C       -1.778449    -3.815141    -0.508659
C       -1.852256    -2.584912    -0.014207
N       -0.592396    -2.031205    -0.077202
C        2.909803     0.939829     4.439107
C        3.768711     1.139431     5.494709
H        6.325575     3.196935     6.374248
H        5.042261     2.606863     7.546532
H        6.157630     1.454828     6.736716
H        5.357698     3.893328     4.380719
H        3.894767     3.562577     2.507420
H        4.517066     0.781760     2.094658
H        5.517451    -1.104494     1.053606
H        4.283123    -2.542628    -0.425686
H       -0.261818     3.397296    -1.425497
H        0.918703     5.323558    -0.187842
H        2.122953     4.356689     1.937418
H       -2.358161    -0.434724     2.341960
H       -1.996286     0.459454     4.717413
H        0.498346     1.445761     4.872202
H        0.545990     1.337002    -3.413359
H        1.935119    -0.091014    -5.044199
H        2.494654    -2.399925    -3.910155
H        1.517953    -4.560951     0.620801
H        2.702783    -6.651318     0.671328
H        5.399108    -7.436953    -0.172671
H        3.952492    -8.346912    -0.795840
H        5.203742    -7.676449    -1.936190
H        4.955523    -5.514222    -2.762550
H        3.799455    -3.411734    -2.865757
H       -0.046025    -4.916371    -1.269318
H       -2.592760    -4.451473    -0.509512
H       -2.743846    -2.115783     0.356606
H        2.294105     0.050598     4.470224
H        3.766049     0.444764     6.314499
73
ex_0117 frame20 N2-trans-Λ-conf7
C        5.634411     6.548877    -2.459548
C        4.682677     5.430441    -2.255250
C        4.655871     4.359571    -3.135620
C        3.768316     3.309154    -2.945069
C        2.894810     3.311490    -1.844896
B        1.822197     2.184913    -1.465350
C        2.623293     1.371911    -0.380554
C        3.990573     1.402044    -0.237281
C        4.541749     0.794616     0.772556
C        3.807833    -0.052169     1.661656
C        2.538459    -0.185270     1.535274
N        2.000966     0.543784     0.535513
Sc       0.000000     0.000000     0.000000
Cl      -2.257547    -0.557824    -0.599028
N       -0.429281     2.079914    -0.206737
C       -1.494024     2.806063    -0.000190
C       -1.224142     4.010379    -0.482839
C        0.037905     4.060257    -1.009877
N        0.502172     2.809464    -0.917296
N        0.651656     0.009338    -2.058721
C        0.285123    -0.565741    -3.289952
C        0.906477     0.097989    -4.309607
C        1.540851     1.193529    -3.826689
N        1.359474     1.161332    -2.474556
N       -0.615366     0.014167     2.055381
C       -1.840928     0.005436     2.649249
C       -1.679493    -0.451759     3.872263
C       -0.381116    -0.824577     4.067795
N        0.256775    -0.663724     2.877591
B        1.657699    -1.113517     2.454649
C        2.564423    -1.203294     3.751821
C        3.529751    -2.171006     4.031528
C        4.254283    -2.107160     5.211688
C        4.024972    -1.096937     6.134737
C        4.815018    -1.051624     7.391523
C        3.060014    -0.139425     5.874304
C        2.345993    -0.184768     4.698185
N        1.426929    -2.240868     1.505925
C        1.888009    -3.549612     1.564269
C        1.524676    -4.117183     0.387759
C        0.801558    -3.206398    -0.357189
N        0.634920    -2.025354     0.357119
C        2.947916     4.408856    -0.967853
C        3.815898     5.456072    -1.178921
H        6.329563     6.313502    -3.293110
H        6.236436     6.634123    -1.541247
H        5.095863     7.507144    -2.626441
H        5.345018     4.343773    -3.958612
H        3.873248     2.484657    -3.612415
H        4.500991     2.015257    -0.874479
H        5.609746     0.917684     0.875690
H        4.313269    -0.533506     2.411614
H       -2.322152     2.359499     0.455326
H       -1.922979     4.738515    -0.376881
H        0.545189     4.862116    -1.417868
H       -0.282951    -1.436554    -3.372582
H        0.866923    -0.165426    -5.356244
H        2.096970     1.910604    -4.371158
H       -2.704453     0.373660     2.168296
H       -2.478944    -0.478283     4.499027
H        0.064328    -1.219146     4.912917
H        3.818739    -2.914018     3.327951
H        5.026186    -2.824513     5.405999
H        5.555489    -0.238845     7.284322
H        5.372136    -2.003199     7.521918
H        4.164801    -0.851581     8.271333
H        2.862355     0.639013     6.584311
H        1.626572     0.606796     4.521894
H        2.451574    -3.977509     2.365451
H        1.750279    -5.099612     0.073780
H        0.412586    -3.412713    -1.302702
H        2.343521     4.446362    -0.072522
H        3.836905     6.278542    -0.490137
73
ex_0117 frame21 N2-trans-Δ-conf2
C        6.399342     5.244643     3.412283
C        5.254093     4.365338     3.064128
C        4.721606     3.499358     3.991226
C        3.645582     2.681148     3.677522
C        3.101809     2.706574     2.390900
B        1.876480     1.825980     1.823622
C        2.587428     0.724606     1.064154
C        3.872007     0.405594     1.316292
C        4.494949    -0.515398     0.661800
C        3.798245    -1.307818    -0.298629
C        2.648147    -1.038958    -0.621006
N        2.129446    -0.068697     0.092530
Sc       0.000000     0.000000     0.000000
Cl      -2.399944     0.029711    -0.004399
N        0.026359     2.131709     0.162460
C       -0.605790     3.118507    -0.422744
C       -0.075894     4.254018     0.005133
C        0.908536     3.985645     0.896211
N        0.986395     2.645131     1.004842
N        0.019610     0.152729     2.134503
C       -0.479651    -0.487485     3.116007
C        0.014906    -0.013909     4.251168
C        0.911871     0.974680     4.008704
N        0.999501     1.041913     2.669447
N        0.101423    -0.104376    -2.130563
C       -0.519618     0.432174    -3.098480
C        0.049928     0.029557    -4.214796
C        1.070519    -0.822522    -3.947526
N        1.100732    -0.958267    -2.605325
B        1.947656    -1.784864    -1.737651
C        3.187726    -2.413259    -2.571760
C        3.691223    -3.710028    -2.488808
C        4.775874    -4.096229    -3.265996
C        5.366181    -3.217109    -4.142879
C        6.524491    -3.658917    -4.957314
C        4.866615    -1.937843    -4.246940
C        3.800399    -1.539150    -3.463342
N        0.965325    -2.633293    -1.127009
C        0.755314    -3.959821    -1.144460
C       -0.338879    -4.188397    -0.383562
C       -0.833684    -3.050666     0.090146
N       -0.064230    -2.115784    -0.305206
C        3.663424     3.585405     1.469315
C        4.714641     4.411193     1.804269
H        6.250560     5.711289     4.408755
H        6.501884     6.068937     2.680732
H        7.343832     4.664948     3.341734
H        5.159589     3.484227     4.969120
H        3.341819     2.021241     4.430797
H        4.366399     0.971586     2.019436
H        5.531381    -0.695354     0.906390
H        4.357793    -2.016859    -0.779235
H       -1.379522     3.024110    -1.120417
H       -0.420261     5.187310    -0.332290
H        1.507817     4.675745     1.419854
H       -1.158725    -1.260528     3.020644
H       -0.306152    -0.407778     5.176425
H        1.430274     1.526095     4.716808
H       -1.327868     1.077406    -2.994050
H       -0.302055     0.359638    -5.143084
H        1.689911    -1.316042    -4.642314
H        3.335402    -4.418320    -1.806828
H        5.177749    -5.090285    -3.194132
H        6.873986    -2.817744    -5.576363
H        7.351834    -3.903085    -4.266596
H        6.264495    -4.548358    -5.583656
H        5.324696    -1.255978    -4.927719
H        3.481671    -0.518938    -3.568503
H        1.330432    -4.656138    -1.653835
H       -0.781362    -5.111673    -0.145416
H       -1.646875    -2.969803     0.716653
H        3.306291     3.650874     0.459618
H        5.132465     5.079080     1.083839
73
ex_0117 frame22 N2-trans-conf2
C        6.305439     5.573998     3.032396
C        5.185763     4.638598     2.754080
C        4.731544     3.772859     3.722417
C        3.679764     2.902524     3.474183
C        3.081050     2.874139     2.212321
B        1.872361     1.929063     1.718998
C        2.596875     0.837057     0.961207
C        3.905369     0.583224     1.155792
C        4.538644    -0.326271     0.494989
C        3.837043    -1.170191    -0.417343
C        2.662091    -0.962024    -0.686927
N        2.131219    -0.009024     0.040114
Sc       0.000000     0.000000     0.000000
Cl      -2.392509     0.004516     0.007869
N       -0.045294     2.132703     0.137193
C       -0.756772     3.066061    -0.444861
C       -0.260917     4.229198    -0.066520
C        0.772951     4.024769     0.787807
N        0.919223     2.697197     0.924591
N        0.101977     0.191234     2.131339
C       -0.323504    -0.450793     3.157796
C        0.197886     0.069525     4.263770
C        1.038708     1.088392     3.961044
N        1.062235     1.126120     2.614578
N        0.023531    -0.171133    -2.128197
C       -0.668716     0.317555    -3.069095
C       -0.131382    -0.086346    -4.195696
C        0.937362    -0.888829    -3.954812
N        1.034267    -0.992443    -2.617413
B        1.948679    -1.758785    -1.762918
C        3.178149    -2.354157    -2.636344
C        3.740590    -3.626062    -2.547195
C        4.806855    -3.983948    -3.362229
C        5.320353    -3.101447    -4.283154
C        6.461027    -3.512589    -5.137566
C        4.761547    -1.847335    -4.393401
C        3.713505    -1.475833    -3.572864
N        1.032405    -2.631287    -1.089371
C        0.877702    -3.968214    -1.069845
C       -0.171234    -4.224375    -0.257606
C       -0.692842    -3.093852     0.212685
N        0.026627    -2.127817    -0.234331
C        3.563981     3.753913     1.247501
C        4.591465     4.631523     1.518133
H        6.179000     6.057314     4.024057
H        6.340470     6.384143     2.279256
H        7.270258     5.033407     2.933567
H        5.211131     3.799608     4.680282
H        3.437501     2.248163     4.254069
H        4.403591     1.185834     1.823648
H        5.561146    -0.460481     0.611971
H        4.405701    -1.865353    -0.905847
H       -1.555744     2.916331    -1.106336
H       -0.659071     5.137428    -0.408334
H        1.362472     4.750273     1.268708
H       -0.971972    -1.255034     3.114018
H       -0.065810    -0.315529     5.211435
H        1.563361     1.679105     4.633913
H       -1.499354     0.930252    -2.937085
H       -0.536105     0.205761    -5.113317
H        1.546575    -1.371217    -4.663349
H        3.445394    -4.332294    -1.834740
H        5.254409    -4.957860    -3.286209
H        6.746673    -2.672343    -5.789704
H        7.326880    -3.704946    -4.478498
H        6.213419    -4.426966    -5.732340
H        5.159853    -1.162877    -5.108231
H        3.346314    -0.473010    -3.686213
H        1.461047    -4.651598    -1.589237
H       -0.562543    -5.160742     0.019394
H       -1.483225    -3.037374     0.871602
H        3.161517     3.779994     0.253327
H        4.948531     5.299178     0.765689
73
ex_0117 frame23 N2-trans-Δ-conf5
C        6.392104     3.020164     5.476902
C        5.234364     2.738828     4.586729
C        4.252614     3.683776     4.369241
C        3.175406     3.401266     3.530419
C        3.064298     2.174194     2.915138
B        1.895218     1.691972     1.918065
C        2.605314     0.975952     0.796853
C        3.881429     1.256901     0.452350
C        4.510857     0.602126    -0.453458
C        3.809866    -0.348475    -1.258510
C        2.659834    -0.671678    -0.990050
N        2.132643     0.016192     0.012693
Sc       0.000000     0.000000     0.000000
Cl      -2.396703     0.004038     0.014368
N        0.087928     2.132101     0.210254
C       -0.300054     3.156576    -0.450355
C        0.289702     4.253544     0.011006
C        1.164993     3.943701     0.999338
N        1.115036     2.598313     1.101833
N       -0.061576     0.151177     2.130882
C       -0.766307    -0.429674     3.062662
C       -0.242064    -0.085987     4.223306
C        0.828449     0.734133     4.011380
N        0.942771     0.902224     2.689100
N        0.027656    -2.128245    -0.168908
C       -0.657467    -3.068117     0.322311
C       -0.119703    -4.195197    -0.078771
C        0.947673    -3.954093    -0.882904
N        1.042067    -2.619086    -0.993574
B        1.948721    -1.763369    -1.762452
C        3.176854    -2.629453    -2.375553
C        3.726418    -2.510183    -3.657074
C        4.789209    -3.318793    -4.038907
C        5.314114    -4.254385    -3.181049
C        6.455158    -5.097052    -3.615520
C        4.767557    -4.392738    -1.926716
C        3.723521    -3.580441    -1.524731
N        1.029719    -1.098952    -2.629785
C        0.862119    -1.096257    -3.966820
C       -0.172422    -0.269904    -4.226322
C       -0.681812     0.217388    -3.097246
N        0.023342    -0.225619    -2.129386
C        4.065761     1.220993     3.167197
C        5.142800     1.513090     3.969892
H        6.193200     2.714867     6.522906
H        6.733173     4.069258     5.390537
H        7.245367     2.400571     5.142647
H        4.322572     4.640912     4.856358
H        2.447459     4.141872     3.431210
H        4.360189     1.982856     1.022802
H        5.547025     0.849431    -0.631209
H        4.369560    -0.822105    -1.975606
H       -0.983069     3.123281    -1.227353
H        0.061855     5.201442    -0.401732
H        1.783386     4.605642     1.518086
H       -1.588167    -1.065663     2.915327
H       -0.636589    -0.434151     5.132727
H        1.454262     1.175581     4.728156
H       -1.489712    -2.941491     0.936911
H       -0.522835    -5.114245     0.215851
H        1.555367    -4.665053    -1.364635
H        3.431863    -1.783270    -4.358513
H        5.228572    -3.228752    -5.014057
H        7.326555    -4.432641    -3.747398
H        6.711228    -5.813317    -2.814409
H        6.256612    -5.607158    -4.586358
H        5.175864    -5.118736    -1.260111
H        3.371879    -3.715527    -0.520029
H        1.434960    -1.635286    -4.644532
H       -0.563434     0.007892    -5.164909
H       -1.459549     0.892776    -3.047189
H        4.054555     0.249570     2.694013
H        5.902065     0.780090     4.137744
73
ex_0117 frame24 N2-trans-conf6
C        6.485255     3.417634     5.129953
C        5.303327     3.063020     4.299895
C        4.271103     3.957595     4.105502
C        3.171899     3.606579     3.323093
C        3.089084     2.360828     2.741672
B        1.899979     1.802033     1.810378
C        2.592984     1.083268     0.677884
C        3.836448     1.419230     0.266582
C        4.454743     0.770552    -0.651535
C        3.762926    -0.228609    -1.401668
C        2.642808    -0.603158    -1.070636
N        2.132069     0.067648    -0.058058
Sc       0.000000     0.000000     0.000000
Cl      -2.399821    -0.010057     0.026452
N        0.000633     2.135421     0.171564
C       -0.462311     3.113893    -0.490501
C        0.097218     4.243112    -0.080526
C        1.029428     3.996662     0.874759
N        1.047032     2.656751     1.010731
N        0.011657     0.174703     2.131190
C       -0.610615    -0.406563     3.117580
C       -0.049005    -0.009439     4.248835
C        0.970750     0.850237     3.969466
N        1.012314     0.986308     2.633750
N        0.108323    -2.131209    -0.098533
C       -0.502500    -3.098086     0.441826
C        0.069267    -4.214554     0.041936
C        1.086342    -3.946289    -0.813637
N        1.110272    -2.606112    -0.956843
B        1.947732    -1.737968    -1.789104
C        3.185220    -2.563481    -2.436580
C        3.671825    -2.452084    -3.743921
C        4.752366    -3.222063    -4.155150
C        5.356625    -4.111682    -3.300788
C        6.514321    -4.913553    -3.767224
C        4.872976    -4.242590    -2.020175
C        3.811918    -3.467886    -1.590201
N        0.959030    -1.138006    -2.630717
C        0.736141    -1.175504    -3.956367
C       -0.346184    -0.402057    -4.188441
C       -0.828973     0.090092    -3.052794
N       -0.073564    -0.299691    -2.117555
C        4.143399     1.460069     2.969781
C        5.240184     1.819479     3.716068
H        6.347197     3.129974     6.190601
H        6.774345     4.478267     5.004114
H        7.350348     2.828270     4.771603
H        4.318975     4.928930     4.566877
H        2.407184     4.311709     3.240118
H        4.307212     2.180193     0.797972
H        5.467992     1.063770    -0.883374
H        4.311069    -0.695548    -2.133279
H       -1.176483     3.025926    -1.233418
H       -0.191638     5.168323    -0.504038
H        1.638672     4.697759     1.348957
H       -1.406703    -1.080977     3.028083
H       -0.387386    -0.352676     5.184178
H        1.608211     1.337644     4.648315
H       -1.310900    -2.999709     1.090312
H       -0.278940    -5.144174     0.376272
H        1.704694    -4.642981    -1.306750
H        3.313813    -1.756689    -4.448107
H        5.143538    -3.136997    -5.151106
H        7.348113    -4.214519    -3.953614
H        6.838052    -5.597359    -2.962207
H        6.296567    -5.455907    -4.716011
H        5.343100    -4.933032    -1.356313
H        3.511659    -3.593177    -0.567508
H        1.301590    -1.704659    -4.646617
H       -0.790504    -0.165013    -5.113359
H       -1.631141     0.731768    -2.978366
H        4.155215     0.477397     2.520229
H        6.038897     1.125263     3.866232
73
ex_0117 frame25 pucker-global-chair
C       -2.953277     6.985973     0.144744
C       -2.766514     5.506238     0.205260
C       -3.076044     4.725787    -0.910301
C       -2.948171     3.343531    -0.852458
C       -2.454841     2.717020     0.308198
B       -2.299563     1.128107     0.304003
C       -0.824762     0.772436    -0.343683
C        0.105778     1.801825    -0.584333
C        1.337573     1.461193    -0.993508
C        1.801196     0.206274    -1.271282
C        0.824689    -0.813569    -1.017022
N       -0.419044    -0.480775    -0.676684
Sc      -1.792773    -2.023260    -0.233810
Cl      -3.426701    -3.759923     0.075309
N       -2.950659    -0.535464    -1.387748
C       -4.233137    -0.997849    -1.853802
C       -5.275932    -0.254889    -1.335144
C       -4.703859     0.672370    -0.515329
N       -3.322691     0.438918    -0.517310
N       -2.350035    -0.986598     1.572090
C       -2.697543    -1.418892     2.889425
C       -3.047111    -0.326032     3.668578
C       -2.940610     0.795756     2.872542
N       -2.541330     0.377458     1.591828
N       -1.052179    -3.117683    -1.932150
C       -1.777547    -2.881271    -3.143201
C       -0.982055    -2.306041    -4.109768
C        0.244226    -2.110847    -3.534307
N        0.147062    -2.515993    -2.204992
B        1.202473    -2.343697    -1.134848
C        2.754474    -2.743490    -1.310323
C        3.164414    -3.841933    -2.078139
C        4.516571    -4.229254    -2.069075
C        5.466153    -3.487506    -1.341929
C        6.896656    -3.919444    -1.261735
C        5.071387    -2.328138    -0.682483
C        3.739794    -1.963344    -0.670380
N        0.803408    -2.915507     0.222918
C        1.601493    -2.948026     1.378770
C        0.832056    -3.372794     2.413649
C       -0.400988    -3.670042     1.875258
N       -0.425905    -3.476003     0.452369
C       -2.120024     3.508257     1.418903
C       -2.283475     4.890340     1.370250
H       -2.184125     7.427299    -0.522059
H       -3.964265     7.211544    -0.255043
H       -2.869720     7.439707     1.154786
H       -3.426715     5.185415    -1.822249
H       -3.194700     2.771312    -1.739904
H       -0.174190     2.826132    -0.387319
H        2.010978     2.267788    -1.190794
H        2.826747     0.116463    -1.584413
H       -4.371054    -1.806347    -2.551930
H       -6.333584    -0.385300    -1.520098
H       -5.227621     1.409957     0.078827
H       -2.718007    -2.448632     3.212166
H       -3.373006    -0.340629     4.699815
H       -3.179573     1.794451     3.191278
H       -2.810554    -3.165446    -3.278782
H       -1.270153    -2.057887    -5.118726
H        1.104313    -1.675057    -4.018930
H        2.436808    -4.462669    -2.585057
H        4.814970    -5.134783    -2.580462
H        7.496071    -3.213451    -0.643332
H        6.924253    -4.908667    -0.757721
H        7.353863    -3.990606    -2.267070
H        5.777491    -1.733463    -0.114847
H        3.485596    -1.116569    -0.048577
H        2.621681    -2.619358     1.479801
H        1.145331    -3.438381     3.446248
H       -1.239284    -4.043285     2.442854
H       -1.691753     3.073664     2.308600
H       -2.004627     5.487231     2.235079
73
ex_0117 frame26 pucker-global-chair_mirror
C       -2.953277     6.985973    -0.144744
C       -2.766514     5.506238    -0.205260
C       -3.076044     4.725787     0.910301
C       -2.948171     3.343531     0.852458
C       -2.454841     2.717020    -0.308198
B       -2.299563     1.128107    -0.304003
C       -0.824762     0.772436     0.343683
C        0.105778     1.801825     0.584333
C        1.337573     1.461193     0.993508
C        1.801196     0.206274     1.271282
C        0.824689    -0.813569     1.017022
N       -0.419044    -0.480775     0.676684
Sc      -1.792773    -2.023260     0.233810
Cl      -3.426701    -3.759923    -0.075309
N       -2.950659    -0.535464     1.387748
C       -4.233137    -0.997849     1.853802
C       -5.275932    -0.254889     1.335144
C       -4.703859     0.672370     0.515329
N       -3.322691     0.438918     0.517310
N       -2.350035    -0.986598    -1.572090
C       -2.697543    -1.418892    -2.889425
C       -3.047111    -0.326032    -3.668578
C       -2.940610     0.795756    -2.872542
N       -2.541330     0.377458    -1.591828
N       -1.052179    -3.117683     1.932150
C       -1.777547    -2.881271     3.143201
C       -0.982055    -2.306041     4.109768
C        0.244226    -2.110847     3.534307
N        0.147062    -2.515993     2.204992
B        1.202473    -2.343697     1.134848
C        2.754474    -2.743490     1.310323
C        3.164414    -3.841933     2.078139
C        4.516571    -4.229254     2.069075
C        5.466153    -3.487506     1.341929
C        6.896656    -3.919444     1.261735
C        5.071387    -2.328138     0.682483
C        3.739794    -1.963344     0.670380
N        0.803408    -2.915507    -0.222918
C        1.601493    -2.948026    -1.378770
C        0.832056    -3.372794    -2.413649
C       -0.400988    -3.670042    -1.875258
N       -0.425905    -3.476003    -0.452369
C       -2.120024     3.508257    -1.418903
C       -2.283475     4.890340    -1.370250
H       -2.184125     7.427299     0.522059
H       -3.964265     7.211544     0.255043
H       -2.869720     7.439707    -1.154786
H       -3.426715     5.185415     1.822249
H       -3.194700     2.771312     1.739904
H       -0.174190     2.826132     0.387319
H        2.010978     2.267788     1.190794
H        2.826747     0.116463     1.584413
H       -4.371054    -1.806347     2.551930
H       -6.333584    -0.385300     1.520098
H       -5.227621     1.409957    -0.078827
H       -2.718007    -2.448632    -3.212166
H       -3.373006    -0.340629    -4.699815
H       -3.179573     1.794451    -3.191278
H       -2.810554    -3.165446     3.278782
H       -1.270153    -2.057887     5.118726
H        1.104313    -1.675057     4.018930
H        2.436808    -4.462669     2.585057
H        4.814970    -5.134783     2.580462
H        7.496071    -3.213451     0.643332
H        6.924253    -4.908667     0.757721
H        7.353863    -3.990606     2.267070
H        5.777491    -1.733463     0.114847
H        3.485596    -1.116569     0.048577
H        2.621681    -2.619358    -1.479801
H        1.145331    -3.438381    -3.446248
H       -1.239284    -4.043285    -2.442854
H       -1.691753     3.073664    -2.308600
H       -2.004627     5.487231    -2.235079
