83
ex_0005 frame0 cis-conf9
C        5.975705     6.855410    -0.428342
C        4.981638     5.745214    -0.293418
C        4.844789     5.043425     0.912300
C        3.891788     4.025554     1.041989
C        3.766534     3.329405     2.379020
C        3.096270     3.681821    -0.078964
C        2.083550     2.621401    -0.021701
C        2.679319     1.211348    -0.004507
C        4.030049     0.899117     0.011910
C        4.139296    -0.482428     0.017266
Br       5.843662    -1.358392     0.037325
C        2.833927    -0.994865     0.006112
N        1.994471     0.053353    -0.002534
Ni       0.000000     0.000000     0.000000
N       -0.174938     1.985518     0.010089
C        0.739112     2.921752     0.010804
C        0.016218     4.129534     0.052558
Br       0.694930     5.922137     0.101409
C       -1.369765     3.801642     0.056335
Br      -2.776397     5.092137     0.091558
C       -1.445606     2.407909     0.033380
C       -2.426854     1.412117     0.035589
N       -1.986568     0.145615     0.004318
C       -2.915168    -0.780957     0.017081
C       -2.603751    -2.125605    -0.008682
C       -3.704365    -3.107688    -0.036805
C       -4.412724    -3.304798    -1.247311
C       -4.051577    -2.586720    -2.528348
C       -5.490379    -4.195532    -1.272831
C       -5.845909    -4.921142    -0.129872
C       -6.997538    -5.878130    -0.163721
C       -5.120885    -4.752769     1.055418
C       -4.055562    -3.844106     1.121010
C       -3.310397    -3.674244     2.424242
C       -1.182114    -2.698743    -0.010345
C       -0.849395    -4.044353    -0.013276
C        0.535182    -4.133077    -0.004787
Br       1.443387    -5.820418     0.002928
C        1.029488    -2.821165    -0.003106
N        2.417781    -2.387279     0.003871
C        3.433093    -3.376188     0.046802
C        3.904241    -3.846449     1.282754
C        4.910495    -4.816018     1.324704
C        5.447198    -5.320966     0.134683
Br       6.823112    -6.643153     0.193782
C        4.975408    -4.856799    -1.098856
C        3.969344    -3.887148    -1.144530
N       -0.031234    -1.994434    -0.009240
C       -4.130725    -0.068925     0.063196
Br      -5.921274    -0.754701     0.119316
C       -3.818422     1.319814     0.066433
Br      -5.124303     2.711993     0.106361
C        3.264332     4.361012    -1.308879
C        2.485452     3.998829    -2.556047
C        4.182079     5.409532    -1.390057
H        6.634358     6.663511    -1.301281
H        6.606684     6.949838     0.479923
H        5.430930     7.810129    -0.585017
H        5.470269     5.298027     1.759943
H        3.583735     4.077409     3.178624
H        2.932193     2.600130     2.417224
H        4.706986     2.783528     2.604360
H        4.859711     1.592839     0.020507
H       -4.862097    -1.884927    -2.810321
H       -3.104350    -2.014259    -2.459677
H       -3.910528    -3.330091    -3.341047
H       -6.042790    -4.333157    -2.194550
H       -7.492950    -5.882465    -1.157790
H       -6.633047    -6.903427     0.054887
H       -7.746460    -5.583334     0.600900
H       -5.402798    -5.320099     1.934731
H       -2.246437    -3.965426     2.316810
H       -3.745341    -4.300476     3.231962
H       -3.363368    -2.612879     2.745176
H       -1.533669    -4.882326    -0.013869
H        3.494439    -3.455879     2.205861
H        5.273532    -5.171732     2.280343
H        5.388677    -5.244163    -2.020837
H        3.609480    -3.527838    -2.100201
H        1.862663     4.847767    -2.899718
H        3.212273     3.728325    -3.351393
H        1.825995     3.116276    -2.432714
H        4.308173     5.935623    -2.328782
83
ex_0005 frame1 cis-conf8
C        6.052544     6.841715     0.189959
C        5.040317     5.739594     0.128091
C        4.801705     5.049325    -1.067401
C        3.849493     4.023807    -1.124244
C        3.645877     3.317211    -2.445030
C        3.127422     3.684777     0.047145
C        2.105226     2.621429     0.020198
C        2.687039     1.204289     0.015709
C        4.035186     0.884894     0.012661
C        4.136632    -0.497839    -0.002591
Br       5.836646    -1.381871    -0.022198
C        2.828110    -1.004656    -0.000598
N        1.992489     0.047797     0.014001
Ni       0.000000     0.000000     0.000000
N       -0.158385     1.985866     0.001603
C        0.760672     2.922501    -0.002788
C        0.043129     4.133369    -0.038310
Br       0.730961     5.922877    -0.071808
C       -1.343780     3.812279    -0.049511
Br      -2.743954     5.109804    -0.088732
C       -1.427388     2.419015    -0.029309
C       -2.416305     1.432286    -0.037123
N       -1.985595     0.163039    -0.016322
C       -2.919803    -0.754391    -0.018070
C       -2.615691    -2.097469     0.021360
C       -3.688063    -3.100986     0.091078
C       -4.054479    -3.890144    -1.026683
C       -3.385264    -3.759165    -2.375395
C       -5.079318    -4.834961    -0.886801
C       -5.753521    -4.984914     0.332700
C       -6.854604    -5.987478     0.485653
C       -5.398444    -4.190579     1.426454
C       -4.356277    -3.265884     1.329627
C       -3.991625    -2.478654     2.570312
C       -1.199073    -2.686873     0.002900
C       -0.875325    -4.035170    -0.011283
C        0.510093    -4.133056    -0.015165
Br       1.409508    -5.824807    -0.026139
C        1.012993    -2.824568    -0.009921
N        2.403759    -2.395736    -0.011831
C        3.414440    -3.387294    -0.080917
C        3.960170    -3.924903     1.094620
C        4.962434    -4.897037     1.017911
C        5.419933    -5.336366    -0.230292
Br       6.790327    -6.661397    -0.333406
C        4.872942    -4.804452    -1.403563
C        3.871106    -3.833104    -1.330524
N       -0.043332    -1.992967    -0.002516
C       -4.130996    -0.036983    -0.059704
Br      -5.921958    -0.721111    -0.107033
C       -3.809716     1.349641    -0.063727
Br      -5.108005     2.749110    -0.099482
C        3.384463     4.365281     1.259862
C        2.659509     3.995391     2.531443
C        4.327072     5.399423     1.281726
H        6.823747     6.594086     0.949149
H        6.553367     6.991913    -0.789536
H        5.547613     7.787903     0.477596
H        5.362691     5.304126    -1.959061
H        3.347533     4.047885    -3.224686
H        2.865857     2.530737    -2.410071
H        4.597234     2.831123    -2.749848
H        4.866944     1.576712     0.011645
H       -2.631010    -2.947648    -2.413963
H       -2.876362    -4.711575    -2.633198
H       -4.147877    -3.535857    -3.150894
H       -5.353594    -5.451995    -1.734409
H       -7.010047    -6.568033    -0.447589
H       -6.598025    -6.693278     1.303667
H       -7.798775    -5.461774     0.740040
H       -5.912182    -4.318137     2.372112
H       -3.107103    -1.823609     2.440695
H       -4.841498    -1.845081     2.894853
H       -3.735275    -3.192155     3.381476
H       -1.564297    -4.868878    -0.014341
H        3.611663    -3.584447     2.061444
H        5.384157    -5.305500     1.926900
H        5.224465    -5.140127    -2.370567
H        3.453187    -3.420872    -2.240477
H        1.564376     4.129954     2.428545
H        3.002862     4.603001     3.394447
H        2.871803     2.928352     2.760884
H        4.530660     5.924905     2.206989
83
ex_0005 frame2 cis-conf4
C        6.075091     6.819236    -0.053176
C        5.049883     5.727498    -0.054816
C        4.774774     5.041596     1.132024
C        3.826869     4.013536     1.163103
C        3.605949     3.298101     2.476570
C        3.125029     3.681730    -0.022759
C        2.104378     2.619458    -0.004861
C        2.686670     1.202648     0.007073
C        4.034979     0.883855     0.022716
C        4.136679    -0.498673     0.036652
Br       5.837771    -1.380080     0.072979
C        2.828209    -1.005645     0.019789
N        1.992801     0.046527     0.004367
Ni       0.000000     0.000000     0.000000
N       -0.158961     1.985732    -0.001465
C        0.760405     2.922067     0.002267
C        0.043642     4.133341     0.016686
Br       0.732763     5.921977     0.039658
C       -1.343714     3.812835     0.013539
Br      -2.744339     5.110425     0.022433
C       -1.427712     2.419308     0.004742
C       -2.416816     1.432422     0.001505
N       -1.986893     0.163419    -0.003751
C       -2.919126    -0.754452     0.004688
C       -2.615502    -2.097311     0.023287
C       -3.696106    -3.092160     0.064275
C       -4.339545    -3.344511     1.300931
C       -3.953205    -2.644966     2.585276
C       -5.378514    -4.278002     1.352305
C       -5.789912    -4.955166     0.198883
C       -6.917053    -5.939070     0.259287
C       -5.144166    -4.711719    -1.019294
C       -4.092163    -3.791361    -1.101555
C       -3.425502    -3.588176    -2.443276
C       -1.199119    -2.686516     0.007184
C       -0.876898    -4.034830    -0.003415
C        0.509056    -4.133411    -0.001273
Br       1.409266    -5.824783    -0.008374
C        1.012838    -2.825073     0.006461
N        2.403929    -2.396616     0.018470
C        3.415035    -3.388366     0.072770
C        3.831331    -3.894879     1.313090
C        4.833905    -4.866482     1.371036
C        5.421220    -5.338651     0.191633
Br       6.791677    -6.664981     0.274379
C        5.003977    -4.838659    -1.047766
C        4.001516    -3.865789    -1.109293
N       -0.042788    -1.993410     0.000745
C       -4.131470    -0.037546    -0.001815
Br      -5.921952    -0.723740    -0.013820
C       -3.810459     1.349418     0.002709
Br      -5.109848     2.748415     0.009014
C        3.405861     4.370009    -1.229499
C        2.709659     4.054357    -2.533887
C        4.366688     5.388191    -1.228939
H        6.240208     7.224314    -1.073763
H        5.727603     7.644151     0.603556
H        7.039588     6.426767     0.331985
H        5.315617     5.297612     2.035894
H        3.284078     4.019706     3.254556
H        2.840589     2.498603     2.424750
H        4.559157     2.823274     2.794248
H        4.866566     1.575643     0.031479
H       -3.623016    -3.400960     3.327936
H       -4.825798    -2.092609     2.991054
H       -3.123327    -1.920107     2.467853
H       -5.869561    -4.472501     2.298323
H       -6.582228    -6.921635    -0.132798
H       -7.759863    -5.563264    -0.357873
H       -7.278345    -6.078126     1.300481
H       -5.457651    -5.246783    -1.908292
H       -4.173841    -3.258217    -3.192727
H       -2.615638    -2.831425    -2.424568
H       -2.975754    -4.547232    -2.777997
H       -1.567929    -4.867121    -0.006324
H        3.382081    -3.528803     2.227790
H        5.154423    -5.248956     2.331333
H        5.457224    -5.200327    -1.961450
H        3.684520    -3.477953    -2.069181
H        2.179930     4.952437    -2.912998
H        1.969803     3.233256    -2.455092
H        3.468980     3.739055    -3.280389
H        4.588477     5.910021    -2.152370
83
ex_0005 frame3 Isomer 1
C       -1.238026    -5.503758    -7.353580
C       -1.014974    -4.564643    -6.208155
C       -1.252900    -5.003745    -4.902140
C       -1.058919    -4.149540    -3.811128
C       -1.354698    -4.690172    -2.430995
C       -0.603380    -2.827016    -4.038705
C       -0.382665    -1.916410    -2.900430
C       -1.660924    -1.321966    -2.293136
C       -2.954119    -1.588000    -2.710257
C       -3.812094    -0.861052    -1.895421
Br      -5.713874    -0.943269    -2.111888
C       -3.012758    -0.144929    -0.989180
N       -1.735640    -0.451977    -1.264395
Ni      -0.118710     0.215815    -0.310372
N        1.123430    -0.835966    -1.459232
C        0.892658    -1.657894    -2.455566
C        2.162962    -2.117427    -2.853626
Br       2.604615    -3.354948    -4.250396
C        3.127105    -1.493989    -2.015919
Br       5.009800    -1.781788    -2.155952
C        2.414959    -0.683326    -1.131277
C        2.682021     0.180321    -0.070720
N        1.616828     0.756609     0.504529
C        1.884927     1.551535     1.510539
C        0.890160     2.188592     2.213967
C        1.254850     3.044786     3.353073
C        1.582012     2.434461     4.590417
C        1.571656     0.936076     4.797003
C        1.932127     3.239936     5.678383
C        1.974158     4.632978     5.553357
C        2.368518     5.487875     6.718163
C        1.645534     5.232301     4.331673
C        1.281218     4.454322     3.225833
C        0.930801     5.164860     1.938733
C       -0.613048     2.083667     1.911271
C       -1.630304     2.737687     2.587380
C       -2.834264     2.350047     2.006673
Br      -4.522818     3.005599     2.629803
C       -2.522755     1.458921     0.968669
N       -3.432433     0.767055     0.064321
C       -4.822599     0.950999     0.244385
C       -5.519929     0.145068     1.155191
C       -6.894653     0.318150     1.328516
C       -7.574709     1.298614     0.596326
Br      -9.453560     1.531970     0.833399
C       -6.877483     2.107714    -0.309373
C       -5.502174     1.936145    -0.485360
N       -1.186983     1.340975     0.941958
C        3.289271     1.537411     1.624501
Br       4.402324     2.486944     2.865195
C        3.791900     0.661798     0.624539
Br       5.647013     0.287363     0.368967
C       -0.360827    -2.378022    -5.361732
C        0.120807    -0.980421    -5.678863
C       -0.571969    -3.255608    -6.431902
H       -1.070392    -5.002152    -8.330021
H       -0.535012    -6.358735    -7.268929
H       -2.280946    -5.883599    -7.326676
H       -1.602050    -6.015981    -4.733334
H       -0.719147    -5.577237    -2.230617
H       -1.170688    -3.959373    -1.618702
H       -2.422895    -4.989308    -2.375683
H       -3.253668    -2.248616    -3.513157
H        0.843887     0.676756     5.593609
H        2.582690     0.595757     5.104569
H        1.287733     0.362379     3.892684
H        2.181600     2.774127     6.624468
H        1.567388     6.225543     6.931509
H        3.308809     6.025230     6.474225
H        2.538457     4.877486     7.630599
H        1.674406     6.311865     4.239991
H        1.792810     5.778759     1.604705
H        0.673588     4.475810     1.109326
H        0.055988     5.827551     2.106649
H       -1.519909     3.418115     3.421273
H       -4.995301    -0.616725     1.718840
H       -7.428568    -0.310879     2.028532
H       -7.399002     2.865584    -0.878634
H       -4.964273     2.558832    -1.189458
H        1.092432    -1.027555    -6.213500
H        0.261184    -0.344610    -4.782483
H       -0.625161    -0.475160    -6.327252
H       -0.393669    -2.911948    -7.444047
83
ex_0005 frame4 see-saw N0-N3-ax-conf5
C        5.909744     0.423527     7.017834
C        4.930019     0.293490     5.889052
C        4.798596    -0.908129     5.182758
C        3.863947    -1.033755     4.143241
C        3.755926    -2.373463     3.457136
C        3.073213     0.087181     3.775607
C        2.081116     0.027400     2.671131
C        2.674931     0.005219     1.256883
C        4.024270    -0.013867     0.954162
C        4.141038    -0.022448    -0.427637
Br       5.856261    -0.045954    -1.281291
C        2.837135    -0.011213    -0.952910
N        1.991848     0.000656     0.087788
Ni       0.000000     0.000000     0.000000
N       -0.171849    -0.007231     1.985639
C        0.732853    -0.004597     2.942084
C        0.000294    -0.043088     4.143745
Br       0.652896    -0.089074     5.947521
C       -1.378144    -0.046391     3.805952
Br      -2.785897    -0.076425     5.096183
C       -1.443922    -0.027313     2.411572
C       -2.423611    -0.030537     1.422357
N       -1.985796    -0.002704     0.156045
C       -2.913678    -0.014186    -0.761609
C       -2.600090     0.011009    -2.102330
C       -3.720747     0.040233    -3.042859
C       -4.433937     1.250076    -3.218808
C       -4.068057     2.529177    -2.493907
C       -5.520867     1.273703    -4.095022
C       -5.888811     0.124973    -4.807139
C       -7.056012     0.153644    -5.741189
C       -5.161880    -1.061683    -4.647063
C       -4.084344    -1.122683    -3.756662
C       -3.334293    -2.422841    -3.576136
C       -1.178093     0.009164    -2.692483
C       -0.838927     0.010995    -4.037178
C        0.552387     0.000389    -4.118652
Br       1.483443    -0.008437    -5.792422
C        1.040674    -0.002360    -2.804419
N        2.426542    -0.011762    -2.349580
C        3.461604    -0.054497    -3.312047
C        3.942452    -1.290481    -3.767505
C        4.978597    -1.332973    -4.703367
C        5.530293    -0.142495    -5.191781
Br       6.949032    -0.202089    -6.466406
C        5.042003     1.091761    -4.745847
C        4.005921     1.137221    -3.809865
N       -0.026782     0.005451    -1.993379
C       -4.130149    -0.059393    -0.045246
Br      -5.929197    -0.117602    -0.709504
C       -3.813743    -0.059651     1.339578
Br      -5.116783    -0.094366     2.735559
C        3.230556     1.311903     4.477186
C        2.455250     2.562104     4.132061
C        4.138367     1.389554     5.539781
H        6.597089     1.273586     6.821879
H        6.516622    -0.498000     7.142289
H        5.359369     0.614203     7.963426
H        5.413894    -1.758647     5.453766
H        3.537742    -3.157038     4.214007
H        2.947370    -2.411639     2.700910
H        4.715395    -2.617366     2.954819
H        4.846967    -0.020566     1.656998
H       -4.891180     2.813602    -1.806210
H       -3.139158     2.451541    -1.892937
H       -3.904786     3.346197    -3.226299
H       -6.080968     2.192733    -4.217659
H       -7.545161     1.150586    -5.747338
H       -6.707996    -0.078411    -6.768922
H       -7.801280    -0.604610    -5.422360
H       -5.457533    -1.947277    -5.196310
H       -2.270352    -2.321974    -3.869863
H       -3.775193    -3.241958    -4.181465
H       -3.382070    -2.722688    -2.506992
H       -1.522201     0.012780    -4.876221
H        3.523769    -2.212227    -3.382402
H        5.355038    -2.289380    -5.041777
H        5.467626     2.014395    -5.117269
H        3.636001     2.091947    -3.457326
H        1.838068     2.887379     4.994090
H        3.178824     3.365679     3.878556
H        1.789317     2.445688     3.255221
H        4.253352     2.323308     6.078526
83
ex_0005 frame5 see-saw N0-N3-ax-conf2
C        6.004754     0.067661     6.984847
C        4.996410     0.067299     5.872129
C        4.732251    -1.117022     5.180217
C        3.799999    -1.150051     4.133173
C        3.591632    -2.469565     3.432634
C        3.102933     0.034429     3.774287
C        2.102769     0.013681     2.668632
C        2.682740    -0.004147     1.248510
C        4.029649    -0.022440     0.939816
C        4.138883    -0.041047    -0.442404
Br       5.851254    -0.082209    -1.300638
C        2.831593    -0.024342    -0.962417
N        1.991911    -0.005009     0.081819
Ni       0.000000     0.000000     0.000000
N       -0.155343     0.010787     1.986814
C        0.755440     0.007937     2.941618
C        0.030643    -0.004852     4.147630
Br       0.696571    -0.025979     5.946922
C       -1.349400    -0.002027     3.818821
Br      -2.748712    -0.008318     5.118464
C       -1.424502     0.004178     2.424797
C       -2.412725     0.004838     1.444779
N       -1.983884     0.005951     0.175893
C       -2.916397    -0.007664    -0.733303
C       -2.608372    -0.032564    -2.071465
C       -3.707847    -0.077352    -3.022819
C       -4.356044    -1.314880    -3.247928
C       -3.959185    -2.593631    -2.537215
C       -5.407695    -1.367995    -4.163045
C       -5.827191    -0.213029    -4.835188
C       -6.966971    -0.273478    -5.799425
C       -5.178142     1.007644    -4.605791
C       -4.115403     1.091247    -3.702334
C       -3.446123     2.433123    -3.490973
C       -1.193435    -0.018634    -2.678914
C       -0.864990    -0.013676    -4.026855
C        0.527958    -0.014668    -4.118383
Br       1.451175    -0.012679    -5.795978
C        1.025115    -0.017150    -2.807982
N        2.412726    -0.026653    -2.356841
C        3.443267    -0.083662    -3.320340
C        3.868980    -1.325578    -3.809274
C        4.901337    -1.387360    -4.746522
C        5.503246    -0.208756    -5.203672
Br       6.916058    -0.296184    -6.482434
C        5.069397     1.033307    -4.723383
C        4.037049     1.097637    -3.784893
N       -0.037398    -0.008942    -1.993637
C       -4.129213     0.003430    -0.011844
Br      -5.927951     0.015232    -0.677359
C       -3.804635     0.004264     1.371612
Br      -5.099207     0.004484     2.776016
C        3.372142     1.238476     4.481557
C        2.683451     2.545093     4.172674
C        4.317475     1.237845     5.518786
H        6.157144     1.086681     7.399995
H        5.654469    -0.596199     7.803194
H        6.980745    -0.305686     6.608696
H        5.264193    -2.021427     5.454191
H        3.253316    -3.230407     4.166603
H        2.838086    -2.424667     2.622783
H        4.552353    -2.801914     2.984988
H        4.854527    -0.029529     1.640497
H       -3.646919    -3.356147    -3.279412
H       -4.824491    -2.980180    -1.958768
H       -3.118743    -2.471046    -1.824407
H       -5.907559    -2.312798    -4.338549
H       -6.637187     0.106090    -6.788354
H       -7.797563     0.355474    -5.417139
H       -7.336093    -1.313592    -5.922787
H       -5.504799     1.898886    -5.127875
H       -4.194561     3.170315    -3.133562
H       -2.629591     2.410048    -2.740104
H       -3.007581     2.790346    -4.445567
H       -1.554957    -0.014183    -4.859883
H        3.410321    -2.237567    -3.446766
H        5.235103    -2.350092    -5.109980
H        5.534416     1.946660    -5.069501
H        3.708812     2.057138    -3.404178
H        2.144155     2.906130     5.073910
H        1.952303     2.472442     3.344726
H        3.445056     3.299878     3.884098
H        4.525656     2.158620     6.052102
83
ex_0005 frame6 see-saw N0-N3-ax-conf6
C        5.970787    -0.188347     7.009307
C        4.978201    -0.129040     5.884324
C        4.751476     1.062638     5.186230
C        3.817437     1.118931     4.139960
C        3.628403     2.443772     3.443704
C        3.100675    -0.051720     3.776121
C        2.100126    -0.023551     2.670681
C        2.681683    -0.017950     1.251397
C        4.029044    -0.015099     0.943856
C        4.139576     0.000436    -0.438332
Br       5.852019     0.019548    -1.297281
C        2.832848    -0.000823    -0.959158
N        1.991962    -0.014909     0.084113
Ni       0.000000     0.000000     0.000000
N       -0.157806    -0.002210     1.987395
C        0.752245     0.000712     2.942045
C        0.025587     0.036810     4.147104
Br       0.689464     0.072141     5.947468
C       -1.353850     0.047580     3.816598
Br      -2.754891     0.085827     5.113719
C       -1.427226     0.028136     2.422645
C       -2.414281     0.036639     1.441752
N       -1.984197     0.016366     0.173486
C       -2.915086     0.018331    -0.736865
C       -2.604334    -0.021334    -2.074521
C       -3.693119    -0.091371    -3.037451
C       -4.071171     1.030555    -3.806612
C       -3.398501     2.379156    -3.664388
C       -5.106724     0.890915    -4.735551
C       -5.782403    -0.331123    -4.873086
C       -6.897357    -0.484567    -5.855021
C       -5.416297    -1.427779    -4.085834
C       -4.363275    -1.330504    -3.177917
C       -3.987469    -2.566443    -2.381841
C       -1.188794    -0.001308    -2.680821
C       -0.857720     0.013896    -4.028464
C        0.534687     0.017839    -4.117729
Br       1.459454     0.030763    -5.794435
C        1.029440     0.011056    -2.806749
N        2.416051     0.010608    -2.353818
C        3.447101     0.082409    -3.315839
C        4.003029    -1.091944    -3.839933
C        5.036262    -1.012871    -4.776404
C        5.508371     0.237471    -5.195479
Br       6.922419     0.344371    -6.471402
C        4.943833     1.410031    -4.679163
C        3.911147     1.333574    -3.743407
N       -0.034178     0.004703    -1.992208
C       -4.128289     0.061737    -0.017255
Br      -5.925776     0.113713    -0.685105
C       -3.805794     0.063722     1.366438
Br      -5.102437     0.097860     2.768459
C        3.345183    -1.261353     4.476133
C        2.628324    -2.536692     4.112032
C        4.271195    -1.280643     5.530026
H        6.748998    -0.946953     6.780824
H        6.470679     0.790599     7.168636
H        5.452234    -0.474513     7.948865
H        5.303057     1.955608     5.458132
H        3.310831     3.208792     4.183154
H        2.863229     2.413472     2.643726
H        4.589276     2.761701     2.986582
H        4.853361    -0.014707     1.645194
H       -2.641912     2.411254    -2.853230
H       -2.893220     2.657104    -4.611593
H       -4.161832     3.147042    -3.417930
H       -5.395173     1.742410    -5.339443
H       -7.058775     0.448554    -6.433303
H       -6.647873    -1.303775    -6.561698
H       -7.831391    -0.738689    -5.311947
H       -5.936998    -2.371491    -4.196619
H       -3.096746    -2.433795    -1.734854
H       -4.830404    -2.873954    -1.729318
H       -3.744239    -3.393074    -3.080400
H       -1.544821     0.017986    -4.863645
H        3.644828    -2.058272    -3.506802
H        5.472110    -1.921784    -5.168779
H        5.307050     2.378897    -4.995307
H        3.481429     2.240479    -3.335260
H        1.532585    -2.425961     4.233218
H        2.957599    -3.388675     4.744159
H        2.856332    -2.787282     3.054434
H        4.461174    -2.201895     6.068633
83
ex_0005 frame7 cis-conf6
C        6.053305     6.831176     0.146369
C        5.042007     5.727363     0.108155
C        4.819956     5.017277    -1.077386
C        3.863838     3.995573    -1.132364
C        3.674042     3.272277    -2.447020
C        3.126177     3.675574     0.035808
C        2.101896     2.617187     0.008964
C        2.686112     1.201561     0.003448
C        4.034594     0.882264    -0.002581
C        4.136913    -0.500221    -0.010270
Br       5.836925    -1.383994    -0.023771
C        2.828353    -1.007346    -0.006200
N        1.995118     0.045491     0.003537
Ni       0.000000     0.000000     0.000000
N       -0.160511     1.987012    -0.004667
C        0.758010     2.921145    -0.011502
C        0.040919     4.132177    -0.045463
Br       0.728618     5.921149    -0.083081
C       -1.346111     3.811076    -0.051444
Br      -2.747614     5.107650    -0.087044
C       -1.430028     2.418062    -0.029680
C       -2.417579     1.430568    -0.033093
N       -1.983625     0.161053    -0.005508
C       -2.919535    -0.756377    -0.014057
C       -2.616756    -2.100837     0.011879
C       -3.704699    -3.091277     0.050174
C       -4.402189    -3.303562     1.265755
C       -4.057016    -2.576618     2.546555
C       -5.456554    -4.221067     1.297463
C       -5.820260    -4.934203     0.151228
C       -6.966597    -5.895505     0.217409
C       -5.111713    -4.743037    -1.042247
C       -4.054205    -3.827509    -1.108212
C       -3.331305    -3.669553    -2.426672
C       -1.199752    -2.687847     0.005446
C       -0.876222    -4.035750    -0.000486
C        0.509866    -4.134394    -0.011879
Br       1.407388    -5.826488    -0.031638
C        1.011927    -2.825994    -0.006402
N        2.405635    -2.397650    -0.011255
C        3.415452    -3.392225    -0.035649
C        3.903166    -3.928561     1.165355
C        4.903623    -4.904559     1.140459
C        5.418330    -5.350530    -0.082334
Br       6.785534    -6.682868    -0.112522
C        4.931121    -4.820156    -1.282587
C        3.930504    -3.843494    -1.261456
N       -0.042314    -1.994310     0.004505
C       -4.131202    -0.039136    -0.055813
Br      -5.923789    -0.720224    -0.103003
C       -3.810490     1.346705    -0.061743
Br      -5.110042     2.745329    -0.102011
C        3.372591     4.371901     1.243435
C        2.656616     4.052121     2.536214
C        4.316139     5.403224     1.258911
H        5.832996     7.535009     0.977427
H        7.065851     6.401443     0.289599
H        6.023619     7.411881    -0.799820
H        5.392141     5.261537    -1.965173
H        3.388003     3.991600    -3.241737
H        4.627678     2.778782    -2.731707
H        2.891411     2.488220    -2.413667
H        4.866578     1.573986    -0.004739
H       -4.921504    -1.969392     2.884514
H       -3.183181    -1.901289     2.454277
H       -3.805433    -3.321196     3.330839
H       -5.996292    -4.382370     2.223493
H       -6.723664    -6.717081     0.922503
H       -7.872329    -5.361527     0.576119
H       -7.190468    -6.330681    -0.779258
H       -5.385327    -5.304217    -1.927929
H       -2.560664    -2.873039    -2.414456
H       -2.824795    -4.623798    -2.684801
H       -4.056013    -3.416010    -3.227529
H       -1.566520    -4.868815    -0.003752
H        3.509629    -3.583892     2.113112
H        5.278586    -5.311391     2.070397
H        5.327954    -5.161779    -2.229802
H        3.559016    -3.433623    -2.192271
H        3.409307     3.691204     3.269613
H        2.157823     4.954919     2.942520
H        1.893439     3.254987     2.440198
H        4.509577     5.933145     2.183923
83
ex_0005 frame8 cis-conf5
C        5.984000     6.854737    -0.237465
C        4.985384     5.743515    -0.152116
C        4.516986     5.291524     1.089511
C        3.586728     4.248048     1.164080
C        3.151341     3.770453     2.530697
C        3.095584     3.679184    -0.034310
C        2.088660     2.616009    -0.011722
C        2.680526     1.206440    -0.011040
C        4.029879     0.895192    -0.009360
C        4.137268    -0.488194    -0.011038
Br       5.839895    -1.367059    -0.011913
C        2.830605    -1.000556    -0.011399
N        1.989975     0.048874    -0.011957
Ni       0.000000     0.000000     0.000000
N       -0.168000     1.984940     0.009300
C        0.748196     2.919950     0.004193
C        0.033224     4.131099     0.017529
Br       0.731125     5.916030     0.025027
C       -1.354298     3.810697     0.024910
Br      -2.755631     5.107466     0.039878
C       -1.436550     2.416976     0.019118
C       -2.421661     1.427661     0.023028
N       -1.985194     0.159678     0.011441
C       -2.918338    -0.759061     0.008541
C       -2.613712    -2.101370    -0.022500
C       -3.702748    -3.087507    -0.074950
C       -4.356723    -3.290510    -1.314697
C       -3.956688    -2.561281    -2.578765
C       -5.416288    -4.198166    -1.388814
C       -5.828550    -4.910271    -0.257147
C       -6.980779    -5.863300    -0.344106
C       -5.160235    -4.730168     0.960953
C       -4.097895    -3.822573     1.068419
C       -3.416750    -3.667624     2.408486
C       -1.196034    -2.689137    -0.009712
C       -0.871460    -4.036477     0.000483
C        0.514968    -4.132437    -0.003978
Br       1.417963    -5.822442    -0.004644
C        1.017547    -2.823260    -0.007333
N        2.408152    -2.392680    -0.011225
C        3.420156    -3.383022     0.046365
C        3.975541    -3.900404    -1.134258
C        4.978513    -4.872859    -1.065733
C        5.426846    -5.331980     0.178790
Br       6.797299    -6.657652     0.272086
C        4.870600    -4.819373     1.356181
C        3.868607    -3.848145     1.291297
N       -0.040493    -1.993752    -0.006327
C       -4.132340    -0.044034     0.036042
Br      -5.924192    -0.728153     0.068558
C       -3.814208     1.342616     0.037189
Br      -5.115773     2.739431     0.055157
C        3.570859     4.126821    -1.288352
C        3.095184     3.538534    -2.598691
C        4.517645     5.152835    -1.330606
H        6.925045     6.472782    -0.684728
H        6.206646     7.278642     0.764082
H        5.576372     7.665003    -0.878520
H        4.894357     5.734096     2.003758
H        2.693530     4.599485     3.107305
H        2.422589     2.935267     2.493534
H        4.044265     3.398340     3.078204
H        4.856352     1.593855    -0.004740
H       -3.721531    -3.303759    -3.369641
H       -4.786757    -1.910579    -2.921306
H       -3.054436    -1.928074    -2.461145
H       -5.921870    -4.345700    -2.335588
H       -7.835842    -5.447278     0.229398
H       -6.696502    -6.848042     0.080373
H       -7.303589    -6.012065    -1.396669
H       -5.474662    -5.292901     1.832448
H       -2.737884    -2.791706     2.450366
H       -2.816245    -4.577326     2.622229
H       -4.172192    -3.537693     3.211063
H       -1.560896    -4.870009     0.003851
H        3.634112    -3.545087    -2.098381
H        5.407788    -5.266573    -1.977819
H        5.214472    -5.170168     2.320435
H        3.442829    -3.451005     2.204201
H        2.664761     4.335093    -3.239249
H        2.319411     2.754724    -2.481739
H        3.956613     3.072761    -3.121436
H        4.890918     5.494549    -2.288799
83
ex_0005 frame9 see-saw N0-N3-ax-conf4
C        5.975622    -0.146033     7.002793
C        4.983342    -0.109577     5.876466
C        4.774278     1.071940     5.158018
C        3.835241     1.126500     4.116103
C        3.660411     2.445554     3.403663
C        3.101191    -0.039993     3.770665
C        2.098542    -0.012261     2.669381
C        2.681174    -0.003675     1.250511
C        4.028669     0.003639     0.943198
C        4.139440     0.012609    -0.438910
Br       5.852142     0.027100    -1.297284
C        2.832712     0.008909    -0.959720
N        1.992001    -0.001831     0.083359
Ni       0.000000     0.000000     0.000000
N       -0.158921    -0.000136     1.988195
C        0.751812     0.007347     2.941465
C        0.025145     0.041497     4.146880
Br       0.689075     0.079954     5.946707
C       -1.354143     0.046724     3.817069
Br      -2.754642     0.081009     5.115012
C       -1.426392     0.025456     2.422416
C       -2.414254     0.030037     1.442316
N       -1.984232     0.003591     0.173847
C       -2.915408     0.012719    -0.736280
C       -2.606284    -0.012265    -2.075035
C       -3.710513    -0.050083    -3.022698
C       -4.410600    -1.265817    -3.210953
C       -4.054834    -2.542945    -2.474936
C       -5.475498    -1.297019    -4.111673
C       -5.848053    -0.146689    -4.816226
C       -7.006515    -0.212263    -5.757327
C       -5.137758     1.049255    -4.635723
C       -4.070240     1.113932    -3.736306
C       -3.343495     2.431468    -3.564889
C       -1.192099    -0.003597    -2.680300
C       -0.859373     0.004776    -4.028472
C        0.533144     0.017667    -4.118109
Br       1.457295     0.041237    -5.794721
C        1.027532     0.010265    -2.806553
N        2.415727     0.015180    -2.354329
C        3.446648     0.040585    -3.318396
C        3.943719    -1.160794    -3.838972
C        4.974815    -1.136726    -4.779728
C        5.504639     0.086922    -5.207421
Br       6.914378     0.116797    -6.492215
C        5.000994     1.288191    -4.693264
C        3.969804     1.266673    -3.751907
N       -0.032971    -0.002705    -1.993689
C       -4.128741     0.055507    -0.015064
Br      -5.928853     0.106655    -0.676351
C       -3.805317     0.059208     1.367979
Br      -5.100997     0.097679     2.770837
C        3.334567    -1.244217     4.488406
C        2.624832    -2.538789     4.176938
C        4.261922    -1.257439     5.538950
H        5.752957    -0.982766     7.699681
H        6.998863    -0.279918     6.594861
H        5.932415     0.796646     7.588884
H        5.337772     1.960832     5.419489
H        3.355614     3.225428     4.133061
H        4.623651     2.743595     2.938701
H        2.891893     2.416843     2.606867
H        4.853007     0.004973     1.644541
H       -4.911723    -2.863976    -1.846628
H       -3.173888    -2.447641    -1.808174
H       -3.817664    -3.343574    -3.204975
H       -6.022608    -2.220992    -4.256775
H       -6.770378    -0.917205    -6.580696
H       -7.902274    -0.572498    -5.208387
H       -7.234039     0.785073    -6.187935
H       -5.424261     1.939597    -5.181691
H       -2.574660     2.412858    -2.765070
H       -2.835047     2.708811    -4.511166
H       -4.069290     3.225078    -3.291724
H       -1.548015     0.009195    -4.862896
H        3.539860    -2.106921    -3.500031
H        5.362966    -2.068017    -5.169646
H        5.410006     2.236320    -5.016335
H        3.586828     2.195363    -3.346288
H        3.379155    -3.282405     3.841720
H        2.116977    -2.925847     5.084592
H        1.869026    -2.448183     3.373710
H        4.440462    -2.178516     6.082239
83
ex_0005 frame10 see-saw N0-N3-ax-conf3
C        5.899361     0.229737     7.023002
C        4.921834     0.145165     5.888265
C        4.461398    -1.093650     5.424339
C        3.550730    -1.168588     4.359352
C        3.127775    -2.538072     3.887433
C        3.068344     0.028642     3.770893
C        2.082753     0.008457     2.666214
C        2.674406     0.011658     1.255414
C        4.023329     0.012106     0.957100
C        4.140755     0.017167    -0.424963
Br       5.856487     0.021255    -1.277153
C        2.835731     0.017817    -0.951569
N        1.993270     0.014527     0.087873
Ni       0.000000     0.000000     0.000000
N       -0.168196    -0.013946     1.985682
C        0.738767    -0.009062     2.939471
C        0.014937    -0.024457     4.144768
Br       0.690484    -0.033135     5.940092
C       -1.365225    -0.032936     3.814769
Br      -2.766753    -0.050605     5.111815
C       -1.437415    -0.025909     2.419864
C       -2.420021    -0.030067     1.435901
N       -1.984528    -0.016333     0.168879
C       -2.911662    -0.010642    -0.744155
C       -2.596869     0.025805    -2.081063
C       -3.704393     0.079800    -3.020383
C       -4.358636     1.321011    -3.195793
C       -3.942084     2.578648    -2.457063
C       -5.431052     1.396905    -4.083041
C       -5.858948     0.261366    -4.782607
C       -7.026112     0.350245    -5.711022
C       -5.192993    -0.961675    -4.613370
C       -4.113764    -1.067935    -3.730415
C       -3.421331    -2.403559    -3.564094
C       -1.180686     0.015732    -2.684380
C       -0.847383     0.009599    -4.031110
C        0.545830     0.014549    -4.116213
Br       1.476666     0.017960    -5.789814
C        1.037907     0.015930    -2.803702
N        2.422387     0.021326    -2.346585
C        3.454419    -0.038793    -3.305934
C        4.019868     1.140702    -3.807803
C        5.052855     1.069317    -4.745025
C        5.514399    -0.177947    -5.185465
Br       6.926186    -0.276064    -6.463987
C        4.940860    -1.354555    -4.688552
C        3.909112    -1.285494    -3.752515
N       -0.028853     0.011229    -1.994121
C       -4.128478    -0.043044    -0.027968
Br      -5.926465    -0.079339    -0.696554
C       -3.810582    -0.045999     1.356434
Br      -5.109938    -0.068004     2.756103
C        3.534184     1.280640     4.242889
C        3.067292     2.595133     3.664970
C        4.465569     1.321325     5.287082
H        6.856080     0.659758     6.659709
H        6.101182    -0.769100     7.464321
H        5.487314     0.884985     7.820024
H        4.826448    -2.006871     5.880537
H        2.654827    -3.100993     4.718542
H        2.413185    -2.506786     3.041111
H        4.027248    -3.093017     3.543418
H        4.842281     0.005759     1.665226
H       -3.732771     3.392693    -3.180077
H       -4.757717     2.893909    -1.773595
H       -3.025671     2.457519    -1.843658
H       -5.943301     2.342519    -4.211233
H       -7.882932    -0.195053    -5.263402
H       -6.765100    -0.102659    -6.689321
H       -7.323617     1.407033    -5.879226
H       -5.526283    -1.837213    -5.157291
H       -2.870492    -2.474933    -2.602200
H       -2.698373    -2.564051    -4.391052
H       -4.165339    -3.226764    -3.561391
H       -1.532941     0.007234    -4.867457
H        3.668501     2.104029    -3.458337
H        5.495834     1.981323    -5.121958
H        5.294991    -2.321297    -5.020380
H        3.470492    -2.194753    -3.359255
H        2.629107     3.219883     4.471139
H        2.295745     2.484174     2.877389
H        3.931656     3.128538     3.218275
H        4.827302     2.278715     5.644414
83
ex_0005 frame11 cis
C        6.087708     6.876509    -0.075222
C        5.051495     5.791446    -0.023157
C        4.772628     5.128674     1.176499
C        3.824135     4.097660     1.226403
C        3.612789     3.405223     2.549498
C        3.114988     3.738341     0.052569
C        2.086346     2.665005     0.088739
C        2.674041     1.255411     0.011390
C        4.020756     0.949616     0.018965
C        4.133403    -0.427777    -0.069685
Br       5.857570    -1.261656    -0.047837
C        2.826132    -0.945412    -0.162723
N        1.989240     0.093743    -0.075710
Ni       0.000000     0.000000     0.000000
N       -0.167509     1.975629     0.195904
C        0.737718     2.934114     0.175655
C        0.003224     4.129633     0.245860
Br       0.670278     5.926225     0.265307
C       -1.377111     3.785946     0.294112
Br      -2.792601     5.062976     0.392860
C       -1.441175     2.391476     0.249652
C       -2.420297     1.392405     0.250193
N       -1.986937     0.132920     0.100248
C       -2.920890    -0.792907     0.108957
C       -2.622321    -2.134648    -0.002804
C       -3.730194    -3.122414     0.134298
C       -4.108871    -3.410707     1.476018
C       -3.425981    -2.798248     2.677808
C       -5.158611    -4.298442     1.731101
C       -5.832832    -4.931595     0.689089
C       -6.961633    -5.867330     1.015398
C       -5.445524    -4.683276    -0.634733
C       -4.411307    -3.773085    -0.928835
C       -4.080141    -3.536836    -2.377106
C       -1.207641    -2.690406    -0.258262
C       -0.868856    -3.993534    -0.589410
C        0.521918    -4.044009    -0.702081
Br       1.477550    -5.630446    -1.186749
C        1.011831    -2.767528    -0.404717
N        2.399999    -2.327369    -0.322802
C        3.418616    -3.291076    -0.171690
C        4.233197    -3.654679    -1.251250
C        5.267091    -4.574691    -1.055328
C        5.475821    -5.137254     0.211425
Br       6.903130    -6.371191     0.487633
C        4.637549    -4.795497     1.278240
C        3.603747    -3.882638     1.083734
N       -0.053327    -1.982821    -0.198803
C       -4.126923    -0.084831     0.274257
Br      -5.915112    -0.774383     0.367928
C       -3.807005     1.297676     0.372522
Br      -5.102110     2.677944     0.623305
C        3.399460     4.412705    -1.165940
C        2.714350     4.080054    -2.468843
C        4.356966     5.437881    -1.183337
H        6.481851     7.112966     0.936188
H        6.934016     6.545799    -0.713624
H        5.649661     7.802509    -0.503560
H        5.321571     5.390874     2.073361
H        4.566624     2.918563     2.846778
H        2.834533     2.617743     2.515759
H        3.321621     4.139925     3.327138
H        4.844317     1.646302     0.105162
H       -3.027694    -3.612309     3.319683
H       -2.570294    -2.142976     2.425418
H       -4.155629    -2.199635     3.260758
H       -5.450576    -4.501853     2.755703
H       -7.753254    -5.310580     1.562589
H       -7.412239    -6.306015     0.100967
H       -6.594561    -6.691856     1.662653
H       -5.969788    -5.180537    -1.443090
H       -5.003165    -3.233800    -2.917718
H       -3.325176    -2.738689    -2.516680
H       -3.695020    -4.474461    -2.830817
H       -1.551904    -4.811445    -0.777600
H        4.085563    -3.198162    -2.222232
H        5.915478    -4.832591    -1.881130
H        4.793931    -5.220091     2.261132
H        2.969114    -3.598180     1.915421
H        2.152012     4.957935    -2.849226
H        3.490975     3.803368    -3.214832
H        2.014501     3.225406    -2.388729
H        4.585544     5.944862    -2.114715
83
ex_0005 frame12 see-saw N0-N3-ax
C        5.993551     0.031582     7.047556
C        4.979160    -0.011673     5.937274
C        4.712938    -1.203794     5.258312
C        3.784436    -1.247051     4.205114
C        3.589701    -2.569104     3.511898
C        3.080483    -0.072075     3.829385
C        2.073120    -0.101250     2.715501
C        2.664444    -0.015753     1.306738
C        4.011198    -0.022104     1.016171
C        4.136758     0.074910    -0.359293
Br       5.875038     0.054120    -1.162425
C        2.832627     0.173929    -0.893178
N        1.986401     0.078346     0.133885
Ni       0.000000     0.000000     0.000000
N       -0.172576    -0.201774     1.977530
C        0.721318    -0.189113     2.952974
C       -0.024677    -0.267219     4.140656
Br       0.617192    -0.299292     5.947408
C       -1.397281    -0.311829     3.783826
Br      -2.817539    -0.413812     5.056182
C       -1.448382    -0.260893     2.388674
C       -2.422374    -0.258565     1.392750
N       -1.984988    -0.103947     0.134204
C       -2.915147    -0.106857    -0.786695
C       -2.608589     0.016190    -2.122174
C       -3.732087    -0.121697    -3.072180
C       -4.113967    -1.463954    -3.345896
C       -3.422192    -2.664430    -2.733944
C       -5.174463    -1.717037    -4.217095
C       -5.859171    -0.671267    -4.834447
C       -7.003561    -0.997019    -5.746863
C       -5.468048     0.654279    -4.592522
C       -4.423967     0.945179    -3.695806
C       -4.088134     2.390622    -3.438925
C       -1.191633     0.282295    -2.684335
C       -0.841244     0.643508    -3.978365
C        0.554209     0.770666    -4.009667
Br       1.535878     1.314854    -5.559211
C        1.034483     0.436729    -2.739527
N        2.417661     0.346820    -2.277994
C        3.458150     0.197475    -3.211462
C        4.277447     1.278645    -3.552194
C        5.342693     1.080713    -4.433365
C        5.572242    -0.188807    -4.982612
Br       7.043466    -0.469055    -6.161114
C        4.722454    -1.255428    -4.668075
C        3.657799    -1.058116    -3.794136
N       -0.039025     0.201765    -1.980426
C       -4.125656    -0.274921    -0.080715
Br      -5.918271    -0.363872    -0.759319
C       -3.807558    -0.380528     1.298957
Br      -5.105107    -0.638956     2.676641
C        3.352204     1.139681     4.530215
C        2.675672     2.447829     4.210974
C        4.292039     1.148889     5.575758
H        6.377462    -0.982155     7.292101
H        6.852888     0.664292     6.739199
H        5.541951     0.461342     7.966758
H        5.253218    -2.103082     5.531411
H        4.553979    -2.872360     3.050881
H        2.826837    -2.535078     2.710583
H        3.281112    -3.339883     4.247807
H        4.825824    -0.112720     1.723669
H       -3.038925    -3.323432    -3.540096
H       -2.556960    -2.411991    -2.090342
H       -4.147311    -3.231089    -2.113382
H       -5.474553    -2.741347    -4.408688
H       -7.782293    -1.545569    -5.173632
H       -7.461290    -0.081737    -6.175211
H       -6.648654    -1.643303    -6.577136
H       -6.006424     1.464982    -5.069332
H       -5.014668     2.927430    -3.139071
H       -3.352910     2.516405    -2.618930
H       -3.682553     2.861662    -4.357725
H       -1.519313     0.863073    -4.792497
H        4.114954     2.248386    -3.097142
H        6.000651     1.905964    -4.666205
H        4.894889    -2.241116    -5.079079
H        3.016234    -1.889288    -3.522365
H        2.102369     2.806642     5.092096
H        3.455260     3.202005     3.966367
H        1.986891     2.381194     3.347493
H        4.506838     2.074058     6.101054
83
ex_0005 frame13 see-saw N1-N2-ax-conf5
C        6.842735    -0.431086     6.076641
C        5.698041    -0.273268     5.129207
C        5.000764     0.941230     5.011960
C        3.970765     1.075665     4.062758
C        3.263940     2.397757     3.915163
C        3.616029    -0.039257     3.266152
C        2.568649     0.001023     2.220027
C        1.173460     0.018157     2.744833
C        0.861048     0.049531     4.105113
C       -0.489827     0.063560     4.204208
Br      -1.349435     0.117210     5.930093
C       -0.982403     0.033500     2.890921
N        0.044760     0.006035     1.996787
Ni       0.000000     0.000000     0.000000
N        1.988047     0.003968    -0.087833
C        2.887908     0.022213     0.879561
C        4.094503     0.071233     0.207122
Br       5.834274     0.128177     1.002540
C        3.792738     0.078516    -1.195848
Br       5.077054     0.137597    -2.556122
C        2.407918     0.042005    -1.344025
C        1.401270     0.047653    -2.373585
N        0.138941    -0.003716    -1.975966
C       -0.823883     0.025270    -2.834863
C       -2.153703     0.001717    -2.433654
C       -3.132226    -0.023569    -3.477112
C       -3.320217    -1.241793    -4.153901
C       -2.599229    -2.511374    -3.768386
C       -4.203333    -1.279218    -5.218460
C       -4.922991    -0.137557    -5.575246
C       -5.854841    -0.178974    -6.726860
C       -4.773831     1.052073    -4.854072
C       -3.862217     1.134011    -3.806627
C       -3.691831     2.447181    -3.070527
C       -2.717693     0.002979    -1.019258
C       -4.055339     0.011394    -0.639636
C       -4.113382     0.032096     0.737652
Br      -5.757536     0.069761     1.723337
C       -2.801100     0.020400     1.174511
N       -2.361921     0.031915     2.541526
C       -3.325646     0.069364     3.589743
C       -3.789429     1.302333     4.082822
C       -4.754651     1.334922     5.095498
C       -5.256050     0.142407     5.624859
Br      -6.584175     0.203373     6.995538
C       -4.785118    -1.087775     5.150666
C       -3.818990    -1.126827     4.137708
N       -1.991809    -0.003977     0.085815
C       -0.143416     0.091869    -4.047179
Br      -0.926785     0.169420    -5.779195
C        1.270888     0.099848    -3.751257
Br       2.657473     0.168531    -5.013869
C        4.266603    -1.272061     3.446955
C        3.840412    -2.497045     2.681480
C        5.324647    -1.369584     4.348184
H        6.814614    -1.451717     6.512316
H        6.791992     0.305853     6.904242
H        7.794840    -0.323990     5.513342
H        5.297915     1.794964     5.613396
H        4.011217     3.212829     3.927844
H        2.744333     2.464104     2.937438
H        2.520891     2.555796     4.728456
H        1.520763     0.072855     4.968342
H       -1.728983    -2.669075    -4.438881
H       -2.275263    -2.513932    -2.703712
H       -3.295494    -3.365254    -3.873162
H       -4.323098    -2.203240    -5.766740
H       -5.725864    -1.119869    -7.300192
H       -6.895929    -0.111259    -6.351523
H       -5.625756     0.678549    -7.390483
H       -5.330046     1.930377    -5.146184
H       -4.090857     2.409694    -2.033997
H       -4.229309     3.256328    -3.604113
H       -2.616531     2.730062    -3.041388
H       -4.910453     0.018607    -1.283172
H       -3.404829     2.228824     3.677071
H       -5.120603     2.283523     5.467018
H       -5.173041    -2.010021     5.562633
H       -3.454891    -2.078707     3.771216
H        4.607331    -2.750811     1.927743
H        3.669044    -3.333492     3.386220
H        2.868897    -2.362773     2.164847
H        5.846237    -2.312833     4.458369
83
ex_0005 frame14 see-saw N1-N2-ax-conf2
C        6.800063    -0.021105     6.201086
C        5.680731    -0.047599     5.213053
C        4.966273     1.123147     4.969670
C        3.939381     1.144673     4.023441
C        3.207101     2.432328     3.809523
C        3.622789    -0.028065     3.299856
C        2.566303    -0.002473     2.249903
C        1.168492     0.018881     2.758213
C        0.850356     0.056263     4.118427
C       -0.498659     0.071864     4.206017
Br      -1.374930     0.141998     5.920860
C       -0.982603     0.029607     2.890079
N        0.044085     0.005475     1.996732
Ni       0.000000     0.000000     0.000000
N        1.987068    -0.000765    -0.073192
C        2.881000     0.003424     0.907181
C        4.080077     0.015804     0.242384
Br       5.806414     0.028958     1.037693
C        3.780542     0.016527    -1.160112
Br       5.052665     0.023901    -2.514472
C        2.405086     0.010100    -1.320324
C        1.404923     0.010781    -2.354950
N        0.141021    -0.004138    -1.981608
C       -0.811938     0.001019    -2.826128
C       -2.136920     0.009682    -2.431290
C       -3.112395     0.037162    -3.471845
C       -3.333914     1.267393    -4.104776
C       -2.615213     2.528064    -3.699120
C       -4.247863     1.328395    -5.142768
C       -4.931464     0.179027    -5.549325
C       -5.885481     0.257363    -6.688302
C       -4.720046    -1.040881    -4.888344
C       -3.807118    -1.124094    -3.837221
C       -3.586393    -2.438639    -3.123789
C       -2.709368    -0.005313    -1.021221
C       -4.040118    -0.026845    -0.640825
C       -4.101210    -0.009358     0.735902
Br      -5.741158    -0.002979     1.717672
C       -2.795202     0.002119     1.171978
N       -2.358304     0.014114     2.538071
C       -3.328142     0.070173     3.577853
C       -3.820364     1.313917     4.002501
C       -4.793361     1.381377     5.002480
C       -5.272501     0.206270     5.591675
Br      -6.609353     0.298803     6.949535
C       -4.772362    -1.037084     5.186240
C       -3.797575    -1.109023     4.183455
N       -1.990688     0.000220     0.098561
C       -0.133967     0.004586    -4.027709
Br      -0.910316    -0.011082    -5.749982
C        1.275453     0.022558    -3.724690
Br       2.650347     0.055573    -4.976346
C        4.315461    -1.224507     3.577730
C        3.982847    -2.510134     2.874221
C        5.341671    -1.223362     4.532991
H        7.028473    -1.039824     6.576889
H        7.691876     0.423453     5.711187
H        6.524619     0.618256     7.064930
H        5.224257     2.026900     5.510574
H        3.926100     3.159350     3.392261
H        2.383903     2.328703     3.083478
H        2.777441     2.803503     4.766003
H        1.503849     0.087751     4.989303
H       -3.347028     3.246594    -3.283692
H       -2.117882     2.949966    -4.591600
H       -1.833122     2.374793    -2.928947
H       -4.389370     2.268689    -5.657013
H       -6.779645    -0.350238    -6.453039
H       -5.403232    -0.118638    -7.615695
H       -6.218877     1.306030    -6.832174
H       -5.252418    -1.924833    -5.206095
H       -3.277234    -3.206647    -3.856346
H       -2.773094    -2.383579    -2.371537
H       -4.510454    -2.755750    -2.595404
H       -4.884753    -0.032688    -1.287815
H       -3.451773     2.221626     3.545939
H       -5.177195     2.345602     5.311521
H       -5.144994    -1.943820     5.645038
H       -3.413238    -2.072179     3.870665
H        4.891132    -2.863187     2.352298
H        3.171494    -2.402703     2.125913
H        3.647011    -3.267250     3.610977
H        5.902984    -2.130242     4.714594
83
ex_0005 frame15 see-saw N1-N2-ax-conf6
C        6.815017     0.212876     6.151697
C        5.686543     0.104321     5.186989
C        4.981634    -1.088013     4.972942
C        3.946989    -1.134116     4.025866
C        3.220140    -2.432281     3.817845
C        3.616902     0.035115     3.298439
C        2.564255     0.012163     2.251599
C        1.168856     0.004945     2.759821
C        0.850006    -0.016692     4.119560
C       -0.499490    -0.038260     4.203152
Br      -1.381912    -0.096295     5.913845
C       -0.980920    -0.011323     2.885959
N        0.045778     0.017977     1.996548
Ni       0.000000     0.000000     0.000000
N        1.988251     0.005010    -0.061431
C        2.877468    -0.010911     0.912321
C        4.072826    -0.060475     0.246204
Br       5.795025    -0.103334     1.041688
C        3.773033    -0.079307    -1.154939
Br       5.041187    -0.145861    -2.507725
C        2.400443    -0.044804    -1.313252
C        1.401581    -0.054924    -2.350663
N        0.139369    -0.019069    -1.981378
C       -0.813326    -0.032494    -2.823540
C       -2.135490     0.004750    -2.429280
C       -3.114169     0.062098    -3.461641
C       -3.874540    -1.056312    -3.826412
C       -3.709262    -2.391264    -3.146375
C       -4.806020    -0.909992    -4.850551
C       -4.948179     0.325377    -5.499819
C       -5.932002     0.508524    -6.587942
C       -4.162426     1.416797    -5.134520
C       -3.266388     1.305628    -4.089387
C       -2.484772     2.521298    -3.660262
C       -2.707661    -0.006100    -1.023451
C       -4.037302    -0.018877    -0.646760
C       -4.097176    -0.034525     0.728823
Br      -5.733126    -0.072947     1.710478
C       -2.792898    -0.017683     1.166322
N       -2.354884    -0.014266     2.529869
C       -3.322604    -0.077126     3.566403
C       -3.847715     1.099497     4.123519
C       -4.820613     1.016603     5.128980
C       -5.259685    -0.234691     5.582309
Br      -6.589666    -0.362447     6.944338
C       -4.724147    -1.403553     5.037576
C       -3.755767    -1.325346     4.035744
N       -1.991473    -0.004839     0.079830
C       -0.137858    -0.085828    -4.020799
Br      -0.920356    -0.140558    -5.735977
C        1.270764    -0.095660    -3.718145
Br       2.638850    -0.153263    -4.969523
C        4.295178     1.236656     3.569327
C        3.913470     2.511585     2.889473
C        5.340964     1.250584     4.483998
H        6.624619     1.091033     6.801891
H        6.916685    -0.687865     6.790069
H        7.747669     0.399594     5.577247
H        5.250996    -1.986057     5.514870
H        3.947028    -3.197675     3.490435
H        2.434459    -2.351471     3.041444
H        2.743544    -2.762893     4.765334
H        1.502111    -0.041842     4.992185
H       -2.751327    -2.463355    -2.581694
H       -4.558709    -2.555324    -2.454357
H       -3.704771    -3.197173    -3.904896
H       -5.396470    -1.759974    -5.161439
H       -6.661505    -0.322527    -6.580416
H       -6.479470     1.447301    -6.367129
H       -5.417964     0.584947    -7.570100
H       -4.284156     2.368371    -5.633024
H       -2.041162     2.412952    -2.648364
H       -1.660509     2.693781    -4.379132
H       -3.164122     3.391830    -3.598368
H       -4.880923    -0.026939    -1.294648
H       -3.504584     2.064205     3.767411
H       -5.238646     1.918182     5.553385
H       -5.062209    -2.370693     5.386644
H       -3.342066    -2.228223     3.613706
H        4.030811     2.417732     1.794147
H        4.536618     3.349909     3.262049
H        2.850066     2.726068     3.127226
H        5.885315     2.167590     4.668376
83
ex_0005 frame16 see-saw N1-N2-ax-conf4
C        6.821907     0.156803     6.155951
C        5.681105     0.090809     5.195332
C        4.956899    -1.093448     4.993237
C        3.922566    -1.136382     4.044577
C        3.167050    -2.419938     3.849577
C        3.611653     0.024132     3.298619
C        2.563761     0.003282     2.245985
C        1.167415    -0.005794     2.757994
C        0.849640    -0.027946     4.119360
C       -0.500177    -0.050074     4.205567
Br      -1.381099    -0.105126     5.916153
C       -0.984811    -0.025824     2.890306
N        0.043109     0.005833     1.996759
Ni       0.000000     0.000000     0.000000
N        1.988227     0.002454    -0.059299
C        2.877381    -0.015602     0.908608
C        4.074898    -0.062336     0.241734
Br       5.799193    -0.105902     1.037974
C        3.775536    -0.078433    -1.159011
Br       5.045548    -0.144117    -2.509907
C        2.401450    -0.043111    -1.316195
C        1.401493    -0.051206    -2.353324
N        0.137735    -0.007033    -1.981760
C       -0.815774    -0.027649    -2.825538
C       -2.141999     0.001030    -2.433436
C       -3.114495     0.039960    -3.484425
C       -3.304686     1.251975    -4.162238
C       -2.562328     2.506625    -3.773599
C       -4.202808     1.290624    -5.219377
C       -4.915910     0.145017    -5.584269
C       -5.853204     0.225244    -6.738276
C       -4.743726    -1.051490    -4.869763
C       -3.837927    -1.111550    -3.811357
C       -3.656273    -2.396143    -3.049135
C       -2.708698    -0.005795    -1.020997
C       -4.037956    -0.016710    -0.643934
C       -4.099254    -0.038994     0.731818
Br      -5.737523    -0.081122     1.708380
C       -2.796373    -0.025092     1.172680
N       -2.362890    -0.033334     2.539823
C       -3.339498    -0.052291     3.579533
C       -3.864464     1.152619     4.079168
C       -4.843194     1.132971     5.080665
C       -5.294708    -0.085732     5.597125
Br      -6.635717    -0.114996     6.957917
C       -4.764008    -1.286603     5.117054
C       -3.786431    -1.274155     4.114503
N       -1.991245    -0.002177     0.086577
C       -0.136993    -0.088719    -4.023265
Br      -0.913112    -0.155454    -5.741013
C        1.271734    -0.097963    -3.720481
Br       2.643989    -0.161883    -4.970315
C        4.304983     1.218909     3.556544
C        3.970839     2.493543     2.855365
C        5.337013     1.239962     4.488332
H        7.539400     0.930382     5.809689
H        6.463913     0.457621     7.162034
H        7.370778    -0.806716     6.169995
H        5.208950    -1.987623     5.551720
H        3.860236    -3.213242     3.515415
H        2.687598    -2.716460     4.805420
H        2.375141    -2.325235     3.082110
H        1.501836    -0.051144     4.992575
H       -1.839768     2.766707    -4.571226
H       -1.997768     2.398246    -2.825514
H       -3.278411     3.333126    -3.612981
H       -4.332820     2.210793    -5.771241
H       -6.784691     0.719746    -6.395189
H       -5.403925     0.847818    -7.538555
H       -6.063533    -0.779272    -7.160282
H       -5.290489    -1.941346    -5.147631
H       -2.704419    -2.421601    -2.474349
H       -4.494963    -2.508394    -2.330558
H       -3.611201    -3.237964    -3.763930
H       -4.880843    -0.024290    -1.293012
H       -3.522151     2.098296     3.681713
H       -5.256557     2.061601     5.451825
H       -5.115551    -2.227036     5.519135
H       -3.382456    -2.207869     3.747607
H        3.374085     3.095241     3.567969
H        4.904520     3.016107     2.570368
H        3.347106     2.351287     1.954691
H        5.886493     2.160041     4.646161
83
ex_0005 frame17 see-saw N1-N2-ax-conf3
C        6.827174    -0.268604     6.071711
C        5.687906    -0.142073     5.120362
C        5.208755     1.111028     4.702824
C        4.153461     1.186751     3.783108
C        3.622966     2.522456     3.357152
C        3.606220    -0.000034     3.269107
C        2.548765     0.004910     2.248267
C        1.165170    -0.001874     2.762910
C        0.852583    -0.005912     4.125869
C       -0.495898    -0.009858     4.207980
Br      -1.385302    -0.011185     5.914480
C       -0.976631    -0.012270     2.890179
N        0.045797    -0.004985     1.996843
Ni       0.000000     0.000000     0.000000
N        1.987050     0.001720    -0.054222
C        2.866865     0.011791     0.917454
C        4.058447     0.029804     0.258821
Br       5.768284     0.047831     1.066186
C        3.760664     0.033802    -1.142867
Br       5.025097     0.059724    -2.489432
C        2.392018     0.017872    -1.305116
C        1.388476     0.021258    -2.343104
N        0.127428     0.005661    -1.981420
C       -0.828306     0.014976    -2.813890
C       -2.150817    -0.005742    -2.413792
C       -3.117447    -0.040603    -3.465259
C       -3.288169    -1.274071    -4.100174
C       -2.540688    -2.496448    -3.647816
C       -4.165001    -1.365551    -5.166885
C       -4.886826    -0.242035    -5.574884
C       -5.809936    -0.355784    -6.730967
C       -4.740447     0.980021    -4.899018
C       -3.841577     1.093444    -3.839256
C       -3.662293     2.405235    -3.123177
C       -2.710428     0.004514    -1.007999
C       -4.033109     0.022833    -0.627979
C       -4.089882     0.015437     0.745084
Br      -5.721530     0.030442     1.724638
C       -2.787154    -0.003591     1.177946
N       -2.347993    -0.021137     2.537368
C       -3.315767     0.025845     3.570583
C       -3.823553    -1.157977     4.138098
C       -4.796804    -1.081604     5.144898
C       -5.249631     0.171269     5.582303
Br      -6.575342     0.314237     6.943173
C       -4.731702     1.341032     5.022717
C       -3.765179     1.270940     4.024682
N       -1.989944    -0.002836     0.091019
C       -0.152866     0.046007    -4.005631
Br      -0.923178     0.092580    -5.715760
C        1.255757     0.040108    -3.703347
Br       2.617527     0.055513    -4.947637
C        4.058168    -1.245396     3.719288
C        3.445514    -2.515557     3.224305
C        5.093119    -1.310601     4.641608
H        6.425075    -0.451825     7.087960
H        7.486437     0.623709     6.044321
H        7.434269    -1.151780     5.784131
H        5.653758     2.022765     5.081712
H        4.426585     3.093689     2.859184
H        2.774485     2.423416     2.648512
H        3.256502     3.073308     4.245209
H        1.505015    -0.009249     5.001365
H       -3.239303    -3.348862    -3.645606
H       -1.673039    -2.685233    -4.309379
H       -2.154651    -2.385134    -2.612657
H       -4.273003    -2.311445    -5.681206
H       -5.248055    -0.065352    -7.638322
H       -6.682259     0.315207    -6.592220
H       -6.158060    -1.405522    -6.844409
H       -5.292903     1.848755    -5.223976
H       -2.638814     2.478170    -2.689968
H       -4.414695     2.533408    -2.316309
H       -3.768732     3.225496    -3.853926
H       -4.870757     0.036047    -1.278224
H       -3.468334    -2.122331     3.792730
H       -5.202720    -1.985919     5.582939
H       -5.080674     2.306932     5.356879
H       -3.368802     2.179455     3.592153
H        4.243299    -3.222904     2.931645
H        2.799792    -2.352788     2.342472
H        2.798495    -2.918676     4.026668
H        5.461726    -2.280988     4.949766
83
ex_0005 frame18 cis-conf2
C        6.073754     6.853806    -0.081673
C        5.083346     5.749259    -0.034010
C        4.842840     5.045428     1.150873
C        3.888786     4.023880     1.178251
C        3.662158     3.284440     2.474539
C        3.174896     3.708810    -0.004817
C        2.135042     2.668964     0.033347
C        2.707901     1.287443     0.049195
C        4.063710     0.975515     0.161149
C        4.138128    -0.387547     0.127305
Br       5.846502    -1.257770     0.322961
C        2.811038    -0.854867    -0.060829
N        1.988303     0.146752    -0.043103
Ni       0.000000     0.000000     0.000000
N       -0.120034     1.985726     0.112435
C        0.782106     2.933642     0.050198
C        0.034183     4.103546    -0.004286
Br       0.715230     5.873631    -0.111936
C       -1.346219     3.723868     0.023791
Br      -2.835365     4.873267    -0.057309
C       -1.401161     2.349908     0.121237
C       -2.380113     1.334493     0.244660
N       -1.988958     0.065640     0.063976
C       -2.921260    -0.854366     0.136845
C       -2.634631    -2.180394    -0.047440
C       -3.758083    -3.167388     0.100077
C       -4.124702    -3.445195     1.441486
C       -3.400006    -2.846412     2.610232
C       -5.190765    -4.300016     1.724257
C       -5.881668    -4.942429     0.706269
C       -7.010401    -5.846833     1.093748
C       -5.505831    -4.726420    -0.625776
C       -4.466205    -3.821515    -0.941473
C       -4.150701    -3.587373    -2.384054
C       -1.214233    -2.652264    -0.394557
C       -0.828281    -3.807277    -1.023192
C        0.560174    -3.750952    -1.148066
Br       1.606113    -5.028568    -2.073670
C        1.006280    -2.620271    -0.498084
N        2.349362    -2.178843    -0.247120
C        3.332534    -3.081374    -0.083384
C        4.100532    -3.398984    -1.179833
C        5.099490    -4.323332    -1.018483
C        5.311245    -4.901343     0.243205
Br       6.684592    -6.173066     0.452682
C        4.517617    -4.546709     1.346204
C        3.505426    -3.630456     1.179167
N       -0.061076    -1.985896    -0.130258
C       -4.087644    -0.143620     0.459357
Br      -5.863910    -0.807519     0.779459
C       -3.734260     1.229899     0.540664
Br      -4.961996     2.604237     0.982070
C        3.464053     4.386445    -1.206110
C        2.808826     4.038040    -2.512909
C        4.391684     5.422564    -1.198459
H        6.168147     7.338691     0.911726
H        7.037424     6.438992    -0.439754
H        5.724672     7.621371    -0.803688
H        5.394987     5.291408     2.052063
H        4.566802     2.689652     2.731073
H        2.806810     2.583954     2.419105
H        3.448888     4.002090     3.288373
H        4.932376     1.630690     0.282204
H       -3.161467    -3.658041     3.322613
H       -2.429247    -2.402423     2.321152
H       -4.032579    -2.076895     3.099247
H       -5.477215    -4.483110     2.753827
H       -7.790951    -5.238385     1.598123
H       -7.466129    -6.367564     0.225869
H       -6.628555    -6.600862     1.816276
H       -6.055270    -5.221832    -1.419481
H       -5.100087    -3.627994    -2.952815
H       -3.736310    -2.569352    -2.540237
H       -3.485043    -4.381928    -2.779068
H       -1.491810    -4.579991    -1.382417
H        3.912901    -2.899826    -2.130893
H        5.699595    -4.570459    -1.873605
H        4.679951    -4.967626     2.324146
H        2.879805    -3.305919     2.015887
H        2.011392     4.762715    -2.764780
H        3.591475     4.069100    -3.299726
H        2.412969     3.000156    -2.518355
H        4.604270     5.955543    -2.116525
83
ex_0005 frame19 see-saw N1-N2-ax
C        6.858519    -0.109483     6.242159
C        5.752234    -0.056144     5.261680
C        5.048320     1.127465     5.033654
C        4.026360     1.159247     4.082384
C        3.285836     2.449725     3.864587
C        3.712139    -0.017597     3.354756
C        2.667552     0.027446     2.297423
C        1.301756     0.050902     2.803100
C        0.998387     0.161966     4.199384
C       -0.347154     0.123006     4.251862
Br      -1.230935     0.294289     5.999239
C       -0.800270    -0.050262     2.884017
N        0.185203    -0.030951     1.991073
Ni       0.000000     0.000000     0.000000
N        1.985051     0.112343    -0.004359
C        2.914482     0.045697     0.942711
C        4.063855    -0.009433     0.216688
Br       5.799241    -0.118533     0.919730
C        3.688834     0.021694    -1.169487
Br       4.781868    -0.058259    -2.650576
C        2.339463     0.123969    -1.267110
C        1.332420     0.259451    -2.292917
N        0.076555     0.054471    -1.984256
C       -0.868114     0.156018    -2.849925
C       -2.190046    -0.034975    -2.505828
C       -3.182246     0.121931    -3.587388
C       -3.459982     1.459607    -3.928966
C       -2.851594     2.609868    -3.189764
C       -4.321552     1.747152    -4.980029
C       -4.963426     0.732136    -5.673098
C       -5.867153     1.128504    -6.791753
C       -4.745198    -0.599430    -5.306258
C       -3.836809    -0.915408    -4.277213
C       -3.598210    -2.351967    -3.951628
C       -2.646556    -0.393945    -1.087817
C       -3.767291    -1.045671    -0.653538
C       -3.690526    -1.148616     0.736950
Br      -4.931614    -2.071410     1.813243
C       -2.574299    -0.480241     1.140942
N       -2.125176    -0.224591     2.479432
C       -3.023795    -0.088495     3.494433
C       -3.340269    -1.196406     4.269672
C       -4.273329    -1.044916     5.268396
C       -4.850225     0.209910     5.488895
Br      -6.119498     0.407259     6.860258
C       -4.501327     1.318359     4.709977
C       -3.579380     1.169759     3.697591
N       -1.986758    -0.113448     0.026160
C       -0.164822     0.510106    -3.987022
Br      -0.846842     0.871035    -5.720254
C        1.220541     0.586090    -3.614862
Br       2.606174     1.052019    -4.756411
C        4.390116    -1.216503     3.640901
C        4.040965    -2.515044     2.981448
C        5.425535    -1.215290     4.567610
H        7.356329     0.876672     6.329757
H        6.446319    -0.479562     7.201221
H        7.613318    -0.836994     5.887391
H        5.307852     2.025428     5.580685
H        2.684243     2.702364     4.763810
H        2.600211     2.379466     3.000333
H        4.003449     3.266053     3.663943
H        1.627120     0.265572     5.132360
H       -3.662760     3.316236    -2.957579
H       -2.434721     2.300669    -2.211211
H       -2.076542     3.109603    -3.806683
H       -4.504794     2.775778    -5.255315
H       -5.252408     1.632394    -7.563061
H       -6.396346     0.270769    -7.259368
H       -6.598131     1.864879    -6.394262
H       -5.234942    -1.390085    -5.857958
H       -3.654533    -2.902258    -4.903314
H       -2.569573    -2.522110    -3.566256
H       -4.393219    -2.759718    -3.294648
H       -4.543750    -1.434381    -1.295734
H       -2.862809    -2.157945     4.093173
H       -4.540010    -1.897590     5.867126
H       -4.941884     2.284473     4.890283
H       -3.270480     2.018301     3.084741
H        4.755999    -2.768341     2.177397
H        4.099753    -3.294170     3.763352
H        2.996728    -2.536443     2.605346
H        5.969148    -2.130477     4.767884
83
ex_0005 frame20 cis-conf7
C        5.543143     7.068164    -1.678618
C        4.707979     5.920458    -1.257734
C        4.723116     4.692116    -1.878547
C        3.905433     3.655001    -1.540702
C        3.947381     2.479252    -2.463207
C        3.092058     3.686618    -0.385377
C        2.505619     2.486013    -0.002296
C        3.129257     1.279186    -0.093486
C        4.413383     0.732792    -0.325438
C        4.258631    -0.585083    -0.301472
Br       5.665157    -1.812236    -0.576719
C        2.856620    -0.849211     0.000423
N        2.191977     0.187077     0.109798
Ni       0.000000     0.000000     0.000000
N        0.012386     1.842708    -0.109798
C        1.175174     2.222073     0.532853
C        1.030842     2.289844     1.876553
Br       2.449534     2.753750     3.000971
C       -0.356553     1.925480     2.147391
Br      -1.215935     1.871953     3.793104
C       -0.821267     1.556319     0.994402
C       -2.079850     0.870365     0.739047
N       -1.814077    -0.215595     0.109798
C       -3.011107    -0.933037    -0.029938
C       -2.863689    -2.152500    -0.523284
C       -3.994595    -2.939752    -0.829152
C       -4.265235    -4.134989    -0.199231
C       -3.317331    -4.593513     0.861881
C       -5.352398    -4.925168    -0.490445
C       -6.243143    -4.522813    -1.461981
C       -7.444843    -5.318471    -1.842405
C       -6.017704    -3.326421    -2.118393
C       -4.904744    -2.558538    -1.816505
C       -4.739871    -1.304894    -2.608177
C       -1.459220    -2.598778    -0.677225
C       -0.879820    -3.627610    -1.255111
C        0.547192    -3.568753    -0.990740
Br       1.819032    -4.844824    -1.515806
C        0.852552    -2.477974    -0.280728
N        2.082065    -2.054510     0.197984
C        2.729240    -2.830732     1.182995
C        3.678259    -3.773487     1.011230
C        4.187673    -4.406650     2.124706
C        3.786672    -4.146372     3.413480
Br       4.568548    -5.090476     4.867618
C        2.817521    -3.194015     3.590690
C        2.313950    -2.567593     2.493316
N       -0.390286    -1.814190    -0.109798
C       -4.052694    -0.082641     0.520864
Br      -5.884965    -0.538400     0.563046
C       -3.471079     1.024620     1.009876
Br      -4.181128     2.538823     1.885882
C        3.008413     4.936306     0.178204
C        2.043168     5.328513     1.242374
C        3.843166     6.012702    -0.193236
H        5.943914     6.932976    -2.704017
H        6.427500     7.217025    -1.025451
H        4.939641     8.020223    -1.739765
H        5.383235     4.572100    -2.712118
H        3.084625     1.829611    -2.425386
H        3.730897     3.030623    -3.471360
H        4.933192     2.059627    -2.692243
H        5.307084     1.330169    -0.465379
H       -2.925782    -5.577440     0.531261
H       -3.964349    -4.808630     1.762658
H       -2.555851    -3.848880     1.097337
H       -5.541883    -5.878713     0.024530
H       -8.219406    -4.607722    -2.235825
H       -7.877130    -5.887045    -1.006925
H       -7.181479    -5.990560    -2.705148
H       -6.722291    -3.003927    -2.889530
H       -5.595163    -0.614169    -2.519746
H       -4.699181    -1.560096    -3.708111
H       -3.808571    -0.768967    -2.403496
H       -1.470867    -4.374222    -1.787135
H        4.076984    -4.084033     0.067587
H        4.958222    -5.161936     1.995490
H        2.491793    -2.979059     4.599263
H        1.536708    -1.809703     2.686024
H        2.465543     5.571976     2.221508
H        1.711187     6.396349     0.886764
H        1.083766     4.830409     1.201236
H        3.801264     6.964030     0.316956
83
ex_0005 frame21 cis-conf3
C        5.563699     7.337612     0.592201
C        4.769665     6.101562     0.437557
C        3.455023     6.125352     0.032378
C        2.678959     4.959620    -0.040058
C        1.231599     5.228031    -0.293275
C        3.203537     3.689785     0.099022
C        2.548019     2.524374    -0.288387
C        3.070672     1.298202    -0.495934
C        4.281469     0.722527    -0.929640
C        4.173194    -0.574543    -0.793199
Br       5.601532    -1.767862    -1.158673
C        2.827623    -0.840222    -0.269614
N        2.157342     0.197228    -0.200709
Ni       0.000000     0.000000     0.000000
N        0.061788     1.798290     0.200709
C        1.097816     2.338362    -0.517348
C        0.669380     2.738048    -1.753244
Br       1.747684     3.548309    -3.108486
C       -0.762079     2.410644    -1.853079
Br      -1.977518     2.712484    -3.259754
C       -1.012151     1.757381    -0.756751
C       -2.206203     1.012364    -0.448375
N       -1.872330    -0.211360    -0.200709
C       -3.054394    -0.956154     0.008467
C       -2.855268    -2.248538     0.188565
C       -3.961144    -3.104579     0.432013
C       -4.132586    -3.693594     1.669421
C       -3.155047    -3.387092     2.738864
C       -5.176223    -4.553286     1.945190
C       -6.081338    -4.823981     0.939039
C       -7.200994    -5.741526     1.203294
C       -5.953470    -4.241640    -0.327796
C       -4.882906    -3.400915    -0.561057
C       -4.768651    -2.825175    -1.943171
C       -1.439992    -2.683321     0.097696
C       -0.967224    -3.887340    -0.081146
C        0.484813    -3.808285    -0.104812
Br       1.575379    -5.348497    -0.337614
C        0.871764    -2.527410     0.090016
N        2.153825    -2.035027     0.166762
C        3.083223    -2.726025     1.012759
C        3.010422    -2.355577     2.363088
C        3.859604    -2.908689     3.309367
C        4.759476    -3.844740     2.841227
Br       5.996606    -4.689464     4.049990
C        4.812600    -4.207950     1.523438
C        3.960186    -3.655154     0.570011
N       -0.346800    -1.784159     0.200709
C       -4.136054     0.013056    -0.064332
Br      -5.949301    -0.379719     0.186283
C       -3.624749     1.228631    -0.363140
Br      -4.421697     2.894331    -0.635294
C        4.510627     3.694303     0.603934
C        5.208529     2.473826     1.103730
C        5.284410     4.850763     0.685641
H        5.564437     7.874709    -0.387309
H        5.210695     7.963190     1.436809
H        6.634242     7.028610     0.727729
H        3.031208     7.104288    -0.165060
H        0.570836     4.564178     0.285998
H        0.918094     5.587436    -1.254896
H        1.075450     6.203630     0.353147
H        5.106247     1.362419    -1.286674
H       -2.517978    -2.505943     2.479873
H       -2.555410    -4.259244     3.056449
H       -3.709073    -3.059852     3.643937
H       -5.251294    -4.991522     2.938885
H       -6.985022    -6.787875     0.869015
H       -7.425655    -5.821724     2.298450
H       -8.129109    -5.436404     0.673031
H       -6.683707    -4.479541    -1.090821
H       -3.881768    -2.211785    -2.089695
H       -4.621987    -3.737208    -2.586264
H       -5.707025    -2.390607    -2.302825
H       -1.551999    -4.765832    -0.189899
H        2.294696    -1.616927     2.711746
H        3.844666    -2.645864     4.352144
H        5.536096    -4.943160     1.203731
H        4.081508    -4.016434    -0.429932
H        5.643859     2.877357     2.115270
H        4.529876     1.718686     1.512323
H        6.125109     2.168639     0.616076
H        6.320228     4.814358     1.008975
