48
ex_0022 frame0 
C       -4.284867     0.318551     2.768958
C       -3.081011     0.317031     1.938124
N       -2.105916     0.323364     1.241471
Cu      -0.626100     0.322102     0.186091
N       -0.965575     0.132552    -1.720902
C       -2.143108     0.021421    -2.099453
C       -3.322472     0.011080    -1.237059
C       -2.362823    -0.112903    -3.566891
C       -1.291133    -0.105554    -4.377439
C        0.068054     0.030213    -3.846878
C        0.185360     0.141734    -2.540593
As       1.922412     0.324497    -1.654936
O        3.184610     0.328378    -2.558059
C        1.605855     1.923082    -0.557721
C        2.402056     2.951361    -0.576506
C        2.061814     4.091752     0.289309
C        0.967312     4.053969     1.062149
C        0.102608     2.841987     1.031409
C       -1.097433     2.824776     1.893287
N        0.456917     1.920396     0.273445
C        1.802794    -1.083754    -0.287983
C        2.735851    -1.977705    -0.142028
C        2.558423    -2.986885     0.902504
C        1.464937    -2.945445     1.646500
C        0.428327    -1.896138     1.433516
C       -0.782423    -1.890463     2.293615
N        0.643700    -1.071169     0.529725
H       -5.170307     0.710456     2.218499
H       -4.529857    -0.741091     3.011454
H       -4.147511     0.960871     3.653921
H       -4.262260    -0.075139    -1.868653
H       -3.409431     0.990546    -0.774412
H       -3.365353    -0.874160    -0.597868
H       -3.359120    -0.211467    -3.942840
H       -1.440035    -0.202548    -5.447773
H        0.949639     0.039892    -4.468332
H        3.270205     2.945340    -1.208949
H        2.709427     4.965732     0.294418
H        0.700563     4.874358     1.700967
H       -0.968699     2.040466     2.642568
H       -2.027920     2.860877     1.333299
H       -1.112485     3.779846     2.507821
H        3.595878    -1.958289    -0.774752
H        3.324476    -3.741845     1.041413
H        1.326147    -3.679360     2.412957
H       -0.664429    -2.770150     3.001245
H       -1.684329    -2.123084     1.715148
H       -0.822103    -1.027382     2.958341
48
ex_0022 frame1 _mirror
C       -4.284867     0.318551    -2.768958
C       -3.081011     0.317031    -1.938124
N       -2.105916     0.323364    -1.241471
Cu      -0.626100     0.322102    -0.186091
N       -0.965575     0.132552     1.720902
C       -2.143108     0.021421     2.099453
C       -3.322472     0.011080     1.237059
C       -2.362823    -0.112903     3.566891
C       -1.291133    -0.105554     4.377439
C        0.068054     0.030213     3.846878
C        0.185360     0.141734     2.540593
As       1.922412     0.324497     1.654936
O        3.184610     0.328378     2.558059
C        1.605855     1.923082     0.557721
C        2.402056     2.951361     0.576506
C        2.061814     4.091752    -0.289309
C        0.967312     4.053969    -1.062149
C        0.102608     2.841987    -1.031409
C       -1.097433     2.824776    -1.893287
N        0.456917     1.920396    -0.273445
C        1.802794    -1.083754     0.287983
C        2.735851    -1.977705     0.142028
C        2.558423    -2.986885    -0.902504
C        1.464937    -2.945445    -1.646500
C        0.428327    -1.896138    -1.433516
C       -0.782423    -1.890463    -2.293615
N        0.643700    -1.071169    -0.529725
H       -5.170307     0.710456    -2.218499
H       -4.529857    -0.741091    -3.011454
H       -4.147511     0.960871    -3.653921
H       -4.262260    -0.075139     1.868653
H       -3.409431     0.990546     0.774412
H       -3.365353    -0.874160     0.597868
H       -3.359120    -0.211467     3.942840
H       -1.440035    -0.202548     5.447773
H        0.949639     0.039892     4.468332
H        3.270205     2.945340     1.208949
H        2.709427     4.965732    -0.294418
H        0.700563     4.874358    -1.700967
H       -0.968699     2.040466    -2.642568
H       -2.027920     2.860877    -1.333299
H       -1.112485     3.779846    -2.507821
H        3.595878    -1.958289     0.774752
H        3.324476    -3.741845    -1.041413
H        1.326147    -3.679360    -2.412957
H       -0.664429    -2.770150    -3.001245
H       -1.684329    -2.123084    -1.715148
H       -0.822103    -1.027382    -2.958341
