71
ex_0467 frame0 Isomer 1
C       -3.056640     2.928833    -1.721543
O       -2.107074     2.254221    -2.512592
Zn      -0.586505     3.696705    -2.566217
Br      -0.507419     5.054098    -0.650047
Br      -0.863414     5.221187    -4.332583
N        1.189422     2.694719    -2.764778
C        1.917673     3.029681    -3.943028
C        3.158815     2.281933    -4.060910
C        3.502398     1.386864    -3.115347
C        2.647687     1.113150    -1.916997
C        1.501415     1.773273    -1.798898
C        0.469176     1.592856    -0.649992
N        0.446924     0.511587     0.356871
P        0.852586    -1.018965    -0.384947
Se       0.259834    -1.126541    -2.583321
C       -0.757542    -1.846107     0.222958
C       -0.747875    -3.056513     0.941932
C       -1.952909    -3.664014     1.341997
C       -3.179884    -3.062108     1.046572
C       -3.204022    -1.850735     0.356871
C       -2.007095    -1.239793    -0.047428
C        2.169443    -2.202028    -0.224463
C        3.362624    -1.814500     0.387758
C        4.427243    -2.704931     0.428479
C        4.264948    -3.989193    -0.095389
C        3.044737    -4.370318    -0.659837
C        1.992694    -3.479570    -0.705409
P        1.283131     1.024606     1.818461
Se       3.160710     2.270628     1.943349
C       -0.071149     2.114261     2.448082
C       -1.423108     1.711480     2.373071
C       -2.428398     2.550775     2.866253
C       -2.083617     3.785047     3.429325
C       -0.742980     4.172369     3.498937
C        0.245935     3.344404     3.001717
C        1.544185    -0.355244     2.995647
C        0.482189    -1.189539     3.386009
C        0.716058    -2.200646     4.323859
C        2.003869    -2.388110     4.839507
C        3.049179    -1.566771     4.427662
C        2.816209    -0.572284     3.505138
H       -2.924627     2.590167    -0.672119
H       -2.963769     4.039416    -1.758374
H       -4.050737     2.652420    -2.085235
H       -2.328168     2.444071    -3.463174
H        1.478810     3.787557    -4.601238
H        3.747524     2.500718    -4.925473
H        4.420973     0.858086    -3.250957
H        2.963847     0.389115    -1.198507
H       -0.483374     1.382985    -1.132746
H        0.381889     2.557267    -0.123369
H        0.175221    -3.546261     1.184034
H       -1.934193    -4.607923     1.875689
H       -4.114711    -3.527310     1.346185
H       -4.158219    -1.390688     0.126627
H       -2.078877    -0.308853    -0.586522
H        3.486189    -0.801022     0.756844
H        5.373646    -2.395149     0.847996
H        5.080645    -4.690932    -0.076426
H        2.901239    -5.344995    -1.079789
H        1.050400    -3.749393    -1.165126
H       -1.705763     0.755796     1.953164
H       -3.466013     2.239841     2.815623
H       -2.847965     4.438138     3.819083
H       -0.447353     5.110194     3.942735
H        1.269076     3.648081     3.092119
H       -0.520324    -1.028616     3.011185
H       -0.097150    -2.828564     4.654701
H        2.198876    -3.160775     5.562329
H        4.047461    -1.681788     4.816870
H        3.633905     0.059130     3.219330
