39
ex_0007 frame0 OC-6-chelate-2
Ni       0.000000     0.000000     0.000000
N        0.103008     1.947277    -0.000000
C       -0.918335     2.667757    -0.000010
C       -0.734708     4.174715     0.000003
C        0.538053     4.625977     0.000027
C        1.704310     3.715842     0.000040
C        1.489806     2.422133     0.000020
C        2.455935     1.350082     0.000012
N        1.947277     0.103008    -0.000000
C        2.939421    -0.853221    -0.000012
C        4.170657    -0.210106    -0.000004
N        3.866904     1.229039     0.000014
H       -1.886889     2.222296    -0.000019
H       -1.584170     4.809318    -0.000001
H        0.721546     5.698685     0.000023
H        2.720757     4.054486     0.000063
H        2.790144    -1.930077    -0.000020
H        5.123353    -0.674151    -0.000014
H        4.503401     2.023146     0.000020
N       -0.103008    -0.000000     1.947277
C        0.918335    -0.000010     2.667757
C        0.734708     0.000003     4.174715
C       -0.538053     0.000027     4.625977
C       -1.704310     0.000040     3.715842
C       -1.489806     0.000020     2.422133
C       -2.455935     0.000012     1.350082
N       -1.947277    -0.000000     0.103008
C       -2.939421    -0.000012    -0.853221
C       -4.170657    -0.000004    -0.210106
N       -3.866904     0.000014     1.229039
H        1.886889    -0.000019     2.222296
H        1.584170    -0.000001     4.809318
H       -0.721546     0.000023     5.698685
H       -2.720757     0.000063     4.054486
H       -2.790144    -0.000020    -1.930077
H       -5.123353    -0.000014    -0.674151
H       -4.503401     0.000020     2.023146
Cl       0.000000    -2.260000     0.000000
Cl       0.000000     0.000000    -2.260000
39
ex_0007 frame1 OC-6-chelate-2-conf2
Ni       0.000000     0.000000     0.000000
N        0.103008     1.947277     0.000000
C       -0.918335     2.667757    -0.000010
C       -0.734708     4.174715     0.000003
C        0.538053     4.625977     0.000027
C        1.704310     3.715842     0.000040
C        1.489806     2.422133     0.000020
C        2.445093     1.374520     0.000012
N        1.947277     0.103008     0.000000
C        2.947412    -0.889637    -0.000012
C        4.181912    -0.216957    -0.000004
N        3.866904     1.229039     0.000014
H       -1.886889     2.222296    -0.000019
H       -1.584170     4.809318    -0.000001
H        0.721546     5.698685     0.000023
H        2.720757     4.054486     0.000063
H        2.790144    -1.930077    -0.000020
H        5.123353    -0.674151    -0.000014
H        4.503401     2.023146     0.000020
N       -1.947954     0.000000     0.089314
C       -2.627288     0.000000    -0.926908
C       -4.113562    -0.000005    -0.761913
C       -4.580199    -0.000015     0.499254
C       -3.669110    -0.000013     1.666647
C       -2.388086    -0.000003     1.480475
C       -1.358609     0.000011     2.457212
N       -0.089314     0.000000     1.947954
C        0.902752     0.000015     2.969492
C        0.217308     0.000039     4.204365
N       -1.225753     0.000035     3.880151
H       -2.160890     0.000011    -1.899070
H       -4.752423    -0.000011    -1.623520
H       -5.660527    -0.000020     0.673777
H       -4.036776    -0.000009     2.682271
H        1.941888     0.000010     2.824293
H        0.673764     0.000066     5.149054
H       -2.032762     0.000039     4.508203
Cl       0.000000    -2.260000     0.000000
Cl       0.000000     0.000000    -2.260000
39
ex_0007 frame2 OC-6-chelate-2-conf3
Ni       0.000000     0.000000     0.000000
N        1.947954     0.089314     0.000000
C        2.627288    -0.926908     0.000000
C        4.113562    -0.761913    -0.000005
C        4.580199     0.499254    -0.000015
C        3.669110     1.666647    -0.000013
C        2.388086     1.480475    -0.000003
C        1.358609     2.457212     0.000011
N        0.089314     1.947954     0.000000
C       -0.902752     2.969492     0.000015
C       -0.217308     4.204365     0.000039
N        1.225753     3.880151     0.000035
H        2.160890    -1.899070     0.000011
H        4.752423    -1.623520    -0.000011
H        5.660527     0.673777    -0.000020
H        4.036776     2.682271    -0.000009
H       -1.941888     2.824293     0.000010
H       -0.673764     5.149054     0.000066
H        2.032762     4.508203     0.000039
N       -0.103008     0.000000     1.947277
C        0.918335    -0.000010     2.667757
C        0.734708     0.000003     4.174715
C       -0.538053     0.000027     4.625977
C       -1.704310     0.000040     3.715842
C       -1.489806     0.000020     2.422133
C       -2.445093     0.000012     1.374520
N       -1.947277     0.000000     0.103008
C       -2.947412    -0.000012    -0.889637
C       -4.181912    -0.000004    -0.216957
N       -3.866904     0.000014     1.229039
H        1.886889    -0.000019     2.222296
H        1.584170    -0.000001     4.809318
H       -0.721546     0.000023     5.698685
H       -2.720757     0.000063     4.054486
H       -2.790144    -0.000020    -1.930077
H       -5.123353    -0.000014    -0.674151
H       -4.503401     0.000020     2.023146
Cl       0.000000    -2.260000     0.000000
Cl       0.000000     0.000000    -2.260000
39
ex_0007 frame3 OC-6-chelate-2-conf4
Ni       0.000000     0.000000     0.000000
N        1.947954     0.089314     0.000000
C        2.627288    -0.926908     0.000000
C        4.113562    -0.761913    -0.000005
C        4.580199     0.499254    -0.000015
C        3.669110     1.666647    -0.000013
C        2.388086     1.480475    -0.000003
C        1.358609     2.457212     0.000011
N        0.089314     1.947954     0.000000
C       -0.902752     2.969492     0.000015
C       -0.217308     4.204365     0.000039
N        1.225753     3.880151     0.000035
H        2.160890    -1.899070     0.000011
H        4.752423    -1.623520    -0.000011
H        5.660527     0.673777    -0.000020
H        4.036776     2.682271    -0.000009
H       -1.941888     2.824293     0.000010
H       -0.673764     5.149054     0.000066
H        2.032762     4.508203     0.000039
N       -1.947954     0.000000     0.089314
C       -2.627288     0.000000    -0.926908
C       -4.113562    -0.000005    -0.761913
C       -4.580199    -0.000015     0.499254
C       -3.669110    -0.000013     1.666647
C       -2.388086    -0.000003     1.480475
C       -1.358609     0.000011     2.457212
N       -0.089314     0.000000     1.947954
C        0.902752     0.000015     2.969492
C        0.217308     0.000039     4.204365
N       -1.225753     0.000035     3.880151
H       -2.160890     0.000011    -1.899070
H       -4.752423    -0.000011    -1.623520
H       -5.660527    -0.000020     0.673777
H       -4.036776    -0.000009     2.682271
H        1.941888     0.000010     2.824293
H        0.673764     0.000066     5.149054
H       -2.032762     0.000039     4.508203
Cl       0.000000    -2.260000     0.000000
Cl       0.000000     0.000000    -2.260000
39
ex_0007 frame4 OC-6-chelate-2-reembed1
Ni       0.000000     0.000000     0.000000
N        0.103008     1.947277    -0.000000
C       -0.918335     2.667757    -0.000010
C       -0.734708     4.174715     0.000003
C        0.538053     4.625977     0.000027
C        1.704310     3.715842     0.000040
C        1.489806     2.422133     0.000020
C        2.455935     1.350082     0.000012
N        1.947277     0.103008    -0.000000
C        2.939421    -0.853221    -0.000012
C        4.170657    -0.210106    -0.000004
N        3.866904     1.229039     0.000014
H       -1.886889     2.222296    -0.000019
H       -1.584170     4.809318    -0.000001
H        0.721546     5.698685     0.000023
H        2.720757     4.054486     0.000063
H        2.790144    -1.930077    -0.000020
H        5.123353    -0.674151    -0.000014
H        4.503401     2.023146     0.000020
N       -0.103008    -0.000000     1.947277
C        0.918335    -0.000010     2.667757
C        0.734708     0.000003     4.174715
C       -0.538053     0.000027     4.625977
C       -1.704310     0.000040     3.715842
C       -1.489806     0.000020     2.422133
C       -2.455935     0.000012     1.350082
N       -1.947277    -0.000000     0.103008
C       -2.939421    -0.000012    -0.853221
C       -4.170657    -0.000004    -0.210106
N       -3.866904     0.000014     1.229039
H        1.886889    -0.000019     2.222296
H        1.584170    -0.000001     4.809318
H       -0.721546     0.000023     5.698685
H       -2.720757     0.000063     4.054486
H       -2.790144    -0.000020    -1.930077
H       -5.123353    -0.000014    -0.674151
H       -4.503401     0.000020     2.023146
Cl       0.000000    -2.260000     0.000000
Cl       0.000000     0.000000    -2.260000
39
ex_0007 frame5 OC-6-chelate-3
Ni       0.000000     0.000000     0.000000
N        0.103008     1.947277    -0.000000
C       -0.918335     2.667757    -0.000010
C       -0.734708     4.174715     0.000003
C        0.538053     4.625977     0.000027
C        1.704310     3.715842     0.000040
C        1.489806     2.422133     0.000020
C        2.455935     1.350082     0.000012
N        1.947277     0.103008    -0.000000
C        2.939421    -0.853221    -0.000012
C        4.170657    -0.210106    -0.000004
N        3.866904     1.229039     0.000014
H       -1.886889     2.222296    -0.000019
H       -1.584170     4.809318    -0.000001
H        0.721546     5.698685     0.000023
H        2.720757     4.054486     0.000063
H        2.790144    -1.930077    -0.000020
H        5.123353    -0.674151    -0.000014
H        4.503401     2.023146     0.000020
N       -0.103008     0.000000    -1.947277
C        0.918335     0.000010    -2.667757
C        0.734708    -0.000003    -4.174715
C       -0.538053    -0.000027    -4.625977
C       -1.704310    -0.000040    -3.715842
C       -1.489806    -0.000020    -2.422133
C       -2.455935    -0.000012    -1.350082
N       -1.947277     0.000000    -0.103008
C       -2.939421     0.000012     0.853221
C       -4.170657     0.000004     0.210106
N       -3.866904    -0.000014    -1.229039
H        1.886889     0.000019    -2.222296
H        1.584170     0.000001    -4.809318
H       -0.721546    -0.000023    -5.698685
H       -2.720757    -0.000063    -4.054486
H       -2.790144     0.000020     1.930077
H       -5.123353     0.000014     0.674151
H       -4.503401    -0.000020    -2.023146
Cl       0.000000    -2.260000     0.000000
Cl       0.000000     0.000000     2.260000
39
ex_0007 frame6 OC-6-chelate-3-conf2
Ni       0.000000     0.000000     0.000000
N        0.103008     1.947277     0.000000
C       -0.918335     2.667757    -0.000010
C       -0.734708     4.174715     0.000003
C        0.538053     4.625977     0.000027
C        1.704310     3.715842     0.000040
C        1.489806     2.422133     0.000020
C        2.445093     1.374520     0.000012
N        1.947277     0.103008     0.000000
C        2.947412    -0.889637    -0.000012
C        4.181912    -0.216957    -0.000004
N        3.866904     1.229039     0.000014
H       -1.886889     2.222296    -0.000019
H       -1.584170     4.809318    -0.000001
H        0.721546     5.698685     0.000023
H        2.720757     4.054486     0.000063
H        2.790144    -1.930077    -0.000020
H        5.123353    -0.674151    -0.000014
H        4.503401     2.023146     0.000020
N       -1.947954     0.000000    -0.089314
C       -2.627288     0.000000     0.926908
C       -4.113562     0.000005     0.761913
C       -4.580199     0.000015    -0.499254
C       -3.669110     0.000013    -1.666647
C       -2.388086     0.000003    -1.480475
C       -1.358609    -0.000011    -2.457212
N       -0.089314     0.000000    -1.947954
C        0.902752    -0.000015    -2.969492
C        0.217308    -0.000039    -4.204365
N       -1.225753    -0.000035    -3.880151
H       -2.160890    -0.000011     1.899070
H       -4.752423     0.000011     1.623520
H       -5.660527     0.000020    -0.673777
H       -4.036776     0.000009    -2.682271
H        1.941888    -0.000010    -2.824293
H        0.673764    -0.000066    -5.149054
H       -2.032762    -0.000039    -4.508203
Cl       0.000000    -2.260000     0.000000
Cl       0.000000     0.000000     2.260000
39
ex_0007 frame7 OC-6-chelate-3-conf3
Ni       0.000000     0.000000     0.000000
N        1.947954     0.089314     0.000000
C        2.627288    -0.926908     0.000000
C        4.113562    -0.761913    -0.000005
C        4.580199     0.499254    -0.000015
C        3.669110     1.666647    -0.000013
C        2.388086     1.480475    -0.000003
C        1.358609     2.457212     0.000011
N        0.089314     1.947954     0.000000
C       -0.902752     2.969492     0.000015
C       -0.217308     4.204365     0.000039
N        1.225753     3.880151     0.000035
H        2.160890    -1.899070     0.000011
H        4.752423    -1.623520    -0.000011
H        5.660527     0.673777    -0.000020
H        4.036776     2.682271    -0.000009
H       -1.941888     2.824293     0.000010
H       -0.673764     5.149054     0.000066
H        2.032762     4.508203     0.000039
N       -0.103008     0.000000    -1.947277
C        0.918335     0.000010    -2.667757
C        0.734708    -0.000003    -4.174715
C       -0.538053    -0.000027    -4.625977
C       -1.704310    -0.000040    -3.715842
C       -1.489806    -0.000020    -2.422133
C       -2.445093    -0.000012    -1.374520
N       -1.947277     0.000000    -0.103008
C       -2.947412     0.000012     0.889637
C       -4.181912     0.000004     0.216957
N       -3.866904    -0.000014    -1.229039
H        1.886889     0.000019    -2.222296
H        1.584170     0.000001    -4.809318
H       -0.721546    -0.000023    -5.698685
H       -2.720757    -0.000063    -4.054486
H       -2.790144     0.000020     1.930077
H       -5.123353     0.000014     0.674151
H       -4.503401    -0.000020    -2.023146
Cl       0.000000    -2.260000     0.000000
Cl       0.000000     0.000000     2.260000
39
ex_0007 frame8 OC-6-chelate-3-conf4
Ni       0.000000     0.000000     0.000000
N        1.947954     0.089314     0.000000
C        2.627288    -0.926908     0.000000
C        4.113562    -0.761913    -0.000005
C        4.580199     0.499254    -0.000015
C        3.669110     1.666647    -0.000013
C        2.388086     1.480475    -0.000003
C        1.358609     2.457212     0.000011
N        0.089314     1.947954     0.000000
C       -0.902752     2.969492     0.000015
C       -0.217308     4.204365     0.000039
N        1.225753     3.880151     0.000035
H        2.160890    -1.899070     0.000011
H        4.752423    -1.623520    -0.000011
H        5.660527     0.673777    -0.000020
H        4.036776     2.682271    -0.000009
H       -1.941888     2.824293     0.000010
H       -0.673764     5.149054     0.000066
H        2.032762     4.508203     0.000039
N       -1.947954     0.000000    -0.089314
C       -2.627288     0.000000     0.926908
C       -4.113562     0.000005     0.761913
C       -4.580199     0.000015    -0.499254
C       -3.669110     0.000013    -1.666647
C       -2.388086     0.000003    -1.480475
C       -1.358609    -0.000011    -2.457212
N       -0.089314     0.000000    -1.947954
C        0.902752    -0.000015    -2.969492
C        0.217308    -0.000039    -4.204365
N       -1.225753    -0.000035    -3.880151
H       -2.160890    -0.000011     1.899070
H       -4.752423     0.000011     1.623520
H       -5.660527     0.000020    -0.673777
H       -4.036776     0.000009    -2.682271
H        1.941888    -0.000010    -2.824293
H        0.673764    -0.000066    -5.149054
H       -2.032762    -0.000039    -4.508203
Cl       0.000000    -2.260000     0.000000
Cl       0.000000     0.000000     2.260000
39
ex_0007 frame9 OC-6-chelate-3-reembed1
Ni       0.000000     0.000000     0.000000
N        0.103008     1.947277    -0.000000
C       -0.918335     2.667757    -0.000010
C       -0.734708     4.174715     0.000003
C        0.538053     4.625977     0.000027
C        1.704310     3.715842     0.000040
C        1.489806     2.422133     0.000020
C        2.455935     1.350082     0.000012
N        1.947277     0.103008    -0.000000
C        2.939421    -0.853221    -0.000012
C        4.170657    -0.210106    -0.000004
N        3.866904     1.229039     0.000014
H       -1.886889     2.222296    -0.000019
H       -1.584170     4.809318    -0.000001
H        0.721546     5.698685     0.000023
H        2.720757     4.054486     0.000063
H        2.790144    -1.930077    -0.000020
H        5.123353    -0.674151    -0.000014
H        4.503401     2.023146     0.000020
N       -0.103008     0.000000    -1.947277
C        0.918335     0.000010    -2.667757
C        0.734708    -0.000003    -4.174715
C       -0.538053    -0.000027    -4.625977
C       -1.704310    -0.000040    -3.715842
C       -1.489806    -0.000020    -2.422133
C       -2.455935    -0.000012    -1.350082
N       -1.947277     0.000000    -0.103008
C       -2.939421     0.000012     0.853221
C       -4.170657     0.000004     0.210106
N       -3.866904    -0.000014    -1.229039
H        1.886889     0.000019    -2.222296
H        1.584170     0.000001    -4.809318
H       -0.721546    -0.000023    -5.698685
H       -2.720757    -0.000063    -4.054486
H       -2.790144     0.000020     1.930077
H       -5.123353     0.000014     0.674151
H       -4.503401    -0.000020    -2.023146
Cl       0.000000    -2.260000     0.000000
Cl       0.000000     0.000000     2.260000
