81
ex_0483 frame0 Isomer 4
C       -4.055468     1.404992     4.284944
C       -2.830930     1.360089     3.420839
C       -2.891829     1.879124     2.127476
C       -1.764506     1.868493     1.314712
C       -0.542244     1.370679     1.775967
N        0.564844     1.464436     0.890398
C        1.883643     2.088632     1.100197
C        2.391510     2.986214     2.169301
C        3.653002     3.439826     2.040045
C        4.517889     3.072139     0.866755
C        4.099324     2.212614    -0.099592
C        5.010547     1.842519    -1.225580
N        2.778766     1.693339     0.011037
Zr       1.329551     0.231067    -0.761622
N        2.125613    -1.115425     0.784657
C        3.481987    -1.581986     0.505983
C        1.243738    -2.187079     1.228227
N        0.596833     1.546674    -2.365917
C       -0.678492     2.236260    -2.224085
C        1.611032     2.259114    -3.132726
N       -0.244472    -1.179806    -1.368433
C       -1.669411    -1.080161    -1.344092
C       -2.302170    -1.184354    -0.096187
C       -3.691007    -1.236657     0.004748
C       -4.483031    -1.146146    -1.141200
C       -5.974825    -1.261993    -1.042592
C       -3.873511    -0.946288    -2.383799
C       -2.474990    -0.883244    -2.507944
C       -1.949495    -0.606167    -3.896723
C        0.645663    -1.788539    -2.346401
C        0.405173    -2.954999    -3.198330
C        1.430535    -3.383876    -3.955143
C        2.718778    -2.621643    -4.045063
C        2.953998    -1.526209    -3.277695
C        4.270133    -0.824034    -3.346933
N        1.903940    -1.090784    -2.422049
C       -0.471995     0.808705     3.080467
C        0.776392     0.205502     3.665473
C       -1.627927     0.807611     3.886446
H       -4.345764     2.466249     4.442954
H       -4.892597     0.872836     3.786621
H       -3.875201     0.940525     5.276799
H       -3.810300     2.312182     1.751221
H       -1.835504     2.309287     0.336047
H        1.775720     3.255438     3.021487
H        4.062135     4.088747     2.808182
H        5.520715     3.487523     0.831275
H        4.500446     1.994727    -2.193669
H        5.326758     0.794818    -1.096509
H        5.933147     2.461076    -1.225304
H        4.043640    -0.787117    -0.013271
H        3.480146    -2.498162    -0.121692
H        4.000272    -1.789464     1.467811
H        1.643460    -2.630135     2.167224
H        1.143890    -2.977217     0.455747
H        0.258912    -1.764279     1.473082
H       -1.114250     2.397485    -3.235648
H       -0.563587     3.214089    -1.713945
H       -1.385936     1.591858    -1.679362
H        1.221276     2.477966    -4.151112
H        2.483871     1.601279    -3.255337
H        1.917871     3.198481    -2.630029
H       -1.729228    -1.313045     0.804848
H       -4.146337    -1.389286     0.975956
H       -6.338691    -0.932394    -0.046935
H       -6.253259    -2.327997    -1.187966
H       -6.475290    -0.654982    -1.825945
H       -4.493476    -0.849868    -3.268185
H       -0.880651    -0.352436    -3.946497
H       -2.455483     0.297370    -4.299315
H       -2.165114    -1.464964    -4.564221
H       -0.527824    -3.507979    -3.146605
H        1.240727    -4.276651    -4.532486
H        3.485775    -3.001806    -4.712442
H        4.138903     0.211377    -3.711629
H        4.969659    -1.332481    -4.043690
H        4.720325    -0.841340    -2.343788
H        1.632154     0.223375     2.969281
H        1.062312     0.758513     4.584479
H        0.581336    -0.854605     3.939986
H       -1.582732     0.397117     4.889151
81
ex_0483 frame1 all-cis-conf7
C       -2.307232    -0.080720     7.089442
C       -1.565685    -0.088906     5.786888
C       -1.583262     1.038454     4.952285
C       -0.890471     1.024056     3.734836
C       -0.167722    -0.117490     3.346950
N        0.546725    -0.144599     2.124658
C        1.992746    -0.242867     1.801050
C        3.207078    -0.460524     2.624848
C        4.385411    -0.551191     1.964045
C        4.495777    -0.377585     0.464980
C        3.400716    -0.162080    -0.305259
C        3.455885    -0.011170    -1.792991
N        2.166944    -0.081576     0.358486
Zr       0.000000     0.000000     0.000000
N       -2.200612     0.073632     0.043272
C       -3.001376     0.100343    -1.194864
C       -2.910905    -0.374094     1.234443
N       -0.202130     2.159007     0.386263
C        0.995252     2.835148     0.881281
C       -0.918393     2.976829    -0.597905
N        0.167549    -2.096352    -0.641565
C        0.020381    -3.331063     0.052051
C        1.118357    -3.798377     0.790964
C        1.067182    -5.026215     1.457510
C       -0.098511    -5.798422     1.419479
C       -0.174875    -7.126110     2.112503
C       -1.212441    -5.324567     0.723201
C       -1.172166    -4.105761     0.031466
C       -2.429475    -3.716837    -0.690242
C        0.068558    -1.692654    -2.039987
C        0.212311    -2.565009    -3.165700
C        0.378031    -1.942013    -4.341273
C        0.264923    -0.463664    -4.468047
C        0.011734     0.317538    -3.395328
C       -0.050253     1.795572    -3.533143
N       -0.192289    -0.304082    -2.141565
C       -0.155543    -1.247870     4.182889
C        0.587972    -2.491334     3.808770
C       -0.849271    -1.225490     5.395117
H       -3.377375     0.157713     6.917809
H       -2.246443    -1.069414     7.594236
H       -1.859828     0.681647     7.759985
H       -2.139190     1.922536     5.243346
H       -0.920546     1.902267     3.101355
H        3.140701    -0.600646     3.698933
H        5.284514    -0.770591     2.529688
H        5.475737    -0.456866     0.006027
H        2.974381    -0.887944    -2.272856
H        4.501532     0.082370    -2.153265
H        2.900604     0.905817    -2.082475
H       -3.306382    -0.905717    -1.520958
H       -3.923416     0.696952    -1.029930
H       -2.473251     0.600338    -2.023376
H       -4.009504    -0.235383     1.117299
H       -2.628037     0.271665     2.077019
H       -2.688831    -1.434999     1.454724
H        1.824385     2.754417     0.149629
H        1.291736     2.404968     1.854950
H        0.777748     3.911084     1.072588
H       -1.397551     3.832459    -0.076068
H       -0.235862     3.408419    -1.353696
H       -1.729917     2.415685    -1.075512
H        2.041685    -3.230494     0.813665
H        1.940867    -5.379361     1.991894
H       -0.425577    -7.910882     1.366689
H       -0.964913    -7.103344     2.892155
H        0.791062    -7.394028     2.589346
H       -2.115321    -5.924098     0.694776
H       -2.657598    -4.477981    -1.464397
H       -2.366944    -2.754567    -1.186557
H       -3.274484    -3.649078     0.024861
H        0.240889    -3.650881    -3.116746
H        0.570637    -2.533385    -5.230909
H        0.440442    -0.023479    -5.443494
H        0.356901     2.132616    -4.533007
H        0.857353     2.195539    -2.808734
H       -0.914132     2.208247    -3.276114
H        1.064743    -2.389754     2.829131
H       -0.126923    -3.338267     3.747962
H        1.386818    -2.708570     4.542094
H       -0.837847    -2.106041     6.025384
81
ex_0483 frame2 all-cis-conf8
C       -2.196116    -0.115978     6.964235
C       -1.539147    -0.110204     5.630819
C       -1.632763     1.020364     4.832247
C       -1.033786     1.058780     3.604327
C       -0.262037    -0.035550     3.253069
N        0.448991     0.062811     2.146837
C        1.975070    -0.170371     1.803980
C        2.982863    -0.494683     2.502402
C        4.128185    -0.566391     1.861970
C        4.257798    -0.356639     0.408757
C        3.293010    -0.085987    -0.329653
C        3.284516     0.052504    -1.733620
N        2.159563     0.103419     0.122812
Zr       0.000000     0.000000     0.000000
N       -2.199681     0.032813    -0.000648
C       -3.016157     0.197500    -1.188732
C       -2.978829    -0.202468     1.184011
N       -0.025946     2.198165    -0.007925
C        0.945380     2.847480     0.801187
C       -0.924567     2.979444    -0.800398
N        0.088165    -2.134532    -0.490121
C       -0.005379    -3.321202     0.183924
C        1.076638    -3.717420     0.937754
C        1.004771    -4.931584     1.540018
C       -0.119451    -5.736109     1.409768
C       -0.141586    -7.079409     2.031445
C       -1.211985    -5.274029     0.698228
C       -1.154387    -4.056579     0.076424
C       -2.355290    -3.613155    -0.679819
C        0.059543    -1.817237    -1.908675
C        0.152600    -2.510038    -3.025580
C        0.173303    -1.878804    -4.185932
C        0.107695    -0.409175    -4.318402
C       -0.010184     0.308817    -3.281232
C       -0.027670     1.747075    -3.343211
N       -0.114763    -0.381788    -2.145921
C       -0.199584    -1.184501     3.979081
C        0.519852    -2.389536     3.534577
C       -0.837753    -1.217308     5.179979
H       -3.188762     0.374011     6.911098
H       -2.343590    -1.142090     7.336213
H       -1.568884     0.433607     7.689827
H       -2.175351     1.860093     5.192192
H       -1.125357     1.967939     3.023575
H        2.832114    -0.632533     3.466732
H        4.996176    -0.786034     2.413118
H        5.168429    -0.426477    -0.070500
H        3.197711    -0.948752    -2.149719
H        4.309277     0.371271    -1.943837
H        2.649300     0.840182    -2.183119
H       -3.258957    -0.777510    -1.567899
H       -3.941551     0.718190    -0.889395
H       -2.569067     0.777944    -1.982896
H       -4.020739     0.039464     0.965042
H       -2.730354     0.419191     2.030085
H       -2.894125    -1.242548     1.439561
H        1.933879     2.852679     0.296464
H        0.960607     2.337077     1.764162
H        0.517840     3.814291     1.013320
H       -1.321772     3.766918    -0.189025
H       -0.389035     3.466176    -1.594001
H       -1.738989     2.385601    -1.176813
H        1.983306    -3.122062     1.118930
H        1.824904    -5.265826     2.104707
H       -0.603637    -7.794751     1.323136
H       -0.793369    -7.042546     2.925255
H        0.897580    -7.398642     2.301596
H       -2.078123    -5.903665     0.561385
H       -2.550746    -4.446842    -1.360421
H       -2.211241    -2.722039    -1.305008
H       -3.248072    -3.470436    -0.038237
H        0.199922    -3.486580    -2.892317
H        0.241768    -2.448392    -5.062013
H        0.124728     0.074908    -5.245073
H        0.474133     2.033097    -4.266725
H        0.586146     2.156729    -2.570060
H       -1.059304     2.146653    -3.389578
H        0.677038    -2.279060     2.504709
H       -0.087027    -3.279541     3.729026
H        1.484441    -2.506767     4.040230
H       -0.764764    -2.083830     5.795436
81
ex_0483 frame3 Isomer 3
C       -3.552193    -4.708986    -4.124835
C       -2.504241    -3.883485    -3.438314
C       -1.911213    -4.332335    -2.255404
C       -0.940867    -3.561655    -1.621666
C       -0.549465    -2.320454    -2.138710
N        0.433422    -1.598791    -1.403874
C        1.469201    -0.968173    -2.158528
C        2.406833    -1.500469    -3.100702
C        2.937402    -0.549272    -3.894557
C        2.680536     0.896385    -3.637358
C        1.851979     1.257711    -2.637726
C        1.456405     2.694186    -2.435467
N        1.367441     0.240881    -1.785949
Zr       0.251551     0.003199     0.102978
N        0.172342    -2.000768     1.009015
C        1.450448    -2.524593     1.473577
C       -0.968284    -2.286288     1.870785
N       -1.773914     0.825459    -0.151779
C       -1.850383     2.047819    -0.943270
C       -2.852400    -0.133164    -0.371757
N       -0.275885     1.400719     1.728025
C       -0.892436     1.165037     2.989322
C       -2.280958     1.337963     3.051473
C       -2.982006     1.121819     4.233872
C       -2.304894     0.744753     5.394472
C       -3.080235     0.526305     6.659725
C       -0.913137     0.576955     5.357270
C       -0.191969     0.769824     4.161780
C        1.293898     0.546451     4.185323
C        0.982291     2.080665     1.738730
C        1.363185     3.364059     2.254430
C        2.694620     3.480584     2.432578
C        3.630393     2.424950     1.948111
C        3.136747     1.305646     1.381992
C        4.035299     0.159418     1.007264
N        1.744480     1.246214     1.152476
C       -1.142956    -1.853946    -3.342522
C       -0.779289    -0.537357    -3.967878
C       -2.112334    -2.652589    -3.981350
H       -3.721749    -5.671567    -3.596020
H       -3.227719    -4.934284    -5.162190
H       -4.511274    -4.150556    -4.154041
H       -2.206814    -5.275001    -1.812360
H       -0.509747    -3.925214    -0.698691
H        2.600339    -2.544616    -3.297456
H        3.563391    -0.838287    -4.732037
H        3.093949     1.677151    -4.258561
H        0.360606     2.750066    -2.591568
H        1.921072     3.358614    -3.196354
H        1.715096     3.064281    -1.424643
H        1.657438    -2.231357     2.518539
H        1.433988    -3.633948     1.404480
H        2.251582    -2.170478     0.798534
H       -1.033052    -1.554498     2.695593
H       -0.897018    -3.317179     2.281320
H       -1.888908    -2.263177     1.260325
H       -2.727475     2.642756    -0.608663
H       -0.950385     2.661230    -0.750279
H       -1.950311     1.831185    -2.022086
H       -3.132122    -0.579790     0.602125
H       -3.766964     0.369256    -0.755253
H       -2.537630    -0.922563    -1.074523
H       -2.832651     1.622167     2.165471
H       -4.058032     1.244697     4.242728
H       -3.833795    -0.274633     6.504940
H       -2.418202     0.232385     7.501259
H       -3.603143     1.466375     6.936008
H       -0.395365     0.265538     6.257075
H        1.848329     1.471874     3.974238
H        1.640275     0.179198     5.175471
H        1.551550    -0.222608     3.435922
H        0.696156     4.135483     2.609924
H        3.093473     4.357033     2.932062
H        4.700184     2.495036     2.078633
H        3.950230    -0.107062    -0.063889
H        3.738649    -0.703614     1.637213
H        5.099571     0.378078     1.243483
H        0.274489    -0.517149    -4.284496
H       -1.394501    -0.324353    -4.868755
H       -0.964896     0.267918    -3.236062
H       -2.589424    -2.305986    -4.891185
81
ex_0483 frame4 Isomer 4
C       -4.055468     1.404992     4.284944
C       -2.830930     1.360089     3.420839
C       -2.891829     1.879124     2.127476
C       -1.764506     1.868493     1.314712
C       -0.542196     1.370872     1.776047
N        0.564844     1.464436     0.890398
C        1.883643     2.088632     1.100197
C        2.391510     2.986214     2.169301
C        3.653002     3.439826     2.040045
C        4.517889     3.072139     0.866755
C        4.099324     2.212614    -0.099592
C        5.010547     1.842519    -1.225580
N        2.778766     1.693339     0.011037
Zr       1.329551     0.231067    -0.761622
N        2.125613    -1.115425     0.784657
C        3.481987    -1.581986     0.505983
C        1.243738    -2.187079     1.228227
N        0.596833     1.546674    -2.365917
C       -0.678492     2.236260    -2.224085
C        1.611032     2.259114    -3.132726
N       -0.244472    -1.179806    -1.368433
C       -1.669428    -1.080401    -1.344121
C       -2.302170    -1.184354    -0.096187
C       -3.691007    -1.236657     0.004748
C       -4.483031    -1.146146    -1.141200
C       -5.974825    -1.261993    -1.042592
C       -3.873511    -0.946288    -2.383799
C       -2.474988    -0.883328    -2.507960
C       -1.949495    -0.606167    -3.896723
C        0.645663    -1.788539    -2.346401
C        0.405173    -2.954999    -3.198330
C        1.430535    -3.383876    -3.955143
C        2.718778    -2.621643    -4.045063
C        2.953998    -1.526209    -3.277695
C        4.270133    -0.824034    -3.346933
N        1.903940    -1.090784    -2.422049
C       -0.471976     0.808771     3.080495
C        0.776392     0.205502     3.665473
C       -1.627927     0.807611     3.886446
H       -4.345764     2.466249     4.442954
H       -4.892597     0.872836     3.786621
H       -3.875201     0.940525     5.276799
H       -3.810300     2.312182     1.751221
H       -1.835504     2.309287     0.336047
H        1.775720     3.255438     3.021487
H        4.062135     4.088747     2.808182
H        5.520715     3.487523     0.831275
H        4.500446     1.994727    -2.193669
H        5.326758     0.794818    -1.096509
H        5.933147     2.461076    -1.225304
H        4.043640    -0.787117    -0.013271
H        3.480146    -2.498162    -0.121692
H        4.000272    -1.789464     1.467811
H        1.643460    -2.630135     2.167224
H        1.143890    -2.977217     0.455747
H        0.258912    -1.764279     1.473082
H       -1.114250     2.397485    -3.235648
H       -0.563587     3.214089    -1.713945
H       -1.385936     1.591858    -1.679362
H        1.221276     2.477966    -4.151112
H        2.483871     1.601279    -3.255337
H        1.917871     3.198481    -2.630029
H       -1.729228    -1.313045     0.804848
H       -4.146337    -1.389286     0.975956
H       -6.338691    -0.932394    -0.046935
H       -6.253259    -2.327997    -1.187966
H       -6.475290    -0.654982    -1.825945
H       -4.493476    -0.849868    -3.268185
H       -0.880651    -0.352436    -3.946497
H       -2.455483     0.297370    -4.299315
H       -2.165114    -1.464964    -4.564221
H       -0.527824    -3.507979    -3.146605
H        1.240727    -4.276651    -4.532486
H        3.485775    -3.001806    -4.712442
H        4.138903     0.211377    -3.711629
H        4.969659    -1.332481    -4.043690
H        4.720325    -0.841340    -2.343788
H        1.632154     0.223375     2.969281
H        1.062312     0.758513     4.584479
H        0.581336    -0.854605     3.939986
H       -1.582732     0.397117     4.889151
81
ex_0483 frame5 all-cis-conf7
C       -2.307232    -0.080720     7.089442
C       -1.565685    -0.088906     5.786888
C       -1.583262     1.038454     4.952285
C       -0.890471     1.024056     3.734836
C       -0.168205    -0.117701     3.346672
N        0.546725    -0.144599     2.124658
C        1.992746    -0.242867     1.801050
C        3.207078    -0.460524     2.624848
C        4.385411    -0.551191     1.964045
C        4.495777    -0.377585     0.464980
C        3.400716    -0.162080    -0.305259
C        3.455885    -0.011170    -1.792991
N        2.166944    -0.081576     0.358486
Zr       0.000000     0.000000     0.000000
N       -2.200612     0.073632     0.043272
C       -3.001376     0.100343    -1.194864
C       -2.910905    -0.374094     1.234443
N       -0.202130     2.159007     0.386263
C        0.995252     2.835148     0.881281
C       -0.918393     2.976829    -0.597905
N        0.167549    -2.096352    -0.641565
C        0.020515    -3.331260     0.051728
C        1.118357    -3.798377     0.790964
C        1.067182    -5.026215     1.457510
C       -0.098511    -5.798422     1.419479
C       -0.174875    -7.126110     2.112503
C       -1.212441    -5.324567     0.723201
C       -1.172121    -4.105828     0.031351
C       -2.429475    -3.716837    -0.690242
C        0.072661    -1.689006    -2.048365
C        0.219682    -2.565127    -3.165394
C        0.361880    -1.943551    -4.344307
C        0.273705    -0.462693    -4.466165
C        0.020839     0.316034    -3.392627
C       -0.039585     1.795703    -3.526701
N       -0.185017    -0.305716    -2.139502
C       -0.155711    -1.247942     4.182794
C        0.587972    -2.491334     3.808770
C       -0.849271    -1.225490     5.395117
H       -3.377375     0.157713     6.917809
H       -2.246443    -1.069414     7.594236
H       -1.859828     0.681647     7.759985
H       -2.139190     1.922536     5.243346
H       -0.920546     1.902267     3.101355
H        3.140701    -0.600646     3.698933
H        5.284514    -0.770591     2.529688
H        5.475737    -0.456866     0.006027
H        2.974381    -0.887944    -2.272856
H        4.501532     0.082370    -2.153265
H        2.900604     0.905817    -2.082475
H       -3.306382    -0.905717    -1.520958
H       -3.923416     0.696952    -1.029930
H       -2.473251     0.600338    -2.023376
H       -4.009504    -0.235383     1.117299
H       -2.628037     0.271665     2.077019
H       -2.688831    -1.434999     1.454724
H        1.824385     2.754417     0.149629
H        1.291736     2.404968     1.854950
H        0.777748     3.911084     1.072588
H       -1.397551     3.832459    -0.076068
H       -0.235862     3.408419    -1.353696
H       -1.729917     2.415685    -1.075512
H        2.041685    -3.230494     0.813665
H        1.940867    -5.379361     1.991894
H       -0.425577    -7.910882     1.366689
H       -0.964913    -7.103344     2.892155
H        0.791062    -7.394028     2.589346
H       -2.115321    -5.924098     0.694776
H       -2.657598    -4.477981    -1.464397
H       -2.366944    -2.754567    -1.186557
H       -3.274484    -3.649078     0.024861
H        0.289801    -3.646879    -3.112294
H        0.546155    -2.535338    -5.233510
H        0.397997    -0.026936    -5.447476
H        0.356901     2.132616    -4.533007
H        0.857353     2.195539    -2.808734
H       -0.914132     2.208247    -3.276114
H        1.064743    -2.389754     2.829131
H       -0.126923    -3.338267     3.747962
H        1.386818    -2.708570     4.542094
H       -0.837847    -2.106041     6.025384
81
ex_0483 frame6 all-cis-conf8
C       -2.196116    -0.115978     6.964235
C       -1.539147    -0.110204     5.630819
C       -1.632763     1.020364     4.832247
C       -1.033786     1.058780     3.604327
C       -0.261419    -0.035249     3.253492
N        0.448991     0.062811     2.146837
C        1.975070    -0.170371     1.803980
C        2.982863    -0.494683     2.502402
C        4.128185    -0.566391     1.861970
C        4.257798    -0.356639     0.408757
C        3.293010    -0.085987    -0.329653
C        3.284516     0.052504    -1.733620
N        2.159563     0.103419     0.122812
Zr       0.000000     0.000000     0.000000
N       -2.199681     0.032813    -0.000648
C       -3.016157     0.197500    -1.188732
C       -2.978829    -0.202468     1.184011
N       -0.025946     2.198165    -0.007925
C        0.945380     2.847480     0.801187
C       -0.924567     2.979444    -0.800398
N        0.088165    -2.134532    -0.490121
C       -0.004663    -3.322106     0.182426
C        1.076638    -3.717420     0.937754
C        1.004771    -4.931584     1.540018
C       -0.119451    -5.736109     1.409768
C       -0.141586    -7.079409     2.031445
C       -1.211985    -5.274029     0.698228
C       -1.154151    -4.056870     0.075878
C       -2.355290    -3.613155    -0.679819
C        0.059543    -1.817237    -1.908675
C        0.152600    -2.510038    -3.025580
C        0.173303    -1.878804    -4.185932
C        0.107695    -0.409175    -4.318402
C       -0.010184     0.308817    -3.281232
C       -0.027670     1.747075    -3.343211
N       -0.114763    -0.381788    -2.145921
C       -0.199353    -1.184409     3.979207
C        0.519852    -2.389536     3.534577
C       -0.837753    -1.217308     5.179979
H       -3.188762     0.374011     6.911098
H       -2.343590    -1.142090     7.336213
H       -1.568884     0.433607     7.689827
H       -2.175351     1.860093     5.192192
H       -1.125357     1.967939     3.023575
H        2.832114    -0.632533     3.466732
H        4.996176    -0.786034     2.413118
H        5.168429    -0.426477    -0.070500
H        3.197711    -0.948752    -2.149719
H        4.309277     0.371271    -1.943837
H        2.649300     0.840182    -2.183119
H       -3.258957    -0.777510    -1.567899
H       -3.941551     0.718190    -0.889395
H       -2.569067     0.777944    -1.982896
H       -4.020739     0.039464     0.965042
H       -2.730354     0.419191     2.030085
H       -2.894125    -1.242548     1.439561
H        1.933879     2.852679     0.296464
H        0.960607     2.337077     1.764162
H        0.517840     3.814291     1.013320
H       -1.321772     3.766918    -0.189025
H       -0.389035     3.466176    -1.594001
H       -1.738989     2.385601    -1.176813
H        1.983306    -3.122062     1.118930
H        1.824904    -5.265826     2.104707
H       -0.603637    -7.794751     1.323136
H       -0.793369    -7.042546     2.925255
H        0.897580    -7.398642     2.301596
H       -2.078123    -5.903665     0.561385
H       -2.550746    -4.446842    -1.360421
H       -2.211241    -2.722039    -1.305008
H       -3.248072    -3.470436    -0.038237
H        0.199922    -3.486580    -2.892317
H        0.241768    -2.448392    -5.062013
H        0.124728     0.074908    -5.245073
H        0.474133     2.033097    -4.266725
H        0.586146     2.156729    -2.570060
H       -1.059304     2.146653    -3.389578
H        0.677038    -2.279060     2.504709
H       -0.087027    -3.279541     3.729026
H        1.484441    -2.506767     4.040230
H       -0.764764    -2.083830     5.795436
81
ex_0483 frame7 Isomer 3
C       -3.552193    -4.708986    -4.124835
C       -2.504241    -3.883485    -3.438314
C       -1.911213    -4.332335    -2.255404
C       -0.940867    -3.561655    -1.621666
C       -0.550221    -2.319986    -2.138157
N        0.433422    -1.598791    -1.403874
C        1.457781    -0.964996    -2.171151
C        2.368928    -1.501728    -3.130572
C        2.938594    -0.549232    -3.893617
C        2.685530     0.896551    -3.633423
C        1.898937     1.260148    -2.601929
C        1.595353     2.698801    -2.325972
N        1.367441     0.240881    -1.785949
Zr       0.251551     0.003199     0.102978
N        0.172342    -2.000768     1.009015
C        1.450448    -2.524593     1.473577
C       -0.968284    -2.286288     1.870785
N       -1.773914     0.825459    -0.151779
C       -1.850383     2.047819    -0.943270
C       -2.852400    -0.133164    -0.371757
N       -0.275885     1.400719     1.728025
C       -0.892569     1.164061     2.989074
C       -2.280958     1.337963     3.051473
C       -2.982006     1.121819     4.233872
C       -2.304894     0.744753     5.394472
C       -3.080235     0.526305     6.659725
C       -0.913137     0.576955     5.357270
C       -0.192018     0.769488     4.161696
C        1.293898     0.546451     4.185323
C        0.985947     2.073242     1.753557
C        1.361150     3.342703     2.296567
C        2.694687     3.481286     2.431192
C        3.630665     2.427809     1.942470
C        3.140478     1.332030     1.330395
C        4.042773     0.237866     0.852477
N        1.744480     1.246214     1.152476
C       -1.143215    -1.853784    -3.342332
C       -0.779289    -0.537357    -3.967878
C       -2.112334    -2.652589    -3.981350
H       -3.721749    -5.671567    -3.596020
H       -3.227719    -4.934284    -5.162190
H       -4.511274    -4.150556    -4.154041
H       -2.206814    -5.275001    -1.812360
H       -0.509747    -3.925214    -0.698691
H        2.560107    -2.545952    -3.329160
H        3.591445    -0.837355    -4.709929
H        3.129879     1.678344    -4.230247
H        0.360606     2.750066    -2.591568
H        1.921072     3.358614    -3.196354
H        1.715096     3.064281    -1.424643
H        1.657438    -2.231357     2.518539
H        1.433988    -3.633948     1.404480
H        2.251582    -2.170478     0.798534
H       -1.033052    -1.554498     2.695593
H       -0.897018    -3.317179     2.281320
H       -1.888908    -2.263177     1.260325
H       -2.727475     2.642756    -0.608663
H       -0.950385     2.661230    -0.750279
H       -1.950311     1.831185    -2.022086
H       -3.132122    -0.579790     0.602125
H       -3.766964     0.369256    -0.755253
H       -2.537630    -0.922563    -1.074523
H       -2.832651     1.622167     2.165471
H       -4.058032     1.244697     4.242728
H       -3.833795    -0.274633     6.504940
H       -2.418202     0.232385     7.501259
H       -3.603143     1.466375     6.936008
H       -0.395365     0.265538     6.257075
H        1.848329     1.471874     3.974238
H        1.640275     0.179198     5.175471
H        1.551550    -0.222608     3.435922
H        0.693996     4.112813     2.654655
H        3.094922     4.372237     2.902062
H        4.702119     2.515342     2.038567
H        3.950230    -0.107062    -0.063889
H        3.738649    -0.703614     1.637213
H        5.099571     0.378078     1.243483
H        0.274489    -0.517149    -4.284496
H       -1.394501    -0.324353    -4.868755
H       -0.964896     0.267918    -3.236062
H       -2.589424    -2.305986    -4.891185
81
ex_0483 frame8 Isomer 4_mirror
C       -4.055468     1.404992    -4.284944
C       -2.830930     1.360089    -3.420839
C       -2.891829     1.879124    -2.127476
C       -1.764506     1.868493    -1.314712
C       -0.542196     1.370872    -1.776047
N        0.564844     1.464436    -0.890398
C        1.883643     2.088632    -1.100197
C        2.391510     2.986214    -2.169301
C        3.653002     3.439826    -2.040045
C        4.517889     3.072139    -0.866755
C        4.099324     2.212614     0.099592
C        5.010547     1.842519     1.225580
N        2.778766     1.693339    -0.011037
Zr       1.329551     0.231067     0.761622
N        2.125613    -1.115425    -0.784657
C        3.481987    -1.581986    -0.505983
C        1.243738    -2.187079    -1.228227
N        0.596833     1.546674     2.365917
C       -0.678492     2.236260     2.224085
C        1.611032     2.259114     3.132726
N       -0.244472    -1.179806     1.368433
C       -1.669428    -1.080401     1.344121
C       -2.302170    -1.184354     0.096187
C       -3.691007    -1.236657    -0.004748
C       -4.483031    -1.146146     1.141200
C       -5.974825    -1.261993     1.042592
C       -3.873511    -0.946288     2.383799
C       -2.474988    -0.883328     2.507960
C       -1.949495    -0.606167     3.896723
C        0.645663    -1.788539     2.346401
C        0.405173    -2.954999     3.198330
C        1.430535    -3.383876     3.955143
C        2.718778    -2.621643     4.045063
C        2.953998    -1.526209     3.277695
C        4.270133    -0.824034     3.346933
N        1.903940    -1.090784     2.422049
C       -0.471976     0.808771    -3.080495
C        0.776392     0.205502    -3.665473
C       -1.627927     0.807611    -3.886446
H       -4.345764     2.466249    -4.442954
H       -4.892597     0.872836    -3.786621
H       -3.875201     0.940525    -5.276799
H       -3.810300     2.312182    -1.751221
H       -1.835504     2.309287    -0.336047
H        1.775720     3.255438    -3.021487
H        4.062135     4.088747    -2.808182
H        5.520715     3.487523    -0.831275
H        4.500446     1.994727     2.193669
H        5.326758     0.794818     1.096509
H        5.933147     2.461076     1.225304
H        4.043640    -0.787117     0.013271
H        3.480146    -2.498162     0.121692
H        4.000272    -1.789464    -1.467811
H        1.643460    -2.630135    -2.167224
H        1.143890    -2.977217    -0.455747
H        0.258912    -1.764279    -1.473082
H       -1.114250     2.397485     3.235648
H       -0.563587     3.214089     1.713945
H       -1.385936     1.591858     1.679362
H        1.221276     2.477966     4.151112
H        2.483871     1.601279     3.255337
H        1.917871     3.198481     2.630029
H       -1.729228    -1.313045    -0.804848
H       -4.146337    -1.389286    -0.975956
H       -6.338691    -0.932394     0.046935
H       -6.253259    -2.327997     1.187966
H       -6.475290    -0.654982     1.825945
H       -4.493476    -0.849868     3.268185
H       -0.880651    -0.352436     3.946497
H       -2.455483     0.297370     4.299315
H       -2.165114    -1.464964     4.564221
H       -0.527824    -3.507979     3.146605
H        1.240727    -4.276651     4.532486
H        3.485775    -3.001806     4.712442
H        4.138903     0.211377     3.711629
H        4.969659    -1.332481     4.043690
H        4.720325    -0.841340     2.343788
H        1.632154     0.223375    -2.969281
H        1.062312     0.758513    -4.584479
H        0.581336    -0.854605    -3.939986
H       -1.582732     0.397117    -4.889151
