43
ex_0550 frame0 all-trans-conf11
O        3.221302     0.000000     0.000000
C        2.100000     0.000000     0.000000
Mo       0.000000     0.000000     0.000000
C       -2.100000     0.000000     0.000000
O       -3.221302    -0.000000    -0.000000
C        0.000000     2.100000     0.000000
O       -0.000000     3.221302    -0.000000
C        0.000000    -2.100000     0.000000
O       -0.000000    -3.221302    -0.000000
Te       0.000000     0.000000     2.920000
C       -1.064165     0.989687     4.527484
C        0.077896     1.039588     5.495990
C        0.136180     2.094980     6.465361
C        1.131269     2.213764     7.381568
C        2.132927     1.280455     7.379216
C        2.078713     0.283479     6.459456
C        1.028042     0.159142     5.496592
C        1.058655    -0.984563     4.519161
Te       0.000000     0.000000    -2.920000
C        1.359407    -0.513752    -4.527484
C        0.896777     0.531603    -5.495990
C        1.816425     1.052656    -6.465361
C        1.480798     1.996937    -7.381568
C        0.199668     2.479733    -7.379216
C       -0.669453     1.988276    -6.459456
C       -0.314110     0.991731    -5.496592
C       -1.352368     0.511091    -4.519161
H       -1.866161     0.318436     4.888676
H       -1.394824     1.973386     4.227052
H       -0.646109     2.845005     6.487830
H        1.129314     3.026304     8.093514
H        2.946872     1.333393     8.089810
H        2.882496    -0.446197     6.475615
H        2.055657    -1.286485     4.215181
H        0.439338    -1.803433     4.932344
H        1.114294    -1.530460    -4.888676
H        2.387604    -0.373006    -4.227052
H        2.835899     0.684976    -6.487830
H        2.209632     2.356139    -8.093514
H       -0.114482     3.232474    -8.089810
H       -1.680242     2.384253    -6.475615
H       -2.065762     1.270197    -4.215181
H       -1.810886    -0.407529    -4.932344
43
ex_0550 frame1 C-trans-conf11
O        3.221302     0.000000     0.000000
C        2.100000     0.000000     0.000000
Mo       0.000000     0.000000     0.000000
C       -2.100000     0.000000     0.000000
O       -3.221302    -0.000000    -0.000000
C        0.000000     2.100000     0.000000
O       -0.000000     3.221302    -0.000000
C        0.000000     0.000000     2.100000
O       -0.000000    -0.000000     3.221302
Te       0.000000    -2.920000     0.000000
C        0.300269    -4.527484     1.421888
C        0.931229    -5.495990     0.468641
C        1.865904    -6.465361     0.962231
C        2.480216    -7.381568     0.170440
C        2.196081    -7.379216    -1.168833
C        1.313574    -6.459456    -1.635828
C        0.665876    -5.496592    -0.799253
C       -0.298714    -4.519161    -1.414526
Te       0.000000     0.000000    -2.920000
C        1.359407    -0.513752    -4.527484
C        0.896777     0.531603    -5.495990
C        1.816425     1.052656    -6.465361
C        1.480798     1.996937    -7.381568
C        0.199668     2.479733    -7.379216
C       -0.669453     1.988276    -6.459456
C       -0.314110     0.991731    -5.496592
C       -1.352368     0.511091    -4.519161
H       -0.688158    -4.888676     1.763632
H        0.973176    -4.227052     2.211948
H        2.105913    -6.487830     2.019070
H        3.175700    -8.093514     0.590591
H        2.660658    -8.089810    -1.839264
H        1.102079    -6.475615    -2.700610
H       -0.044037    -4.215181    -2.424630
H       -1.319593    -4.932344    -1.305398
H        1.114294    -1.530460    -4.888676
H        2.387604    -0.373006    -4.227052
H        2.835899     0.684976    -6.487830
H        2.209632     2.356139    -8.093514
H       -0.114482     3.232474    -8.089810
H       -1.680242     2.384253    -6.475615
H       -2.065762     1.270197    -4.215181
H       -1.810886    -0.407529    -4.932344
43
ex_0550 frame2 
O       -3.944192    -0.483617     0.221185
C       -2.908620    -0.273312     0.159677
Mo      -0.594731     0.202045    -0.021691
C       -0.989282     1.713194     1.007510
O       -1.225357     2.647478     1.618698
C        1.039187    -0.705269    -0.205955
O        2.024467    -1.268335    -0.301714
C       -1.090817    -0.703932    -2.156473
O       -1.327281    -1.119153    -3.102445
Te       0.558997     1.802902    -2.174031
C        1.473306     3.283214    -1.003544
C        0.932695     4.499468    -1.650471
C        1.652464     5.691859    -1.617562
C        1.144512     6.834066    -2.226850
C       -0.110971     6.787034    -2.885838
C       -0.829357     5.576460    -2.904993
C       -0.304396     4.437641    -2.292943
C       -1.048860     3.158667    -2.317807
Te      -1.218377    -1.147400     2.491567
C        0.715489    -1.228779     3.295362
C        0.812453    -2.669758     3.616002
C        1.647412    -3.105582     4.642485
C        1.734938    -4.461437     4.942577
C        0.975760    -5.396283     4.204270
C        0.144052    -4.948025     3.168380
C        0.059116    -3.585067     2.879834
C       -0.825448    -3.097815     1.796447
H        1.247769     3.269764     0.071057
H        2.572823     3.171157    -1.136003
H        2.588166     5.755985    -1.140939
H        1.691901     7.759963    -2.209930
H       -0.499854     7.658310    -3.354321
H       -1.761181     5.547603    -3.400855
H       -1.524759     2.997221    -3.304018
H       -1.816215     3.124524    -1.494462
H        1.532577    -0.912437     2.632052
H        0.719248    -0.580545     4.199866
H        2.220363    -2.430777     5.211359
H        2.376293    -4.810397     5.735894
H        1.044503    -6.438497     4.439262
H       -0.422250    -5.656732     2.627103
H       -0.324719    -3.186708     0.791787
H       -1.789443    -3.640142     1.802675
43
ex_0550 frame3 trans-OH C0+C0|C0+C0|Te1+Te1
O        3.158499     0.000000    -0.000000
C        2.100000     0.000000     0.000000
Mo       0.000000     0.000000     0.000000
C       -2.100000     0.000000     0.000000
O       -3.241127    -0.000000    -0.000000
C        0.000000     2.100000     0.000000
O       -0.000000     3.238854     0.000000
C        0.000000    -2.100000     0.000000
O        0.000000    -3.159805    -0.000000
Te       0.000000     0.000000     2.920000
C        1.099222    -1.029579     4.335376
C        0.541618    -0.359115     5.574434
C        1.329262    -0.278596     6.754965
C        0.889790     0.324397     7.894255
C       -0.367320     0.867550     7.888392
C       -1.113695     0.782166     6.759297
C       -0.648159     0.138201     5.558801
C       -1.550514     0.076057     4.367333
Te       0.000000     0.000000    -2.920000
C        1.371568     0.615264    -4.337023
C        0.627845     0.165684    -5.578248
C        1.350580    -0.155116    -6.760555
C        0.735896    -0.578744    -7.903253
C       -0.621290    -0.690399    -7.898784
C       -1.306653    -0.378340    -6.767185
C       -0.657217     0.074263    -5.564590
C       -1.493515     0.413280    -4.369686
H        0.946246    -2.127630     4.429598
H        2.147862    -0.869505     4.177089
H        2.325912    -0.703563     6.776150
H        1.535432     0.363459     8.776042
H       -0.729986     1.344976     8.771755
H       -2.102181     1.218286     6.778507
H       -2.078942     1.034876     4.212530
H       -2.225124    -0.783401     4.445437
H        1.580890     1.701376    -4.426877
H        2.310044     0.120022    -4.179859
H        2.427948    -0.072445    -6.783258
H        1.335456    -0.816775    -8.786980
H       -1.119361    -1.020878    -8.784489
H       -2.378945    -0.475428    -6.789976
H       -1.873576     1.438109    -4.439729
H       -2.289769    -0.338234    -4.212737
43
ex_0550 frame4 C-trans
O        3.158499     0.000000    -0.000000
C        2.100000     0.000000     0.000000
Mo       0.000000     0.000000     0.000000
C       -2.100000     0.000000     0.000000
O       -3.241127    -0.000000    -0.000000
C        0.000000     2.100000     0.000000
O       -0.000000     3.238854     0.000000
C        0.000000     0.000000     2.100000
O        0.000000     0.000000     3.159805
Te       0.000000    -2.920000     0.000000
C        0.367460    -4.335376     1.460581
C        0.051456    -5.574434     0.647816
C       -0.400878    -6.754965     1.297633
C       -0.715153    -7.894255     0.620900
C       -0.580637    -7.888392    -0.741908
C       -0.144059    -6.759297    -1.353272
C        0.193412    -5.558801    -0.633878
C        0.685295    -4.367333    -1.392928
Te       0.000000     0.000000    -2.920000
C        1.371568     0.615264    -4.337023
C        0.627845     0.165684    -5.578248
C        1.350580    -0.155116    -6.760555
C        0.735896    -0.578744    -7.903253
C       -0.621290    -0.690399    -7.898784
C       -1.306653    -0.378340    -6.767185
C       -0.657217     0.074263    -5.564590
C       -1.493515     0.413280    -4.369686
H        1.401969    -4.429598     1.859213
H       -0.281002    -4.177089     2.300084
H       -0.512464    -6.776150     2.375342
H       -1.062374    -8.776042     1.166626
H       -0.822335    -8.771755    -1.290584
H       -0.046185    -6.778507    -2.429249
H        0.102954    -4.212530    -2.319993
H        1.764064    -4.445437    -1.566196
H        1.580890     1.701376    -4.426877
H        2.310044     0.120022    -4.179859
H        2.427948    -0.072445    -6.783258
H        1.335456    -0.816775    -8.786980
H       -1.119361    -1.020878    -8.784489
H       -2.378945    -0.475428    -6.789976
H       -1.873576     1.438109    -4.439729
H       -2.289769    -0.338234    -4.212737
43
ex_0550 frame5 trans-OH C0+C0|Te1+Te1|C0+C0
O        3.158499     0.000000    -0.000000
C        2.100000     0.000000     0.000000
Mo       0.000000     0.000000     0.000000
C       -2.100000     0.000000     0.000000
O       -3.241127    -0.000000    -0.000000
C        0.000000     0.000000     2.100000
O        0.000000     0.000000     3.238854
C        0.000000     0.000000    -2.100000
O        0.000000     0.000000    -3.159805
Te       0.000000     2.920000     0.000000
C        1.025657     4.335376     1.102883
C        0.515583     5.574434     0.395586
C        1.306903     6.754965     0.369538
C        0.910030     7.894255    -0.262307
C       -0.306660     7.888392    -0.890801
C       -1.057145     6.759297    -0.857055
C       -0.637094     5.558801    -0.182539
C       -1.541586     4.367333    -0.182728
Te       0.000000    -2.920000     0.000000
C        1.404520    -4.337023     0.535792
C        0.560876    -5.578248     0.327199
C        0.844559    -6.760555     1.065291
C        0.110459    -7.903253     0.929669
C       -0.927539    -7.898784     0.048204
C       -1.191001    -6.767185    -0.657268
C       -0.411842    -5.564591    -0.517530
C       -0.762878    -4.369686    -1.348853
H        0.797373     4.429598     2.187781
H        2.082835     4.177089     1.015455
H        2.271897     6.776150     0.862178
H        1.556829     8.776042    -0.256783
H       -0.635563     8.771755    -1.392085
H       -2.013227     6.778507    -1.360259
H       -2.002682     4.212530    -1.175683
H       -2.273821     4.445437     0.628197
H        2.320973    -4.426877    -0.083538
H        1.717209    -4.179859     1.549807
H        1.664328    -6.783258     1.769235
H        0.365676    -8.786980     1.522119
H       -1.513327    -8.784489    -0.070719
H       -2.017385    -6.789976    -1.347432
H       -0.306249    -4.439729    -2.341934
H       -1.857292    -4.212737    -1.381271
43
ex_0550 frame6 trans-OH C0+C0|C0+C0|Te1+Te1
O       -0.000000     3.158499     0.000000
C        0.000000     2.100000     0.000000
Mo       0.000000     0.000000     0.000000
C        0.000000    -2.100000     0.000000
O       -0.000000    -3.241127     0.000000
C        2.100000     0.000000     0.000000
O        3.238854     0.000000     0.000000
C       -2.100000     0.000000     0.000000
O       -3.159805     0.000000    -0.000000
Te       0.000000     0.000000     2.920000
C        1.099222    -1.029579     4.335376
C        0.541618    -0.359115     5.574434
C        1.329262    -0.278596     6.754965
C        0.889790     0.324397     7.894255
C       -0.367320     0.867550     7.888392
C       -1.113695     0.782166     6.759297
C       -0.648159     0.138201     5.558801
C       -1.550514     0.076057     4.367333
Te       0.000000     0.000000    -2.920000
C        1.371568     0.615264    -4.337023
C        0.627845     0.165684    -5.578248
C        1.350580    -0.155116    -6.760555
C        0.735896    -0.578744    -7.903253
C       -0.621290    -0.690399    -7.898784
C       -1.306653    -0.378340    -6.767185
C       -0.657217     0.074263    -5.564590
C       -1.493515     0.413280    -4.369686
H        0.946246    -2.127630     4.429598
H        2.147862    -0.869505     4.177089
H        2.325912    -0.703563     6.776150
H        1.535432     0.363459     8.776042
H       -0.729986     1.344976     8.771755
H       -2.102181     1.218286     6.778507
H       -2.078942     1.034876     4.212530
H       -2.225124    -0.783401     4.445437
H        1.580890     1.701376    -4.426877
H        2.310044     0.120022    -4.179859
H        2.427948    -0.072445    -6.783258
H        1.335456    -0.816775    -8.786980
H       -1.119361    -1.020878    -8.784489
H       -2.378945    -0.475428    -6.789976
H       -1.873576     1.438109    -4.439729
H       -2.289769    -0.338234    -4.212737
43
ex_0550 frame7 trans-OH C0+C0|Te1+Te1|C0+C0
O        0.000000    -0.000000     3.158499
C        0.000000     0.000000     2.100000
Mo       0.000000     0.000000     0.000000
C        0.000000     0.000000    -2.100000
O       -0.000000    -0.000000    -3.241127
C        2.100000     0.000000     0.000000
O        3.238854     0.000000     0.000000
C       -2.100000     0.000000     0.000000
O       -3.159805     0.000000    -0.000000
Te       0.000000     2.920000     0.000000
C        1.025657     4.335376     1.102883
C        0.515583     5.574434     0.395586
C        1.306903     6.754965     0.369538
C        0.910030     7.894255    -0.262307
C       -0.306660     7.888392    -0.890801
C       -1.057145     6.759297    -0.857055
C       -0.637094     5.558801    -0.182539
C       -1.541586     4.367333    -0.182728
Te       0.000000    -2.920000     0.000000
C        1.404520    -4.337023     0.535792
C        0.560876    -5.578248     0.327199
C        0.844559    -6.760555     1.065291
C        0.110459    -7.903253     0.929669
C       -0.927539    -7.898784     0.048204
C       -1.191001    -6.767185    -0.657268
C       -0.411842    -5.564591    -0.517530
C       -0.762878    -4.369686    -1.348853
H        0.797373     4.429598     2.187781
H        2.082835     4.177089     1.015455
H        2.271897     6.776150     0.862178
H        1.556829     8.776042    -0.256783
H       -0.635563     8.771755    -1.392085
H       -2.013227     6.778507    -1.360259
H       -2.002682     4.212530    -1.175683
H       -2.273821     4.445437     0.628197
H        2.320973    -4.426877    -0.083538
H        1.717209    -4.179859     1.549807
H        1.664328    -6.783258     1.769235
H        0.365676    -8.786980     1.522119
H       -1.513327    -8.784489    -0.070719
H       -2.017385    -6.789976    -1.347432
H       -0.306249    -4.439729    -2.341934
H       -1.857292    -4.212737    -1.381271
43
ex_0550 frame8 trans-OH Te1+Te1|C0+C0|C0+C0
O       -0.000000     3.158499     0.000000
C        0.000000     2.100000     0.000000
Mo       0.000000     0.000000     0.000000
C        0.000000    -2.100000     0.000000
O       -0.000000    -3.241127     0.000000
C        0.000000     0.000000     2.100000
O        0.000000     0.000000     3.238854
C        0.000000     0.000000    -2.100000
O        0.000000     0.000000    -3.159805
Te       2.920000     0.000000     0.000000
C        4.335376    -1.068515     1.061413
C        5.574434    -0.530840     0.374865
C        6.754965    -1.320508     0.317509
C        7.894255    -0.898932    -0.298129
C        7.888392     0.341686    -0.877963
C        6.759297     1.090246    -0.814532
C        5.558801     0.643821    -0.157174
C        4.367333     1.547612    -0.121555
Te      -2.920000     0.000000     0.000000
C       -4.337023    -0.934402     1.177558
C       -5.578248    -0.315350     0.567622
C       -6.760555    -0.182625     1.347136
C       -7.903253     0.379464     0.855858
C       -7.898784     0.822255    -0.431914
C       -6.767185     0.688787    -1.173054
C       -5.564590     0.090051    -0.655242
C       -4.369686    -0.032334    -1.549303
H        4.429598    -0.883361     2.154499
H        4.177089    -2.121403     0.932202
H        6.776150    -2.304249     0.771559
H        8.776042    -1.545443    -0.318215
H        8.771755     0.690177    -1.365832
H        6.778507     2.065500    -1.279491
H        4.212530     2.047656    -1.095477
H        4.445437     2.247168     0.717723
H       -4.426877    -2.038596     1.112664
H       -4.179859    -0.685804     2.209159
H       -6.783258    -0.528344     2.370872
H       -8.786980     0.462341     1.495595
H       -8.784489     1.265321    -0.833140
H       -6.789976     1.047227    -2.188316
H       -4.439729    -0.931837    -2.170282
H       -4.212737     0.892283    -2.135714
43
ex_0550 frame9 trans-OH Te1+Te1|C0+C0|C0+C0
O        0.000000    -0.000000     3.158499
C        0.000000     0.000000     2.100000
Mo       0.000000     0.000000     0.000000
C        0.000000     0.000000    -2.100000
O       -0.000000    -0.000000    -3.241127
C        0.000000     2.100000     0.000000
O       -0.000000     3.238854     0.000000
C        0.000000    -2.100000     0.000000
O        0.000000    -3.159805    -0.000000
Te       2.920000     0.000000     0.000000
C        4.335376    -1.068515     1.061413
C        5.574434    -0.530840     0.374865
C        6.754965    -1.320508     0.317509
C        7.894255    -0.898932    -0.298129
C        7.888392     0.341686    -0.877963
C        6.759297     1.090246    -0.814532
C        5.558801     0.643821    -0.157174
C        4.367333     1.547612    -0.121555
Te      -2.920000     0.000000     0.000000
C       -4.337023    -0.934402     1.177558
C       -5.578248    -0.315350     0.567622
C       -6.760555    -0.182625     1.347136
C       -7.903253     0.379464     0.855858
C       -7.898784     0.822255    -0.431914
C       -6.767185     0.688787    -1.173054
C       -5.564590     0.090051    -0.655242
C       -4.369686    -0.032334    -1.549303
H        4.429598    -0.883361     2.154499
H        4.177089    -2.121403     0.932202
H        6.776150    -2.304249     0.771559
H        8.776042    -1.545443    -0.318215
H        8.771755     0.690177    -1.365832
H        6.778507     2.065500    -1.279491
H        4.212530     2.047656    -1.095477
H        4.445437     2.247168     0.717723
H       -4.426877    -2.038596     1.112664
H       -4.179859    -0.685804     2.209159
H       -6.783258    -0.528344     2.370872
H       -8.786980     0.462341     1.495595
H       -8.784489     1.265321    -0.833140
H       -6.789976     1.047227    -2.188316
H       -4.439729    -0.931837    -2.170282
H       -4.212737     0.892283    -2.135714
43
ex_0550 frame10 trans-OH C0+C0|C0+C0|Te1+Te1
O        3.158499     0.000000    -0.000000
C        2.100000     0.000000     0.000000
Mo       0.000000     0.000000     0.000000
C        0.000000     2.100000     0.000000
O       -0.000000     3.241127    -0.000000
C        0.000000    -2.100000     0.000000
O        0.000000    -3.238854    -0.000000
C       -2.100000     0.000000     0.000000
O       -3.159805     0.000000    -0.000000
Te       0.000000     0.000000     2.920000
C        1.099222    -1.029579     4.335376
C        0.541618    -0.359115     5.574434
C        1.329262    -0.278596     6.754965
C        0.889790     0.324397     7.894255
C       -0.367320     0.867550     7.888392
C       -1.113695     0.782166     6.759297
C       -0.648159     0.138201     5.558801
C       -1.550514     0.076057     4.367333
Te       0.000000     0.000000    -2.920000
C        1.371568     0.615264    -4.337023
C        0.627845     0.165684    -5.578248
C        1.350580    -0.155116    -6.760555
C        0.735896    -0.578744    -7.903253
C       -0.621290    -0.690399    -7.898784
C       -1.306653    -0.378340    -6.767185
C       -0.657217     0.074263    -5.564590
C       -1.493515     0.413280    -4.369686
H        0.946246    -2.127630     4.429598
H        2.147862    -0.869505     4.177089
H        2.325912    -0.703563     6.776150
H        1.535432     0.363459     8.776042
H       -0.729986     1.344976     8.771755
H       -2.102181     1.218286     6.778507
H       -2.078942     1.034876     4.212530
H       -2.225124    -0.783401     4.445437
H        1.580890     1.701376    -4.426877
H        2.310044     0.120022    -4.179859
H        2.427948    -0.072445    -6.783258
H        1.335456    -0.816775    -8.786980
H       -1.119361    -1.020878    -8.784489
H       -2.378945    -0.475428    -6.789976
H       -1.873576     1.438109    -4.439729
H       -2.289769    -0.338234    -4.212737
43
ex_0550 frame11 trans-OH C0+C0|Te1+Te1|C0+C0
O        3.158499     0.000000    -0.000000
C        2.100000     0.000000     0.000000
Mo       0.000000     0.000000     0.000000
C        0.000000     0.000000     2.100000
O       -0.000000     0.000000     3.241127
C        0.000000     0.000000    -2.100000
O        0.000000     0.000000    -3.238854
C       -2.100000     0.000000     0.000000
O       -3.159805     0.000000    -0.000000
Te       0.000000     2.920000     0.000000
C        1.025657     4.335376     1.102883
C        0.515583     5.574434     0.395586
C        1.306903     6.754965     0.369538
C        0.910030     7.894255    -0.262307
C       -0.306660     7.888392    -0.890801
C       -1.057145     6.759297    -0.857055
C       -0.637094     5.558801    -0.182539
C       -1.541586     4.367333    -0.182728
Te       0.000000    -2.920000     0.000000
C        1.404520    -4.337023     0.535792
C        0.560876    -5.578248     0.327199
C        0.844559    -6.760555     1.065291
C        0.110459    -7.903253     0.929669
C       -0.927539    -7.898784     0.048204
C       -1.191001    -6.767185    -0.657268
C       -0.411842    -5.564591    -0.517530
C       -0.762878    -4.369686    -1.348853
H        0.797373     4.429598     2.187781
H        2.082835     4.177089     1.015455
H        2.271897     6.776150     0.862178
H        1.556829     8.776042    -0.256783
H       -0.635563     8.771755    -1.392085
H       -2.013227     6.778507    -1.360259
H       -2.002682     4.212530    -1.175683
H       -2.273821     4.445437     0.628197
H        2.320973    -4.426877    -0.083538
H        1.717209    -4.179859     1.549807
H        1.664328    -6.783258     1.769235
H        0.365676    -8.786980     1.522119
H       -1.513327    -8.784489    -0.070719
H       -2.017385    -6.789976    -1.347432
H       -0.306249    -4.439729    -2.341934
H       -1.857292    -4.212737    -1.381271
43
ex_0550 frame12 trans-OH C0+C0|C0+C0|Te1+Te1
O       -0.000000     3.158499     0.000000
C        0.000000     2.100000     0.000000
Mo       0.000000     0.000000     0.000000
C        2.100000     0.000000     0.000000
O        3.241127    -0.000000    -0.000000
C       -2.100000     0.000000     0.000000
O       -3.238854     0.000000    -0.000000
C        0.000000    -2.100000     0.000000
O        0.000000    -3.159805    -0.000000
Te       0.000000     0.000000     2.920000
C        1.099222    -1.029579     4.335376
C        0.541618    -0.359115     5.574434
C        1.329262    -0.278596     6.754965
C        0.889790     0.324397     7.894255
C       -0.367320     0.867550     7.888392
C       -1.113695     0.782166     6.759297
C       -0.648159     0.138201     5.558801
C       -1.550514     0.076057     4.367333
Te       0.000000     0.000000    -2.920000
C        1.371568     0.615264    -4.337023
C        0.627845     0.165684    -5.578248
C        1.350580    -0.155116    -6.760555
C        0.735896    -0.578744    -7.903253
C       -0.621290    -0.690399    -7.898784
C       -1.306653    -0.378340    -6.767185
C       -0.657217     0.074263    -5.564590
C       -1.493515     0.413280    -4.369686
H        0.946246    -2.127630     4.429598
H        2.147862    -0.869505     4.177089
H        2.325912    -0.703563     6.776150
H        1.535432     0.363459     8.776042
H       -0.729986     1.344976     8.771755
H       -2.102181     1.218286     6.778507
H       -2.078942     1.034876     4.212530
H       -2.225124    -0.783401     4.445437
H        1.580890     1.701376    -4.426877
H        2.310044     0.120022    -4.179859
H        2.427948    -0.072445    -6.783258
H        1.335456    -0.816775    -8.786980
H       -1.119361    -1.020878    -8.784489
H       -2.378945    -0.475428    -6.789976
H       -1.873576     1.438109    -4.439729
H       -2.289769    -0.338234    -4.212737
43
ex_0550 frame13 trans-OH C0+C0|Te1+Te1|C0+C0
O        0.000000    -0.000000     3.158499
C        0.000000     0.000000     2.100000
Mo       0.000000     0.000000     0.000000
C        2.100000     0.000000     0.000000
O        3.241127    -0.000000    -0.000000
C       -2.100000     0.000000     0.000000
O       -3.238854     0.000000    -0.000000
C        0.000000     0.000000    -2.100000
O        0.000000     0.000000    -3.159805
Te       0.000000     2.920000     0.000000
C        1.025657     4.335376     1.102883
C        0.515583     5.574434     0.395586
C        1.306903     6.754965     0.369538
C        0.910030     7.894255    -0.262307
C       -0.306660     7.888392    -0.890801
C       -1.057145     6.759297    -0.857055
C       -0.637094     5.558801    -0.182539
C       -1.541586     4.367333    -0.182728
Te       0.000000    -2.920000     0.000000
C        1.404520    -4.337023     0.535792
C        0.560876    -5.578248     0.327199
C        0.844559    -6.760555     1.065291
C        0.110459    -7.903253     0.929669
C       -0.927539    -7.898784     0.048204
C       -1.191001    -6.767185    -0.657268
C       -0.411842    -5.564591    -0.517530
C       -0.762878    -4.369686    -1.348853
H        0.797373     4.429598     2.187781
H        2.082835     4.177089     1.015455
H        2.271897     6.776150     0.862178
H        1.556829     8.776042    -0.256783
H       -0.635563     8.771755    -1.392085
H       -2.013227     6.778507    -1.360259
H       -2.002682     4.212530    -1.175683
H       -2.273821     4.445437     0.628197
H        2.320973    -4.426877    -0.083538
H        1.717209    -4.179859     1.549807
H        1.664328    -6.783258     1.769235
H        0.365676    -8.786980     1.522119
H       -1.513327    -8.784489    -0.070719
H       -2.017385    -6.789976    -1.347432
H       -0.306249    -4.439729    -2.341934
H       -1.857292    -4.212737    -1.381271
43
ex_0550 frame14 trans-OH Te1+Te1|C0+C0|C0+C0
O       -0.000000     3.158499     0.000000
C        0.000000     2.100000     0.000000
Mo       0.000000     0.000000     0.000000
C        0.000000     0.000000     2.100000
O       -0.000000     0.000000     3.241127
C        0.000000     0.000000    -2.100000
O        0.000000     0.000000    -3.238854
C        0.000000    -2.100000     0.000000
O        0.000000    -3.159805    -0.000000
Te       2.920000     0.000000     0.000000
C        4.335376    -1.068515     1.061413
C        5.574434    -0.530840     0.374865
C        6.754965    -1.320508     0.317509
C        7.894255    -0.898932    -0.298129
C        7.888392     0.341686    -0.877963
C        6.759297     1.090246    -0.814532
C        5.558801     0.643821    -0.157174
C        4.367333     1.547612    -0.121555
Te      -2.920000     0.000000     0.000000
C       -4.337023    -0.934402     1.177558
C       -5.578248    -0.315350     0.567622
C       -6.760555    -0.182625     1.347136
C       -7.903253     0.379464     0.855858
C       -7.898784     0.822255    -0.431914
C       -6.767185     0.688787    -1.173054
C       -5.564590     0.090051    -0.655242
C       -4.369686    -0.032334    -1.549303
H        4.429598    -0.883361     2.154499
H        4.177089    -2.121403     0.932202
H        6.776150    -2.304249     0.771559
H        8.776042    -1.545443    -0.318215
H        8.771755     0.690177    -1.365832
H        6.778507     2.065500    -1.279491
H        4.212530     2.047656    -1.095477
H        4.445437     2.247168     0.717723
H       -4.426877    -2.038596     1.112664
H       -4.179859    -0.685804     2.209159
H       -6.783258    -0.528344     2.370872
H       -8.786980     0.462341     1.495595
H       -8.784489     1.265321    -0.833140
H       -6.789976     1.047227    -2.188316
H       -4.439729    -0.931837    -2.170282
H       -4.212737     0.892283    -2.135714
43
ex_0550 frame15 trans-OH Te1+Te1|C0+C0|C0+C0
O        0.000000    -0.000000     3.158499
C        0.000000     0.000000     2.100000
Mo       0.000000     0.000000     0.000000
C        0.000000     2.100000     0.000000
O       -0.000000     3.241127    -0.000000
C        0.000000    -2.100000     0.000000
O        0.000000    -3.238854    -0.000000
C        0.000000     0.000000    -2.100000
O        0.000000     0.000000    -3.159805
Te       2.920000     0.000000     0.000000
C        4.335376    -1.068515     1.061413
C        5.574434    -0.530840     0.374865
C        6.754965    -1.320508     0.317509
C        7.894255    -0.898932    -0.298129
C        7.888392     0.341686    -0.877963
C        6.759297     1.090246    -0.814532
C        5.558801     0.643821    -0.157174
C        4.367333     1.547612    -0.121555
Te      -2.920000     0.000000     0.000000
C       -4.337023    -0.934402     1.177558
C       -5.578248    -0.315350     0.567622
C       -6.760555    -0.182625     1.347136
C       -7.903253     0.379464     0.855858
C       -7.898784     0.822255    -0.431914
C       -6.767185     0.688787    -1.173054
C       -5.564590     0.090051    -0.655242
C       -4.369686    -0.032334    -1.549303
H        4.429598    -0.883361     2.154499
H        4.177089    -2.121403     0.932202
H        6.776150    -2.304249     0.771559
H        8.776042    -1.545443    -0.318215
H        8.771755     0.690177    -1.365832
H        6.778507     2.065500    -1.279491
H        4.212530     2.047656    -1.095477
H        4.445437     2.247168     0.717723
H       -4.426877    -2.038596     1.112664
H       -4.179859    -0.685804     2.209159
H       -6.783258    -0.528344     2.370872
H       -8.786980     0.462341     1.495595
H       -8.784489     1.265321    -0.833140
H       -6.789976     1.047227    -2.188316
H       -4.439729    -0.931837    -2.170282
H       -4.212737     0.892283    -2.135714
43
ex_0550 frame16 all-trans
O        3.158499     0.000000    -0.000000
C        2.100000     0.000000     0.000000
Mo       0.000000     0.000000     0.000000
C       -2.100000     0.000000     0.000000
O       -3.241127    -0.000000    -0.000000
C        0.000000     2.100000     0.000000
O       -0.000000     3.238854     0.000000
C        0.000000    -2.100000     0.000000
O        0.000000    -3.159805    -0.000000
Te       0.000000     0.000000     2.920000
C        1.099222    -1.029579     4.335376
C        0.541522    -0.359343     5.574514
C        1.329262    -0.278596     6.754965
C        0.889790     0.324397     7.894255
C       -0.367320     0.867550     7.888392
C       -1.113695     0.782166     6.759297
C       -0.648194     0.138118     5.558832
C       -1.550514     0.076057     4.367333
Te       0.000000     0.000000    -2.920000
C        1.371568     0.615264    -4.337023
C        0.627827     0.165920    -5.578323
C        1.350580    -0.155116    -6.760555
C        0.735896    -0.578744    -7.903253
C       -0.621290    -0.690399    -7.898784
C       -1.306653    -0.378340    -6.767185
C       -0.657223     0.074349    -5.564619
C       -1.493515     0.413280    -4.369686
H        0.946246    -2.127630     4.429598
H        2.147862    -0.869505     4.177089
H        2.325912    -0.703563     6.776150
H        1.535432     0.363459     8.776042
H       -0.729986     1.344976     8.771755
H       -2.102181     1.218286     6.778507
H       -2.078942     1.034876     4.212530
H       -2.225124    -0.783401     4.445437
H        1.580890     1.701376    -4.426877
H        2.310044     0.120022    -4.179859
H        2.427948    -0.072445    -6.783258
H        1.335456    -0.816775    -8.786980
H       -1.119361    -1.020878    -8.784489
H       -2.378945    -0.475428    -6.789976
H       -1.873576     1.438109    -4.439729
H       -2.289769    -0.338234    -4.212737
43
ex_0550 frame17 C-trans
O        3.158499     0.000000    -0.000000
C        2.100000     0.000000     0.000000
Mo       0.000000     0.000000     0.000000
C       -2.100000     0.000000     0.000000
O       -3.241127    -0.000000    -0.000000
C        0.000000     2.100000     0.000000
O       -0.000000     3.238854     0.000000
C        0.000000     0.000000     2.100000
O        0.000000     0.000000     3.159805
Te       0.000000    -2.920000     0.000000
C        0.367460    -4.335376     1.460581
C        0.051702    -5.574514     0.647842
C       -0.400878    -6.754965     1.297633
C       -0.715153    -7.894255     0.620900
C       -0.580637    -7.888392    -0.741908
C       -0.144059    -6.759297    -1.353272
C        0.193501    -5.558832    -0.633869
C        0.685295    -4.367333    -1.392928
Te       0.000000     0.000000    -2.920000
C        1.371568     0.615264    -4.337023
C        0.627827     0.165920    -5.578323
C        1.350580    -0.155116    -6.760555
C        0.735896    -0.578744    -7.903253
C       -0.621290    -0.690399    -7.898784
C       -1.306653    -0.378340    -6.767185
C       -0.657223     0.074349    -5.564619
C       -1.493515     0.413280    -4.369686
H        1.401969    -4.429598     1.859213
H       -0.281002    -4.177089     2.300084
H       -0.512464    -6.776150     2.375342
H       -1.062374    -8.776042     1.166626
H       -0.822335    -8.771755    -1.290584
H       -0.046185    -6.778507    -2.429249
H        0.102954    -4.212530    -2.319993
H        1.764064    -4.445437    -1.566196
H        1.580890     1.701376    -4.426877
H        2.310044     0.120022    -4.179859
H        2.427948    -0.072445    -6.783258
H        1.335456    -0.816775    -8.786980
H       -1.119361    -1.020878    -8.784489
H       -2.378945    -0.475428    -6.789976
H       -1.873576     1.438109    -4.439729
H       -2.289769    -0.338234    -4.212737
43
ex_0550 frame18 trans-OH C0+C0|Te1+Te1|C0+C0
O        3.158499     0.000000    -0.000000
C        2.100000     0.000000     0.000000
Mo       0.000000     0.000000     0.000000
C       -2.100000     0.000000     0.000000
O       -3.241127    -0.000000    -0.000000
C        0.000000     0.000000     2.100000
O        0.000000     0.000000     3.238854
C        0.000000     0.000000    -2.100000
O        0.000000     0.000000    -3.159805
Te       0.000000     2.920000     0.000000
C        1.025657     4.335376     1.102883
C        0.515471     5.574514     0.395807
C        1.306903     6.754965     0.369538
C        0.910030     7.894255    -0.262307
C       -0.306660     7.888392    -0.890801
C       -1.057145     6.759297    -0.857055
C       -0.637135     5.558832    -0.182459
C       -1.541586     4.367333    -0.182728
Te       0.000000    -2.920000     0.000000
C        1.404520    -4.337023     0.535792
C        0.561031    -5.578323     0.327019
C        0.844559    -6.760555     1.065291
C        0.110459    -7.903253     0.929669
C       -0.927539    -7.898784     0.048204
C       -1.191001    -6.767185    -0.657268
C       -0.411786    -5.564620    -0.517595
C       -0.762878    -4.369686    -1.348853
H        0.797373     4.429598     2.187781
H        2.082835     4.177089     1.015455
H        2.271897     6.776150     0.862178
H        1.556829     8.776042    -0.256783
H       -0.635563     8.771755    -1.392085
H       -2.013227     6.778507    -1.360259
H       -2.002682     4.212530    -1.175683
H       -2.273821     4.445437     0.628197
H        2.320973    -4.426877    -0.083538
H        1.717209    -4.179859     1.549807
H        1.664328    -6.783258     1.769235
H        0.365676    -8.786980     1.522119
H       -1.513327    -8.784489    -0.070719
H       -2.017385    -6.789976    -1.347432
H       -0.306249    -4.439729    -2.341934
H       -1.857292    -4.212737    -1.381271
43
ex_0550 frame19 trans-OH C0+C0|C0+C0|Te1+Te1
O       -0.000000     3.158499     0.000000
C        0.000000     2.100000     0.000000
Mo       0.000000     0.000000     0.000000
C        0.000000    -2.100000     0.000000
O       -0.000000    -3.241127     0.000000
C        2.100000     0.000000     0.000000
O        3.238854     0.000000     0.000000
C       -2.100000     0.000000     0.000000
O       -3.159805     0.000000    -0.000000
Te       0.000000     0.000000     2.920000
C        1.099222    -1.029579     4.335376
C        0.541522    -0.359343     5.574514
C        1.329262    -0.278596     6.754965
C        0.889790     0.324397     7.894255
C       -0.367320     0.867550     7.888392
C       -1.113695     0.782166     6.759297
C       -0.648194     0.138118     5.558832
C       -1.550514     0.076057     4.367333
Te       0.000000     0.000000    -2.920000
C        1.371568     0.615264    -4.337023
C        0.627827     0.165920    -5.578323
C        1.350580    -0.155116    -6.760555
C        0.735896    -0.578744    -7.903253
C       -0.621290    -0.690399    -7.898784
C       -1.306653    -0.378340    -6.767185
C       -0.657223     0.074349    -5.564619
C       -1.493515     0.413280    -4.369686
H        0.946246    -2.127630     4.429598
H        2.147862    -0.869505     4.177089
H        2.325912    -0.703563     6.776150
H        1.535432     0.363459     8.776042
H       -0.729986     1.344976     8.771755
H       -2.102181     1.218286     6.778507
H       -2.078942     1.034876     4.212530
H       -2.225124    -0.783401     4.445437
H        1.580890     1.701376    -4.426877
H        2.310044     0.120022    -4.179859
H        2.427948    -0.072445    -6.783258
H        1.335456    -0.816775    -8.786980
H       -1.119361    -1.020878    -8.784489
H       -2.378945    -0.475428    -6.789976
H       -1.873576     1.438109    -4.439729
H       -2.289769    -0.338234    -4.212737
43
ex_0550 frame20 trans-OH C0+C0|Te1+Te1|C0+C0
O        0.000000    -0.000000     3.158499
C        0.000000     0.000000     2.100000
Mo       0.000000     0.000000     0.000000
C        0.000000     0.000000    -2.100000
O       -0.000000    -0.000000    -3.241127
C        2.100000     0.000000     0.000000
O        3.238854     0.000000     0.000000
C       -2.100000     0.000000     0.000000
O       -3.159805     0.000000    -0.000000
Te       0.000000     2.920000     0.000000
C        1.025657     4.335376     1.102883
C        0.515471     5.574514     0.395807
C        1.306903     6.754965     0.369538
C        0.910030     7.894255    -0.262307
C       -0.306660     7.888392    -0.890801
C       -1.057145     6.759297    -0.857055
C       -0.637135     5.558832    -0.182459
C       -1.541586     4.367333    -0.182728
Te       0.000000    -2.920000     0.000000
C        1.404520    -4.337023     0.535792
C        0.561031    -5.578323     0.327019
C        0.844559    -6.760555     1.065291
C        0.110459    -7.903253     0.929669
C       -0.927539    -7.898784     0.048204
C       -1.191001    -6.767185    -0.657268
C       -0.411786    -5.564620    -0.517595
C       -0.762878    -4.369686    -1.348853
H        0.797373     4.429598     2.187781
H        2.082835     4.177089     1.015455
H        2.271897     6.776150     0.862178
H        1.556829     8.776042    -0.256783
H       -0.635563     8.771755    -1.392085
H       -2.013227     6.778507    -1.360259
H       -2.002682     4.212530    -1.175683
H       -2.273821     4.445437     0.628197
H        2.320973    -4.426877    -0.083538
H        1.717209    -4.179859     1.549807
H        1.664328    -6.783258     1.769235
H        0.365676    -8.786980     1.522119
H       -1.513327    -8.784489    -0.070719
H       -2.017385    -6.789976    -1.347432
H       -0.306249    -4.439729    -2.341934
H       -1.857292    -4.212737    -1.381271
43
ex_0550 frame21 trans-OH Te1+Te1|C0+C0|C0+C0
O       -0.000000     3.158499     0.000000
C        0.000000     2.100000     0.000000
Mo       0.000000     0.000000     0.000000
C        0.000000    -2.100000     0.000000
O       -0.000000    -3.241127     0.000000
C        0.000000     0.000000     2.100000
O        0.000000     0.000000     3.238854
C        0.000000     0.000000    -2.100000
O        0.000000     0.000000    -3.159805
Te       2.920000     0.000000     0.000000
C        4.335376    -1.068515     1.061413
C        5.574514    -0.530737     0.375090
C        6.754965    -1.320508     0.317509
C        7.894255    -0.898932    -0.298129
C        7.888392     0.341686    -0.877963
C        6.759297     1.090246    -0.814532
C        5.558832     0.643858    -0.157092
C        4.367333     1.547612    -0.121555
Te      -2.920000     0.000000     0.000000
C       -4.337023    -0.934402     1.177558
C       -5.578323    -0.315575     0.567547
C       -6.760555    -0.182625     1.347136
C       -7.903253     0.379464     0.855858
C       -7.898784     0.822255    -0.431914
C       -6.767185     0.688787    -1.173054
C       -5.564619     0.089969    -0.655270
C       -4.369686    -0.032334    -1.549303
H        4.429598    -0.883361     2.154499
H        4.177089    -2.121403     0.932202
H        6.776150    -2.304249     0.771559
H        8.776042    -1.545443    -0.318215
H        8.771755     0.690177    -1.365832
H        6.778507     2.065500    -1.279491
H        4.212530     2.047656    -1.095477
H        4.445437     2.247168     0.717723
H       -4.426877    -2.038596     1.112664
H       -4.179859    -0.685804     2.209159
H       -6.783258    -0.528344     2.370872
H       -8.786980     0.462341     1.495595
H       -8.784489     1.265321    -0.833140
H       -6.789976     1.047227    -2.188316
H       -4.439729    -0.931837    -2.170282
H       -4.212737     0.892283    -2.135714
43
ex_0550 frame22 trans-OH Te1+Te1|C0+C0|C0+C0
O        0.000000    -0.000000     3.158499
C        0.000000     0.000000     2.100000
Mo       0.000000     0.000000     0.000000
C        0.000000     0.000000    -2.100000
O       -0.000000    -0.000000    -3.241127
C        0.000000     2.100000     0.000000
O       -0.000000     3.238854     0.000000
C        0.000000    -2.100000     0.000000
O        0.000000    -3.159805    -0.000000
Te       2.920000     0.000000     0.000000
C        4.335376    -1.068515     1.061413
C        5.574514    -0.530737     0.375090
C        6.754965    -1.320508     0.317509
C        7.894255    -0.898932    -0.298129
C        7.888392     0.341686    -0.877963
C        6.759297     1.090246    -0.814532
C        5.558832     0.643858    -0.157092
C        4.367333     1.547612    -0.121555
Te      -2.920000     0.000000     0.000000
C       -4.337023    -0.934402     1.177558
C       -5.578323    -0.315575     0.567547
C       -6.760555    -0.182625     1.347136
C       -7.903253     0.379464     0.855858
C       -7.898784     0.822255    -0.431914
C       -6.767185     0.688787    -1.173054
C       -5.564619     0.089969    -0.655270
C       -4.369686    -0.032334    -1.549303
H        4.429598    -0.883361     2.154499
H        4.177089    -2.121403     0.932202
H        6.776150    -2.304249     0.771559
H        8.776042    -1.545443    -0.318215
H        8.771755     0.690177    -1.365832
H        6.778507     2.065500    -1.279491
H        4.212530     2.047656    -1.095477
H        4.445437     2.247168     0.717723
H       -4.426877    -2.038596     1.112664
H       -4.179859    -0.685804     2.209159
H       -6.783258    -0.528344     2.370872
H       -8.786980     0.462341     1.495595
H       -8.784489     1.265321    -0.833140
H       -6.789976     1.047227    -2.188316
H       -4.439729    -0.931837    -2.170282
H       -4.212737     0.892283    -2.135714
43
ex_0550 frame23 trans-OH C0+C0|C0+C0|Te1+Te1
O        3.158499     0.000000    -0.000000
C        2.100000     0.000000     0.000000
Mo       0.000000     0.000000     0.000000
C        0.000000     2.100000     0.000000
O       -0.000000     3.241127    -0.000000
C        0.000000    -2.100000     0.000000
O        0.000000    -3.238854    -0.000000
C       -2.100000     0.000000     0.000000
O       -3.159805     0.000000    -0.000000
Te       0.000000     0.000000     2.920000
C        1.099222    -1.029579     4.335376
C        0.541522    -0.359343     5.574514
C        1.329262    -0.278596     6.754965
C        0.889790     0.324397     7.894255
C       -0.367320     0.867550     7.888392
C       -1.113695     0.782166     6.759297
C       -0.648194     0.138118     5.558832
C       -1.550514     0.076057     4.367333
Te       0.000000     0.000000    -2.920000
C        1.371568     0.615264    -4.337023
C        0.627827     0.165920    -5.578323
C        1.350580    -0.155116    -6.760555
C        0.735896    -0.578744    -7.903253
C       -0.621290    -0.690399    -7.898784
C       -1.306653    -0.378340    -6.767185
C       -0.657223     0.074349    -5.564619
C       -1.493515     0.413280    -4.369686
H        0.946246    -2.127630     4.429598
H        2.147862    -0.869505     4.177089
H        2.325912    -0.703563     6.776150
H        1.535432     0.363459     8.776042
H       -0.729986     1.344976     8.771755
H       -2.102181     1.218286     6.778507
H       -2.078942     1.034876     4.212530
H       -2.225124    -0.783401     4.445437
H        1.580890     1.701376    -4.426877
H        2.310044     0.120022    -4.179859
H        2.427948    -0.072445    -6.783258
H        1.335456    -0.816775    -8.786980
H       -1.119361    -1.020878    -8.784489
H       -2.378945    -0.475428    -6.789976
H       -1.873576     1.438109    -4.439729
H       -2.289769    -0.338234    -4.212737
43
ex_0550 frame24 trans-OH C0+C0|Te1+Te1|C0+C0
O        3.158499     0.000000    -0.000000
C        2.100000     0.000000     0.000000
Mo       0.000000     0.000000     0.000000
C        0.000000     0.000000     2.100000
O       -0.000000     0.000000     3.241127
C        0.000000     0.000000    -2.100000
O        0.000000     0.000000    -3.238854
C       -2.100000     0.000000     0.000000
O       -3.159805     0.000000    -0.000000
Te       0.000000     2.920000     0.000000
C        1.025657     4.335376     1.102883
C        0.515471     5.574514     0.395807
C        1.306903     6.754965     0.369538
C        0.910030     7.894255    -0.262307
C       -0.306660     7.888392    -0.890801
C       -1.057145     6.759297    -0.857055
C       -0.637135     5.558832    -0.182459
C       -1.541586     4.367333    -0.182728
Te       0.000000    -2.920000     0.000000
C        1.404520    -4.337023     0.535792
C        0.561031    -5.578323     0.327019
C        0.844559    -6.760555     1.065291
C        0.110459    -7.903253     0.929669
C       -0.927539    -7.898784     0.048204
C       -1.191001    -6.767185    -0.657268
C       -0.411786    -5.564620    -0.517595
C       -0.762878    -4.369686    -1.348853
H        0.797373     4.429598     2.187781
H        2.082835     4.177089     1.015455
H        2.271897     6.776150     0.862178
H        1.556829     8.776042    -0.256783
H       -0.635563     8.771755    -1.392085
H       -2.013227     6.778507    -1.360259
H       -2.002682     4.212530    -1.175683
H       -2.273821     4.445437     0.628197
H        2.320973    -4.426877    -0.083538
H        1.717209    -4.179859     1.549807
H        1.664328    -6.783258     1.769235
H        0.365676    -8.786980     1.522119
H       -1.513327    -8.784489    -0.070719
H       -2.017385    -6.789976    -1.347432
H       -0.306249    -4.439729    -2.341934
H       -1.857292    -4.212737    -1.381271
43
ex_0550 frame25 trans-OH C0+C0|C0+C0|Te1+Te1
O       -0.000000     3.158499     0.000000
C        0.000000     2.100000     0.000000
Mo       0.000000     0.000000     0.000000
C        2.100000     0.000000     0.000000
O        3.241127    -0.000000    -0.000000
C       -2.100000     0.000000     0.000000
O       -3.238854     0.000000    -0.000000
C        0.000000    -2.100000     0.000000
O        0.000000    -3.159805    -0.000000
Te       0.000000     0.000000     2.920000
C        1.099222    -1.029579     4.335376
C        0.541522    -0.359343     5.574514
C        1.329262    -0.278596     6.754965
C        0.889790     0.324397     7.894255
C       -0.367320     0.867550     7.888392
C       -1.113695     0.782166     6.759297
C       -0.648194     0.138118     5.558832
C       -1.550514     0.076057     4.367333
Te       0.000000     0.000000    -2.920000
C        1.371568     0.615264    -4.337023
C        0.627827     0.165920    -5.578323
C        1.350580    -0.155116    -6.760555
C        0.735896    -0.578744    -7.903253
C       -0.621290    -0.690399    -7.898784
C       -1.306653    -0.378340    -6.767185
C       -0.657223     0.074349    -5.564619
C       -1.493515     0.413280    -4.369686
H        0.946246    -2.127630     4.429598
H        2.147862    -0.869505     4.177089
H        2.325912    -0.703563     6.776150
H        1.535432     0.363459     8.776042
H       -0.729986     1.344976     8.771755
H       -2.102181     1.218286     6.778507
H       -2.078942     1.034876     4.212530
H       -2.225124    -0.783401     4.445437
H        1.580890     1.701376    -4.426877
H        2.310044     0.120022    -4.179859
H        2.427948    -0.072445    -6.783258
H        1.335456    -0.816775    -8.786980
H       -1.119361    -1.020878    -8.784489
H       -2.378945    -0.475428    -6.789976
H       -1.873576     1.438109    -4.439729
H       -2.289769    -0.338234    -4.212737
43
ex_0550 frame26 trans-OH C0+C0|Te1+Te1|C0+C0
O        0.000000    -0.000000     3.158499
C        0.000000     0.000000     2.100000
Mo       0.000000     0.000000     0.000000
C        2.100000     0.000000     0.000000
O        3.241127    -0.000000    -0.000000
C       -2.100000     0.000000     0.000000
O       -3.238854     0.000000    -0.000000
C        0.000000     0.000000    -2.100000
O        0.000000     0.000000    -3.159805
Te       0.000000     2.920000     0.000000
C        1.025657     4.335376     1.102883
C        0.515471     5.574514     0.395807
C        1.306903     6.754965     0.369538
C        0.910030     7.894255    -0.262307
C       -0.306660     7.888392    -0.890801
C       -1.057145     6.759297    -0.857055
C       -0.637135     5.558832    -0.182459
C       -1.541586     4.367333    -0.182728
Te       0.000000    -2.920000     0.000000
C        1.404520    -4.337023     0.535792
C        0.561031    -5.578323     0.327019
C        0.844559    -6.760555     1.065291
C        0.110459    -7.903253     0.929669
C       -0.927539    -7.898784     0.048204
C       -1.191001    -6.767185    -0.657268
C       -0.411786    -5.564620    -0.517595
C       -0.762878    -4.369686    -1.348853
H        0.797373     4.429598     2.187781
H        2.082835     4.177089     1.015455
H        2.271897     6.776150     0.862178
H        1.556829     8.776042    -0.256783
H       -0.635563     8.771755    -1.392085
H       -2.013227     6.778507    -1.360259
H       -2.002682     4.212530    -1.175683
H       -2.273821     4.445437     0.628197
H        2.320973    -4.426877    -0.083538
H        1.717209    -4.179859     1.549807
H        1.664328    -6.783258     1.769235
H        0.365676    -8.786980     1.522119
H       -1.513327    -8.784489    -0.070719
H       -2.017385    -6.789976    -1.347432
H       -0.306249    -4.439729    -2.341934
H       -1.857292    -4.212737    -1.381271
43
ex_0550 frame27 trans-OH Te1+Te1|C0+C0|C0+C0
O       -0.000000     3.158499     0.000000
C        0.000000     2.100000     0.000000
Mo       0.000000     0.000000     0.000000
C        0.000000     0.000000     2.100000
O       -0.000000     0.000000     3.241127
C        0.000000     0.000000    -2.100000
O        0.000000     0.000000    -3.238854
C        0.000000    -2.100000     0.000000
O        0.000000    -3.159805    -0.000000
Te       2.920000     0.000000     0.000000
C        4.335376    -1.068515     1.061413
C        5.574514    -0.530737     0.375090
C        6.754965    -1.320508     0.317509
C        7.894255    -0.898932    -0.298129
C        7.888392     0.341686    -0.877963
C        6.759297     1.090246    -0.814532
C        5.558832     0.643858    -0.157092
C        4.367333     1.547612    -0.121555
Te      -2.920000     0.000000     0.000000
C       -4.337023    -0.934402     1.177558
C       -5.578323    -0.315575     0.567547
C       -6.760555    -0.182625     1.347136
C       -7.903253     0.379464     0.855858
C       -7.898784     0.822255    -0.431914
C       -6.767185     0.688787    -1.173054
C       -5.564619     0.089969    -0.655270
C       -4.369686    -0.032334    -1.549303
H        4.429598    -0.883361     2.154499
H        4.177089    -2.121403     0.932202
H        6.776150    -2.304249     0.771559
H        8.776042    -1.545443    -0.318215
H        8.771755     0.690177    -1.365832
H        6.778507     2.065500    -1.279491
H        4.212530     2.047656    -1.095477
H        4.445437     2.247168     0.717723
H       -4.426877    -2.038596     1.112664
H       -4.179859    -0.685804     2.209159
H       -6.783258    -0.528344     2.370872
H       -8.786980     0.462341     1.495595
H       -8.784489     1.265321    -0.833140
H       -6.789976     1.047227    -2.188316
H       -4.439729    -0.931837    -2.170282
H       -4.212737     0.892283    -2.135714
43
ex_0550 frame28 trans-OH Te1+Te1|C0+C0|C0+C0
O        0.000000    -0.000000     3.158499
C        0.000000     0.000000     2.100000
Mo       0.000000     0.000000     0.000000
C        0.000000     2.100000     0.000000
O       -0.000000     3.241127    -0.000000
C        0.000000    -2.100000     0.000000
O        0.000000    -3.238854    -0.000000
C        0.000000     0.000000    -2.100000
O        0.000000     0.000000    -3.159805
Te       2.920000     0.000000     0.000000
C        4.335376    -1.068515     1.061413
C        5.574514    -0.530737     0.375090
C        6.754965    -1.320508     0.317509
C        7.894255    -0.898932    -0.298129
C        7.888392     0.341686    -0.877963
C        6.759297     1.090246    -0.814532
C        5.558832     0.643858    -0.157092
C        4.367333     1.547612    -0.121555
Te      -2.920000     0.000000     0.000000
C       -4.337023    -0.934402     1.177558
C       -5.578323    -0.315575     0.567547
C       -6.760555    -0.182625     1.347136
C       -7.903253     0.379464     0.855858
C       -7.898784     0.822255    -0.431914
C       -6.767185     0.688787    -1.173054
C       -5.564619     0.089969    -0.655270
C       -4.369686    -0.032334    -1.549303
H        4.429598    -0.883361     2.154499
H        4.177089    -2.121403     0.932202
H        6.776150    -2.304249     0.771559
H        8.776042    -1.545443    -0.318215
H        8.771755     0.690177    -1.365832
H        6.778507     2.065500    -1.279491
H        4.212530     2.047656    -1.095477
H        4.445437     2.247168     0.717723
H       -4.426877    -2.038596     1.112664
H       -4.179859    -0.685804     2.209159
H       -6.783258    -0.528344     2.370872
H       -8.786980     0.462341     1.495595
H       -8.784489     1.265321    -0.833140
H       -6.789976     1.047227    -2.188316
H       -4.439729    -0.931837    -2.170282
H       -4.212737     0.892283    -2.135714
43
ex_0550 frame29 all-trans-conf7
O        3.160599     0.000000    -0.000000
C        2.100000     0.000000     0.000000
Mo       0.000000     0.000000     0.000000
C       -2.100000     0.000000     0.000000
O       -3.156246     0.000000     0.000000
C        0.000000     2.100000     0.000000
O       -0.000000     3.240799    -0.000000
C        0.000000    -2.100000     0.000000
O        0.000000    -3.240306    -0.000000
Te       0.000000     0.000000     2.920000
C        1.417102     0.641504     4.377378
C        0.645916     0.171312     5.593705
C        1.336645    -0.175912     6.784793
C        0.693823    -0.619877     7.905307
C       -0.670290    -0.723251     7.859385
C       -1.322071    -0.384709     6.717556
C       -0.643549     0.088898     5.540958
C       -1.430565     0.459929     4.329342
Te       0.000000     0.000000    -2.920000
C       -1.197914    -0.982962    -4.371032
C       -0.438647    -0.493179    -5.563783
C       -0.439129    -1.282203    -6.767476
C        0.211993    -0.900247    -7.896995
C        0.901444     0.273584    -7.899473
C        0.906630     1.018894    -6.755838
C        0.226629     0.611827    -5.575368
C        0.284627     1.476649    -4.333189
H        1.657205     1.686641     4.428365
H        2.317433     0.073497     4.194682
H        2.414227    -0.099571     6.837312
H        1.259777    -0.877529     8.792863
H       -1.194993    -1.068364     8.723294
H       -2.397791    -0.476449     6.711851
H       -1.786518     1.509524     4.392522
H       -2.296476    -0.203778     4.177730
H       -2.257013    -0.718988    -4.424577
H       -1.047906    -2.066734    -4.213119
H       -0.977453    -2.216576    -6.792382
H        0.185614    -1.516850    -8.783642
H        1.440732     0.624457    -8.782370
H        1.459129     1.947671    -6.777249
H        1.226879     1.963186    -4.170690
H       -0.487295     2.262455    -4.446405
43
ex_0550 frame30 C-trans-conf7
O        3.160599     0.000000    -0.000000
C        2.100000     0.000000     0.000000
Mo       0.000000     0.000000     0.000000
C       -2.100000     0.000000     0.000000
O       -3.156246     0.000000     0.000000
C        0.000000     2.100000     0.000000
O       -0.000000     3.240799    -0.000000
C        0.000000     0.000000     2.100000
O        0.000000    -0.000000     3.240306
Te       0.000000    -2.920000     0.000000
C        0.716407    -4.377378     1.380748
C        0.401455    -5.593705     0.534218
C        1.158938    -6.784793     0.688788
C        0.928604    -7.905307    -0.057718
C       -0.079116    -7.859385    -0.982915
C       -0.800629    -6.717556    -1.120209
C       -0.560588    -5.540958    -0.328327
C       -1.408445    -4.329342    -0.523766
Te       0.000000     0.000000    -2.920000
C       -1.197914    -0.982962    -4.371032
C       -0.438647    -0.493179    -5.563783
C       -0.439129    -1.282203    -6.767476
C        0.211993    -0.900247    -7.896995
C        0.901444     0.273584    -7.899473
C        0.906630     1.018894    -6.755838
C        0.226629     0.611827    -5.575368
C        0.284627     1.476649    -4.333189
H        0.258406    -4.428365     2.350386
H        1.775157    -4.194682     1.491548
H        1.958278    -6.837312     1.415469
H        1.532642    -8.792863     0.090023
H       -0.277813    -8.723294    -1.578680
H       -1.588980    -6.711851    -1.857835
H       -2.337480    -4.392522     0.080589
H       -1.678087    -4.177730    -1.580934
H       -2.257013    -0.718988    -4.424577
H       -1.047906    -2.066734    -4.213119
H       -0.977453    -2.216576    -6.792382
H        0.185614    -1.516850    -8.783642
H        1.440732     0.624457    -8.782370
H        1.459129     1.947671    -6.777249
H        1.226879     1.963186    -4.170690
H       -0.487295     2.262455    -4.446405
43
ex_0550 frame31 all-trans-conf5
O        3.235483    -0.000000    -0.000000
C        2.100000     0.000000     0.000000
Mo       0.000000     0.000000     0.000000
C       -2.100000     0.000000     0.000000
O       -3.235690     0.000000     0.000000
C        0.000000     2.100000     0.000000
O       -0.000000     3.155903     0.000000
C        0.000000    -2.100000     0.000000
O       -0.000000    -3.159035     0.000000
Te       0.000000     0.000000     2.920000
C       -0.372287     1.454997     4.330782
C       -0.265713     0.588823     5.541188
C       -1.026357     0.911843     6.719455
C       -0.967851     0.181914     7.857766
C       -0.156801    -0.920174     7.903298
C        0.560084    -1.229332     6.782002
C        0.487544    -0.457999     5.591065
C        1.295152    -0.862661     4.374967
Te       0.000000     0.000000    -2.920000
C       -1.130477     0.988018    -4.336121
C       -0.413210     0.504044    -5.579065
C       -0.424804     1.295554    -6.760397
C        0.213322     0.919977    -7.904935
C        0.885402    -0.274153    -7.900190
C        0.887432    -1.022215    -6.773128
C        0.207393    -0.625048    -5.567638
C        0.250289    -1.526013    -4.373687
H        0.321108     2.317033     4.391935
H       -1.382461     1.860760     4.181173
H       -1.675107     1.777717     6.711706
H       -1.549874     0.457888     8.723653
H       -0.079424    -1.531234     8.791280
H        1.195941    -2.101988     6.833463
H        1.308605    -1.932729     4.195594
H        2.309236    -0.513503     4.429971
H       -2.202262     0.715639    -4.449194
H       -1.086847     2.047048    -4.178700
H       -0.951649     2.241037    -6.779163
H        0.182162     1.554092    -8.782238
H        1.403848    -0.605798    -8.788924
H        1.424934    -1.961185    -6.792635
H        1.264070    -1.940759    -4.217542
H       -0.510781    -2.310868    -4.431430
43
ex_0550 frame32 C-trans-conf5
O        3.235483    -0.000000    -0.000000
C        2.100000     0.000000     0.000000
Mo       0.000000     0.000000     0.000000
C       -2.100000     0.000000     0.000000
O       -3.235690     0.000000     0.000000
C        0.000000     2.100000     0.000000
O       -0.000000     3.155903     0.000000
C        0.000000     0.000000     2.100000
O       -0.000000     0.000000     3.159035
Te       0.000000    -2.920000     0.000000
C       -1.501827    -4.330782    -0.011383
C       -0.635449    -5.541188    -0.116280
C       -1.131945    -6.719455    -0.776895
C       -0.409373    -7.857766    -0.895679
C        0.855443    -7.903298    -0.373530
C        1.327958    -6.782002     0.247946
C        0.561823    -5.591065     0.363067
C        1.148861    -4.374967     1.049629
Te       0.000000     0.000000    -2.920000
C       -1.130477     0.988018    -4.336121
C       -0.413210     0.504044    -5.579065
C       -0.424804     1.295554    -6.760397
C        0.213322     0.919977    -7.904935
C        0.885402    -0.274153    -7.900190
C        0.887432    -1.022215    -6.773128
C        0.207393    -0.625048    -5.567638
C        0.250289    -1.526013    -4.373687
H       -2.171770    -4.391935     0.869004
H       -2.138657    -4.181173    -0.894299
H       -2.128443    -6.711706    -1.198328
H       -0.817240    -8.723653    -1.394234
H        1.467174    -8.791280    -0.445405
H        2.327939    -6.833463     0.655232
H        2.190749    -4.195594     0.805300
H        1.053874    -4.429971     2.117925
H       -2.202262     0.715639    -4.449194
H       -1.086847     2.047048    -4.178700
H       -0.951649     2.241037    -6.779163
H        0.182162     1.554092    -8.782238
H        1.403848    -0.605798    -8.788924
H        1.424934    -1.961185    -6.792635
H        1.264070    -1.940759    -4.217542
H       -0.510781    -2.310868    -4.431430
43
ex_0550 frame33 all-trans-conf5
O        3.235483    -0.000000    -0.000000
C        2.100000     0.000000     0.000000
Mo       0.000000     0.000000     0.000000
C       -2.100000     0.000000     0.000000
O       -3.235690     0.000000     0.000000
C        0.000000     2.100000     0.000000
O       -0.000000     3.155903     0.000000
C        0.000000    -2.100000     0.000000
O       -0.000000    -3.159035     0.000000
Te       0.000000     0.000000     2.920000
C       -0.372287     1.454997     4.330782
C       -0.265835     0.588732     5.541134
C       -1.026357     0.911843     6.719455
C       -0.967851     0.181914     7.857766
C       -0.156801    -0.920174     7.903298
C        0.560084    -1.229332     6.782002
C        0.487500    -0.458032     5.591046
C        1.295152    -0.862661     4.374967
Te       0.000000     0.000000    -2.920000
C       -1.130477     0.988018    -4.336121
C       -0.413403     0.503937    -5.579135
C       -0.424804     1.295554    -6.760397
C        0.213322     0.919977    -7.904935
C        0.885402    -0.274153    -7.900190
C        0.887432    -1.022215    -6.773128
C        0.207322    -0.625087    -5.567665
C        0.250289    -1.526013    -4.373687
H        0.321108     2.317033     4.391935
H       -1.382461     1.860760     4.181173
H       -1.675107     1.777717     6.711706
H       -1.549874     0.457888     8.723653
H       -0.079424    -1.531234     8.791280
H        1.195941    -2.101988     6.833463
H        1.308605    -1.932729     4.195594
H        2.309236    -0.513503     4.429971
H       -2.202262     0.715639    -4.449194
H       -1.086847     2.047048    -4.178700
H       -0.951649     2.241037    -6.779163
H        0.182162     1.554092    -8.782238
H        1.403848    -0.605798    -8.788924
H        1.424934    -1.961185    -6.792635
H        1.264070    -1.940759    -4.217542
H       -0.510781    -2.310868    -4.431430
43
ex_0550 frame34 C-trans-conf5
O        3.235483    -0.000000    -0.000000
C        2.100000     0.000000     0.000000
Mo       0.000000     0.000000     0.000000
C       -2.100000     0.000000     0.000000
O       -3.235690     0.000000     0.000000
C        0.000000     2.100000     0.000000
O       -0.000000     3.155903     0.000000
C        0.000000     0.000000     2.100000
O       -0.000000     0.000000     3.159035
Te       0.000000    -2.920000     0.000000
C       -1.501827    -4.330782    -0.011383
C       -0.635390    -5.541134    -0.116421
C       -1.131945    -6.719455    -0.776895
C       -0.409373    -7.857766    -0.895679
C        0.855443    -7.903298    -0.373530
C        1.327958    -6.782002     0.247946
C        0.561844    -5.591046     0.363016
C        1.148861    -4.374967     1.049629
Te       0.000000     0.000000    -2.920000
C       -1.130477     0.988018    -4.336121
C       -0.413403     0.503937    -5.579135
C       -0.424804     1.295554    -6.760397
C        0.213322     0.919977    -7.904935
C        0.885402    -0.274153    -7.900190
C        0.887432    -1.022215    -6.773128
C        0.207322    -0.625087    -5.567665
C        0.250289    -1.526013    -4.373687
H       -2.171770    -4.391935     0.869004
H       -2.138657    -4.181173    -0.894299
H       -2.128443    -6.711706    -1.198328
H       -0.817240    -8.723653    -1.394234
H        1.467174    -8.791280    -0.445405
H        2.327939    -6.833463     0.655232
H        2.190749    -4.195594     0.805300
H        1.053874    -4.429971     2.117925
H       -2.202262     0.715639    -4.449194
H       -1.086847     2.047048    -4.178700
H       -0.951649     2.241037    -6.779163
H        0.182162     1.554092    -8.782238
H        1.403848    -0.605798    -8.788924
H        1.424934    -1.961185    -6.792635
H        1.264070    -1.940759    -4.217542
H       -0.510781    -2.310868    -4.431430
43
ex_0550 frame35 all-trans-conf9
O        3.153204     0.000000     0.000000
C        2.100000     0.000000     0.000000
Mo       0.000000     0.000000     0.000000
C       -2.100000     0.000000     0.000000
O       -3.158958    -0.000000    -0.000000
C        0.000000     2.100000     0.000000
O        0.000000     3.234644    -0.000000
C        0.000000    -2.100000     0.000000
O       -0.000000    -3.235180     0.000000
Te       0.000000     0.000000     2.920000
C        1.258037     0.826369     4.336396
C        0.476617     0.444227     5.576890
C        0.583342     1.229090     6.757188
C       -0.105152     0.944751     7.895553
C       -0.929169    -0.151002     7.889368
C       -1.021375    -0.895768     6.762785
C       -0.286062    -0.595701     5.561314
C       -0.436583    -1.486794     4.370661
Te       0.000000     0.000000    -2.920000
C        0.471320     1.411896    -4.336962
C        0.303374     0.569423    -5.559629
C        1.067732     0.861535    -6.740700
C        0.953315     0.144678    -7.889292
C        0.079085    -0.904487    -7.929009
C       -0.640994    -1.183498    -6.806313
C       -0.513026    -0.430023    -5.606213
C       -1.328377    -0.795525    -4.388294
H        1.347694     1.885074     4.178726
H        2.284129     0.415038     4.433972
H        1.231496     2.098597     6.776745
H        0.002139     1.575030     8.779877
H       -1.494321    -0.411513     8.773631
H       -1.677588    -1.755194     6.780670
H        0.254467    -2.329854     4.469429
H       -1.486533    -1.793158     4.218337
H       -0.151243     2.327733    -4.396674
H        1.511565     1.734153    -4.195298
H        1.765870     1.686315    -6.735670
H        1.529956     0.383830    -8.756583
H       -0.037746    -1.496967    -8.827350
H       -1.328407    -2.017720    -6.856566
H       -2.329973    -0.416573    -4.433336
H       -1.354235    -1.873259    -4.207884
43
ex_0550 frame36 C-trans-conf9
O        3.153204     0.000000     0.000000
C        2.100000     0.000000     0.000000
Mo       0.000000     0.000000     0.000000
C       -2.100000     0.000000     0.000000
O       -3.158958    -0.000000    -0.000000
C        0.000000     2.100000     0.000000
O        0.000000     3.234644    -0.000000
C        0.000000     0.000000     2.100000
O       -0.000000     0.000000     3.235180
Te       0.000000    -2.920000     0.000000
C       -0.661398    -4.336396     1.352071
C       -0.380682    -5.576891     0.528754
C       -1.145862    -6.757188     0.733451
C       -0.950472    -7.895553     0.014635
C        0.032811    -7.889368    -0.940787
C        0.760042    -6.762785    -1.126030
C        0.554944    -5.561315    -0.358788
C        1.419994    -4.370661    -0.620306
Te       0.000000     0.000000    -2.920000
C        0.471320     1.411896    -4.336962
C        0.303374     0.569423    -5.559629
C        1.067732     0.861535    -6.740700
C        0.953315     0.144678    -7.889292
C        0.079085    -0.904487    -7.929009
C       -0.640994    -1.183498    -6.806313
C       -0.513026    -0.430023    -5.606213
C       -1.328377    -0.795525    -4.388294
H       -1.700389    -4.178726     1.574313
H       -0.124148    -4.433972     2.318208
H       -1.926843    -6.776745     1.485923
H       -1.562226    -8.779877     0.200428
H        0.220093    -8.773631    -1.534242
H        1.530007    -6.780670    -1.885229
H        2.343353    -4.469429    -0.040902
H        1.591724    -4.218337    -1.700474
H       -0.151243     2.327733    -4.396674
H        1.511565     1.734153    -4.195298
H        1.765870     1.686315    -6.735670
H        1.529956     0.383830    -8.756583
H       -0.037746    -1.496967    -8.827350
H       -1.328407    -2.017720    -6.856566
H       -2.329973    -0.416573    -4.433336
H       -1.354235    -1.873259    -4.207884
43
ex_0550 frame37 all-trans-conf9
O        3.153204     0.000000     0.000000
C        2.100000     0.000000     0.000000
Mo       0.000000     0.000000     0.000000
C       -2.100000     0.000000     0.000000
O       -3.158958    -0.000000    -0.000000
C        0.000000     2.100000     0.000000
O        0.000000     3.234644    -0.000000
C        0.000000    -2.100000     0.000000
O       -0.000000    -3.235180     0.000000
Te       0.000000     0.000000     2.920000
C        1.258037     0.826369     4.336396
C        0.476816     0.444080     5.576970
C        0.583342     1.229090     6.757188
C       -0.105152     0.944751     7.895553
C       -0.929169    -0.151002     7.889368
C       -1.021375    -0.895768     6.762785
C       -0.285989    -0.595755     5.561345
C       -0.436583    -1.486794     4.370661
Te       0.000000     0.000000    -2.920000
C        0.471320     1.411896    -4.336962
C        0.303467     0.569345    -5.559588
C        1.067732     0.861535    -6.740700
C        0.953315     0.144678    -7.889292
C        0.079085    -0.904487    -7.929009
C       -0.640994    -1.183498    -6.806313
C       -0.512992    -0.430051    -5.606199
C       -1.328377    -0.795525    -4.388294
H        1.347694     1.885074     4.178726
H        2.284129     0.415038     4.433972
H        1.231496     2.098597     6.776745
H        0.002139     1.575030     8.779877
H       -1.494321    -0.411513     8.773631
H       -1.677588    -1.755194     6.780670
H        0.254467    -2.329854     4.469429
H       -1.486533    -1.793158     4.218337
H       -0.151243     2.327733    -4.396674
H        1.511565     1.734153    -4.195298
H        1.765870     1.686315    -6.735670
H        1.529956     0.383830    -8.756583
H       -0.037746    -1.496967    -8.827350
H       -1.328407    -2.017720    -6.856566
H       -2.329973    -0.416573    -4.433336
H       -1.354235    -1.873259    -4.207884
43
ex_0550 frame38 all-trans-conf3
O        3.235039     0.000000     0.000000
C        2.100000     0.000000     0.000000
Mo       0.000000     0.000000     0.000000
C       -2.100000     0.000000     0.000000
O       -3.156665    -0.000000    -0.000000
C        0.000000     2.100000     0.000000
O       -0.000000     3.237544    -0.000000
C        0.000000    -2.100000     0.000000
O       -0.000000    -3.154576    -0.000000
Te       0.000000     0.000000     2.920000
C        0.235927     1.522330     4.363979
C       -0.010826     0.666443     5.588707
C       -0.524529     1.248029     6.777690
C       -0.778323     0.516332     7.904447
C       -0.514113    -0.828375     7.860323
C       -0.022676    -1.368460     6.728386
C        0.250664    -0.598076     5.543163
C        0.811013    -1.263348     4.333909
Te       0.000000     0.000000    -2.920000
C        1.485451     0.123573    -4.335200
C        0.630593     0.160638    -5.583177
C        1.115774     0.782424    -6.766454
C        0.386202     0.856210    -7.910098
C       -0.864616     0.303001    -7.914443
C       -1.321010    -0.293049    -6.782556
C       -0.544226    -0.374663    -5.575320
C       -1.117274    -1.064487    -4.378081
H        1.190249     2.003067     4.483540
H       -0.525309     2.276436     4.195276
H       -0.736826     2.307116     6.825189
H       -1.175764     1.002178     8.794538
H       -0.706115    -1.423457     8.734062
H        0.177854    -2.435680     6.720681
H        0.415967    -2.278333     4.183703
H        1.913965    -1.345959     4.392066
H        2.175335    -0.749366    -4.473673
H        2.090107     0.995623    -4.183687
H        2.105895     1.226239    -6.780781
H        0.790206     1.343686    -8.797441
H       -1.479844     0.338976    -8.802499
H       -2.311949    -0.722927    -6.809228
H       -0.965504    -2.146207    -4.454005
H       -2.174542    -0.780943    -4.220480
43
ex_0550 frame39 C-trans-conf3
O        3.235039     0.000000     0.000000
C        2.100000     0.000000     0.000000
Mo       0.000000     0.000000     0.000000
C       -2.100000     0.000000     0.000000
O       -3.156665    -0.000000    -0.000000
C        0.000000     2.100000     0.000000
O       -0.000000     3.237544    -0.000000
C        0.000000     0.000000     2.100000
O        0.000000    -0.000000     3.154576
Te       0.000000    -2.920000     0.000000
C        1.539722    -4.363979    -0.049051
C        0.660180    -5.588707     0.091789
C        1.174981    -6.777690     0.672404
C        0.417851    -7.904447     0.835336
C       -0.884746    -7.860323     0.409562
C       -1.361061    -6.728386    -0.143905
C       -0.563156    -5.543163    -0.321534
C       -1.155348    -4.333909    -0.958625
Te       0.000000     0.000000    -2.920000
C        1.485451     0.123573    -4.335200
C        0.630593     0.160638    -5.583177
C        1.115774     0.782424    -6.766454
C        0.386202     0.856210    -7.910098
C       -0.864616     0.303001    -7.914443
C       -1.321010    -0.293049    -6.782556
C       -0.544226    -0.374663    -5.575320
C       -1.117274    -1.064487    -4.378081
H        2.132943    -4.483540    -0.937830
H        2.195661    -4.195276     0.798239
H        2.200391    -6.825189     1.011917
H        0.851760    -8.794538     1.288909
H       -1.498760    -8.734062     0.527773
H       -2.395975    -6.720681    -0.472728
H       -2.210840    -4.183703    -0.689939
H       -1.103220    -4.392066    -2.063437
H        2.175335    -0.749366    -4.473673
H        2.090107     0.995623    -4.183687
H        2.105895     1.226239    -6.780781
H        0.790206     1.343686    -8.797441
H       -1.479844     0.338976    -8.802499
H       -2.311949    -0.722927    -6.809228
H       -0.965504    -2.146207    -4.454005
H       -2.174542    -0.780943    -4.220480
