97
ex_0359 frame0 OC-6-1
Co       0.000000     0.000000     0.000000
C        5.741540    -2.310536     2.961804
C        5.695785    -1.712857     1.763427
C        5.340729    -0.271215     1.544496
N        4.222987    -0.134355     0.686250
C        4.275075     0.150410    -0.725698
C        2.911904     0.228194    -1.140305
N        2.090000     0.000000     0.000000
C        2.862426    -0.222534     1.111445
H        5.516207    -1.778282     3.881076
H        6.005459    -3.361159     3.046771
H        5.931552    -2.297320     0.875640
H        5.091596     0.240981     2.480928
H        6.186470     0.256113     1.089469
H        5.164128     0.256079    -1.233791
H        2.527313     0.410039    -2.057167
H        2.571360    -0.411669     2.038616
C       -5.741540     0.799808    -3.670309
C       -5.695785     0.260593    -2.444514
C       -5.340729     1.014079    -1.196106
N       -4.222987     0.441720    -0.542101
C       -4.275075    -0.461784     0.579669
C       -2.911904    -0.730822     0.904582
N       -2.090000     0.000000     0.000000
C       -2.862426     0.712252    -0.881775
H       -5.516207     1.846932    -3.848880
H       -6.005459     0.193348    -4.532418
H       -5.931552    -0.795706    -2.326214
H       -5.091596     2.061571    -1.401072
H       -6.186470     1.001411    -0.499712
H       -5.164128    -0.784869     0.985798
H       -2.527313    -1.319484     1.630653
H       -2.571360     1.304179    -1.620045
C       -2.881616     5.741540    -2.409802
C       -2.045335     5.695785    -1.363877
C       -0.589887     5.340729    -1.452948
N       -0.275638     4.222987    -0.642662
C        0.299628     4.275075     0.677852
C        0.462846     2.911904     1.066838
N        0.000000     2.090000     0.000000
C       -0.451243     2.862426    -1.039812
H       -2.554539     5.516207    -3.420434
H       -3.926619     6.005459    -2.271974
H       -2.430073     5.931552    -0.373049
H       -0.286027     5.091596    -2.476139
H        0.021324     6.186470    -1.118964
H        0.509763     5.164128     1.152371
H        0.833398     2.527313     1.924972
H       -0.831092     2.571360    -1.906493
C       -3.059072    -5.741540    -2.180123
C       -1.835940    -5.695785    -1.634894
C       -1.554791    -5.340729    -0.204084
N       -0.691424    -4.222987    -0.104514
C        0.731530    -4.275075     0.118846
C        1.149117    -2.911904     0.178605
N        0.000000    -2.090000     0.000000
C       -1.120038    -2.862426    -0.174199
H       -3.954435    -5.516207    -1.608563
H       -3.189451    -6.005459    -3.226081
H       -0.974292    -5.931552    -2.257250
H       -2.468167    -5.091596     0.348179
H       -1.077357    -6.186470     0.303047
H        1.243722    -5.164128     0.202416
H        2.072993    -2.527313     0.320579
H       -2.054530    -2.571360    -0.323011
C       -3.128457     2.079309     5.741559
C       -2.182533     1.131389     5.695796
C       -0.745631     1.379514     5.340730
N       -0.344435     0.608569     4.222987
C        0.372144    -0.640913     4.275075
C        0.577024    -1.009659     2.911904
N        0.000000     0.000000     2.090000
C       -0.562529     0.984069     2.862426
H       -4.152043     1.827728     6.005488
H       -2.914167     3.119711     5.516226
H       -2.456304     0.104349     5.931565
H       -0.101480     1.114561     6.186467
H       -0.555797     2.429854     5.091595
H        0.633042    -1.089529     5.164128
H        1.039427    -1.821993     2.527313
H       -1.035116     1.803875     2.571360
C        3.137877     2.065081    -5.741539
C        2.187659     1.121465    -5.695784
C        0.751895     1.376110    -5.340730
N        0.347196     0.606997    -4.222987
C       -0.375052    -0.639216    -4.275075
C       -0.581604    -1.007028    -2.911904
N        0.000000     0.000000    -2.090000
C        0.566993     0.981504    -2.862426
H        2.928313     3.106446    -5.516207
H        4.160313     1.808854    -6.005457
H        2.456769     0.093192    -5.931547
H        0.566829     2.427301    -5.091599
H        0.106552     1.114083    -6.186470
H       -0.637985    -1.086643    -5.164128
H       -1.047692    -1.817253    -2.527313
H        1.043296     1.799156    -2.571360
97
ex_0359 frame1 OC-6-1-conf8
Co       0.000000     0.000000     0.000000
C        5.741540    -2.310536     2.961804
C        5.695785    -1.712857     1.763427
C        5.340729    -0.271215     1.544496
N        4.222987    -0.134355     0.686250
C        4.275075     0.150410    -0.725698
C        2.911904     0.228194    -1.140305
N        2.090000     0.000000     0.000000
C        2.862426    -0.222534     1.111445
H        5.516207    -1.778282     3.881076
H        6.005459    -3.361159     3.046771
H        5.931552    -2.297320     0.875640
H        5.091596     0.240981     2.480928
H        6.186470     0.256113     1.089469
H        5.164128     0.256079    -1.233791
H        2.527313     0.410039    -2.057167
H        2.571360    -0.411669     2.038616
C       -5.741540     0.799808    -3.670309
C       -5.695785     0.260593    -2.444514
C       -5.340729     1.014079    -1.196106
N       -4.222987     0.441720    -0.542101
C       -4.275075    -0.461784     0.579669
C       -2.911904    -0.730822     0.904582
N       -2.090000     0.000000     0.000000
C       -2.862426     0.712252    -0.881775
H       -5.516207     1.846932    -3.848880
H       -6.005459     0.193348    -4.532418
H       -5.931552    -0.795706    -2.326214
H       -5.091596     2.061571    -1.401072
H       -6.186470     1.001411    -0.499712
H       -5.164128    -0.784869     0.985798
H       -2.527313    -1.319484     1.630653
H       -2.571360     1.304179    -1.620045
C       -3.527758     5.741540     1.290652
C       -2.203820     5.695785     1.089374
C       -1.553234     5.340729    -0.215617
N       -0.694381     4.222987    -0.082622
C        0.743310     4.280169     0.080047
C        1.159331     2.911869     0.132958
N        0.000000     2.090000     0.000000
C       -1.090963     2.877217    -0.112789
H       -4.239452     5.516207     0.502078
H       -3.930897     6.005459     2.264565
H       -1.538107     5.931552     1.917981
H       -2.287413     5.091596    -0.990363
H       -0.958390     6.186470    -0.577949
H        1.252864     5.164128     0.134718
H        2.083774     2.527313     0.240742
H       -2.059648     2.630772    -0.087865
C       -3.059072    -5.741540    -2.180123
C       -1.835940    -5.695785    -1.634894
C       -1.554791    -5.340729    -0.204084
N       -0.691424    -4.222987    -0.104514
C        0.731530    -4.275075     0.118846
C        1.149117    -2.911904     0.178605
N        0.000000    -2.090000     0.000000
C       -1.120038    -2.862426    -0.174199
H       -3.954435    -5.516207    -1.608563
H       -3.189451    -6.005459    -3.226081
H       -0.974292    -5.931552    -2.257250
H       -2.468167    -5.091596     0.348179
H       -1.077357    -6.186470     0.303047
H        1.243722    -5.164128     0.202416
H        2.072993    -2.527313     0.320579
H       -2.054530    -2.571360    -0.323011
C       -3.128457     2.079309     5.741559
C       -2.182533     1.131389     5.695796
C       -0.745631     1.379514     5.340730
N       -0.344435     0.608569     4.222987
C        0.372144    -0.640913     4.275075
C        0.577024    -1.009659     2.911904
N        0.000000     0.000000     2.090000
C       -0.562529     0.984069     2.862426
H       -4.152043     1.827728     6.005488
H       -2.914167     3.119711     5.516226
H       -2.456304     0.104349     5.931565
H       -0.101480     1.114561     6.186467
H       -0.555797     2.429854     5.091595
H        0.633042    -1.089529     5.164128
H        1.039427    -1.821993     2.527313
H       -1.035116     1.803875     2.571360
C        2.006442     3.175697    -5.741540
C        1.530151     1.924109    -5.695785
C        0.117212     1.563741    -5.340729
N        0.065860     0.696171    -4.222987
C       -0.077937    -0.737012    -4.275075
C       -0.114356    -1.157278    -2.911904
N        0.000000     0.000000    -2.090000
C        0.111576     1.127999    -2.862426
H        1.385923     4.037853    -5.516207
H        3.043519     3.364103    -6.005459
H        2.199510     1.098444    -5.931552
H       -0.485044     2.444956    -5.091596
H       -0.362554     1.058816    -6.186470
H       -0.132863    -1.253062    -5.164128
H       -0.204677    -2.087625    -2.527313
H        0.278986     2.027477    -2.634580
