55
ex_0547 frame0 OC-6-chelate-1
W        0.000000     0.000000     0.000000
C        0.757006     6.027049    -2.229222
O        0.651478     4.770017    -1.566428
C        1.708699     3.839413    -1.660043
O        2.667938     4.254109    -2.354423
C        1.647682     2.578854    -0.956694
C        2.564177     1.646805    -0.926271
C        3.821574     1.612797    -1.631285
O        4.299633     2.513097    -2.351047
O        4.668722     0.467120    -1.550914
C        5.920063     0.525004    -2.222702
Se       2.819315    -0.062174     0.000000
Se      -0.062174     2.819315    -0.000000
H        0.807721     5.919633    -3.325927
H       -0.174388     6.579644    -1.967083
H        1.643490     6.607187    -1.852521
H        5.830539     0.423853    -3.305066
H        6.351092     1.519398    -1.959903
H        6.593371    -0.244365    -1.848942
Se      -0.214614     0.000000     2.811822
C       -1.593868     1.191638     2.532668
C       -1.126453     2.030338     3.567200
O        0.091327     1.890054     4.012936
O       -1.810777     3.028872     4.206441
C       -1.344154     3.768727     5.298388
C       -2.645511     1.189809     1.768855
C       -3.801118     2.067173     2.021826
O       -4.854837     1.979181     1.295129
O       -3.874985     3.018446     3.003114
C       -5.051454     3.754315     3.149231
Se      -2.811822    -0.000000     0.214614
H       -1.105914     3.109074     6.144148
H       -0.435125     4.357163     5.032856
H       -2.127171     4.486833     5.616404
H       -4.954798     4.467232     3.975299
H       -5.874221     3.054397     3.402340
H       -5.263288     4.331371     2.227404
Se       0.000000    -0.214614    -2.811822
C        1.191638    -1.593868    -2.532668
C        2.030338    -1.126453    -3.567200
O        1.890054     0.091327    -4.012936
O        3.028872    -1.810777    -4.206441
C        3.768727    -1.344154    -5.298388
C        1.189809    -2.645511    -1.768855
C        2.067173    -3.801118    -2.021826
O        1.979181    -4.854837    -1.295129
O        3.018446    -3.874985    -3.003114
C        3.754315    -5.051454    -3.149231
Se       0.000000    -2.811822    -0.214614
H        3.109074    -1.105914    -6.144148
H        4.357163    -0.435125    -5.032856
H        4.486833    -2.127171    -5.616404
H        4.467232    -4.954798    -3.975299
H        3.054397    -5.874221    -3.402340
H        4.331371    -5.263288    -2.227404
55
ex_0547 frame1 OC-6-chelate-1-conf2
W        0.000000     0.000000     0.000000
C        0.757006     6.027049    -2.229222
O        0.651478     4.770017    -1.566428
C        1.708699     3.839413    -1.660043
O        2.667938     4.254109    -2.354423
C        1.647682     2.578854    -0.956694
C        2.564177     1.646805    -0.926271
C        3.821574     1.612797    -1.631285
O        4.299633     2.513097    -2.351047
O        4.668722     0.467120    -1.550914
C        5.920063     0.525004    -2.222702
Se       2.819315    -0.062174     0.000000
Se      -0.062174     2.819315    -0.000000
H        0.807721     5.919633    -3.325927
H       -0.174388     6.579644    -1.967083
H        1.643490     6.607187    -1.852521
H        5.830539     0.423853    -3.305066
H        6.351092     1.519398    -1.959903
H        6.593371    -0.244365    -1.848942
Se      -0.214614     0.000000     2.811822
C       -1.593868     1.191638     2.532668
C       -1.126453     2.030338     3.567200
O        0.091327     1.890054     4.012936
O       -1.810777     3.028872     4.206441
C       -1.344154     3.768727     5.298388
C       -2.645511     1.189809     1.768855
C       -3.801118     2.067173     2.021826
O       -4.854837     1.979181     1.295129
O       -3.874985     3.018446     3.003114
C       -5.051454     3.754315     3.149231
Se      -2.811822    -0.000000     0.214614
H       -1.105914     3.109074     6.144148
H       -0.435125     4.357163     5.032856
H       -2.127171     4.486833     5.616404
H       -4.954798     4.467232     3.975299
H       -5.874221     3.054397     3.402340
H       -5.263288     4.331371     2.227404
Se      -0.000000    -0.194425    -2.813290
C       -1.295162    -1.667822    -2.580456
C       -2.179134    -1.819575    -3.721150
O       -3.094566    -2.668707    -3.835562
O       -2.070546    -0.971356    -4.860050
C       -2.975505    -1.170434    -5.955382
C       -1.250474    -2.499989    -1.574018
C       -2.129313    -3.530107    -1.166421
O       -3.082351    -4.011448    -1.825096
O       -1.987784    -4.141133     0.113031
C       -2.855704    -5.244324     0.429951
Se      -0.000000    -2.813290    -0.194425
H       -2.711931    -2.162787    -6.379241
H       -4.030395    -1.157955    -5.616111
H       -2.830965    -0.350787    -6.689653
H       -3.899541    -4.979510     0.196272
H       -2.803930    -5.323771     1.552827
H       -2.501007    -6.193031     0.029709
55
ex_0547 frame2 OC-6-chelate-1-conf3
W        0.000000     0.000000     0.000000
C        0.757006     6.027049    -2.229222
O        0.651478     4.770017    -1.566428
C        1.708699     3.839413    -1.660043
O        2.667938     4.254109    -2.354423
C        1.647682     2.578854    -0.956694
C        2.564177     1.646805    -0.926271
C        3.821574     1.612797    -1.631285
O        4.299633     2.513097    -2.351047
O        4.668722     0.467120    -1.550914
C        5.920063     0.525004    -2.222702
Se       2.819315    -0.062174     0.000000
Se      -0.062174     2.819315    -0.000000
H        0.807721     5.919633    -3.325927
H       -0.174388     6.579644    -1.967083
H        1.643490     6.607187    -1.852521
H        5.830539     0.423853    -3.305066
H        6.351092     1.519398    -1.959903
H        6.593371    -0.244365    -1.848942
Se      -2.813290    -0.000000     0.194425
C       -2.580456     1.295162     1.667822
C       -3.721150     2.179134     1.819575
O       -3.835562     3.094566     2.668707
O       -4.860050     2.070546     0.971356
C       -5.955382     2.975505     1.170434
C       -1.574018     1.250474     2.499989
C       -1.166421     2.129313     3.530107
O       -1.825096     3.082351     4.011448
O        0.113031     1.987784     4.141133
C        0.429951     2.855704     5.244324
Se      -0.194425     0.000000     2.813290
H       -6.379241     2.711931     2.162787
H       -5.616111     4.030395     1.157955
H       -6.689653     2.830965     0.350787
H        0.196272     3.899541     4.979510
H        1.552827     2.803930     5.323771
H        0.029709     2.501007     6.193031
Se       0.000000    -0.214614    -2.811822
C        1.191638    -1.593868    -2.532668
C        2.030338    -1.126453    -3.567200
O        1.890054     0.091327    -4.012936
O        3.028872    -1.810777    -4.206441
C        3.768727    -1.344154    -5.298388
C        1.189809    -2.645511    -1.768855
C        2.067173    -3.801118    -2.021826
O        1.979181    -4.854837    -1.295129
O        3.018446    -3.874985    -3.003114
C        3.754315    -5.051454    -3.149231
Se       0.000000    -2.811822    -0.214614
H        3.109074    -1.105914    -6.144148
H        4.357163    -0.435125    -5.032856
H        4.486833    -2.127171    -5.616404
H        4.467232    -4.954798    -3.975299
H        3.054397    -5.874221    -3.402340
H        4.331371    -5.263288    -2.227404
55
ex_0547 frame3 OC-6-chelate-1-conf5
W        0.000000     0.000000     0.000000
C        0.757006     6.027049    -2.229222
O        0.651478     4.770017    -1.566428
C        1.708699     3.839413    -1.660043
O        2.667938     4.254109    -2.354423
C        1.647682     2.578854    -0.956694
C        2.564177     1.646805    -0.926271
C        3.821574     1.612797    -1.631285
O        4.299633     2.513097    -2.351047
O        4.668722     0.467120    -1.550914
C        5.920063     0.525004    -2.222702
Se       2.819315    -0.062174     0.000000
Se      -0.062174     2.819315    -0.000000
H        0.807721     5.919633    -3.325927
H       -0.174388     6.579644    -1.967083
H        1.643490     6.607187    -1.852521
H        5.830539     0.423853    -3.305066
H        6.351092     1.519398    -1.959903
H        6.593371    -0.244365    -1.848942
Se      -0.214614     0.000000     2.811822
C       -1.593868     1.191638     2.532668
C       -1.126453     2.030338     3.567200
O        0.091327     1.890054     4.012936
O       -1.810777     3.028872     4.206441
C       -1.344154     3.768727     5.298388
C       -2.645511     1.189809     1.768855
C       -3.801118     2.067173     2.021826
O       -4.854837     1.979181     1.295129
O       -3.874985     3.018446     3.003114
C       -5.051454     3.754315     3.149231
Se      -2.811822    -0.000000     0.214614
H       -1.105914     3.109074     6.144148
H       -0.435125     4.357163     5.032856
H       -2.127171     4.486833     5.616404
H       -4.954798     4.467232     3.975299
H       -5.874221     3.054397     3.402340
H       -5.263288     4.331371     2.227404
Se      -0.000000    -2.819991    -0.007130
C       -1.109576    -2.614738    -1.657405
C       -1.918526    -3.819002    -1.783754
O       -2.723107    -4.083847    -2.692960
O       -1.843057    -4.855296    -0.807239
C       -2.695166    -5.969706    -1.089530
C       -1.079232    -1.638256    -2.559743
C       -1.893290    -1.493997    -3.738976
O       -1.798198    -0.408903    -4.446006
O       -2.804700    -2.380106    -4.256099
C       -3.514259    -2.163495    -5.454811
Se      -0.000000    -0.007130    -2.819991
H       -3.742771    -5.579472    -1.079064
H       -2.460164    -6.448649    -2.043218
H       -2.534564    -6.693009    -0.269452
H       -4.006393    -3.125590    -5.705549
H       -2.829057    -1.910156    -6.299969
H       -4.278101    -1.381968    -5.295949
55
ex_0547 frame4 OC-6-chelate-1-conf6
W        0.000000     0.000000     0.000000
C        0.757006     6.027049    -2.229222
O        0.651478     4.770017    -1.566428
C        1.708699     3.839413    -1.660043
O        2.667938     4.254109    -2.354423
C        1.647682     2.578854    -0.956694
C        2.564177     1.646805    -0.926271
C        3.821574     1.612797    -1.631285
O        4.299633     2.513097    -2.351047
O        4.668722     0.467120    -1.550914
C        5.920063     0.525004    -2.222702
Se       2.819315    -0.062174     0.000000
Se      -0.062174     2.819315    -0.000000
H        0.807721     5.919633    -3.325927
H       -0.174388     6.579644    -1.967083
H        1.643490     6.607187    -1.852521
H        5.830539     0.423853    -3.305066
H        6.351092     1.519398    -1.959903
H        6.593371    -0.244365    -1.848942
Se      -2.813290    -0.000000     0.194425
C       -2.580456     1.295162     1.667822
C       -3.721150     2.179134     1.819575
O       -3.835562     3.094566     2.668707
O       -4.860050     2.070546     0.971356
C       -5.955382     2.975505     1.170434
C       -1.574018     1.250474     2.499989
C       -1.166421     2.129313     3.530107
O       -1.825096     3.082351     4.011448
O        0.113031     1.987784     4.141133
C        0.429951     2.855704     5.244324
Se      -0.194425     0.000000     2.813290
H       -6.379241     2.711931     2.162787
H       -5.616111     4.030395     1.157955
H       -6.689653     2.830965     0.350787
H        0.196272     3.899541     4.979510
H        1.552827     2.803930     5.323771
H        0.029709     2.501007     6.193031
Se      -0.000000    -0.194425    -2.813290
C       -1.295162    -1.667822    -2.580456
C       -2.179134    -1.819575    -3.721150
O       -3.094566    -2.668707    -3.835562
O       -2.070546    -0.971356    -4.860050
C       -2.975505    -1.170434    -5.955382
C       -1.250474    -2.499989    -1.574018
C       -2.129313    -3.530107    -1.166421
O       -3.082351    -4.011448    -1.825096
O       -1.987784    -4.141133     0.113031
C       -2.855704    -5.244324     0.429951
Se      -0.000000    -2.813290    -0.194425
H       -2.711931    -2.162787    -6.379241
H       -4.030395    -1.157955    -5.616111
H       -2.830965    -0.350787    -6.689653
H       -3.899541    -4.979510     0.196272
H       -2.803930    -5.323771     1.552827
H       -2.501007    -6.193031     0.029709
55
ex_0547 frame5 OC-6-chelate-1-conf7
W        0.000000     0.000000     0.000000
C        0.757006     6.027049    -2.229222
O        0.651478     4.770017    -1.566428
C        1.708699     3.839413    -1.660043
O        2.667938     4.254109    -2.354423
C        1.647682     2.578854    -0.956694
C        2.564177     1.646805    -0.926271
C        3.821574     1.612797    -1.631285
O        4.299633     2.513097    -2.351047
O        4.668722     0.467120    -1.550914
C        5.920063     0.525004    -2.222702
Se       2.819315    -0.062174     0.000000
Se      -0.062174     2.819315    -0.000000
H        0.807721     5.919633    -3.325927
H       -0.174388     6.579644    -1.967083
H        1.643490     6.607187    -1.852521
H        5.830539     0.423853    -3.305066
H        6.351092     1.519398    -1.959903
H        6.593371    -0.244365    -1.848942
Se      -2.819991     0.000000     0.007130
C       -2.614738    -1.109576     1.657405
C       -3.819002    -1.918526     1.783754
O       -4.083847    -2.723107     2.692960
O       -4.855296    -1.843057     0.807239
C       -5.969706    -2.695166     1.089530
C       -1.638256    -1.079232     2.559743
C       -1.493997    -1.893290     3.738976
O       -0.408903    -1.798198     4.446006
O       -2.380106    -2.804700     4.256099
C       -2.163495    -3.514259     5.454811
Se      -0.007130    -0.000000     2.819991
H       -5.579472    -3.742771     1.079064
H       -6.448649    -2.460164     2.043218
H       -6.693009    -2.534564     0.269452
H       -3.125590    -4.006393     5.705549
H       -1.910156    -2.829057     6.299969
H       -1.381968    -4.278101     5.295949
Se       0.000000    -0.214614    -2.811822
C        1.191638    -1.593868    -2.532668
C        2.030338    -1.126453    -3.567200
O        1.890054     0.091327    -4.012936
O        3.028872    -1.810777    -4.206441
C        3.768727    -1.344154    -5.298388
C        1.189809    -2.645511    -1.768855
C        2.067173    -3.801118    -2.021826
O        1.979181    -4.854837    -1.295129
O        3.018446    -3.874985    -3.003114
C        3.754315    -5.051454    -3.149231
Se       0.000000    -2.811822    -0.214614
H        3.109074    -1.105914    -6.144148
H        4.357163    -0.435125    -5.032856
H        4.486833    -2.127171    -5.616404
H        4.467232    -4.954798    -3.975299
H        3.054397    -5.874221    -3.402340
H        4.331371    -5.263288    -2.227404
55
ex_0547 frame6 OC-6-chelate-2
W        0.000000     0.000000     0.000000
C        0.757006     6.027049    -2.229222
O        0.651478     4.770017    -1.566428
C        1.708699     3.839413    -1.660043
O        2.667938     4.254109    -2.354423
C        1.647682     2.578854    -0.956694
C        2.564177     1.646805    -0.926271
C        3.821574     1.612797    -1.631285
O        4.299633     2.513097    -2.351047
O        4.668722     0.467120    -1.550914
C        5.920063     0.525004    -2.222702
Se       2.819315    -0.062174     0.000000
Se      -0.062174     2.819315    -0.000000
H        0.807721     5.919633    -3.325927
H       -0.174388     6.579644    -1.967083
H        1.643490     6.607187    -1.852521
H        5.830539     0.423853    -3.305066
H        6.351092     1.519398    -1.959903
H        6.593371    -0.244365    -1.848942
Se      -0.214614    -0.000000    -2.811822
C       -1.593868    -1.191638    -2.532668
C       -1.126453    -2.030338    -3.567200
O        0.091327    -1.890054    -4.012936
O       -1.810777    -3.028872    -4.206441
C       -1.344154    -3.768727    -5.298388
C       -2.645511    -1.189809    -1.768855
C       -3.801118    -2.067173    -2.021826
O       -4.854837    -1.979181    -1.295129
O       -3.874985    -3.018446    -3.003114
C       -5.051454    -3.754315    -3.149231
Se      -2.811822     0.000000    -0.214614
H       -1.105914    -3.109074    -6.144148
H       -0.435125    -4.357163    -5.032856
H       -2.127171    -4.486833    -5.616404
H       -4.954798    -4.467232    -3.975299
H       -5.874221    -3.054397    -3.402340
H       -5.263288    -4.331371    -2.227404
Se      -0.000000    -0.214614     2.811822
C       -1.191638    -1.593868     2.532668
C       -2.030338    -1.126453     3.567200
O       -1.890054     0.091327     4.012936
O       -3.028872    -1.810777     4.206441
C       -3.768727    -1.344154     5.298388
C       -1.189809    -2.645511     1.768855
C       -2.067173    -3.801118     2.021826
O       -1.979181    -4.854837     1.295129
O       -3.018446    -3.874985     3.003114
C       -3.754315    -5.051454     3.149231
Se      -0.000000    -2.811822     0.214614
H       -3.109074    -1.105914     6.144148
H       -4.357163    -0.435125     5.032856
H       -4.486833    -2.127171     5.616404
H       -4.467232    -4.954798     3.975299
H       -3.054397    -5.874221     3.402340
H       -4.331371    -5.263288     2.227404
55
ex_0547 frame7 OC-6-chelate-2-conf2
W        0.000000     0.000000     0.000000
C        0.757006     6.027049    -2.229222
O        0.651478     4.770017    -1.566428
C        1.708699     3.839413    -1.660043
O        2.667938     4.254109    -2.354423
C        1.647682     2.578854    -0.956694
C        2.564177     1.646805    -0.926271
C        3.821574     1.612797    -1.631285
O        4.299633     2.513097    -2.351047
O        4.668722     0.467120    -1.550914
C        5.920063     0.525004    -2.222702
Se       2.819315    -0.062174     0.000000
Se      -0.062174     2.819315    -0.000000
H        0.807721     5.919633    -3.325927
H       -0.174388     6.579644    -1.967083
H        1.643490     6.607187    -1.852521
H        5.830539     0.423853    -3.305066
H        6.351092     1.519398    -1.959903
H        6.593371    -0.244365    -1.848942
Se      -0.214614    -0.000000    -2.811822
C       -1.593868    -1.191638    -2.532668
C       -1.126453    -2.030338    -3.567200
O        0.091327    -1.890054    -4.012936
O       -1.810777    -3.028872    -4.206441
C       -1.344154    -3.768727    -5.298388
C       -2.645511    -1.189809    -1.768855
C       -3.801118    -2.067173    -2.021826
O       -4.854837    -1.979181    -1.295129
O       -3.874985    -3.018446    -3.003114
C       -5.051454    -3.754315    -3.149231
Se      -2.811822     0.000000    -0.214614
H       -1.105914    -3.109074    -6.144148
H       -0.435125    -4.357163    -5.032856
H       -2.127171    -4.486833    -5.616404
H       -4.954798    -4.467232    -3.975299
H       -5.874221    -3.054397    -3.402340
H       -5.263288    -4.331371    -2.227404
Se       0.000000    -0.194425     2.813290
C        1.295162    -1.667822     2.580456
C        2.179134    -1.819575     3.721150
O        3.094566    -2.668707     3.835562
O        2.070546    -0.971356     4.860050
C        2.975505    -1.170434     5.955382
C        1.250474    -2.499989     1.574018
C        2.129313    -3.530107     1.166421
O        3.082351    -4.011448     1.825096
O        1.987784    -4.141133    -0.113031
C        2.855704    -5.244324    -0.429951
Se       0.000000    -2.813290     0.194425
H        2.711931    -2.162787     6.379241
H        4.030395    -1.157955     5.616111
H        2.830965    -0.350787     6.689653
H        3.899541    -4.979510    -0.196272
H        2.803930    -5.323771    -1.552827
H        2.501007    -6.193031    -0.029709
55
ex_0547 frame8 OC-6-chelate-2-conf3
W        0.000000     0.000000     0.000000
C        0.757006     6.027049    -2.229222
O        0.651478     4.770017    -1.566428
C        1.708699     3.839413    -1.660043
O        2.667938     4.254109    -2.354423
C        1.647682     2.578854    -0.956694
C        2.564177     1.646805    -0.926271
C        3.821574     1.612797    -1.631285
O        4.299633     2.513097    -2.351047
O        4.668722     0.467120    -1.550914
C        5.920063     0.525004    -2.222702
Se       2.819315    -0.062174     0.000000
Se      -0.062174     2.819315    -0.000000
H        0.807721     5.919633    -3.325927
H       -0.174388     6.579644    -1.967083
H        1.643490     6.607187    -1.852521
H        5.830539     0.423853    -3.305066
H        6.351092     1.519398    -1.959903
H        6.593371    -0.244365    -1.848942
Se      -2.813290     0.000000    -0.194425
C       -2.580456    -1.295162    -1.667822
C       -3.721150    -2.179134    -1.819575
O       -3.835562    -3.094566    -2.668707
O       -4.860050    -2.070546    -0.971356
C       -5.955382    -2.975505    -1.170434
C       -1.574018    -1.250474    -2.499989
C       -1.166421    -2.129313    -3.530107
O       -1.825096    -3.082351    -4.011448
O        0.113031    -1.987784    -4.141133
C        0.429951    -2.855704    -5.244324
Se      -0.194425    -0.000000    -2.813290
H       -6.379241    -2.711931    -2.162787
H       -5.616111    -4.030395    -1.157955
H       -6.689653    -2.830965    -0.350787
H        0.196272    -3.899541    -4.979510
H        1.552827    -2.803930    -5.323771
H        0.029709    -2.501007    -6.193031
Se      -0.000000    -0.214614     2.811822
C       -1.191638    -1.593868     2.532668
C       -2.030338    -1.126453     3.567200
O       -1.890054     0.091327     4.012936
O       -3.028872    -1.810777     4.206441
C       -3.768727    -1.344154     5.298388
C       -1.189809    -2.645511     1.768855
C       -2.067173    -3.801118     2.021826
O       -1.979181    -4.854837     1.295129
O       -3.018446    -3.874985     3.003114
C       -3.754315    -5.051454     3.149231
Se      -0.000000    -2.811822     0.214614
H       -3.109074    -1.105914     6.144148
H       -4.357163    -0.435125     5.032856
H       -4.486833    -2.127171     5.616404
H       -4.467232    -4.954798     3.975299
H       -3.054397    -5.874221     3.402340
H       -4.331371    -5.263288     2.227404
55
ex_0547 frame9 OC-6-chelate-2-conf4
W        0.000000     0.000000     0.000000
C        0.979743     4.446810     4.664180
O        1.507824     3.520944     3.753477
C        0.954365     3.182584     2.544709
O       -0.154550     3.824398     2.304360
C        1.490662     2.345659     1.535237
C        2.495561     1.515674     1.502235
C        3.493026     1.423800     2.595729
O        4.498003     0.622456     2.480245
O        3.458720     2.126877     3.760120
C        4.483136     1.974894     4.721288
Se       2.801957     0.318489    -0.000000
Se       0.318489     2.801957    -0.000000
H       -0.126891     4.373513     4.604344
H        1.236500     4.213282     5.711240
H        1.210792     5.501751     4.394043
H        4.754832     0.916694     4.842802
H        4.135455     2.343690     5.711731
H        5.398962     2.539306     4.470897
Se      -0.214614    -0.000000    -2.811822
C       -1.593868    -1.191638    -2.532668
C       -1.126453    -2.030338    -3.567200
O        0.091327    -1.890054    -4.012936
O       -1.810777    -3.028872    -4.206441
C       -1.344154    -3.768727    -5.298388
C       -2.645511    -1.189809    -1.768855
C       -3.801118    -2.067173    -2.021826
O       -4.854837    -1.979181    -1.295129
O       -3.874985    -3.018446    -3.003114
C       -5.051454    -3.754315    -3.149231
Se      -2.811822     0.000000    -0.214614
H       -1.105914    -3.109074    -6.144148
H       -0.435125    -4.357163    -5.032856
H       -2.127171    -4.486833    -5.616404
H       -4.954798    -4.467232    -3.975299
H       -5.874221    -3.054397    -3.402340
H       -5.263288    -4.331371    -2.227404
Se      -0.000000    -0.214614     2.811822
C       -1.191638    -1.593868     2.532668
C       -2.030338    -1.126453     3.567200
O       -1.890054     0.091327     4.012936
O       -3.028872    -1.810777     4.206441
C       -3.768727    -1.344154     5.298388
C       -1.189809    -2.645511     1.768855
C       -2.067173    -3.801118     2.021826
O       -1.979181    -4.854837     1.295129
O       -3.018446    -3.874985     3.003114
C       -3.754315    -5.051454     3.149231
Se      -0.000000    -2.811822     0.214614
H       -3.109074    -1.105914     6.144148
H       -4.357163    -0.435125     5.032856
H       -4.486833    -2.127171     5.616404
H       -4.467232    -4.954798     3.975299
H       -3.054397    -5.874221     3.402340
H       -4.331371    -5.263288     2.227404
55
ex_0547 frame10 OC-6-chelate-2-conf5
W        0.000000     0.000000     0.000000
C        0.757006     6.027049    -2.229222
O        0.651478     4.770017    -1.566428
C        1.708699     3.839413    -1.660043
O        2.667938     4.254109    -2.354423
C        1.647682     2.578854    -0.956694
C        2.564177     1.646805    -0.926271
C        3.821574     1.612797    -1.631285
O        4.299633     2.513097    -2.351047
O        4.668722     0.467120    -1.550914
C        5.920063     0.525004    -2.222702
Se       2.819315    -0.062174     0.000000
Se      -0.062174     2.819315    -0.000000
H        0.807721     5.919633    -3.325927
H       -0.174388     6.579644    -1.967083
H        1.643490     6.607187    -1.852521
H        5.830539     0.423853    -3.305066
H        6.351092     1.519398    -1.959903
H        6.593371    -0.244365    -1.848942
Se      -0.214614    -0.000000    -2.811822
C       -1.593868    -1.191638    -2.532668
C       -1.126453    -2.030338    -3.567200
O        0.091327    -1.890054    -4.012936
O       -1.810777    -3.028872    -4.206441
C       -1.344154    -3.768727    -5.298388
C       -2.645511    -1.189809    -1.768855
C       -3.801118    -2.067173    -2.021826
O       -4.854837    -1.979181    -1.295129
O       -3.874985    -3.018446    -3.003114
C       -5.051454    -3.754315    -3.149231
Se      -2.811822     0.000000    -0.214614
H       -1.105914    -3.109074    -6.144148
H       -0.435125    -4.357163    -5.032856
H       -2.127171    -4.486833    -5.616404
H       -4.954798    -4.467232    -3.975299
H       -5.874221    -3.054397    -3.402340
H       -5.263288    -4.331371    -2.227404
Se       0.000000    -2.819991     0.007130
C        1.109576    -2.614738     1.657405
C        1.918526    -3.819002     1.783754
O        2.723107    -4.083847     2.692960
O        1.843057    -4.855296     0.807239
C        2.695166    -5.969706     1.089530
C        1.079232    -1.638256     2.559743
C        1.893290    -1.493997     3.738976
O        1.798198    -0.408903     4.446006
O        2.804700    -2.380106     4.256099
C        3.514259    -2.163495     5.454811
Se       0.000000    -0.007130     2.819991
H        3.742771    -5.579472     1.079064
H        2.460164    -6.448649     2.043218
H        2.534564    -6.693009     0.269452
H        4.006393    -3.125590     5.705549
H        2.829057    -1.910156     6.299969
H        4.278101    -1.381968     5.295949
55
ex_0547 frame11 OC-6-chelate-2-conf6
W        0.000000     0.000000     0.000000
C        0.757006     6.027049    -2.229222
O        0.651478     4.770017    -1.566428
C        1.708699     3.839413    -1.660043
O        2.667938     4.254109    -2.354423
C        1.647682     2.578854    -0.956694
C        2.564177     1.646805    -0.926271
C        3.821574     1.612797    -1.631285
O        4.299633     2.513097    -2.351047
O        4.668722     0.467120    -1.550914
C        5.920063     0.525004    -2.222702
Se       2.819315    -0.062174     0.000000
Se      -0.062174     2.819315    -0.000000
H        0.807721     5.919633    -3.325927
H       -0.174388     6.579644    -1.967083
H        1.643490     6.607187    -1.852521
H        5.830539     0.423853    -3.305066
H        6.351092     1.519398    -1.959903
H        6.593371    -0.244365    -1.848942
Se      -2.813290     0.000000    -0.194425
C       -2.580456    -1.295162    -1.667822
C       -3.721150    -2.179134    -1.819575
O       -3.835562    -3.094566    -2.668707
O       -4.860050    -2.070546    -0.971356
C       -5.955382    -2.975505    -1.170434
C       -1.574018    -1.250474    -2.499989
C       -1.166421    -2.129313    -3.530107
O       -1.825096    -3.082351    -4.011448
O        0.113031    -1.987784    -4.141133
C        0.429951    -2.855704    -5.244324
Se      -0.194425    -0.000000    -2.813290
H       -6.379241    -2.711931    -2.162787
H       -5.616111    -4.030395    -1.157955
H       -6.689653    -2.830965    -0.350787
H        0.196272    -3.899541    -4.979510
H        1.552827    -2.803930    -5.323771
H        0.029709    -2.501007    -6.193031
Se       0.000000    -0.194425     2.813290
C        1.295162    -1.667822     2.580456
C        2.179134    -1.819575     3.721150
O        3.094566    -2.668707     3.835562
O        2.070546    -0.971356     4.860050
C        2.975505    -1.170434     5.955382
C        1.250474    -2.499989     1.574018
C        2.129313    -3.530107     1.166421
O        3.082351    -4.011448     1.825096
O        1.987784    -4.141133    -0.113031
C        2.855704    -5.244324    -0.429951
Se       0.000000    -2.813290     0.194425
H        2.711931    -2.162787     6.379241
H        4.030395    -1.157955     5.616111
H        2.830965    -0.350787     6.689653
H        3.899541    -4.979510    -0.196272
H        2.803930    -5.323771    -1.552827
H        2.501007    -6.193031    -0.029709
55
ex_0547 frame12 OC-6-chelate-2-conf7
W        0.000000     0.000000     0.000000
C        0.757006     6.027049    -2.229222
O        0.651478     4.770017    -1.566428
C        1.708699     3.839413    -1.660043
O        2.667938     4.254109    -2.354423
C        1.647682     2.578854    -0.956694
C        2.564177     1.646805    -0.926271
C        3.821574     1.612797    -1.631285
O        4.299633     2.513097    -2.351047
O        4.668722     0.467120    -1.550914
C        5.920063     0.525004    -2.222702
Se       2.819315    -0.062174     0.000000
Se      -0.062174     2.819315    -0.000000
H        0.807721     5.919633    -3.325927
H       -0.174388     6.579644    -1.967083
H        1.643490     6.607187    -1.852521
H        5.830539     0.423853    -3.305066
H        6.351092     1.519398    -1.959903
H        6.593371    -0.244365    -1.848942
Se      -2.819991    -0.000000    -0.007130
C       -2.614738     1.109576    -1.657405
C       -3.819002     1.918526    -1.783754
O       -4.083847     2.723107    -2.692960
O       -4.855296     1.843057    -0.807239
C       -5.969706     2.695166    -1.089530
C       -1.638256     1.079232    -2.559743
C       -1.493997     1.893290    -3.738976
O       -0.408903     1.798198    -4.446006
O       -2.380106     2.804700    -4.256099
C       -2.163495     3.514259    -5.454811
Se      -0.007130     0.000000    -2.819991
H       -5.579472     3.742771    -1.079064
H       -6.448649     2.460164    -2.043218
H       -6.693009     2.534564    -0.269452
H       -3.125590     4.006393    -5.705549
H       -1.910156     2.829057    -6.299969
H       -1.381968     4.278101    -5.295949
Se      -0.000000    -0.214614     2.811822
C       -1.191638    -1.593868     2.532668
C       -2.030338    -1.126453     3.567200
O       -1.890054     0.091327     4.012936
O       -3.028872    -1.810777     4.206441
C       -3.768727    -1.344154     5.298388
C       -1.189809    -2.645511     1.768855
C       -2.067173    -3.801118     2.021826
O       -1.979181    -4.854837     1.295129
O       -3.018446    -3.874985     3.003114
C       -3.754315    -5.051454     3.149231
Se      -0.000000    -2.811822     0.214614
H       -3.109074    -1.105914     6.144148
H       -4.357163    -0.435125     5.032856
H       -4.486833    -2.127171     5.616404
H       -4.467232    -4.954798     3.975299
H       -3.054397    -5.874221     3.402340
H       -4.331371    -5.263288     2.227404
55
ex_0547 frame13 OC-6-chelate-2-conf8
W        0.000000     0.000000     0.000000
C        0.979743     4.446810     4.664180
O        1.507824     3.520944     3.753477
C        0.954365     3.182584     2.544709
O       -0.154550     3.824398     2.304360
C        1.490662     2.345659     1.535237
C        2.495561     1.515674     1.502235
C        3.493026     1.423800     2.595729
O        4.498003     0.622456     2.480245
O        3.458720     2.126877     3.760120
C        4.483136     1.974894     4.721288
Se       2.801957     0.318489    -0.000000
Se       0.318489     2.801957    -0.000000
H       -0.126891     4.373513     4.604344
H        1.236500     4.213282     5.711240
H        1.210792     5.501751     4.394043
H        4.754832     0.916694     4.842802
H        4.135455     2.343690     5.711731
H        5.398962     2.539306     4.470897
Se      -0.214614    -0.000000    -2.811822
C       -1.593868    -1.191638    -2.532668
C       -1.126453    -2.030338    -3.567200
O        0.091327    -1.890054    -4.012936
O       -1.810777    -3.028872    -4.206441
C       -1.344154    -3.768727    -5.298388
C       -2.645511    -1.189809    -1.768855
C       -3.801118    -2.067173    -2.021826
O       -4.854837    -1.979181    -1.295129
O       -3.874985    -3.018446    -3.003114
C       -5.051454    -3.754315    -3.149231
Se      -2.811822     0.000000    -0.214614
H       -1.105914    -3.109074    -6.144148
H       -0.435125    -4.357163    -5.032856
H       -2.127171    -4.486833    -5.616404
H       -4.954798    -4.467232    -3.975299
H       -5.874221    -3.054397    -3.402340
H       -5.263288    -4.331371    -2.227404
Se       0.000000    -0.194425     2.813290
C        1.295162    -1.667822     2.580456
C        2.179134    -1.819575     3.721150
O        3.094566    -2.668707     3.835562
O        2.070546    -0.971356     4.860050
C        2.975505    -1.170434     5.955382
C        1.250474    -2.499989     1.574018
C        2.129313    -3.530107     1.166421
O        3.082351    -4.011448     1.825096
O        1.987784    -4.141133    -0.113031
C        2.855704    -5.244324    -0.429951
Se       0.000000    -2.813290     0.194425
H        2.711931    -2.162787     6.379241
H        4.030395    -1.157955     5.616111
H        2.830965    -0.350787     6.689653
H        3.899541    -4.979510    -0.196272
H        2.803930    -5.323771    -1.552827
H        2.501007    -6.193031    -0.029709
55
ex_0547 frame14 OC-6-chelate-1_mirror
W        0.000000     0.000000     0.000000
C        0.757006     6.027049     2.229222
O        0.651478     4.770017     1.566428
C        1.708699     3.839413     1.660043
O        2.667938     4.254109     2.354423
C        1.647682     2.578854     0.956694
C        2.564177     1.646805     0.926271
C        3.821574     1.612797     1.631285
O        4.299633     2.513097     2.351047
O        4.668722     0.467120     1.550914
C        5.920063     0.525004     2.222702
Se       2.819315    -0.062174     0.000000
Se      -0.062174     2.819315     0.000000
H        0.807721     5.919633     3.325927
H       -0.174388     6.579644     1.967083
H        1.643490     6.607187     1.852521
H        5.830539     0.423853     3.305066
H        6.351092     1.519398     1.959903
H        6.593371    -0.244365     1.848942
Se      -0.214614     0.000000    -2.811822
C       -1.593868     1.191638    -2.532668
C       -1.126453     2.030338    -3.567200
O        0.091327     1.890054    -4.012936
O       -1.810777     3.028872    -4.206441
C       -1.344154     3.768727    -5.298388
C       -2.645511     1.189809    -1.768855
C       -3.801118     2.067173    -2.021826
O       -4.854837     1.979181    -1.295129
O       -3.874985     3.018446    -3.003114
C       -5.051454     3.754315    -3.149231
Se      -2.811822     0.000000    -0.214614
H       -1.105914     3.109074    -6.144148
H       -0.435125     4.357163    -5.032856
H       -2.127171     4.486833    -5.616404
H       -4.954798     4.467232    -3.975299
H       -5.874221     3.054397    -3.402340
H       -5.263288     4.331371    -2.227404
Se       0.000000    -0.214614     2.811822
C        1.191638    -1.593868     2.532668
C        2.030338    -1.126453     3.567200
O        1.890054     0.091327     4.012936
O        3.028872    -1.810777     4.206441
C        3.768727    -1.344154     5.298388
C        1.189809    -2.645511     1.768855
C        2.067173    -3.801118     2.021826
O        1.979181    -4.854837     1.295129
O        3.018446    -3.874985     3.003114
C        3.754315    -5.051454     3.149231
Se       0.000000    -2.811822     0.214614
H        3.109074    -1.105914     6.144148
H        4.357163    -0.435125     5.032856
H        4.486833    -2.127171     5.616404
H        4.467232    -4.954798     3.975299
H        3.054397    -5.874221     3.402340
H        4.331371    -5.263288     2.227404
