67
ex_0052 frame0 OC-6-chelate-2
Ni       0.000000     0.000000     0.000000
C        4.234823     4.722914     3.654729
C        3.155153     4.204883     4.334586
C        2.340933     3.247525     3.748348
C        2.525711     2.751083     2.485355
B        1.711319     1.719760     1.736063
N        2.591234     0.756628     0.856478
C        4.031560     0.645311     0.862672
P        4.505995    -0.604943    -0.248137
C        2.656459    -0.934826    -0.682170
N        1.943855    -0.153581    -0.018440
N       -0.018440    -0.110124     1.946801
C       -0.698205    -0.886000     2.636388
P       -0.268490    -0.641079     4.491877
C        0.873520     0.599074     4.057274
N        0.879865     0.766497     2.654172
N       -0.153581     1.940821    -0.110124
C       -0.885630     2.637534    -0.822121
P       -0.443618     4.480643    -0.462462
C        0.750308     4.001355     0.693277
N        0.771882     2.535665     0.764100
C        3.640704     3.294248     1.806721
C        4.445894     4.239263     2.383053
H        4.849588     5.464029     4.136215
H        2.963925     4.567482     5.336115
H        1.487386     2.959413     4.330565
H        4.769328     1.183526     1.455698
H        2.304077    -1.692364    -1.398923
H       -1.437284    -1.616804     2.251698
H        1.433052     1.034014     4.867572
H       -1.651113     2.304221    -1.541721
H        1.397172     4.675521     1.287359
H        3.862913     3.030278     0.782327
H        5.288200     4.635842     1.835335
N       -1.945643     0.020263     0.128692
C       -2.659220     0.702065     0.861415
P       -4.487756     0.303826     0.422471
C       -3.966875    -0.830825    -0.785269
N       -2.524078    -0.852913    -0.798284
B       -1.624493    -1.775102    -1.751238
C       -2.631723    -2.490037    -2.624008
C       -3.126871    -1.783938    -3.741337
C       -4.042541    -2.345654    -4.582658
C       -4.543269    -3.617566    -4.416001
C       -4.070935    -4.324272    -3.332481
C       -3.137058    -3.754323    -2.472500
N       -0.652779    -0.860538    -2.582535
C       -0.456183    -0.908797    -4.020985
P        0.668270     0.332657    -4.470324
C        0.836983     0.882023    -2.631452
N        0.128692     0.141282    -1.940613
N       -0.704102    -2.654801    -0.884415
C       -0.464901    -4.068510    -0.919884
P        0.615825    -4.501738     0.373500
C        0.698323    -2.653663     0.920156
N        0.020263    -1.944770     0.141282
H       -2.338572     1.423870     1.635059
H       -4.639369    -1.434419    -1.434681
H       -2.835645    -0.763872    -3.943279
H       -4.405118    -1.785416    -5.424796
H       -5.263389    -4.081530    -5.064805
H       -4.436817    -5.331414    -3.158481
H       -2.864410    -4.350744    -1.632288
H       -0.913832    -1.626326    -4.730524
H        1.480052     1.707254    -2.279592
H       -0.816424    -4.823570    -1.615664
H        1.292491    -2.282917     1.776906
67
ex_0052 frame1 OC-6-chelate-2-beta
Ni       0.000000     0.000000     0.000000
C        4.234823     4.722914     3.654729
C        3.155153     4.204883     4.334586
C        2.340933     3.247525     3.748348
C        2.525711     2.751083     2.485355
B        1.711319     1.719760     1.736063
N        2.591234     0.756628     0.856478
C        4.031560     0.645311     0.862672
P        4.505995    -0.604943    -0.248137
C        2.656459    -0.934826    -0.682170
N        1.943855    -0.153581    -0.018440
N       -0.018440    -0.110124     1.946801
C       -0.698205    -0.886000     2.636388
P       -0.268490    -0.641079     4.491877
C        0.873520     0.599074     4.057274
N        0.879865     0.766497     2.654172
N       -0.153581     1.940821    -0.110124
C       -0.885630     2.637534    -0.822121
P       -0.443618     4.480643    -0.462462
C        0.750308     4.001355     0.693277
N        0.771882     2.535665     0.764100
C        3.640704     3.294248     1.806721
C        4.445894     4.239263     2.383053
H        4.849588     5.464029     4.136215
H        2.963925     4.567482     5.336115
H        1.487386     2.959413     4.330565
H        4.769328     1.183526     1.455698
H        2.304077    -1.692364    -1.398923
H       -1.437284    -1.616804     2.251698
H        1.433052     1.034014     4.867572
H       -1.651113     2.304221    -1.541721
H        1.397172     4.675521     1.287359
H        3.862913     3.030278     0.782327
H        5.288200     4.635842     1.835335
N        0.110976     0.096703    -1.944436
C        0.832083     0.816068    -2.643475
P        0.633545     0.299186    -4.489274
C       -0.523521    -0.915438    -4.024394
N       -0.697446    -0.874593    -2.600676
B       -1.657643    -1.758461    -1.721469
C       -2.679105    -2.503760    -2.552919
C       -3.182017    -1.856292    -3.696915
C       -4.113716    -2.460529    -4.501437
C       -4.616675    -3.720402    -4.260871
C       -4.131972    -4.367498    -3.144731
C       -3.191478    -3.758876    -2.331769
N       -0.708167    -2.633067    -0.868703
C       -0.509307    -4.049676    -0.887001
P        0.657884    -4.473169     0.330867
C        0.828467    -2.620165     0.820108
N        0.097464    -1.945161     0.096703
N       -2.532162    -0.809944    -0.782037
C       -3.981482    -0.781997    -0.749491
P       -4.480952     0.400027     0.418862
C       -2.644280     0.809686     0.817057
N       -1.944398     0.097464     0.110976
H        1.505202     1.621425    -2.291721
H       -0.997072    -1.608473    -4.752010
H       -2.903036    -0.846381    -3.958140
H       -4.485673    -1.941639    -5.372873
H       -5.346688    -4.213726    -4.878793
H       -4.507188    -5.350658    -2.931854
H       -2.918165    -4.316501    -1.450938
H       -0.916109    -4.825319    -1.521188
H        1.497624    -2.243929     1.618992
H       -4.660047    -1.409548    -1.366481
H       -2.317087     1.563385     1.559933
67
ex_0052 frame2 OC-6-chelate-2-conf3
Ni       0.000000     0.000000     0.000000
C        4.701755     4.352166     3.423500
C        4.204173     4.454835     2.157247
C        3.267391     3.596103     1.672122
C        2.750004     2.529910     2.458991
B        1.721520     1.657532     1.777059
N        0.748293     2.571079     0.897166
C        0.633844     3.991117     0.930813
P       -0.576931     4.490427    -0.218873
C       -0.878051     2.653912    -0.700294
N       -0.125344     1.945871    -0.019382
N       -0.144691    -0.019382     1.944528
C       -0.942596    -0.680718     2.636905
P       -0.615018    -0.348424     4.504617
C        0.666315     0.745244     4.083345
N        0.798125     0.817433     2.665243
N        1.940581    -0.125344    -0.144691
C        2.638434    -0.820016    -0.895591
P        4.481288    -0.503461    -0.419274
C        4.003147     0.614861     0.810371
N        2.540745     0.706541     0.817821
C        3.272157     2.466405     3.717311
C        4.230387     3.341265     4.219798
H        5.443185     5.022709     3.827120
H        4.580336     5.253798     1.533313
H        2.964642     3.723692     0.642135
H        1.168429     4.721189     1.574691
H       -1.608429     2.311796    -1.456594
H       -1.722010    -1.360888     2.245216
H        1.142797     1.216408     4.910576
H        2.303916    -1.505922    -1.690119
H        4.677771     1.175753     1.487462
H        2.998655     1.674293     4.373736
H        4.609398     3.237246     5.227455
N       -1.945643     0.020263     0.128692
C       -2.659220     0.702065     0.861415
P       -4.487756     0.303826     0.422471
C       -3.966875    -0.830825    -0.785269
N       -2.524078    -0.852913    -0.798284
B       -1.624493    -1.775102    -1.751238
C       -2.631723    -2.490037    -2.624008
C       -3.126871    -1.783938    -3.741337
C       -4.042541    -2.345654    -4.582658
C       -4.543269    -3.617566    -4.416001
C       -4.070935    -4.324272    -3.332481
C       -3.137058    -3.754323    -2.472500
N       -0.652779    -0.860538    -2.582535
C       -0.456183    -0.908797    -4.020985
P        0.668270     0.332657    -4.470324
C        0.836983     0.882023    -2.631452
N        0.128692     0.141282    -1.940613
N       -0.704102    -2.654801    -0.884415
C       -0.464901    -4.068510    -0.919884
P        0.615825    -4.501738     0.373500
C        0.698323    -2.653663     0.920156
N        0.020263    -1.944770     0.141282
H       -2.338572     1.423870     1.635059
H       -4.639369    -1.434419    -1.434681
H       -2.835645    -0.763872    -3.943279
H       -4.405118    -1.785416    -5.424796
H       -5.263389    -4.081530    -5.064805
H       -4.436817    -5.331414    -3.158481
H       -2.864410    -4.350744    -1.632288
H       -0.913832    -1.626326    -4.730524
H        1.480052     1.707254    -2.279592
H       -0.816424    -4.823570    -1.615664
H        1.292491    -2.282917     1.776906
67
ex_0052 frame3 OC-6-chelate-2-conf4
Ni       0.000000     0.000000     0.000000
C        4.234823     4.722914     3.654729
C        3.155153     4.204883     4.334586
C        2.340933     3.247525     3.748348
C        2.525711     2.751083     2.485355
B        1.711319     1.719760     1.736063
N        2.591234     0.756628     0.856478
C        4.031560     0.645311     0.862672
P        4.505995    -0.604943    -0.248137
C        2.656459    -0.934826    -0.682170
N        1.943855    -0.153581    -0.018440
N       -0.018440    -0.110124     1.946801
C       -0.698205    -0.886000     2.636388
P       -0.268490    -0.641079     4.491877
C        0.873520     0.599074     4.057274
N        0.879865     0.766497     2.654172
N       -0.153581     1.940821    -0.110124
C       -0.885630     2.637534    -0.822121
P       -0.443618     4.480643    -0.462462
C        0.750308     4.001355     0.693277
N        0.771882     2.535665     0.764100
C        3.640704     3.294248     1.806721
C        4.445894     4.239263     2.383053
H        4.849588     5.464029     4.136215
H        2.963925     4.567482     5.336115
H        1.487386     2.959413     4.330565
H        4.769328     1.183526     1.455698
H        2.304077    -1.692364    -1.398923
H       -1.437284    -1.616804     2.251698
H        1.433052     1.034014     4.867572
H       -1.651113     2.304221    -1.541721
H        1.397172     4.675521     1.287359
H        3.862913     3.030278     0.782327
H        5.288200     4.635842     1.835335
N        0.110976     0.096703    -1.944436
C        0.832083     0.816068    -2.643475
P        0.633545     0.299186    -4.489274
C       -0.523521    -0.915438    -4.024394
N       -0.697446    -0.874593    -2.600676
B       -1.657643    -1.758461    -1.721469
C       -2.679105    -2.503760    -2.552919
C       -3.182017    -1.856292    -3.696915
C       -4.113716    -2.460529    -4.501437
C       -4.616675    -3.720402    -4.260871
C       -4.131972    -4.367498    -3.144731
C       -3.191478    -3.758876    -2.331769
N       -0.708167    -2.633067    -0.868703
C       -0.509307    -4.049676    -0.887001
P        0.657884    -4.473169     0.330867
C        0.828467    -2.620165     0.820108
N        0.097464    -1.945161     0.096703
N       -2.532162    -0.809944    -0.782037
C       -3.981482    -0.781997    -0.749491
P       -4.480952     0.400027     0.418862
C       -2.644280     0.809686     0.817057
N       -1.944398     0.097464     0.110976
H        1.505202     1.621425    -2.291721
H       -0.997072    -1.608473    -4.752010
H       -2.903036    -0.846381    -3.958140
H       -4.485673    -1.941639    -5.372873
H       -5.346688    -4.213726    -4.878793
H       -4.507188    -5.350658    -2.931854
H       -2.918165    -4.316501    -1.450938
H       -0.916109    -4.825319    -1.521188
H        1.497624    -2.243929     1.618992
H       -4.660047    -1.409548    -1.366481
H       -2.317087     1.563385     1.559933
67
ex_0052 frame4 OC-6-chelate-2-conf6
Ni       0.000000     0.000000     0.000000
C        4.530996     3.909710     4.161088
C        4.042767     2.675216     4.533645
C        3.117712     2.003776     3.760819
C        2.630830     2.519390     2.579113
B        1.624392     1.759823     1.758067
N        2.522935     0.837281     0.808406
C        3.966319     0.807616     0.799111
P        4.486289    -0.324707    -0.410951
C        2.658295    -0.712727    -0.857170
N        1.945800    -0.030373    -0.124251
N       -0.030373     1.944661    -0.140964
C       -0.715099     2.649944    -0.918979
P       -0.628712     4.494126    -0.354500
C        0.455497     4.053650     0.935811
N        0.692115     2.641201     0.885668
N       -0.124251    -0.140964     1.940925
C       -0.837720    -0.881888     2.634351
P       -0.691966    -0.322557     4.472723
C        0.436845     0.919150     4.026880
N        0.649193     0.860547     2.590544
C        3.110521     3.751915     2.197099
C        4.044414     4.426584     2.980268
H        5.254350     4.465082     4.740531
H        4.410018     2.258746     5.446808
H        2.851447     1.007974     4.138024
H        4.639713     1.405689     1.453107
H        2.335949    -1.430055    -1.634444
H       -1.309297     2.287768    -1.774172
H        0.835187     4.788211     1.671186
H       -1.474677    -1.709535     2.278534
H        0.871905     1.639313     4.740190
H        2.858748     4.250008     1.272636
H        4.419753     5.391093     2.679103
N       -1.945643     0.020263     0.128692
C       -2.659220     0.702065     0.861415
P       -4.487756     0.303826     0.422471
C       -3.966875    -0.830825    -0.785269
N       -2.524078    -0.852913    -0.798284
B       -1.624493    -1.775102    -1.751238
C       -2.631723    -2.490037    -2.624008
C       -3.126871    -1.783938    -3.741337
C       -4.042541    -2.345654    -4.582658
C       -4.543269    -3.617566    -4.416001
C       -4.070935    -4.324272    -3.332481
C       -3.137058    -3.754323    -2.472500
N       -0.652779    -0.860538    -2.582535
C       -0.456183    -0.908797    -4.020985
P        0.668270     0.332657    -4.470324
C        0.836983     0.882023    -2.631452
N        0.128692     0.141282    -1.940613
N       -0.704102    -2.654801    -0.884415
C       -0.464901    -4.068510    -0.919884
P        0.615825    -4.501738     0.373500
C        0.698323    -2.653663     0.920156
N        0.020263    -1.944770     0.141282
H       -2.338572     1.423870     1.635059
H       -4.639369    -1.434419    -1.434681
H       -2.835645    -0.763872    -3.943279
H       -4.405118    -1.785416    -5.424796
H       -5.263389    -4.081530    -5.064805
H       -4.436817    -5.331414    -3.158481
H       -2.864410    -4.350744    -1.632288
H       -0.913832    -1.626326    -4.730524
H        1.480052     1.707254    -2.279592
H       -0.816424    -4.823570    -1.615664
H        1.292491    -2.282917     1.776906
67
ex_0052 frame5 OC-6-chelate-2-conf7
Ni       0.000000     0.000000     0.000000
C        4.234823     4.722914     3.654729
C        3.151651     4.204790     4.339881
C        2.337021     3.247384     3.754190
C        2.528611     2.752496     2.483590
B        1.705912     1.715348     1.735866
N        2.591234     0.756628     0.856478
C        4.031560     0.645311     0.862672
P        4.505995    -0.604943    -0.248137
C        2.656459    -0.934826    -0.682170
N        1.943855    -0.153581    -0.018440
N       -0.018440    -0.110124     1.946801
C       -0.698205    -0.886000     2.636388
P       -0.268490    -0.641079     4.491877
C        0.873520     0.599074     4.057274
N        0.879865     0.766497     2.654172
N       -0.153581     1.940821    -0.110124
C       -0.885630     2.637534    -0.822121
P       -0.443618     4.480643    -0.462462
C        0.750308     4.001355     0.693277
N        0.771882     2.535665     0.764100
C        3.642843     3.295295     1.805428
C        4.449396     4.239356     2.377758
H        4.849588     5.464029     4.136215
H        2.963925     4.567482     5.336115
H        1.487386     2.959413     4.330565
H        4.769328     1.183526     1.455698
H        2.304077    -1.692364    -1.398923
H       -1.437284    -1.616804     2.251698
H        1.433052     1.034014     4.867572
H       -1.651113     2.304221    -1.541721
H        1.397172     4.675521     1.287359
H        3.862913     3.030278     0.782327
H        5.288200     4.635842     1.835335
N       -1.943429     0.159258     0.014899
C       -2.675754     0.919025     0.683507
P       -4.514296     0.420487     0.356913
C       -3.995695    -0.818666    -0.738501
N       -2.535234    -0.805682    -0.809359
B       -1.671722    -1.748529    -1.744729
C       -2.678750    -2.617155    -2.476910
C       -3.207654    -3.719862    -1.771244
C       -4.125773    -4.563515    -2.331888
C       -4.591197    -4.395559    -3.622369
C       -4.089080    -3.328641    -4.334254
C       -3.156356    -2.473889    -3.760487
N       -0.705384    -2.575907    -0.828537
C       -0.555551    -4.026005    -0.840024
P        0.637616    -4.471579     0.331014
C        0.904141    -2.626619     0.805860
N        0.159258    -1.940580     0.106229
N       -0.749179    -0.891524    -2.652476
C       -0.540648    -0.910258    -4.053476
P        0.577876     0.353210    -4.487725
C        0.714632     0.862254    -2.640210
N        0.014899     0.106229    -1.947047
H       -2.358324     1.727435     1.361720
H       -4.655447    -1.512834    -1.298688
H       -2.946481    -3.906247    -0.740163
H       -4.509203    -5.384106    -1.775919
H       -5.309578    -5.044790    -4.082620
H       -4.441006    -3.179713    -5.343801
H       -2.872728    -1.641070    -4.364312
H       -1.051929    -4.757700    -1.474049
H        1.615304    -2.268300     1.570866
H       -0.900118    -1.556926    -4.842384
H        1.344414     1.691173    -2.261299
67
ex_0052 frame6 OC-6-chelate-2-conf8
Ni       0.000000     0.000000     0.000000
C        4.701755     4.352166     3.423500
C        4.204173     4.454835     2.157247
C        3.267391     3.596103     1.672122
C        2.750004     2.529910     2.458991
B        1.721520     1.657532     1.777059
N        0.748293     2.571079     0.897166
C        0.633844     3.991117     0.930813
P       -0.576931     4.490427    -0.218873
C       -0.878051     2.653912    -0.700294
N       -0.125344     1.945871    -0.019382
N       -0.144691    -0.019382     1.944528
C       -0.942596    -0.680718     2.636905
P       -0.615018    -0.348424     4.504617
C        0.666315     0.745244     4.083345
N        0.798125     0.817433     2.665243
N        1.940581    -0.125344    -0.144691
C        2.638434    -0.820016    -0.895591
P        4.481288    -0.503461    -0.419274
C        4.003147     0.614861     0.810371
N        2.540745     0.706541     0.817821
C        3.272157     2.466405     3.717311
C        4.230387     3.341265     4.219798
H        5.443185     5.022709     3.827120
H        4.580336     5.253798     1.533313
H        2.964642     3.723692     0.642135
H        1.168429     4.721189     1.574691
H       -1.608429     2.311796    -1.456594
H       -1.722010    -1.360888     2.245216
H        1.142797     1.216408     4.910576
H        2.303916    -1.505922    -1.690119
H        4.677771     1.175753     1.487462
H        2.998655     1.674293     4.373736
H        4.609398     3.237246     5.227455
N        0.110976     0.096703    -1.944436
C        0.832083     0.816068    -2.643475
P        0.633545     0.299186    -4.489274
C       -0.523521    -0.915438    -4.024394
N       -0.697446    -0.874593    -2.600676
B       -1.657643    -1.758461    -1.721469
C       -2.679105    -2.503760    -2.552919
C       -3.182017    -1.856292    -3.696915
C       -4.113716    -2.460529    -4.501437
C       -4.616675    -3.720402    -4.260871
C       -4.131972    -4.367498    -3.144731
C       -3.191478    -3.758876    -2.331769
N       -0.708167    -2.633067    -0.868703
C       -0.509307    -4.049676    -0.887001
P        0.657884    -4.473169     0.330867
C        0.828467    -2.620165     0.820108
N        0.097464    -1.945161     0.096703
N       -2.532162    -0.809944    -0.782037
C       -3.981482    -0.781997    -0.749491
P       -4.480952     0.400027     0.418862
C       -2.644280     0.809686     0.817057
N       -1.944398     0.097464     0.110976
H        1.505202     1.621425    -2.291721
H       -0.997072    -1.608473    -4.752010
H       -2.903036    -0.846381    -3.958140
H       -4.485673    -1.941639    -5.372873
H       -5.346688    -4.213726    -4.878793
H       -4.507188    -5.350658    -2.931854
H       -2.918165    -4.316501    -1.450938
H       -0.916109    -4.825319    -1.521188
H        1.497624    -2.243929     1.618992
H       -4.660047    -1.409548    -1.366481
H       -2.317087     1.563385     1.559933
67
ex_0052 frame7 OC-6-chelate-2_mirror
Ni       0.000000     0.000000     0.000000
C        4.234823     4.722914    -3.654729
C        3.155153     4.204883    -4.334586
C        2.340933     3.247525    -3.748348
C        2.525711     2.751083    -2.485355
B        1.711319     1.719760    -1.736063
N        2.591234     0.756628    -0.856478
C        4.031560     0.645311    -0.862672
P        4.505995    -0.604943     0.248137
C        2.656459    -0.934826     0.682170
N        1.943855    -0.153581     0.018440
N       -0.018440    -0.110124    -1.946801
C       -0.698205    -0.886000    -2.636388
P       -0.268490    -0.641079    -4.491877
C        0.873520     0.599074    -4.057274
N        0.879865     0.766497    -2.654172
N       -0.153581     1.940821     0.110124
C       -0.885630     2.637534     0.822121
P       -0.443618     4.480643     0.462462
C        0.750308     4.001355    -0.693277
N        0.771882     2.535665    -0.764100
C        3.640704     3.294248    -1.806721
C        4.445894     4.239263    -2.383053
H        4.849588     5.464029    -4.136215
H        2.963925     4.567482    -5.336115
H        1.487386     2.959413    -4.330565
H        4.769328     1.183526    -1.455698
H        2.304077    -1.692364     1.398923
H       -1.437284    -1.616804    -2.251698
H        1.433052     1.034014    -4.867572
H       -1.651113     2.304221     1.541721
H        1.397172     4.675521    -1.287359
H        3.862913     3.030278    -0.782327
H        5.288200     4.635842    -1.835335
N       -1.945643     0.020263    -0.128692
C       -2.659220     0.702065    -0.861415
P       -4.487756     0.303826    -0.422471
C       -3.966875    -0.830825     0.785269
N       -2.524078    -0.852913     0.798284
B       -1.624493    -1.775102     1.751238
C       -2.631723    -2.490037     2.624008
C       -3.126871    -1.783938     3.741337
C       -4.042541    -2.345654     4.582658
C       -4.543269    -3.617566     4.416001
C       -4.070935    -4.324272     3.332481
C       -3.137058    -3.754323     2.472500
N       -0.652779    -0.860538     2.582535
C       -0.456183    -0.908797     4.020985
P        0.668270     0.332657     4.470324
C        0.836983     0.882023     2.631452
N        0.128692     0.141282     1.940613
N       -0.704102    -2.654801     0.884415
C       -0.464901    -4.068510     0.919884
P        0.615825    -4.501738    -0.373500
C        0.698323    -2.653663    -0.920156
N        0.020263    -1.944770    -0.141282
H       -2.338572     1.423870    -1.635059
H       -4.639369    -1.434419     1.434681
H       -2.835645    -0.763872     3.943279
H       -4.405118    -1.785416     5.424796
H       -5.263389    -4.081530     5.064805
H       -4.436817    -5.331414     3.158481
H       -2.864410    -4.350744     1.632288
H       -0.913832    -1.626326     4.730524
H        1.480052     1.707254     2.279592
H       -0.816424    -4.823570     1.615664
H        1.292491    -2.282917    -1.776906
