165
ex_0574 frame0 
C        3.490943     5.644474     0.252855
Si       2.337111     4.209418    -0.141787
C        0.636994     4.940571    -0.236024
C        2.926029     3.548298    -1.785852
Si       2.546388     2.726747     1.493631
Te       1.620927     0.541945     1.105319
Mo       0.064048     0.006920     0.218687
Te      -1.260233     1.590368     0.076584
Si      -2.726004     1.819600    -1.788828
Si      -1.814659     2.249081    -3.772930
C       -3.058874     3.202002    -4.809678
C       -1.425831     0.673569    -4.713775
C       -0.297397     3.295844    -3.667842
Si      -3.970870     3.648410    -1.323857
C       -3.086032     5.188550    -1.898192
C       -4.173001     3.835021     0.535495
C       -5.670962     3.522139    -2.044597
Si      -4.173458     0.163151    -2.133441
C       -3.397898    -1.515098    -2.063201
C       -5.586666     0.325675    -0.922808
C       -4.921990     0.299923    -3.852481
Te       0.612412    -0.158870    -1.868369
Si       1.917488    -2.095941    -2.458526
Si       0.692081    -3.794271    -3.179973
C       -0.079091    -4.772610    -1.814257
C        1.674200    -4.987166    -4.239227
C       -0.690177    -3.138432    -4.249291
Si       3.200985    -1.505971    -4.221748
C        4.242286    -0.026888    -3.800067
C        4.368975    -2.903312    -4.666883
C        2.171743    -1.140327    -5.715455
Si       3.419249    -2.700754    -0.934449
C        4.476899    -1.198153    -0.552249
C        4.566576    -4.025706    -1.553536
C        2.637061    -3.343261     0.618554
Te      -0.850023    -1.540145     0.714271
Si      -1.317915    -2.539959     2.829271
Si      -1.216305    -1.190084     4.607520
C       -1.843976    -2.058229     6.154643
C       -2.324589     0.257666     4.341332
C        0.532401    -0.740220     5.038830
Si      -3.409090    -3.369414     2.781502
C       -4.247082    -3.256004     4.431612
C       -3.420077    -5.164017     2.301854
C       -4.476478    -2.420686     1.596955
Si      -0.005403    -4.296569     3.342030
C        1.692841    -3.749368     3.848226
C       -0.718693    -5.253024     4.794066
C        0.095400    -5.503202     1.929314
Si       1.806520     3.732148     3.348911
C        0.770940     5.227561     2.994151
C        3.196999     4.262386     4.462762
C        0.727179     2.560160     4.341436
Si       4.758783     2.383367     1.745375
C        5.634167     3.837044     2.458949
C        4.948626     0.880471     2.853156
C        5.551469     1.985018     0.091345
H        4.525751     5.435556    -0.044533
H        3.146999     6.482967    -0.405425
H        3.361814     6.003879     1.281943
H       -0.048657     4.581792     0.543341
H        0.629783     6.056935    -0.151507
H        0.186745     4.710243    -1.208619
H        2.366773     4.129492    -2.562961
H        2.742240     2.467377    -1.889709
H        3.999493     3.801585    -1.979898
H       -3.415377     2.601368    -5.677666
H       -2.636485     4.126220    -5.228384
H       -3.953582     3.480346    -4.239193
H       -1.885775    -0.144225    -4.145414
H       -0.352449     0.557136    -4.915506
H       -1.920265     0.661854    -5.718569
H       -0.615388     4.343577    -3.439643
H        0.306340     2.947088    -2.824716
H        0.204923     3.281009    -4.644113
H       -3.725885     6.043444    -1.638940
H       -2.136034     5.277593    -1.354841
H       -2.868376     5.191025    -2.972855
H       -3.289615     4.392013     0.938446
H       -5.040439     4.507112     0.683050
H       -4.265968     2.864223     1.042109
H       -5.761175     4.259538    -2.882634
H       -6.451709     3.851276    -1.311282
H       -5.957320     2.503981    -2.340214
H       -3.841198    -2.221852    -2.811149
H       -3.573872    -1.978075    -1.084103
H       -2.318060    -1.529696    -2.244353
H       -5.635611    -0.532350    -0.240295
H       -5.493538     1.255021    -0.313707
H       -6.574085     0.383556    -1.425546
H       -4.249893    -0.215737    -4.584235
H       -5.008470     1.335967    -4.195346
H       -5.862599    -0.270002    -3.846986
H        0.647730    -5.255275    -1.145880
H       -0.650346    -5.603576    -2.297700
H       -0.853746    -4.177744    -1.267552
H        2.451263    -5.516565    -3.671728
H        0.941070    -5.773416    -4.554076
H        2.024388    -4.523103    -5.176193
H       -1.690229    -3.271972    -3.772761
H       -0.521882    -2.076199    -4.469658
H       -0.753897    -3.658469    -5.228296
H        5.174161    -0.326869    -3.257264
H        3.659144     0.709864    -3.228436
H        4.602362     0.405756    -4.767150
H        4.094113    -3.847986    -4.178141
H        5.409001    -2.667558    -4.399768
H        4.360994    -3.109249    -5.765085
H        1.832328    -0.097640    -5.650077
H        2.856830    -1.189645    -6.599755
H        1.378638    -1.873976    -5.910355
H        5.520068    -1.324834    -0.937909
H        4.571879    -1.102425     0.544797
H        4.081749    -0.301150    -1.049019
H        5.389078    -3.611751    -2.179709
H        4.048525    -4.879509    -2.009365
H        5.081204    -4.433673    -0.645782
H        3.152637    -4.244477     1.026354
H        1.620175    -3.655604     0.349282
H        2.698221    -2.552515     1.375779
H       -1.626496    -3.133013     6.144588
H       -2.917911    -1.818540     6.344491
H       -1.331083    -1.666442     7.072014
H       -2.999502     0.068103     3.468464
H       -3.018966     0.456148     5.197001
H       -1.820019     1.206658     4.137422
H        1.150832    -0.450431     4.187822
H        1.002041    -1.617120     5.553861
H        0.461361     0.036668     5.838362
H       -4.502414    -2.206605     4.613914
H       -3.734560    -3.775799     5.242077
H       -5.225428    -3.786229     4.300464
H       -4.273924    -5.360304     1.605473
H       -3.534789    -5.836684     3.189216
H       -2.515752    -5.492256     1.777490
H       -3.949813    -1.490518     1.263931
H       -5.434397    -2.089930     2.019056
H       -4.732985    -3.059950     0.714820
H        1.892124    -3.899718     4.931065
H        2.458845    -4.371629     3.320018
H        1.911673    -2.697850     3.625307
H       -0.530630    -6.350626     4.670326
H       -1.809332    -5.147512     4.863770
H       -0.185623    -4.994050     5.744008
H        1.174928    -5.709524     1.715221
H       -0.297004    -4.991731     1.041619
H       -0.361815    -6.477479     2.145966
H        0.795043     5.873165     3.909876
H       -0.310455     4.957486     2.887311
H        1.147109     5.855784     2.178589
H        3.739169     3.373820     4.807596
H        2.704095     4.690191     5.372995
H        3.815294     5.066036     4.050370
H       -0.161695     3.074282     4.763960
H        0.435150     1.763966     3.610774
H        1.295851     2.170750     5.196773
H        6.690602     3.810749     2.084605
H        5.746952     3.740284     3.568929
H        5.241797     4.814072     2.149412
H        3.995548     0.332655     2.974296
H        5.668259     0.158943     2.407058
H        5.269928     1.173651     3.882874
H        6.235630     2.809483    -0.233698
H        4.741797     1.957278    -0.649477
H        6.171329     1.077400     0.133819
