95
ex_0371 frame0 tetrahedral cis-conf4
C        4.836710     2.513985     2.132610
C        3.893616     2.928734     1.028389
C        3.891627     1.879679     0.010998
C        4.952576     1.777978    -0.936713
C        6.079050     2.694997    -0.908017
N        6.925078     3.456341    -0.725081
C        4.927951     0.815787    -1.889004
C        6.007703     0.692280    -2.848739
N        6.866495     0.528808    -3.607569
C        3.864512    -0.070935    -1.938339
C        3.822739    -1.116878    -2.982636
C        4.746452    -2.258875    -2.625786
C        2.832303    -0.027646    -1.012250
C        2.845643     0.993708     0.002247
Se       1.478769     1.248675     1.409612
Pt       0.000000     0.000000     0.000000
P       -1.303961    -1.296825     1.311883
C       -3.091245    -1.032956     0.961740
C       -3.676942     0.219376     1.152559
C       -5.035438     0.412673     0.891594
C       -5.824408    -0.632965     0.440198
C       -5.247897    -1.870797     0.244926
C       -3.893480    -2.059845     0.504396
C       -1.057639    -3.102823     1.096981
C       -0.915386    -3.954770     2.211805
C       -0.734717    -5.334923     2.020270
C       -0.689728    -5.854787     0.734239
C       -0.825393    -5.013588    -0.348037
C       -1.007856    -3.654888    -0.159674
C       -0.958751    -0.959219     3.048970
C        0.357632    -1.061327     3.548155
C        0.614597    -0.800143     4.894107
C       -0.422914    -0.439394     5.742657
C       -1.718764    -0.341818     5.244919
C       -1.990307    -0.595963     3.906308
P       -1.279132     1.319529    -1.293083
C       -1.997401     2.701701    -0.371225
C       -2.584188     3.729592    -1.089513
C       -3.151200     4.827993    -0.479063
C       -3.160347     4.896936     0.898596
C       -2.592710     3.861324     1.647521
C       -1.986899     2.777587     1.011504
C       -2.678492     0.339787    -2.021375
C       -2.510634    -0.950737    -2.504183
C       -3.596580    -1.656739    -3.052604
C       -4.852981    -1.075029    -3.121868
C       -5.025033     0.206405    -2.641395
C       -3.952477     0.912807    -2.091191
C       -0.360529     2.077717    -2.639713
C       -0.159942     1.333598    -3.807849
C        0.535566     1.846005    -4.869937
C        1.046040     3.129868    -4.780146
C        0.860175     3.901080    -3.622251
C        0.151786     3.382742    -2.543084
Se       1.456925    -1.442708    -1.226811
H        4.236550     2.158861     2.991544
H        5.493537     1.670286     1.821961
H        5.479177     3.383899     2.367767
H        4.206133     3.879640     0.563208
H        2.890015     3.115578     1.430266
H        2.809737    -1.507902    -3.118867
H        4.068678    -0.713332    -3.974784
H        4.285732    -3.194721    -2.991468
H        4.899594    -2.348550    -1.530755
H        5.702375    -2.127064    -3.172226
H       -3.158547     1.003111     1.510798
H       -5.507230     1.362962     1.033754
H       -6.872567    -0.497920     0.237451
H       -5.817814    -2.713977    -0.105072
H       -3.476071    -3.016524     0.345277
H       -0.954820    -3.553636     3.199806
H       -0.627744    -6.006841     2.852446
H       -0.551444    -6.901311     0.546382
H       -0.789323    -5.420805    -1.344661
H       -1.106479    -3.052330    -1.031765
H        1.181399    -1.341299     2.909515
H        1.612335    -0.869435     5.302498
H       -0.217737    -0.236108     6.792798
H       -2.506337    -0.064236     5.908747
H       -3.010780    -0.520361     3.533372
H       -2.588346     3.698039    -2.162833
H       -3.579891     5.615277    -1.097867
H       -3.608129     5.761982     1.350396
H       -2.600073     3.908389     2.708150
H       -1.543370     1.965826     1.576715
H       -1.564686    -1.416338    -2.462202
H       -3.476320    -2.653833    -3.429563
H       -5.711350    -1.581289    -3.536686
H       -5.996059     0.668522    -2.688760
H       -4.132112     1.909961    -1.727186
H       -0.563267     0.327666    -3.873355
H        0.662964     1.227948    -5.749097
H        1.586274     3.508642    -5.622729
H        1.266020     4.892289    -3.577242
H       -0.004031     3.955738    -1.633006
95
ex_0371 frame1 cis
C       -0.696349     5.703922    -0.130819
C        0.129620     4.978101    -1.181723
C        1.312342     4.388854    -0.585846
C        2.453242     5.186261    -0.202473
C        2.448942     6.638433    -0.395936
N        2.262527     7.716405    -0.650557
C        3.510555     4.557974     0.332471
C        4.702181     5.340223     0.726896
N        5.586471     6.017959     1.025808
C        3.544441     3.216820     0.533914
C        4.748965     2.588253     1.137207
C        4.789776     2.850681     2.627213
C        2.490879     2.428790     0.190990
C        1.343171     2.994342    -0.377420
Se      -0.217936     2.059743    -0.911964
Pt       0.517042    -0.042826    -0.123177
P       -0.685152    -0.600128     1.665919
C       -0.155883    -2.286811     2.040525
C        0.893408    -2.488332     2.936931
C        1.232582    -3.792994     3.332830
C        0.569317    -4.877213     2.798559
C       -0.428581    -4.662286     1.862446
C       -0.764376    -3.349655     1.462975
C       -0.424761     0.623245     2.912965
C        0.861083     0.980267     3.343565
C        0.979493     1.898230     4.409582
C       -0.148510     2.461476     4.986125
C       -1.390323     2.120750     4.506659
C       -1.509344     1.212854     3.447301
C       -2.402002    -0.671347     1.182863
C       -3.153105    -1.491793     1.848306
C       -4.501723    -1.594338     1.626598
C       -5.120947    -0.836394     0.645658
C       -4.355945     0.028121    -0.121300
C       -2.961391     0.126281     0.113655
P        0.617470    -1.378922    -1.914110
C       -1.117545    -1.415646    -2.390922
C       -1.712447    -0.342927    -2.999583
C       -3.011244    -0.454148    -3.497020
C       -3.739603    -1.631340    -3.300645
C       -3.169043    -2.681220    -2.615520
C       -1.869043    -2.565705    -2.132241
C        1.552157    -0.547831    -3.172390
C        1.028216    -0.471402    -4.404751
C        1.760106     0.063765    -5.465754
C        3.018519     0.578912    -5.254413
C        3.547963     0.565307    -3.974895
C        2.811657     0.019186    -2.892414
C        1.371504    -2.842197    -1.312093
C        2.179941    -2.914446    -0.147098
C        2.761534    -4.181697     0.153437
C        2.509819    -5.284011    -0.654400
C        1.685553    -5.146006    -1.755106
C        1.127173    -3.927212    -2.048427
Se       2.700796     0.539247     0.543738
H       -0.293595     5.543077     0.890318
H       -0.635776     6.779382    -0.390002
H       -1.746059     5.333473    -0.124730
H       -0.502235     4.241588    -1.657756
H        0.455731     5.641567    -2.001995
H        5.668086     2.978500     0.677322
H        4.782928     1.519337     0.990981
H        4.089963     3.667125     2.898348
H        5.821784     3.109467     2.945785
H        4.483650     1.958098     3.202153
H        1.413790    -1.691301     3.373792
H        2.004369    -3.958173     4.057497
H        0.823548    -5.886894     3.098870
H       -0.945639    -5.500384     1.446834
H       -1.537822    -3.166176     0.751065
H        1.751508     0.589631     2.965778
H        1.941019     2.176570     4.798598
H       -0.048113     3.165651     5.804333
H       -2.267721     2.559397     4.955440
H       -2.481358     0.966287     3.110731
H       -2.703053    -2.109340     2.640061
H       -5.057043    -2.271687     2.238321
H       -6.185202    -0.957368     0.520307
H       -4.828997     0.622524    -0.886789
H       -2.425668     0.778399    -0.464499
H       -1.196542     0.572483    -3.194410
H       -3.452467     0.370911    -4.033097
H       -4.743443    -1.750870    -3.662823
H       -3.738497    -3.600568    -2.463786
H       -1.456020    -3.381905    -1.624980
H        0.072598    -0.868138    -4.627399
H        1.320146     0.058438    -6.453878
H        3.568817     0.988993    -6.093300
H        4.528559     0.969320    -3.832102
H        3.284222     0.033670    -1.955701
H        2.384999    -2.106613     0.470313
H        3.403150    -4.302780     1.005207
H        2.933237    -6.256179    -0.455911
H        1.479975    -5.995574    -2.395797
H        0.492044    -3.878325    -2.925078
95
ex_0371 frame2 trans-2
C        0.982512     4.906449     0.505157
C        1.846302     3.886374     1.203343
C        0.977289     3.122306     2.094429
C        0.515858     3.715298     3.290718
C        0.806038     5.065625     3.717135
N        1.352549     6.076040     3.933670
C       -0.272438     2.997306     4.143489
C       -0.716263     3.591417     5.420364
N       -1.093776     4.020289     6.418005
C       -0.660455     1.725374     3.831497
C       -1.532592     0.950195     4.743371
C       -0.645035     0.446328     5.855153
C       -0.236986     1.131154     2.641100
C        0.591422     1.853835     1.771562
Se       1.274074     1.195174     0.075339
Pt       0.200235    -0.947703     0.219500
P        1.762469    -2.500286     0.549757
C        2.124712    -3.255144    -1.011878
C        1.133392    -3.451609    -2.024251
C        1.524093    -4.147775    -3.195078
C        2.821193    -4.580388    -3.348325
C        3.739548    -4.319355    -2.349915
C        3.365025    -3.631354    -1.198657
C        1.089989    -3.646927     1.708643
C        0.862498    -4.913533     1.306059
C        0.470141    -5.871493     2.247891
C        0.247641    -5.513755     3.575545
C        0.409717    -4.203498     3.963153
C        0.797909    -3.244359     3.026389
C        3.183880    -1.662641     1.133527
C        3.771230    -0.643446     0.394572
C        4.971625    -0.075167     0.797924
C        5.550179    -0.490812     1.975288
C        4.915407    -1.471695     2.748667
C        3.709485    -2.036696     2.345195
P       -1.430919    -0.637385    -1.265214
C       -2.573711    -1.964158    -1.074250
C       -2.277413    -3.218338    -0.499683
C       -3.317402    -4.191605    -0.477664
C       -4.567688    -3.896241    -0.978494
C       -4.802680    -2.644355    -1.500157
C       -3.802150    -1.698040    -1.529818
C       -0.683602    -0.493362    -2.836745
C        0.715216    -0.255104    -2.973783
C        1.235848    -0.105457    -4.275518
C        0.413196    -0.212459    -5.370437
C       -0.935217    -0.469328    -5.176611
C       -1.463483    -0.613526    -3.894844
C       -2.182373     0.893681    -0.783841
C       -1.715699     2.075498    -1.289304
C       -2.399180     3.256164    -1.036411
C       -3.516427     3.239941    -0.206791
C       -3.951217     2.053399     0.378103
C       -3.255068     0.879701     0.116312
Se      -0.863762    -0.603067     2.352283
H        1.560974     5.797815     0.226281
H        0.505755     4.502480    -0.407623
H        0.174524     5.223112     1.189537
H        2.636114     4.421980     1.765147
H        2.304431     3.250717     0.453040
H       -2.025723     0.102350     4.222118
H       -2.298688     1.632604     5.134655
H        0.003740     1.290851     6.170379
H        0.038765    -0.314908     5.425777
H       -1.220758     0.046026     6.715910
H        0.141520    -3.155767    -1.963834
H        0.784343    -4.338722    -3.958584
H        3.106735    -5.114796    -4.247062
H        4.737456    -4.661241    -2.484347
H        4.116366    -3.455502    -0.437731
H        1.045757    -5.193361     0.282269
H        0.340577    -6.891278     1.960782
H       -0.055222    -6.225533     4.322834
H        0.246979    -3.891581     4.985702
H        0.930991    -2.247986     3.374937
H        3.361730    -0.306805    -0.529070
H        5.443012     0.685121     0.174909
H        6.485635    -0.043843     2.280384
H        5.387500    -1.771669     3.651413
H        3.220011    -2.805112     2.924325
H       -1.355367    -3.486154    -0.118365
H       -3.135967    -5.168698    -0.071553
H       -5.369581    -4.622525    -0.969399
H       -5.775372    -2.419341    -1.887592
H       -4.051031    -0.731406    -1.951151
H        1.407515    -0.157713    -2.184708
H        2.281400     0.093923    -4.409970
H        0.820446    -0.098014    -6.369973
H       -1.561136    -0.549555    -6.039083
H       -2.507155    -0.812234    -3.761271
H       -0.860139     2.057791    -1.932320
H       -2.071105     4.181383    -1.485666
H       -4.038894     4.149828    -0.016002
H       -4.830484     2.048120     1.027928
H       -3.594338    -0.030006     0.553676
95
ex_0371 frame3 trans-1
C        0.707093    -4.386231    -3.431166
C       -0.367315    -3.348518    -3.302697
C        0.080156    -1.976895    -3.651082
C        0.229162    -1.668644    -4.985727
C       -0.041044    -2.652564    -5.985854
N       -0.272652    -3.450418    -6.788857
C        0.643465    -0.390967    -5.296594
C        0.807138    -0.041858    -6.693269
N        0.920849     0.239970    -7.806586
C        0.888929     0.508945    -4.283463
C        1.331558     1.864084    -4.648427
C        0.165563     2.658202    -5.179036
C        0.733840     0.174128    -2.965585
C        0.327273    -1.076839    -2.631551
Se       0.066561    -1.700490    -0.854962
Pt       0.161485     0.435325     0.160281
P        1.692865     0.321242     1.729018
C        3.076475    -0.547678     1.045553
C        3.744362    -0.027534    -0.064435
C        4.886462    -0.636367    -0.543833
C        5.324458    -1.799032     0.064841
C        4.620787    -2.328079     1.130658
C        3.469791    -1.730660     1.628341
C        1.032146    -0.502181     3.098286
C        0.987537     0.095761     4.325413
C        0.554073    -0.614443     5.427906
C        0.113304    -1.908847     5.293363
C        0.097398    -2.511107     4.067223
C        0.529253    -1.796232     2.981865
C        2.078794     2.021141     1.948261
C        3.058268     2.196004     2.922389
C        3.493834     3.456934     3.237340
C        3.015025     4.601891     2.637112
C        2.036045     4.419162     1.664356
C        1.587013     3.155017     1.335887
P       -1.878330     1.152356     0.497930
C       -2.849612    -0.181298     1.018874
C       -4.133105     0.263621     1.278509
C       -5.105832    -0.615282     1.709465
C       -4.801772    -1.949109     1.885440
C       -3.530541    -2.427242     1.636188
C       -2.591390    -1.505601     1.206497
C       -2.426201     1.888097    -1.010298
C       -1.759212     2.888886    -1.703033
C       -2.298766     3.495073    -2.820201
C       -3.511653     3.075857    -3.318071
C       -4.160166     2.046330    -2.674697
C       -3.605966     1.442420    -1.551162
C       -1.760783     2.348592     1.804051
C       -1.620411     1.981238     3.133153
C       -1.662581     2.912233     4.154320
C       -1.778952     4.256237     3.853565
C       -1.849551     4.629834     2.536781
C       -1.806268     3.689671     1.530331
Se       1.115147     1.533358    -1.682561
H        1.667724    -3.965993    -3.793885
H        0.335401    -5.189750    -4.118398
H        0.914041    -4.887929    -2.453044
H       -0.804935    -3.398372    -2.287907
H       -1.221888    -3.559246    -4.006910
H        1.776861     2.350946    -3.756479
H        2.116179     1.850045    -5.437226
H       -0.778452     2.140601    -4.874352
H        0.200441     3.718111    -4.885861
H        0.172614     2.564526    -6.297651
H        3.423861     0.880389    -0.555499
H        5.419409    -0.200177    -1.382383
H        6.223005    -2.248897    -0.335154
H        4.980016    -3.247653     1.599450
H        2.913740    -2.136404     2.461076
H        1.336018     1.122529     4.423589
H        0.557550    -0.151690     6.414674
H       -0.212669    -2.414140     6.191667
H       -0.260768    -3.538727     4.004579
H        0.516180    -2.288623     2.018147
H        3.505454     1.367624     3.454784
H        4.251913     3.584284     3.991940
H        3.380558     5.584946     2.910157
H        1.661890     5.322137     1.197229
H        0.844472     3.045789     0.588731
H       -4.437537     1.295540     1.164194
H       -6.111405    -0.271344     1.913895
H       -5.599849    -2.595700     2.223647
H       -3.302425    -3.468271     1.776300
H       -1.604988    -1.874321     1.024033
H       -0.793154     3.275602    -1.380576
H       -1.778208     4.308900    -3.319786
H       -3.921293     3.561822    -4.196330
H       -5.115947     1.725756    -3.076003
H       -4.164274     0.647830    -1.114719
H       -1.541596     0.921216     3.323470
H       -1.603888     2.572623     5.196804
H       -1.817000     5.018916     4.618474
H       -1.943422     5.691705     2.272776
H       -1.875161     4.055628     0.521304
95
ex_0371 frame4 tetrahedral cis-conf4
C        4.836710     2.513985     2.132610
C        3.893616     2.928734     1.028389
C        3.893213     1.877776     0.012967
C        4.953055     1.777372    -0.936114
C        6.079050     2.694997    -0.908017
N        6.925078     3.456341    -0.725081
C        4.930439     0.812596    -1.885822
C        6.007703     0.692280    -2.848739
N        6.866495     0.528808    -3.607569
C        3.869739    -0.077489    -1.932089
C        3.822739    -1.116878    -2.982636
C        4.746452    -2.258875    -2.625786
C        2.836777    -0.032843    -1.007003
C        2.847874     0.991054     0.004908
Se       1.478769     1.248675     1.409612
Pt       0.000000     0.000000     0.000000
P       -1.303961    -1.296825     1.311883
C       -3.091245    -1.032956     0.961740
C       -3.676942     0.219376     1.152559
C       -5.035438     0.412673     0.891594
C       -5.824408    -0.632965     0.440198
C       -5.247897    -1.870797     0.244926
C       -3.893480    -2.059845     0.504396
C       -1.057639    -3.102823     1.096981
C       -0.915386    -3.954770     2.211805
C       -0.734717    -5.334923     2.020270
C       -0.689728    -5.854787     0.734239
C       -0.825393    -5.013588    -0.348037
C       -1.007856    -3.654888    -0.159674
C       -0.958751    -0.959219     3.048970
C        0.357632    -1.061327     3.548155
C        0.614597    -0.800143     4.894107
C       -0.422914    -0.439394     5.742657
C       -1.718764    -0.341818     5.244919
C       -1.990307    -0.595963     3.906308
P       -1.279132     1.319529    -1.293083
C       -1.997401     2.701701    -0.371225
C       -2.584188     3.729592    -1.089513
C       -3.151200     4.827993    -0.479063
C       -3.160347     4.896936     0.898596
C       -2.592710     3.861324     1.647521
C       -1.986899     2.777587     1.011504
C       -2.678492     0.339787    -2.021375
C       -2.510634    -0.950737    -2.504183
C       -3.596580    -1.656739    -3.052604
C       -4.852981    -1.075029    -3.121868
C       -5.025033     0.206405    -2.641395
C       -3.952477     0.912807    -2.091191
C       -0.360529     2.077717    -2.639713
C       -0.159942     1.333598    -3.807849
C        0.535566     1.846005    -4.869937
C        1.046040     3.129868    -4.780146
C        0.860175     3.901080    -3.622251
C        0.151786     3.382742    -2.543084
Se       1.456925    -1.442708    -1.226811
H        4.236550     2.158861     2.991544
H        5.493537     1.670286     1.821961
H        5.479177     3.383899     2.367767
H        4.206133     3.879640     0.563208
H        2.890015     3.115578     1.430266
H        2.809737    -1.507902    -3.118867
H        4.068678    -0.713332    -3.974784
H        4.285732    -3.194721    -2.991468
H        4.899594    -2.348550    -1.530755
H        5.702375    -2.127064    -3.172226
H       -3.158547     1.003111     1.510798
H       -5.507230     1.362962     1.033754
H       -6.872567    -0.497920     0.237451
H       -5.817814    -2.713977    -0.105072
H       -3.476071    -3.016524     0.345277
H       -0.954820    -3.553636     3.199806
H       -0.627744    -6.006841     2.852446
H       -0.551444    -6.901311     0.546382
H       -0.789323    -5.420805    -1.344661
H       -1.106479    -3.052330    -1.031765
H        1.181399    -1.341299     2.909515
H        1.612335    -0.869435     5.302498
H       -0.217737    -0.236108     6.792798
H       -2.506337    -0.064236     5.908747
H       -3.010780    -0.520361     3.533372
H       -2.588346     3.698039    -2.162833
H       -3.579891     5.615277    -1.097867
H       -3.608129     5.761982     1.350396
H       -2.600073     3.908389     2.708150
H       -1.543370     1.965826     1.576715
H       -1.564686    -1.416338    -2.462202
H       -3.476320    -2.653833    -3.429563
H       -5.711350    -1.581289    -3.536686
H       -5.996059     0.668522    -2.688760
H       -4.132112     1.909961    -1.727186
H       -0.563267     0.327666    -3.873355
H        0.662964     1.227948    -5.749097
H        1.586274     3.508642    -5.622729
H        1.266020     4.892289    -3.577242
H       -0.004031     3.955738    -1.633006
95
ex_0371 frame5 cis
C       -0.696349     5.703922    -0.130819
C        0.129620     4.978101    -1.181723
C        1.312391     4.388838    -0.585958
C        2.453352     5.186227    -0.202731
C        2.448942     6.638433    -0.395936
N        2.262527     7.716405    -0.650557
C        3.510653     4.557942     0.332240
C        4.702181     5.340223     0.726896
N        5.586471     6.017959     1.025808
C        3.544685     3.216741     0.533346
C        4.748965     2.588253     1.137207
C        4.789776     2.850681     2.627213
C        2.490555     2.428895     0.191747
C        1.343063     2.994377    -0.377168
Se      -0.217936     2.059743    -0.911964
Pt       0.517042    -0.042826    -0.123177
P       -0.685152    -0.600128     1.665919
C       -0.155883    -2.286811     2.040525
C        0.893408    -2.488332     2.936931
C        1.232582    -3.792994     3.332830
C        0.569317    -4.877213     2.798559
C       -0.428581    -4.662286     1.862446
C       -0.764376    -3.349655     1.462975
C       -0.424761     0.623245     2.912965
C        0.861083     0.980267     3.343565
C        0.979493     1.898230     4.409582
C       -0.148510     2.461476     4.986125
C       -1.390323     2.120750     4.506659
C       -1.509344     1.212854     3.447301
C       -2.402002    -0.671347     1.182863
C       -3.153105    -1.491793     1.848306
C       -4.501723    -1.594338     1.626598
C       -5.120947    -0.836394     0.645658
C       -4.355945     0.028121    -0.121300
C       -2.961391     0.126281     0.113655
P        0.617470    -1.378922    -1.914110
C       -1.117545    -1.415646    -2.390922
C       -1.712447    -0.342927    -2.999583
C       -3.011244    -0.454148    -3.497020
C       -3.739603    -1.631340    -3.300645
C       -3.169043    -2.681220    -2.615520
C       -1.869043    -2.565705    -2.132241
C        1.552157    -0.547831    -3.172390
C        1.028216    -0.471402    -4.404751
C        1.760106     0.063765    -5.465754
C        3.018519     0.578912    -5.254413
C        3.547963     0.565307    -3.974895
C        2.811657     0.019186    -2.892414
C        1.371504    -2.842197    -1.312093
C        2.179941    -2.914446    -0.147098
C        2.761534    -4.181697     0.153437
C        2.509819    -5.284011    -0.654400
C        1.685553    -5.146006    -1.755106
C        1.127173    -3.927212    -2.048427
Se       2.700796     0.539247     0.543738
H       -0.293595     5.543077     0.890318
H       -0.635776     6.779382    -0.390002
H       -1.746059     5.333473    -0.124730
H       -0.502235     4.241588    -1.657756
H        0.455731     5.641567    -2.001995
H        5.668086     2.978500     0.677322
H        4.782928     1.519337     0.990981
H        4.089963     3.667125     2.898348
H        5.821784     3.109467     2.945785
H        4.483650     1.958098     3.202153
H        1.413790    -1.691301     3.373792
H        2.004369    -3.958173     4.057497
H        0.823548    -5.886894     3.098870
H       -0.945639    -5.500384     1.446834
H       -1.537822    -3.166176     0.751065
H        1.751508     0.589631     2.965778
H        1.941019     2.176570     4.798598
H       -0.048113     3.165651     5.804333
H       -2.267721     2.559397     4.955440
H       -2.481358     0.966287     3.110731
H       -2.703053    -2.109340     2.640061
H       -5.057043    -2.271687     2.238321
H       -6.185202    -0.957368     0.520307
H       -4.828997     0.622524    -0.886789
H       -2.425668     0.778399    -0.464499
H       -1.196542     0.572483    -3.194410
H       -3.452467     0.370911    -4.033097
H       -4.743443    -1.750870    -3.662823
H       -3.738497    -3.600568    -2.463786
H       -1.456020    -3.381905    -1.624980
H        0.072598    -0.868138    -4.627399
H        1.320146     0.058438    -6.453878
H        3.568817     0.988993    -6.093300
H        4.528559     0.969320    -3.832102
H        3.284222     0.033670    -1.955701
H        2.384999    -2.106613     0.470313
H        3.403150    -4.302780     1.005207
H        2.933237    -6.256179    -0.455911
H        1.479975    -5.995574    -2.395797
H        0.492044    -3.878325    -2.925078
95
ex_0371 frame6 trans-2
C        0.982512     4.906449     0.505157
C        1.846302     3.886374     1.203343
C        0.971164     3.125059     2.090751
C        0.512810     3.716523     3.288947
C        0.806038     5.065625     3.717135
N        1.352549     6.076040     3.933670
C       -0.273327     2.997696     4.142999
C       -0.716263     3.591417     5.420364
N       -1.093776     4.020289     6.418005
C       -0.660287     1.725299     3.831594
C       -1.532592     0.950195     4.743371
C       -0.645035     0.446328     5.855153
C       -0.239790     1.132431     2.639476
C        0.588159     1.855297     1.769671
Se       1.274074     1.195174     0.075339
Pt       0.200235    -0.947703     0.219500
P        1.762469    -2.500286     0.549757
C        2.124712    -3.255144    -1.011878
C        1.133392    -3.451609    -2.024251
C        1.524093    -4.147775    -3.195078
C        2.821193    -4.580388    -3.348325
C        3.739548    -4.319355    -2.349915
C        3.365025    -3.631354    -1.198657
C        1.089989    -3.646927     1.708643
C        0.862498    -4.913533     1.306059
C        0.470141    -5.871493     2.247891
C        0.247641    -5.513755     3.575545
C        0.409717    -4.203498     3.963153
C        0.797909    -3.244359     3.026389
C        3.183880    -1.662641     1.133527
C        3.771230    -0.643446     0.394572
C        4.971625    -0.075167     0.797924
C        5.550179    -0.490812     1.975288
C        4.915407    -1.471695     2.748667
C        3.709485    -2.036696     2.345195
P       -1.430919    -0.637385    -1.265214
C       -2.573711    -1.964158    -1.074250
C       -2.277413    -3.218338    -0.499683
C       -3.317402    -4.191605    -0.477664
C       -4.567688    -3.896241    -0.978494
C       -4.802680    -2.644355    -1.500157
C       -3.802150    -1.698040    -1.529818
C       -0.683602    -0.493362    -2.836745
C        0.715216    -0.255104    -2.973783
C        1.235848    -0.105457    -4.275518
C        0.413196    -0.212459    -5.370437
C       -0.935217    -0.469328    -5.176611
C       -1.463483    -0.613526    -3.894844
C       -2.182373     0.893681    -0.783841
C       -1.715699     2.075498    -1.289304
C       -2.399180     3.256164    -1.036411
C       -3.516427     3.239941    -0.206791
C       -3.951217     2.053399     0.378103
C       -3.255068     0.879701     0.116312
Se      -0.863762    -0.603067     2.352283
H        1.560974     5.797815     0.226281
H        0.505755     4.502480    -0.407623
H        0.174524     5.223112     1.189537
H        2.636114     4.421980     1.765147
H        2.304431     3.250717     0.453040
H       -2.025723     0.102350     4.222118
H       -2.298688     1.632604     5.134655
H        0.003740     1.290851     6.170379
H        0.038765    -0.314908     5.425777
H       -1.220758     0.046026     6.715910
H        0.141520    -3.155767    -1.963834
H        0.784343    -4.338722    -3.958584
H        3.106735    -5.114796    -4.247062
H        4.737456    -4.661241    -2.484347
H        4.116366    -3.455502    -0.437731
H        1.045757    -5.193361     0.282269
H        0.340577    -6.891278     1.960782
H       -0.055222    -6.225533     4.322834
H        0.246979    -3.891581     4.985702
H        0.930991    -2.247986     3.374937
H        3.361730    -0.306805    -0.529070
H        5.443012     0.685121     0.174909
H        6.485635    -0.043843     2.280384
H        5.387500    -1.771669     3.651413
H        3.220011    -2.805112     2.924325
H       -1.355367    -3.486154    -0.118365
H       -3.135967    -5.168698    -0.071553
H       -5.369581    -4.622525    -0.969399
H       -5.775372    -2.419341    -1.887592
H       -4.051031    -0.731406    -1.951151
H        1.407515    -0.157713    -2.184708
H        2.281400     0.093923    -4.409970
H        0.820446    -0.098014    -6.369973
H       -1.561136    -0.549555    -6.039083
H       -2.507155    -0.812234    -3.761271
H       -0.860139     2.057791    -1.932320
H       -2.071105     4.181383    -1.485666
H       -4.038894     4.149828    -0.016002
H       -4.830484     2.048120     1.027928
H       -3.594338    -0.030006     0.553676
