52
ex_0028 frame0 OC-6-chelate-1
Ni       0.000000     0.000000     0.000000
Cl       5.954492     3.244065     0.000012
C        4.236683     2.916789     0.000006
C        3.276769     3.914303     0.000007
C        1.905907     3.631239    -0.000001
I        0.454820     5.145038    -0.000014
C        1.457182     2.296256    -0.000001
O        0.014927     1.899941     0.000000
N        1.949940     0.015320    -0.000000
C        2.473402     1.371276     0.000000
C        3.830966     1.621999     0.000006
C        4.681106     0.433646     0.000010
C        4.219909    -0.834741     0.000013
C        2.692827    -1.026320     0.000006
H        3.604052     4.957036     0.000017
H        5.773448     0.611678     0.000026
H        4.843949    -1.694778     0.000029
H        2.261264    -1.991729     0.000011
O       -0.053135     0.000000     1.899257
C       -1.501719    -0.000009     2.372661
C       -2.476313    -0.000014     1.398244
C       -3.837154    -0.000025     1.608683
C       -4.310249    -0.000025     2.888849
Cl      -6.019867    -0.000033     3.156013
C       -3.371565    -0.000018     3.927669
C       -2.012890    -0.000028     3.684380
I       -0.587064    -0.000073     5.231015
C       -4.664017    -0.000030     0.402643
C       -4.160439    -0.000011    -0.849585
C       -2.648108     0.000008    -1.002131
N       -1.949237     0.000000     0.054533
H       -3.735078     0.000005     4.941364
H       -5.759848    -0.000060     0.544328
H       -4.769411     0.000010    -1.723984
H       -2.175787     0.000021    -1.947827
O        0.000000    -0.053135    -1.899257
C       -0.000009    -1.501719    -2.372661
C       -0.000014    -2.476313    -1.398244
C       -0.000025    -3.837154    -1.608683
C       -0.000025    -4.310249    -2.888849
Cl      -0.000033    -6.019867    -3.156013
C       -0.000018    -3.371565    -3.927669
C       -0.000028    -2.012890    -3.684380
I       -0.000073    -0.587064    -5.231015
C       -0.000030    -4.664017    -0.402643
C       -0.000011    -4.160439     0.849585
C        0.000008    -2.648108     1.002131
N       -0.000000    -1.949237    -0.054533
H        0.000005    -3.735078    -4.941364
H       -0.000060    -5.759848    -0.544328
H        0.000010    -4.769411     1.723984
H        0.000021    -2.175787     1.947827
52
ex_0028 frame1 OC-6-chelate-2
Ni       0.000000     0.000000     0.000000
Cl       5.954492     3.244065     0.000012
C        4.236683     2.916789     0.000006
C        3.276769     3.914303     0.000007
C        1.905907     3.631239    -0.000001
I        0.454820     5.145038    -0.000014
C        1.457182     2.296256    -0.000001
O        0.014927     1.899941     0.000000
N        1.949940     0.015320    -0.000000
C        2.473402     1.371276     0.000000
C        3.830966     1.621999     0.000006
C        4.681106     0.433646     0.000010
C        4.219909    -0.834741     0.000013
C        2.692827    -1.026320     0.000006
H        3.604052     4.957036     0.000017
H        5.773448     0.611678     0.000026
H        4.843949    -1.694778     0.000029
H        2.261264    -1.991729     0.000011
O       -1.899257    -0.000000     0.053135
C       -2.372661     0.000009     1.501719
C       -1.398244     0.000014     2.476313
C       -1.608683     0.000025     3.837154
C       -2.888849     0.000025     4.310249
Cl      -3.156013     0.000033     6.019867
C       -3.927669     0.000018     3.371565
C       -3.684380     0.000028     2.012890
I       -5.231015     0.000073     0.587064
C       -0.402643     0.000030     4.664017
C        0.849585     0.000011     4.160439
C        1.002131    -0.000008     2.648108
N       -0.054533    -0.000000     1.949237
H       -4.941364    -0.000005     3.735078
H       -0.544328     0.000060     5.759848
H        1.723984    -0.000010     4.769411
H        1.947827    -0.000021     2.175787
O        0.000000    -0.053135    -1.899257
C       -0.000009    -1.501719    -2.372661
C       -0.000014    -2.476313    -1.398244
C       -0.000025    -3.837154    -1.608683
C       -0.000025    -4.310249    -2.888849
Cl      -0.000033    -6.019867    -3.156013
C       -0.000018    -3.371565    -3.927669
C       -0.000028    -2.012890    -3.684380
I       -0.000073    -0.587064    -5.231015
C       -0.000030    -4.664017    -0.402643
C       -0.000011    -4.160439     0.849585
C        0.000008    -2.648108     1.002131
N       -0.000000    -1.949237    -0.054533
H        0.000005    -3.735078    -4.941364
H       -0.000060    -5.759848    -0.544328
H        0.000010    -4.769411     1.723984
H        0.000021    -2.175787     1.947827
52
ex_0028 frame2 OC-6-chelate-3
Ni       0.000000     0.000000     0.000000
Cl       5.954492     3.244065     0.000012
C        4.236683     2.916789     0.000006
C        3.276769     3.914303     0.000007
C        1.905907     3.631239    -0.000001
I        0.454820     5.145038    -0.000014
C        1.457182     2.296256    -0.000001
O        0.014927     1.899941     0.000000
N        1.949940     0.015320    -0.000000
C        2.473402     1.371276     0.000000
C        3.830966     1.621999     0.000006
C        4.681106     0.433646     0.000010
C        4.219909    -0.834741     0.000013
C        2.692827    -1.026320     0.000006
H        3.604052     4.957036     0.000017
H        5.773448     0.611678     0.000026
H        4.843949    -1.694778     0.000029
H        2.261264    -1.991729     0.000011
O       -0.053135    -0.000000    -1.899257
C       -1.501719     0.000009    -2.372661
C       -2.476313     0.000014    -1.398244
C       -3.837154     0.000025    -1.608683
C       -4.310249     0.000025    -2.888849
Cl      -6.019867     0.000033    -3.156013
C       -3.371565     0.000018    -3.927669
C       -2.012890     0.000028    -3.684380
I       -0.587064     0.000073    -5.231015
C       -4.664017     0.000030    -0.402643
C       -4.160439     0.000011     0.849585
C       -2.648108    -0.000008     1.002131
N       -1.949237    -0.000000    -0.054533
H       -3.735078    -0.000005    -4.941364
H       -5.759848     0.000060    -0.544328
H       -4.769411    -0.000010     1.723984
H       -2.175787    -0.000021     1.947827
O       -0.000000    -0.053135     1.899257
C        0.000009    -1.501719     2.372661
C        0.000014    -2.476313     1.398244
C        0.000025    -3.837154     1.608683
C        0.000025    -4.310249     2.888849
Cl       0.000033    -6.019867     3.156013
C        0.000018    -3.371565     3.927669
C        0.000028    -2.012890     3.684380
I        0.000073    -0.587064     5.231015
C        0.000030    -4.664017     0.402643
C        0.000011    -4.160439    -0.849585
C       -0.000008    -2.648108    -1.002131
N        0.000000    -1.949237     0.054533
H       -0.000005    -3.735078     4.941364
H        0.000060    -5.759848     0.544328
H       -0.000010    -4.769411    -1.723984
H       -0.000021    -2.175787    -1.947827
52
ex_0028 frame3 OC-6-chelate-4
Ni       0.000000     0.000000     0.000000
Cl       5.954492     3.244065     0.000012
C        4.236683     2.916789     0.000006
C        3.276769     3.914303     0.000007
C        1.905907     3.631239    -0.000001
I        0.454820     5.145038    -0.000014
C        1.457182     2.296256    -0.000001
O        0.014927     1.899941     0.000000
N        1.949940     0.015320    -0.000000
C        2.473402     1.371276     0.000000
C        3.830966     1.621999     0.000006
C        4.681106     0.433646     0.000010
C        4.219909    -0.834741     0.000013
C        2.692827    -1.026320     0.000006
H        3.604052     4.957036     0.000017
H        5.773448     0.611678     0.000026
H        4.843949    -1.694778     0.000029
H        2.261264    -1.991729     0.000011
O       -1.899257     0.000000    -0.053135
C       -2.372661    -0.000009    -1.501719
C       -1.398244    -0.000014    -2.476313
C       -1.608683    -0.000025    -3.837154
C       -2.888849    -0.000025    -4.310249
Cl      -3.156013    -0.000033    -6.019867
C       -3.927669    -0.000018    -3.371565
C       -3.684380    -0.000028    -2.012890
I       -5.231015    -0.000073    -0.587064
C       -0.402643    -0.000030    -4.664017
C        0.849585    -0.000011    -4.160439
C        1.002131     0.000008    -2.648108
N       -0.054533     0.000000    -1.949237
H       -4.941364     0.000005    -3.735078
H       -0.544328    -0.000060    -5.759848
H        1.723984     0.000010    -4.769411
H        1.947827     0.000021    -2.175787
O       -0.000000    -0.053135     1.899257
C        0.000009    -1.501719     2.372661
C        0.000014    -2.476313     1.398244
C        0.000025    -3.837154     1.608683
C        0.000025    -4.310249     2.888849
Cl       0.000033    -6.019867     3.156013
C        0.000018    -3.371565     3.927669
C        0.000028    -2.012890     3.684380
I        0.000073    -0.587064     5.231015
C        0.000030    -4.664017     0.402643
C        0.000011    -4.160439    -0.849585
C       -0.000008    -2.648108    -1.002131
N        0.000000    -1.949237     0.054533
H       -0.000005    -3.735078     4.941364
H        0.000060    -5.759848     0.544328
H       -0.000010    -4.769411    -1.723984
H       -0.000021    -2.175787    -1.947827
