54
ex_0552 frame0 see-saw Cl-P-ax-conf4
C       -1.223304    -1.686578    -3.840023
C        0.122331    -1.633825    -3.102469
C        1.245554    -2.056018    -4.033652
P        0.449567    -0.035970    -2.235094
C       -0.819617     1.259363    -2.728255
C       -2.154731     1.167169    -1.963992
C       -0.256399     2.669052    -2.492177
C        2.227086     0.282185    -1.768672
As       2.570217    -0.071427     0.198255
C        3.621065    -1.738898     0.325375
C        5.013740    -1.603520    -0.287974
C        3.693017    -2.145447     1.808482
C        2.806190    -2.812632    -0.410374
C        3.325660     1.591658     1.041645
C        4.318586     2.333319     0.144894
C        3.979125     1.234137     2.381736
C        2.126331     2.520336     1.339238
Pd       0.000000     0.000000     0.000000
Cl      -0.370535    -0.051021     2.269039
Cl      -1.761852    -1.479566    -0.087102
H       -1.387828    -2.701899    -4.257075
H       -2.074339    -1.493627    -3.168501
H       -1.235609    -0.961891    -4.681487
H        0.096675    -2.389318    -2.285889
H        1.055079    -3.103877    -4.357386
H        2.213411    -2.053106    -3.504900
H        1.308252    -1.392016    -4.914364
H       -1.018275     1.186646    -3.817598
H       -2.003472     1.354266    -0.879157
H       -2.671705     0.207236    -2.092421
H       -2.858741     1.943374    -2.341752
H       -1.021917     3.444805    -2.726770
H        0.611317     2.852297    -3.158872
H        0.054529     2.803717    -1.436356
H        2.980592    -0.072979    -2.498421
H        2.287155     1.385722    -1.817438
H        5.599434    -0.833647     0.254607
H        5.552342    -2.573615    -0.226424
H        4.935960    -1.305016    -1.354418
H        4.079690    -3.179250     1.920418
H        4.355719    -1.483605     2.389727
H        2.677756    -2.105066     2.264865
H        2.761398    -2.585018    -1.486020
H        1.763465    -2.849426    -0.020609
H        3.260914    -3.817668    -0.290083
H        5.176497     1.683822    -0.111742
H        3.823940     2.677035    -0.785868
H        4.692871     3.240572     0.671250
H        4.295571     2.148599     2.927777
H        3.260966     0.679545     3.026776
H        4.881028     0.617310     2.212696
H        2.450380     3.456350     1.844074
H        1.584747     2.790748     0.410368
H        1.404594     2.021325     2.018814
54
ex_0552 frame1 Isomer 1
C       -1.562847     2.402625    -2.517596
C       -0.115459     1.925724    -2.627128
C        0.805664     3.112835    -2.226715
P        0.128249     0.607027    -1.398787
C        1.911158     0.133639    -1.837446
C        2.017220    -1.316063    -2.335261
C        2.937166     0.372130    -0.721734
C       -1.206368    -0.669947    -1.140739
As      -1.470174    -0.981878     0.842281
C       -3.293782    -0.443344     1.385372
C       -4.346791    -1.068335     0.478624
C       -3.342658     1.093073     1.278082
C       -3.520113    -0.822346     2.853509
C       -0.636515    -2.643058     1.562568
C       -1.431509    -3.895537     1.207553
C        0.777637    -2.741613     0.982631
C       -0.493110    -2.472183     3.089545
Pd       0.360723     0.832739     0.858718
Cl       1.473663     1.321145     2.811419
Cl      -0.539301     2.942434     1.027144
H       -2.251291     1.591063    -2.821193
H       -1.803672     2.697164    -1.471964
H       -1.736938     3.276990    -3.174600
H        0.096890     1.578638    -3.657202
H        0.673616     3.980869    -2.900482
H        1.881639     2.854605    -2.198427
H        0.563254     3.478559    -1.211596
H        2.247674     0.744111    -2.701482
H        1.682401    -2.015551    -1.567404
H        3.071580    -1.587091    -2.573038
H        1.409136    -1.473145    -3.248851
H        3.961434     0.157245    -1.113181
H        2.927314     1.429394    -0.393304
H        2.770283    -0.295663     0.143583
H       -0.970457    -1.602480    -1.694582
H       -2.150316    -0.258383    -1.527155
H       -4.170250    -0.765345    -0.573725
H       -4.302973    -2.173002     0.549344
H       -5.357622    -0.713681     0.773594
H       -2.591413     1.539132     1.964868
H       -3.113239     1.433711     0.246282
H       -4.333290     1.494860     1.576073
H       -3.496069    -1.921985     2.972519
H       -2.728257    -0.370553     3.494714
H       -4.504411    -0.453579     3.210935
H       -0.890656    -4.803989     1.550849
H       -1.563184    -3.950991     0.106163
H       -2.431016    -3.863202     1.684830
H        1.382910    -3.515734     1.500776
H        1.310988    -1.772260     1.082101
H        0.709157    -3.041655    -0.073061
H       -1.465952    -2.542997     3.605767
H       -0.045535    -1.479766     3.325558
H        0.167503    -3.251834     3.525454
54
ex_0552 frame2 see-saw As-Cl-ax-conf3
C       -3.922112     1.812185     1.244730
C       -2.944852     1.355531     0.146902
C       -3.723221     1.337514    -1.179823
P       -2.179107    -0.281165     0.618109
C       -2.877157    -1.927214     0.207346
C       -1.799818    -2.621599    -0.654180
C       -4.149065    -1.868686    -0.638410
C       -1.646566    -0.457012     2.392174
As       0.324610    -0.199864     2.550722
C        1.049467    -1.922980     3.235502
C        0.107298    -3.080408     2.865542
C        1.279836    -1.929034     4.745309
C        2.370862    -2.117129     2.471416
C        0.659809     1.429934     3.682049
C        2.179188     1.605735     3.835349
C       -0.015824     1.395365     5.059984
C        0.118693     2.640096     2.892331
Pd       0.000000     0.000000     0.000000
Cl      -0.516506     0.431129    -2.201351
Cl       2.175237     0.713413    -0.236157
H       -3.391204     1.991355     2.199336
H       -4.399816     2.778258     0.969945
H       -4.720122     1.056913     1.410683
H       -2.137817     2.116743     0.095240
H       -4.629763     0.705493    -1.097637
H       -4.096976     2.359080    -1.411552
H       -3.114128     0.996610    -2.032492
H       -3.057129    -2.511217     1.130935
H       -1.644001    -2.070380    -1.608599
H       -0.815802    -2.639633    -0.154684
H       -2.087136    -3.661417    -0.907758
H       -4.474626    -2.899833    -0.894893
H       -3.957357    -1.351244    -1.604019
H       -4.966705    -1.368307    -0.085275
H       -2.093129    -1.325414     2.902876
H       -2.076844     0.402832     2.931583
H       -0.856810    -3.008109     3.402770
H       -0.083035    -3.093905     1.781362
H        0.559393    -4.057256     3.134331
H        1.561920    -2.948675     5.083759
H        2.108374    -1.253102     5.024455
H        0.353179    -1.628825     5.271794
H        2.859274    -3.077651     2.731139
H        3.071228    -1.280505     2.679486
H        2.174298    -2.115835     1.373011
H        2.624510     0.761083     4.388508
H        2.420596     2.539924     4.386251
H        2.664879     1.652007     2.836464
H        0.405019     0.599273     5.699505
H       -1.110640     1.249354     4.958950
H        0.150597     2.364069     5.584385
H        0.341039     3.593925     3.420169
H        0.589532     2.691781     1.885934
H       -0.979373     2.570384     2.753169
