37
ex_0279 frame0 OC-6-chelate-1
Ti       0.000000     0.000000     0.000000
C        2.520544     3.396039    -3.331536
C        3.479761     2.406551    -3.383556
C        3.454686     1.457965    -2.388966
C        2.547559     1.520846    -1.363874
Se       2.795279     0.162536    -0.000000
Se       0.162536     2.795279    -0.000000
C        1.568174     2.488302    -1.287288
C        1.580468     3.429210    -2.325748
H        2.515513     4.159177    -4.103965
H        4.236761     2.337668    -4.150348
H        4.173821     0.632965    -2.343149
H        0.864283     4.243251    -2.363603
Se      -2.799563     0.000000     0.049494
C       -2.547361    -1.154105     1.574914
C       -3.584602    -2.057313     1.800154
C       -3.585005    -2.947837     2.845842
C       -2.531380    -2.989591     3.732006
C       -1.497237    -2.105257     3.514586
C       -1.551356    -1.163077     2.528630
Se      -0.049494     0.000000     2.799563
H       -4.425194    -2.064597     1.135998
H       -4.407001    -3.634979     2.999868
H       -2.488277    -3.672142     4.568267
H       -0.660139    -2.103347     4.177354
Se      -0.000000    -2.799563    -0.049494
C       -1.154105    -2.547361    -1.574914
C       -2.057313    -3.584602    -1.800154
C       -2.947837    -3.585005    -2.845842
C       -2.989591    -2.531380    -3.732006
C       -2.105257    -1.497237    -3.514586
C       -1.163077    -1.551356    -2.528630
Se      -0.000000    -0.049494    -2.799563
H       -2.064597    -4.425194    -1.135998
H       -3.634979    -4.407001    -2.999868
H       -3.672142    -2.488277    -4.568267
H       -2.103347    -0.660139    -4.177354
37
ex_0279 frame1 OC-6-chelate-1-conf2
Ti       0.000000     0.000000     0.000000
C        3.952343     2.832352    -2.519093
C        3.017208     3.852771    -2.508397
C        1.874882     3.718081    -1.761794
C        1.594773     2.617042    -0.974212
Se      -0.056573     2.799428     0.000000
Se       2.799428    -0.056573     0.000000
C        2.574360     1.609337    -0.958169
C        3.689314     1.700013    -1.762107
H        4.846469     2.954682    -3.112576
H        3.177007     4.738422    -3.073340
H        1.153985     4.510339    -1.757202
H        4.392621     0.900756    -1.753263
Se      -2.799563     0.000000     0.049494
C       -2.547361    -1.154105     1.574914
C       -3.595663    -2.062178     1.796191
C       -3.593378    -2.951216     2.843160
C       -2.531380    -2.989591     3.732006
C       -1.488864    -2.101878     3.517268
C       -1.540295    -1.158212     2.532593
Se      -0.049494     0.000000     2.799563
H       -4.425194    -2.064597     1.135998
H       -4.407001    -3.634979     2.999868
H       -2.488277    -3.672142     4.568267
H       -0.660139    -2.103347     4.177354
Se       0.000000    -2.799563    -0.049494
C       -1.154105    -2.547361    -1.574914
C       -2.062178    -3.595663    -1.796191
C       -2.951216    -3.593378    -2.843160
C       -2.989591    -2.531380    -3.732006
C       -2.101878    -1.488864    -3.517268
C       -1.158212    -1.540295    -2.532593
Se       0.000000    -0.049494    -2.799563
H       -2.064597    -4.425194    -1.135998
H       -3.634979    -4.407001    -2.999868
H       -3.672142    -2.488277    -4.568267
H       -2.103347    -0.660139    -4.177354
37
ex_0279 frame2 OC-6-chelate-1-conf3
Ti       0.000000     0.000000     0.000000
C        2.520544     3.396039    -3.331536
C        3.479761     2.406551    -3.383556
C        3.454686     1.457965    -2.388966
C        2.547559     1.520846    -1.363874
Se       2.795279     0.162536    -0.000000
Se       0.162536     2.795279    -0.000000
C        1.568174     2.488302    -1.287288
C        1.580468     3.429210    -2.325748
H        2.515513     4.159177    -4.103965
H        4.236761     2.337668    -4.150348
H        4.173821     0.632965    -2.343149
H        0.864283     4.243251    -2.363603
Se      -2.799563     0.000000     0.049494
C       -2.547361    -1.154105     1.574914
C       -3.584602    -2.057313     1.800154
C       -3.585005    -2.947837     2.845842
C       -2.531380    -2.989591     3.732006
C       -1.497237    -2.105257     3.514586
C       -1.551356    -1.163077     2.528630
Se      -0.049494     0.000000     2.799563
H       -4.425194    -2.064597     1.135998
H       -4.407001    -3.634979     2.999868
H       -2.488277    -3.672142     4.568267
H       -0.660139    -2.103347     4.177354
Se      -0.000000    -2.753492    -0.508215
C        1.601540    -2.540714    -1.540058
C        2.733984    -3.290002    -1.301580
C        3.889345    -3.027210    -2.000657
C        3.866242    -2.038605    -2.972603
C        2.720480    -1.312590    -3.258080
C        1.579097    -1.535328    -2.503585
Se      -0.000000    -0.508215    -2.753492
H        2.715666    -4.064434    -0.526390
H        4.793084    -3.582208    -1.792991
H        4.758466    -1.809287    -3.538660
H        2.717831    -0.545288    -4.018278
37
ex_0279 frame3 OC-6-chelate-1-conf4
Ti       0.000000     0.000000     0.000000
C        2.516830     3.403745    -3.335284
C        3.479761     2.406551    -3.383556
C        3.458400     1.450259    -2.385218
C        2.551801     1.512475    -1.359655
Se       2.795279     0.162536     0.000000
Se       0.162536     2.795279     0.000000
C        1.568174     2.488302    -1.287288
C        1.576226     3.437581    -2.329967
H        2.515513     4.159177    -4.103965
H        4.236761     2.337668    -4.150348
H        4.173821     0.632965    -2.343149
H        0.864283     4.243251    -2.363603
Se      -2.757044     0.000000     0.488578
C       -2.498652    -1.573214     1.513559
C       -3.228146    -2.715753     1.273507
C       -2.949488    -3.867737     1.968067
C       -1.983709    -3.933865     2.954653
C       -1.283798    -2.763290     3.228776
C       -1.503601    -1.601516     2.492209
Se      -0.488578     0.000000     2.757044
H       -3.996290    -2.731766     0.513642
H       -3.494614    -4.775467     1.753129
H       -1.772191    -4.841909     3.494029
H       -0.527529    -2.779700     3.988539
Se       0.000000    -2.757044    -0.488578
C       -1.573214    -2.498652    -1.513559
C       -2.715753    -3.228146    -1.273507
C       -3.867737    -2.949488    -1.968067
C       -3.933865    -1.983709    -2.954653
C       -2.763290    -1.283798    -3.228776
C       -1.601516    -1.503601    -2.492209
Se       0.000000    -0.488578    -2.757044
H       -2.731766    -3.996290    -0.513642
H       -4.775467    -3.494614    -1.753129
H       -4.841909    -1.772191    -3.494029
H       -2.779700    -0.527529    -3.988539
37
ex_0279 frame4 OC-6-chelate-1-conf5
Ti       0.000000     0.000000     0.000000
C        2.520544     3.396039    -3.331536
C        3.479761     2.406551    -3.383556
C        3.454686     1.457965    -2.388966
C        2.547559     1.520846    -1.363874
Se       2.795279     0.162536    -0.000000
Se       0.162536     2.795279    -0.000000
C        1.568174     2.488302    -1.287288
C        1.580468     3.429210    -2.325748
H        2.515513     4.159177    -4.103965
H        4.236761     2.337668    -4.150348
H        4.173821     0.632965    -2.343149
H        0.864283     4.243251    -2.363603
Se      -2.753492    -0.000000     0.508215
C       -2.540714     1.601540     1.540058
C       -3.290002     2.733984     1.301580
C       -3.027210     3.889345     2.000657
C       -2.038605     3.866242     2.972603
C       -1.312590     2.720480     3.258080
C       -1.535328     1.579097     2.503585
Se      -0.508215     0.000000     2.753492
H       -4.064434     2.715666     0.526390
H       -3.582208     4.793084     1.792991
H       -1.809287     4.758466     3.538660
H       -0.545288     2.717831     4.018278
Se      -0.000000    -2.799563    -0.049494
C       -1.154105    -2.547361    -1.574914
C       -2.057313    -3.584602    -1.800154
C       -2.947837    -3.585005    -2.845842
C       -2.989591    -2.531380    -3.732006
C       -2.105257    -1.497237    -3.514586
C       -1.163077    -1.551356    -2.528630
Se      -0.000000    -0.049494    -2.799563
H       -2.064597    -4.425194    -1.135998
H       -3.634979    -4.407001    -2.999868
H       -3.672142    -2.488277    -4.568267
H       -2.103347    -0.660139    -4.177354
37
ex_0279 frame5 OC-6-chelate-1-conf6
Ti       0.000000     0.000000     0.000000
C        2.842022     1.916047    -3.918476
C        1.889736     2.893231    -3.904467
C        1.203475     3.199762    -2.747591
C        1.461254     2.468867    -1.594710
Se       0.464313     2.761234     0.000000
Se       2.761234     0.464313     0.000000
C        2.418253     1.468010    -1.574834
C        3.120970     1.226418    -2.759305
H        3.375274     1.685298    -4.838892
H        1.640454     3.458096    -4.792094
H        0.451568     3.977912    -2.755527
H        3.874941     0.451084    -2.765557
Se      -2.799563     0.000000     0.049494
C       -2.547361    -1.154105     1.574914
C       -3.584602    -2.057313     1.800154
C       -3.585005    -2.947837     2.845842
C       -2.531380    -2.989591     3.732006
C       -1.497237    -2.105257     3.514586
C       -1.551356    -1.163077     2.528630
Se      -0.049494     0.000000     2.799563
H       -4.425194    -2.064597     1.135998
H       -4.407001    -3.634979     2.999868
H       -2.488277    -3.672142     4.568267
H       -0.660139    -2.103347     4.177354
Se      -0.000000    -2.799563    -0.049494
C       -1.154105    -2.547361    -1.574914
C       -2.057313    -3.584602    -1.800154
C       -2.947837    -3.585005    -2.845842
C       -2.989591    -2.531380    -3.732006
C       -2.105257    -1.497237    -3.514586
C       -1.163077    -1.551356    -2.528630
Se      -0.000000    -0.049494    -2.799563
H       -2.064597    -4.425194    -1.135998
H       -3.634979    -4.407001    -2.999868
H       -3.672142    -2.488277    -4.568267
H       -2.103347    -0.660139    -4.177354
37
ex_0279 frame6 OC-6-chelate-1-conf7
Ti       0.000000     0.000000     0.000000
C        2.520544     3.396039    -3.331536
C        3.479761     2.406551    -3.383556
C        3.454686     1.457965    -2.388966
C        2.547559     1.520846    -1.363874
Se       2.795279     0.162536    -0.000000
Se       0.162536     2.795279    -0.000000
C        1.568174     2.488302    -1.287288
C        1.580468     3.429210    -2.325748
H        2.515513     4.159177    -4.103965
H        4.236761     2.337668    -4.150348
H        4.173821     0.632965    -2.343149
H        0.864283     4.243251    -2.363603
Se      -0.503476    -0.000000     2.754362
C       -1.490694    -1.581983     2.435554
C       -1.199902    -2.750601     3.148157
C       -1.839734    -3.941064     2.865326
C       -2.808287    -3.951949     1.901855
C       -3.154456    -2.805756     1.213773
C       -2.471134    -1.632501     1.447442
Se      -2.754362    -0.000000     0.503476
H       -0.445232    -2.755650     3.902898
H       -1.566644    -4.849639     3.409419
H       -3.341090    -4.878316     1.646946
H       -3.915118    -2.774109     0.445107
Se      -0.000000    -2.799563    -0.049494
C       -1.154105    -2.547361    -1.574914
C       -2.057313    -3.584602    -1.800154
C       -2.947837    -3.585005    -2.845842
C       -2.989591    -2.531380    -3.732006
C       -2.105257    -1.497237    -3.514586
C       -1.163077    -1.551356    -2.528630
Se      -0.000000    -0.049494    -2.799563
H       -2.064597    -4.425194    -1.135998
H       -3.634979    -4.407001    -2.999868
H       -3.672142    -2.488277    -4.568267
H       -2.103347    -0.660139    -4.177354
37
ex_0279 frame7 OC-6-chelate-1-conf8
Ti       0.000000     0.000000     0.000000
C        3.952343     2.832352    -2.519093
C        3.017208     3.852771    -2.508397
C        1.874882     3.718081    -1.761794
C        1.594773     2.617042    -0.974212
Se      -0.056573     2.799428     0.000000
Se       2.799428    -0.056573     0.000000
C        2.574360     1.609337    -0.958169
C        3.689314     1.700013    -1.762107
H        4.846469     2.954682    -3.112576
H        3.177007     4.738422    -3.073340
H        1.153985     4.510339    -1.757202
H        4.392621     0.900756    -1.753263
Se      -2.799563     0.000000     0.049494
C       -2.547361    -1.154105     1.574914
C       -3.595663    -2.062178     1.796191
C       -3.593378    -2.951216     2.843160
C       -2.531380    -2.989591     3.732006
C       -1.488864    -2.101878     3.517268
C       -1.540295    -1.158212     2.532593
Se      -0.049494     0.000000     2.799563
H       -4.425194    -2.064597     1.135998
H       -4.407001    -3.634979     2.999868
H       -2.488277    -3.672142     4.568267
H       -0.660139    -2.103347     4.177354
Se       0.000000    -2.753492    -0.508215
C        1.601540    -2.540714    -1.540058
C        2.733260    -3.290803    -1.300511
C        3.889345    -3.027210    -2.000657
C        3.866966    -2.037804    -2.973672
C        2.720480    -1.312590    -3.258080
C        1.579097    -1.535328    -2.503585
Se       0.000000    -0.508215    -2.753492
H        2.715666    -4.064434    -0.526390
H        4.793084    -3.582208    -1.792991
H        4.758466    -1.809287    -3.538660
H        2.717831    -0.545288    -4.018278
37
ex_0279 frame8 OC-6-chelate-2
Ti       0.000000     0.000000     0.000000
C        2.520544     3.396039    -3.331536
C        3.479761     2.406551    -3.383556
C        3.454686     1.457965    -2.388966
C        2.547559     1.520846    -1.363874
Se       2.795279     0.162536    -0.000000
Se       0.162536     2.795279    -0.000000
C        1.568174     2.488302    -1.287288
C        1.580468     3.429210    -2.325748
H        2.515513     4.159177    -4.103965
H        4.236761     2.337668    -4.150348
H        4.173821     0.632965    -2.343149
H        0.864283     4.243251    -2.363603
Se      -2.799563    -0.000000    -0.049494
C       -2.547361     1.154105    -1.574914
C       -3.584602     2.057313    -1.800154
C       -3.585005     2.947837    -2.845842
C       -2.531380     2.989591    -3.732006
C       -1.497237     2.105257    -3.514586
C       -1.551356     1.163077    -2.528630
Se      -0.049494    -0.000000    -2.799563
H       -4.425194     2.064597    -1.135998
H       -4.407001     3.634979    -2.999868
H       -2.488277     3.672142    -4.568267
H       -0.660139     2.103347    -4.177354
Se       0.000000    -2.799563     0.049494
C        1.154105    -2.547361     1.574914
C        2.057313    -3.584602     1.800154
C        2.947837    -3.585005     2.845842
C        2.989591    -2.531380     3.732006
C        2.105257    -1.497237     3.514586
C        1.163077    -1.551356     2.528630
Se       0.000000    -0.049494     2.799563
H        2.064597    -4.425194     1.135998
H        3.634979    -4.407001     2.999868
H        3.672142    -2.488277     4.568267
H        2.103347    -0.660139     4.177354
37
ex_0279 frame9 OC-6-chelate-2-conf2
Ti       0.000000     0.000000     0.000000
C        3.952343     2.832352    -2.519093
C        3.017208     3.852771    -2.508397
C        1.874882     3.718081    -1.761794
C        1.594773     2.617042    -0.974212
Se      -0.056573     2.799428     0.000000
Se       2.799428    -0.056573     0.000000
C        2.574360     1.609337    -0.958169
C        3.689314     1.700013    -1.762107
H        4.846469     2.954682    -3.112576
H        3.177007     4.738422    -3.073340
H        1.153985     4.510339    -1.757202
H        4.392621     0.900756    -1.753263
Se      -2.799563     0.000000    -0.049494
C       -2.547361     1.154105    -1.574914
C       -3.595663     2.062178    -1.796191
C       -3.593378     2.951216    -2.843160
C       -2.531380     2.989591    -3.732006
C       -1.488864     2.101878    -3.517268
C       -1.540295     1.158212    -2.532593
Se      -0.049494     0.000000    -2.799563
H       -4.425194     2.064597    -1.135998
H       -4.407001     3.634979    -2.999868
H       -2.488277     3.672142    -4.568267
H       -0.660139     2.103347    -4.177354
Se       0.000000    -2.799563     0.049494
C        1.154105    -2.547361     1.574914
C        2.062178    -3.595663     1.796191
C        2.951216    -3.593378     2.843160
C        2.989591    -2.531380     3.732006
C        2.101878    -1.488864     3.517268
C        1.158212    -1.540295     2.532593
Se       0.000000    -0.049494     2.799563
H        2.064597    -4.425194     1.135998
H        3.634979    -4.407001     2.999868
H        3.672142    -2.488277     4.568267
H        2.103347    -0.660139     4.177354
37
ex_0279 frame10 OC-6-chelate-2-conf3
Ti       0.000000     0.000000     0.000000
C        2.520544     3.396039    -3.331536
C        3.479761     2.406551    -3.383556
C        3.454686     1.457965    -2.388966
C        2.547559     1.520846    -1.363874
Se       2.795279     0.162536    -0.000000
Se       0.162536     2.795279    -0.000000
C        1.568174     2.488302    -1.287288
C        1.580468     3.429210    -2.325748
H        2.515513     4.159177    -4.103965
H        4.236761     2.337668    -4.150348
H        4.173821     0.632965    -2.343149
H        0.864283     4.243251    -2.363603
Se      -2.799563    -0.000000    -0.049494
C       -2.547361     1.154105    -1.574914
C       -3.584602     2.057313    -1.800154
C       -3.585005     2.947837    -2.845842
C       -2.531380     2.989591    -3.732006
C       -1.497237     2.105257    -3.514586
C       -1.551356     1.163077    -2.528630
Se      -0.049494    -0.000000    -2.799563
H       -4.425194     2.064597    -1.135998
H       -4.407001     3.634979    -2.999868
H       -2.488277     3.672142    -4.568267
H       -0.660139     2.103347    -4.177354
Se       0.000000    -2.753492     0.508215
C       -1.601540    -2.540714     1.540058
C       -2.733984    -3.290002     1.301580
C       -3.889345    -3.027210     2.000657
C       -3.866242    -2.038605     2.972603
C       -2.720480    -1.312590     3.258080
C       -1.579097    -1.535328     2.503585
Se       0.000000    -0.508215     2.753492
H       -2.715666    -4.064434     0.526390
H       -4.793084    -3.582208     1.792991
H       -4.758466    -1.809287     3.538660
H       -2.717831    -0.545288     4.018278
37
ex_0279 frame11 OC-6-chelate-2-conf4
Ti       0.000000     0.000000     0.000000
C        2.516830     3.403745    -3.335284
C        3.479761     2.406551    -3.383556
C        3.458400     1.450259    -2.385218
C        2.551801     1.512475    -1.359655
Se       2.795279     0.162536     0.000000
Se       0.162536     2.795279     0.000000
C        1.568174     2.488302    -1.287288
C        1.576226     3.437581    -2.329967
H        2.515513     4.159177    -4.103965
H        4.236761     2.337668    -4.150348
H        4.173821     0.632965    -2.343149
H        0.864283     4.243251    -2.363603
Se      -2.757044     0.000000    -0.488578
C       -2.498652     1.573214    -1.513559
C       -3.228146     2.715753    -1.273507
C       -2.949488     3.867737    -1.968067
C       -1.983709     3.933865    -2.954653
C       -1.283798     2.763290    -3.228776
C       -1.503601     1.601516    -2.492209
Se      -0.488578     0.000000    -2.757044
H       -3.996290     2.731766    -0.513642
H       -3.494614     4.775467    -1.753129
H       -1.772191     4.841909    -3.494029
H       -0.527529     2.779700    -3.988539
Se       0.000000    -2.757044     0.488578
C        1.573214    -2.498652     1.513559
C        2.715753    -3.228146     1.273507
C        3.867737    -2.949488     1.968067
C        3.933865    -1.983709     2.954653
C        2.763290    -1.283798     3.228776
C        1.601516    -1.503601     2.492209
Se       0.000000    -0.488578     2.757044
H        2.731766    -3.996290     0.513642
H        4.775467    -3.494614     1.753129
H        4.841909    -1.772191     3.494029
H        2.779700    -0.527529     3.988539
37
ex_0279 frame12 OC-6-chelate-2-conf5
Ti       0.000000     0.000000     0.000000
C        2.520544     3.396039    -3.331536
C        3.479761     2.406551    -3.383556
C        3.454686     1.457965    -2.388966
C        2.547559     1.520846    -1.363874
Se       2.795279     0.162536    -0.000000
Se       0.162536     2.795279    -0.000000
C        1.568174     2.488302    -1.287288
C        1.580468     3.429210    -2.325748
H        2.515513     4.159177    -4.103965
H        4.236761     2.337668    -4.150348
H        4.173821     0.632965    -2.343149
H        0.864283     4.243251    -2.363603
Se      -2.753492     0.000000    -0.508215
C       -2.540714    -1.601540    -1.540058
C       -3.290002    -2.733984    -1.301580
C       -3.027210    -3.889345    -2.000657
C       -2.038605    -3.866242    -2.972603
C       -1.312590    -2.720480    -3.258080
C       -1.535328    -1.579097    -2.503585
Se      -0.508215    -0.000000    -2.753492
H       -4.064434    -2.715666    -0.526390
H       -3.582208    -4.793084    -1.792991
H       -1.809287    -4.758466    -3.538660
H       -0.545288    -2.717831    -4.018278
Se       0.000000    -2.799563     0.049494
C        1.154105    -2.547361     1.574914
C        2.057313    -3.584602     1.800154
C        2.947837    -3.585005     2.845842
C        2.989591    -2.531380     3.732006
C        2.105257    -1.497237     3.514586
C        1.163077    -1.551356     2.528630
Se       0.000000    -0.049494     2.799563
H        2.064597    -4.425194     1.135998
H        3.634979    -4.407001     2.999868
H        3.672142    -2.488277     4.568267
H        2.103347    -0.660139     4.177354
37
ex_0279 frame13 OC-6-chelate-2-conf6
Ti       0.000000     0.000000     0.000000
C        2.520544     3.396039    -3.331536
C        3.479761     2.406551    -3.383556
C        3.454686     1.457965    -2.388966
C        2.547559     1.520846    -1.363874
Se       2.795279     0.162536    -0.000000
Se       0.162536     2.795279    -0.000000
C        1.568174     2.488302    -1.287288
C        1.580468     3.429210    -2.325748
H        2.515513     4.159177    -4.103965
H        4.236761     2.337668    -4.150348
H        4.173821     0.632965    -2.343149
H        0.864283     4.243251    -2.363603
Se      -0.503476     0.000000    -2.754362
C       -1.490694     1.581983    -2.435554
C       -1.199902     2.750601    -3.148157
C       -1.839734     3.941064    -2.865326
C       -2.808287     3.951949    -1.901855
C       -3.154456     2.805756    -1.213773
C       -2.471134     1.632501    -1.447442
Se      -2.754362     0.000000    -0.503476
H       -0.445232     2.755650    -3.902898
H       -1.566644     4.849639    -3.409419
H       -3.341090     4.878316    -1.646946
H       -3.915118     2.774109    -0.445107
Se       0.000000    -2.799563     0.049494
C        1.154105    -2.547361     1.574914
C        2.057313    -3.584602     1.800154
C        2.947837    -3.585005     2.845842
C        2.989591    -2.531380     3.732006
C        2.105257    -1.497237     3.514586
C        1.163077    -1.551356     2.528630
Se       0.000000    -0.049494     2.799563
H        2.064597    -4.425194     1.135998
H        3.634979    -4.407001     2.999868
H        3.672142    -2.488277     4.568267
H        2.103347    -0.660139     4.177354
37
ex_0279 frame14 OC-6-chelate-2-conf7
Ti       0.000000     0.000000     0.000000
C        3.952343     2.832352    -2.519093
C        3.017208     3.852771    -2.508397
C        1.874882     3.718081    -1.761794
C        1.594773     2.617042    -0.974212
Se      -0.056573     2.799428     0.000000
Se       2.799428    -0.056573     0.000000
C        2.574360     1.609337    -0.958169
C        3.689314     1.700013    -1.762107
H        4.846469     2.954682    -3.112576
H        3.177007     4.738422    -3.073340
H        1.153985     4.510339    -1.757202
H        4.392621     0.900756    -1.753263
Se      -2.799563     0.000000    -0.049494
C       -2.547361     1.154105    -1.574914
C       -3.595663     2.062178    -1.796191
C       -3.593378     2.951216    -2.843160
C       -2.531380     2.989591    -3.732006
C       -1.488864     2.101878    -3.517268
C       -1.540295     1.158212    -2.532593
Se      -0.049494     0.000000    -2.799563
H       -4.425194     2.064597    -1.135998
H       -4.407001     3.634979    -2.999868
H       -2.488277     3.672142    -4.568267
H       -0.660139     2.103347    -4.177354
Se       0.000000    -2.753492     0.508215
C       -1.601540    -2.540714     1.540058
C       -2.733260    -3.290803     1.300511
C       -3.889345    -3.027210     2.000657
C       -3.866966    -2.037804     2.973672
C       -2.720480    -1.312590     3.258080
C       -1.579097    -1.535328     2.503585
Se       0.000000    -0.508215     2.753492
H       -2.715666    -4.064434     0.526390
H       -4.793084    -3.582208     1.792991
H       -4.758466    -1.809287     3.538660
H       -2.717831    -0.545288     4.018278
37
ex_0279 frame15 OC-6-chelate-2-conf8
Ti       0.000000     0.000000     0.000000
C        3.952343     2.832352    -2.519093
C        3.017208     3.852771    -2.508397
C        1.874882     3.718081    -1.761794
C        1.594773     2.617042    -0.974212
Se      -0.056573     2.799428     0.000000
Se       2.799428    -0.056573     0.000000
C        2.574360     1.609337    -0.958169
C        3.689314     1.700013    -1.762107
H        4.846469     2.954682    -3.112576
H        3.177007     4.738422    -3.073340
H        1.153985     4.510339    -1.757202
H        4.392621     0.900756    -1.753263
Se      -2.757044     0.000000    -0.488578
C       -2.498652     1.573214    -1.513559
C       -3.228146     2.715753    -1.273507
C       -2.949488     3.867737    -1.968067
C       -1.983709     3.933865    -2.954653
C       -1.283798     2.763290    -3.228776
C       -1.503601     1.601516    -2.492209
Se      -0.488578     0.000000    -2.757044
H       -3.996290     2.731766    -0.513642
H       -3.494614     4.775467    -1.753129
H       -1.772191     4.841909    -3.494029
H       -0.527529     2.779700    -3.988539
Se       0.000000    -2.757044     0.488578
C        1.573214    -2.498652     1.513559
C        2.715753    -3.228146     1.273507
C        3.867737    -2.949488     1.968067
C        3.933865    -1.983709     2.954653
C        2.763290    -1.283798     3.228776
C        1.601516    -1.503601     2.492209
Se       0.000000    -0.488578     2.757044
H        2.731766    -3.996290     0.513642
H        4.775467    -3.494614     1.753129
H        4.841909    -1.772191     3.494029
H        2.779700    -0.527529     3.988539
