53
ex_0139 frame0 OC-6-chelate-1
Cd       0.000000     0.000000     0.000000
C        2.643629    -1.818076     0.000001
C        2.921230    -0.360266     0.000002
C        4.142029     0.151660     0.000005
C        4.449978     1.577883     0.000009
C        5.825606     2.123422     0.000017
F        5.862138     3.482593     0.000029
F        6.442704     1.595434    -1.136597
F        6.482655     1.556317     1.076300
N        3.421189     2.450371     0.000006
C        2.165264     1.911433     0.000002
S        0.731295     2.380191     0.000000
N        2.055185     0.631440    -0.000000
H        2.216907    -2.168351     0.959857
H        2.009859    -2.079821    -0.856471
H        3.623505    -2.354672    -0.163937
H        4.959916    -0.553833     0.000009
S       -0.633849    -0.000000     2.407973
C       -2.201371     0.000004     1.906645
N       -3.358884     0.000009     2.502549
C       -4.404753     0.000050     1.638039
C       -5.752692     0.000096     2.242760
F       -6.450796     1.132147     1.852641
F       -6.429549    -1.096236     1.687775
F       -5.736131    -0.223106     3.578377
C       -4.152067     0.000046     0.206115
C       -2.946251     0.000031    -0.368372
C       -2.717502     0.000050    -1.818818
N       -2.079174     0.000000     0.547299
H       -5.007587     0.000134    -0.481971
H       -2.069182    -0.901305    -2.024243
H       -3.637205    -0.179248    -2.411316
H       -2.253707     0.915684    -2.199151
N       -0.000000    -2.148480    -0.080821
C        0.000011    -2.860089     0.935860
C        0.000079    -4.419419     0.697427
C        0.000104    -4.738772    -0.584451
C        0.000078    -3.879210    -1.782962
C        0.000035    -2.537279    -1.499729
C        0.000038    -1.499721    -2.535691
C        0.000076    -1.782043    -3.877784
C        0.000088    -0.584389    -4.737204
C        0.000054     0.697073    -4.416260
C       -0.000003     0.937096    -2.857453
N        0.000000    -0.080821    -2.148480
H       -0.000029    -2.446734     1.886463
H        0.000082    -5.038187     1.541680
H        0.000167    -5.810857    -0.802058
H        0.000094    -4.209820    -2.786082
H        0.000104    -2.786163    -4.209232
H        0.000157    -0.801015    -5.809235
H        0.000066     1.541410    -5.035682
H       -0.000024     1.883906    -2.445385
53
ex_0139 frame1 OC-6-chelate-1-conf2
Cd       0.000000     0.000000     0.000000
C        2.643629    -1.818076     0.000001
C        2.921230    -0.360266     0.000002
C        4.142029     0.151660     0.000005
C        4.449978     1.577883     0.000009
C        5.825606     2.123422     0.000017
F        5.862138     3.482593     0.000029
F        6.442704     1.595434    -1.136597
F        6.482655     1.556317     1.076300
N        3.421189     2.450371     0.000006
C        2.165264     1.911433     0.000002
S        0.731295     2.380191     0.000000
N        2.055185     0.631440    -0.000000
H        2.216907    -2.168351     0.959857
H        2.009859    -2.079821    -0.856471
H        3.623505    -2.354672    -0.163937
H        4.959916    -0.553833     0.000009
S       -0.633849    -0.000000     2.407973
C       -2.201371     0.000004     1.906645
N       -3.358884     0.000009     2.502549
C       -4.404753     0.000050     1.638039
C       -5.752692     0.000096     2.242760
F       -6.450796     1.132147     1.852641
F       -6.429549    -1.096236     1.687775
F       -5.736131    -0.223106     3.578377
C       -4.152067     0.000046     0.206115
C       -2.946251     0.000031    -0.368372
C       -2.717502     0.000050    -1.818818
N       -2.079174     0.000000     0.547299
H       -5.007587     0.000134    -0.481971
H       -2.069182    -0.901305    -2.024243
H       -3.637205    -0.179248    -2.411316
H       -2.253707     0.915684    -2.199151
N        0.000000    -0.104455    -2.147461
C        0.000003     0.934918    -2.853829
C        0.000001     0.703163    -4.403400
C       -0.000004    -0.581082    -4.737811
C       -0.000005    -1.776147    -3.888968
C        0.000003    -1.496417    -2.549826
C        0.000013    -2.512420    -1.503331
C        0.000034    -3.841191    -1.733918
C        0.000044    -4.703708    -0.545893
C        0.000030    -4.314079     0.718700
C        0.000000    -2.796037     0.925861
N        0.000000    -2.147461    -0.104455
H        0.000013     1.879608    -2.439289
H        0.000005     1.539619    -5.025324
H       -0.000014    -0.779302    -5.812355
H       -0.000011    -2.778137    -4.203071
H        0.000048    -4.184517    -2.740005
H        0.000063    -5.775881    -0.727815
H        0.000036    -4.950123     1.575366
H       -0.000018    -2.358493     1.877501
53
ex_0139 frame2 OC-6-chelate-1-conf4
Cd       0.000000     0.000000     0.000000
C        2.643629    -1.818076     0.000001
C        2.921230    -0.360266     0.000002
C        4.142029     0.151660     0.000005
C        4.449978     1.577883     0.000009
C        5.825606     2.123422     0.000017
F        5.862138     3.482593     0.000029
F        6.442704     1.595434    -1.136597
F        6.482655     1.556317     1.076300
N        3.421189     2.450371     0.000006
C        2.165264     1.911433     0.000002
S        0.731295     2.380191     0.000000
N        2.055185     0.631440    -0.000000
H        2.216907    -2.168351     0.959857
H        2.009859    -2.079821    -0.856471
H        3.623505    -2.354672    -0.163937
H        4.959916    -0.553833     0.000009
S       -0.581536     0.000000     2.421139
C       -2.176105     0.000008     1.784549
N       -3.299238     0.000021     2.438197
C       -4.360772     0.000018     1.572705
C       -5.700133     0.000028     2.181510
F       -5.685006     0.000135     3.539761
F       -6.352584    -1.124687     1.658788
F       -6.395857     1.081032     1.655830
C       -4.100734     0.000004     0.138804
C       -2.917474    -0.000005    -0.445934
C       -2.648070    -0.000018    -1.883619
N       -2.090542     0.000000     0.502129
H       -4.971558    -0.000000    -0.539979
H       -3.645808     0.136401    -2.383687
H       -2.064506     0.898630    -2.121081
H       -2.157918    -0.923689    -2.246723
N       -0.000000    -2.148480    -0.080821
C        0.000011    -2.860089     0.935860
C        0.000079    -4.419419     0.697427
C        0.000104    -4.738772    -0.584451
C        0.000078    -3.879210    -1.782962
C        0.000035    -2.537279    -1.499729
C        0.000038    -1.499721    -2.535691
C        0.000076    -1.782043    -3.877784
C        0.000088    -0.584389    -4.737204
C        0.000054     0.697073    -4.416260
C       -0.000003     0.937096    -2.857453
N        0.000000    -0.080821    -2.148480
H       -0.000029    -2.446734     1.886463
H        0.000082    -5.038187     1.541680
H        0.000167    -5.810857    -0.802058
H        0.000094    -4.209820    -2.786082
H        0.000104    -2.786163    -4.209232
H        0.000157    -0.801015    -5.809235
H        0.000066     1.541410    -5.035682
H       -0.000024     1.883906    -2.445385
53
ex_0139 frame3 OC-6-chelate-1-conf6
Cd       0.000000     0.000000     0.000000
C        2.866641    -1.841157    -0.000514
C        3.011539    -0.381809    -0.000861
C        4.249226     0.269726    -0.002272
C        4.386864     1.723778    -0.002795
C        5.660343     2.389852    -0.004335
F        6.409039     2.046611     1.123682
F        6.380276     1.848661    -1.077247
F        5.546475     3.743690    -0.182488
N        3.237291     2.538033    -0.001792
C        2.105146     1.825842    -0.000699
S        0.508791     2.437464     0.000000
N        2.104638     0.439317     0.000000
H        2.430715    -2.251590    -0.936797
H        3.838502    -2.360325     0.109508
H        2.269805    -2.167893     0.900610
H        5.090571    -0.369431    -0.003007
S       -0.633849     0.000000     2.407973
C       -2.153633     0.000003     1.912465
N       -3.358884     0.000009     2.502549
C       -4.452491     0.000051     1.632219
C       -5.752692     0.000096     2.242760
F       -6.450796     1.132147     1.852641
F       -6.429549    -1.096236     1.687775
F       -5.736131    -0.223106     3.578377
C       -4.203638     0.000047     0.197627
C       -2.946251     0.000031    -0.368372
C       -2.717502     0.000050    -1.818818
N       -2.079174     0.000000     0.547299
H       -5.007587     0.000134    -0.481971
H       -2.069182    -0.901305    -2.024243
H       -3.637205    -0.179248    -2.411316
H       -2.253707     0.915684    -2.199151
N        0.000000    -2.148480    -0.080821
C        0.000011    -2.860089     0.935860
C        0.000079    -4.419419     0.697427
C        0.000104    -4.738772    -0.584451
C        0.000078    -3.879210    -1.782962
C        0.000035    -2.537279    -1.499729
C        0.000038    -1.499721    -2.535691
C        0.000076    -1.782043    -3.877784
C        0.000088    -0.584389    -4.737204
C        0.000054     0.697073    -4.416260
C       -0.000003     0.937096    -2.857453
N        0.000000    -0.080821    -2.148480
H       -0.000029    -2.446734     1.886463
H        0.000082    -5.038187     1.541680
H        0.000167    -5.810857    -0.802058
H        0.000094    -4.209820    -2.786082
H        0.000104    -2.786163    -4.209232
H        0.000157    -0.801015    -5.809235
H        0.000066     1.541410    -5.035682
H       -0.000024     1.883906    -2.445385
53
ex_0139 frame4 OC-6-chelate-1-conf7
Cd       0.000000     0.000000     0.000000
C        2.643629    -1.818076     0.000001
C        2.921230    -0.360266     0.000002
C        4.142029     0.151660     0.000005
C        4.449978     1.577883     0.000009
C        5.825606     2.123422     0.000017
F        5.862138     3.482593     0.000029
F        6.442704     1.595434    -1.136597
F        6.482655     1.556317     1.076300
N        3.421189     2.450371     0.000006
C        2.165264     1.911433     0.000002
S        0.731295     2.380191     0.000000
N        2.055185     0.631440    -0.000000
H        2.216907    -2.168351     0.959857
H        2.009859    -2.079821    -0.856471
H        3.623505    -2.354672    -0.163937
H        4.959916    -0.553833     0.000009
S       -0.581536     0.000000     2.421139
C       -2.176105     0.000008     1.784549
N       -3.299238     0.000021     2.438197
C       -4.360772     0.000018     1.572705
C       -5.700133     0.000028     2.181510
F       -5.685006     0.000135     3.539761
F       -6.352584    -1.124687     1.658788
F       -6.395857     1.081032     1.655830
C       -4.100734     0.000004     0.138804
C       -2.917474    -0.000005    -0.445934
C       -2.648070    -0.000018    -1.883619
N       -2.090542     0.000000     0.502129
H       -4.971558    -0.000000    -0.539979
H       -3.645808     0.136401    -2.383687
H       -2.064506     0.898630    -2.121081
H       -2.157918    -0.923689    -2.246723
N        0.000000    -0.104455    -2.147461
C        0.000003     0.934918    -2.853829
C        0.000001     0.703163    -4.403400
C       -0.000004    -0.581082    -4.737811
C       -0.000005    -1.776147    -3.888968
C        0.000003    -1.496417    -2.549826
C        0.000013    -2.512420    -1.503331
C        0.000034    -3.841191    -1.733918
C        0.000044    -4.703708    -0.545893
C        0.000030    -4.314079     0.718700
C        0.000000    -2.796037     0.925861
N        0.000000    -2.147461    -0.104455
H        0.000013     1.879608    -2.439289
H        0.000005     1.539619    -5.025324
H       -0.000014    -0.779302    -5.812355
H       -0.000011    -2.778137    -4.203071
H        0.000048    -4.184517    -2.740005
H        0.000063    -5.775881    -0.727815
H        0.000036    -4.950123     1.575366
H       -0.000018    -2.358493     1.877501
53
ex_0139 frame5 OC-6-chelate-1-conf8
Cd       0.000000     0.000000     0.000000
C        2.643629    -1.818076     0.000001
C        2.921230    -0.360266     0.000002
C        4.142029     0.151660     0.000005
C        4.449978     1.577883     0.000009
C        5.825606     2.123422     0.000017
F        5.862138     3.482593     0.000029
F        6.442704     1.595434    -1.136597
F        6.482655     1.556317     1.076300
N        3.421189     2.450371     0.000006
C        2.165264     1.911433     0.000002
S        0.731295     2.380191     0.000000
N        2.055185     0.631440    -0.000000
H        2.216907    -2.168351     0.959857
H        2.009859    -2.079821    -0.856471
H        3.623505    -2.354672    -0.163937
H        4.959916    -0.553833     0.000009
S       -0.674259     0.000000     2.396972
C       -2.174542    -0.000674     2.061656
N       -3.427700    -0.001585     2.616245
C       -4.484666    -0.002087     1.778076
C       -5.848924    -0.003264     2.386565
F       -6.539209     1.116728     1.994725
F       -5.709778    -0.096245     3.746620
F       -6.584757    -1.090476     1.935142
C       -4.387352    -0.001556     0.309972
C       -3.103632    -0.000407    -0.279928
C       -2.941790     0.000272    -1.734057
N       -2.069675    -0.000000     0.582192
H       -5.228088    -0.002017    -0.349434
H       -2.470163     0.924707    -2.055881
H       -3.988307    -0.050735    -2.154740
H       -2.363175    -0.904653    -2.085784
N       -0.000000    -2.148480    -0.080821
C        0.000011    -2.860089     0.935860
C        0.000079    -4.419419     0.697427
C        0.000104    -4.738772    -0.584451
C        0.000078    -3.879210    -1.782962
C        0.000035    -2.537279    -1.499729
C        0.000038    -1.499721    -2.535691
C        0.000076    -1.782043    -3.877784
C        0.000088    -0.584389    -4.737204
C        0.000054     0.697073    -4.416260
C       -0.000003     0.937096    -2.857453
N        0.000000    -0.080821    -2.148480
H       -0.000029    -2.446734     1.886463
H        0.000082    -5.038187     1.541680
H        0.000167    -5.810857    -0.802058
H        0.000094    -4.209820    -2.786082
H        0.000104    -2.786163    -4.209232
H        0.000157    -0.801015    -5.809235
H        0.000066     1.541410    -5.035682
H       -0.000024     1.883906    -2.445385
53
ex_0139 frame6 OC-6-chelate-2
Cd       0.000000     0.000000     0.000000
C        2.643629    -1.818076     0.000001
C        2.921230    -0.360266     0.000002
C        4.142029     0.151660     0.000005
C        4.449978     1.577883     0.000009
C        5.825606     2.123422     0.000017
F        5.862138     3.482593     0.000029
F        6.442704     1.595434    -1.136597
F        6.482655     1.556317     1.076300
N        3.421189     2.450371     0.000006
C        2.165264     1.911433     0.000002
S        0.731295     2.380191     0.000000
N        2.055185     0.631440    -0.000000
H        2.216907    -2.168351     0.959857
H        2.009859    -2.079821    -0.856471
H        3.623505    -2.354672    -0.163937
H        4.959916    -0.553833     0.000009
S       -2.396972    -0.000000     0.674259
C       -2.061656     0.000674     2.174542
N       -2.616245     0.001585     3.427700
C       -1.778076     0.002087     4.484666
C       -2.386565     0.003264     5.848924
F       -1.994725    -1.116728     6.539209
F       -3.746620     0.096245     5.709778
F       -1.935142     1.090476     6.584757
C       -0.309972     0.001556     4.387352
C        0.279928     0.000407     3.103632
C        1.734057    -0.000272     2.941790
N       -0.582192     0.000000     2.069675
H        0.349434     0.002017     5.228088
H        2.055881    -0.924707     2.470163
H        2.154740     0.050735     3.988307
H        2.085784     0.904653     2.363175
N       -0.000000    -2.148480    -0.080821
C        0.000011    -2.860089     0.935860
C        0.000079    -4.419419     0.697427
C        0.000104    -4.738772    -0.584451
C        0.000078    -3.879210    -1.782962
C        0.000035    -2.537279    -1.499729
C        0.000038    -1.499721    -2.535691
C        0.000076    -1.782043    -3.877784
C        0.000088    -0.584389    -4.737204
C        0.000054     0.697073    -4.416260
C       -0.000003     0.937096    -2.857453
N        0.000000    -0.080821    -2.148480
H       -0.000029    -2.446734     1.886463
H        0.000082    -5.038187     1.541680
H        0.000167    -5.810857    -0.802058
H        0.000094    -4.209820    -2.786082
H        0.000104    -2.786163    -4.209232
H        0.000157    -0.801015    -5.809235
H        0.000066     1.541410    -5.035682
H       -0.000024     1.883906    -2.445385
53
ex_0139 frame7 OC-6-chelate-2-conf1
Cd       0.000000     0.000000     0.000000
C        2.643629    -1.818076     0.000001
C        2.921230    -0.360266     0.000002
C        4.142029     0.151660     0.000005
C        4.449978     1.577883     0.000009
C        5.825606     2.123422     0.000017
F        5.862138     3.482593     0.000029
F        6.442704     1.595434    -1.136597
F        6.482655     1.556317     1.076300
N        3.421189     2.450371     0.000006
C        2.165264     1.911433     0.000002
S        0.731295     2.380191     0.000000
N        2.055185     0.631440    -0.000000
H        2.216907    -2.168351     0.959857
H        2.009859    -2.079821    -0.856471
H        3.623505    -2.354672    -0.163937
H        4.959916    -0.553833     0.000009
S       -2.407973     0.000000     0.633849
C       -1.906645    -0.000004     2.201371
N       -2.502549    -0.000009     3.358884
C       -1.638039    -0.000050     4.404753
C       -2.242760    -0.000096     5.752692
F       -1.852641    -1.132147     6.450796
F       -1.687775     1.096236     6.429549
F       -3.578377     0.223106     5.736131
C       -0.206115    -0.000046     4.152067
C        0.368372    -0.000031     2.946251
C        1.818818    -0.000050     2.717502
N       -0.547299     0.000000     2.079174
H        0.481971    -0.000134     5.007587
H        2.285317    -0.207205     3.724688
H        2.164908    -0.834498     2.074872
H        2.204392     0.929444     2.286783
N       -0.000000    -2.148480    -0.080821
C        0.000011    -2.860089     0.935860
C        0.000079    -4.419419     0.697427
C        0.000104    -4.738772    -0.584451
C        0.000078    -3.879210    -1.782962
C        0.000035    -2.537279    -1.499729
C        0.000038    -1.499721    -2.535691
C        0.000076    -1.782043    -3.877784
C        0.000088    -0.584389    -4.737204
C        0.000054     0.697073    -4.416260
C       -0.000003     0.937096    -2.857453
N        0.000000    -0.080821    -2.148480
H       -0.000029    -2.446734     1.886463
H        0.000082    -5.038187     1.541680
H        0.000167    -5.810857    -0.802058
H        0.000094    -4.209820    -2.786082
H        0.000104    -2.786163    -4.209232
H        0.000157    -0.801015    -5.809235
H        0.000066     1.541410    -5.035682
H       -0.000024     1.883906    -2.445385
53
ex_0139 frame8 OC-6-chelate-2-conf2
Cd       0.000000     0.000000     0.000000
C        2.643629    -1.818076     0.000001
C        2.921230    -0.360266     0.000002
C        4.142029     0.151660     0.000005
C        4.449978     1.577883     0.000009
C        5.825606     2.123422     0.000017
F        5.862138     3.482593     0.000029
F        6.442704     1.595434    -1.136597
F        6.482655     1.556317     1.076300
N        3.421189     2.450371     0.000006
C        2.165264     1.911433     0.000002
S        0.731295     2.380191     0.000000
N        2.055185     0.631440    -0.000000
H        2.216907    -2.168351     0.959857
H        2.009859    -2.079821    -0.856471
H        3.623505    -2.354672    -0.163937
H        4.959916    -0.553833     0.000009
S       -2.407973     0.000000     0.633849
C       -1.906645    -0.000004     2.201371
N       -2.502549    -0.000009     3.358884
C       -1.638039    -0.000050     4.404753
C       -2.242760    -0.000096     5.752692
F       -1.852641    -1.132147     6.450796
F       -1.687775     1.096236     6.429549
F       -3.578377     0.223106     5.736131
C       -0.206115    -0.000046     4.152067
C        0.368372    -0.000031     2.946251
C        1.818818    -0.000050     2.717502
N       -0.547299     0.000000     2.079174
H        0.481971    -0.000134     5.007587
H        2.285317    -0.207205     3.724688
H        2.164908    -0.834498     2.074872
H        2.204392     0.929444     2.286783
N        0.000000    -0.104455    -2.147461
C        0.000003     0.934918    -2.853829
C        0.000001     0.703163    -4.403400
C       -0.000004    -0.581082    -4.737811
C       -0.000005    -1.776147    -3.888968
C        0.000003    -1.496417    -2.549826
C        0.000013    -2.512420    -1.503331
C        0.000034    -3.841191    -1.733918
C        0.000044    -4.703708    -0.545893
C        0.000030    -4.314079     0.718700
C        0.000000    -2.796037     0.925861
N        0.000000    -2.147461    -0.104455
H        0.000013     1.879608    -2.439289
H        0.000005     1.539619    -5.025324
H       -0.000014    -0.779302    -5.812355
H       -0.000011    -2.778137    -4.203071
H        0.000048    -4.184517    -2.740005
H        0.000063    -5.775881    -0.727815
H        0.000036    -4.950123     1.575366
H       -0.000018    -2.358493     1.877501
53
ex_0139 frame9 OC-6-chelate-2-conf4
Cd       0.000000     0.000000     0.000000
C        2.643629    -1.818076     0.000001
C        2.921230    -0.360266     0.000002
C        4.142029     0.151660     0.000005
C        4.449978     1.577883     0.000009
C        5.825606     2.123422     0.000017
F        5.862138     3.482593     0.000029
F        6.442704     1.595434    -1.136597
F        6.482655     1.556317     1.076300
N        3.421189     2.450371     0.000006
C        2.165264     1.911433     0.000002
S        0.731295     2.380191     0.000000
N        2.055185     0.631440    -0.000000
H        2.216908    -2.168351     0.959857
H        2.009859    -2.079821    -0.856471
H        3.623505    -2.354672    -0.163936
H        4.959916    -0.553833     0.000009
S       -2.421139     0.000000     0.581536
C       -1.784549    -0.000008     2.176105
N       -2.438197    -0.000021     3.299238
C       -1.572705    -0.000018     4.360772
C       -2.181510    -0.000028     5.700133
F       -3.539761    -0.000135     5.685006
F       -1.658788     1.124687     6.352584
F       -1.655830    -1.081032     6.395857
C       -0.138804    -0.000004     4.100734
C        0.445934     0.000005     2.917474
C        1.883619     0.000018     2.648070
N       -0.502129     0.000000     2.090542
H        0.539979     0.000000     4.971558
H        2.383688    -0.136400     3.645809
H        2.121081    -0.898630     2.064506
H        2.246724     0.923689     2.157918
N       -0.000000    -2.148480    -0.080821
C        0.000011    -2.860089     0.935860
C        0.000079    -4.419419     0.697427
C        0.000104    -4.738772    -0.584451
C        0.000078    -3.879210    -1.782962
C        0.000035    -2.537279    -1.499729
C        0.000038    -1.499721    -2.535691
C        0.000076    -1.782043    -3.877784
C        0.000088    -0.584389    -4.737204
C        0.000054     0.697073    -4.416260
C       -0.000003     0.937096    -2.857453
N        0.000000    -0.080821    -2.148480
H       -0.000029    -2.446734     1.886463
H        0.000082    -5.038187     1.541680
H        0.000167    -5.810857    -0.802058
H        0.000094    -4.209820    -2.786082
H        0.000104    -2.786163    -4.209232
H        0.000157    -0.801015    -5.809235
H        0.000066     1.541410    -5.035682
H       -0.000024     1.883906    -2.445385
53
ex_0139 frame10 OC-6-chelate-2-conf6
Cd       0.000000     0.000000     0.000000
C        2.866641    -1.841157    -0.000514
C        3.011539    -0.381809    -0.000861
C        4.249226     0.269726    -0.002272
C        4.386864     1.723778    -0.002795
C        5.660343     2.389852    -0.004335
F        6.409039     2.046611     1.123682
F        6.380276     1.848661    -1.077247
F        5.546475     3.743690    -0.182488
N        3.237291     2.538033    -0.001792
C        2.105146     1.825842    -0.000699
S        0.508791     2.437464     0.000000
N        2.104638     0.439317     0.000000
H        2.430715    -2.251590    -0.936797
H        3.838502    -2.360325     0.109508
H        2.269805    -2.167893     0.900610
H        5.090571    -0.369431    -0.003007
S       -2.407973     0.000000     0.633849
C       -1.912465    -0.000003     2.153633
N       -2.502549    -0.000009     3.358884
C       -1.632219    -0.000051     4.452491
C       -2.242760    -0.000096     5.752692
F       -1.852641    -1.132147     6.450796
F       -1.687775     1.096236     6.429549
F       -3.578377     0.223106     5.736131
C       -0.197627    -0.000047     4.203638
C        0.368372    -0.000031     2.946251
C        1.818818    -0.000050     2.717502
N       -0.547299     0.000000     2.079174
H        0.481971    -0.000134     5.007587
H        2.281132    -0.214933     3.715534
H        2.164908    -0.834498     2.074872
H        2.204392     0.929444     2.286783
N        0.000000    -2.148480    -0.080821
C        0.000011    -2.860089     0.935860
C        0.000079    -4.419419     0.697427
C        0.000104    -4.738772    -0.584451
C        0.000078    -3.879210    -1.782962
C        0.000035    -2.537279    -1.499729
C        0.000038    -1.499721    -2.535691
C        0.000076    -1.782043    -3.877784
C        0.000088    -0.584389    -4.737204
C        0.000054     0.697073    -4.416260
C       -0.000003     0.937096    -2.857453
N        0.000000    -0.080821    -2.148480
H       -0.000029    -2.446734     1.886463
H        0.000082    -5.038187     1.541680
H        0.000167    -5.810857    -0.802058
H        0.000094    -4.209820    -2.786082
H        0.000104    -2.786163    -4.209232
H        0.000157    -0.801015    -5.809235
H        0.000066     1.541410    -5.035682
H       -0.000024     1.883906    -2.445385
53
ex_0139 frame11 OC-6-chelate-2-conf7
Cd       0.000000     0.000000     0.000000
C        2.643629    -1.818076     0.000001
C        2.921230    -0.360266     0.000002
C        4.142029     0.151660     0.000005
C        4.449978     1.577883     0.000009
C        5.825606     2.123422     0.000017
F        5.862138     3.482593     0.000029
F        6.442704     1.595434    -1.136597
F        6.482655     1.556317     1.076300
N        3.421189     2.450371     0.000006
C        2.165264     1.911433     0.000002
S        0.731295     2.380191     0.000000
N        2.055185     0.631440    -0.000000
H        2.216908    -2.168351     0.959857
H        2.009859    -2.079821    -0.856471
H        3.623505    -2.354672    -0.163936
H        4.959916    -0.553833     0.000009
S       -2.421139     0.000000     0.581536
C       -1.784549    -0.000008     2.176105
N       -2.438197    -0.000021     3.299238
C       -1.572705    -0.000018     4.360772
C       -2.181510    -0.000028     5.700133
F       -3.539761    -0.000135     5.685006
F       -1.658788     1.124687     6.352584
F       -1.655830    -1.081032     6.395857
C       -0.138804    -0.000004     4.100734
C        0.445934     0.000005     2.917474
C        1.883619     0.000018     2.648070
N       -0.502129     0.000000     2.090542
H        0.539979     0.000000     4.971558
H        2.383688    -0.136400     3.645809
H        2.121081    -0.898630     2.064506
H        2.246724     0.923689     2.157918
N        0.000000    -0.104455    -2.147461
C        0.000003     0.934918    -2.853829
C        0.000001     0.703163    -4.403400
C       -0.000004    -0.581082    -4.737811
C       -0.000005    -1.776147    -3.888968
C        0.000003    -1.496417    -2.549826
C        0.000013    -2.512420    -1.503331
C        0.000034    -3.841191    -1.733918
C        0.000044    -4.703708    -0.545893
C        0.000030    -4.314079     0.718700
C        0.000000    -2.796037     0.925861
N        0.000000    -2.147461    -0.104455
H        0.000013     1.879608    -2.439289
H        0.000005     1.539619    -5.025324
H       -0.000014    -0.779302    -5.812355
H       -0.000011    -2.778137    -4.203071
H        0.000048    -4.184517    -2.740005
H        0.000063    -5.775881    -0.727815
H        0.000036    -4.950123     1.575366
H       -0.000018    -2.358493     1.877501
53
ex_0139 frame12 OC-6-chelate-3
Cd       0.000000     0.000000     0.000000
C        2.643629    -1.818076     0.000001
C        2.921230    -0.360266     0.000002
C        4.142029     0.151660     0.000005
C        4.449978     1.577883     0.000009
C        5.825606     2.123422     0.000017
F        5.862138     3.482593     0.000029
F        6.442704     1.595434    -1.136597
F        6.482655     1.556317     1.076300
N        3.421189     2.450371     0.000006
C        2.165264     1.911433     0.000002
S        0.731295     2.380191     0.000000
N        2.055185     0.631440    -0.000000
H        2.216907    -2.168351     0.959857
H        2.009859    -2.079821    -0.856471
H        3.623505    -2.354672    -0.163937
H        4.959916    -0.553833     0.000009
S       -0.633849     0.000000    -2.407973
C       -2.201371    -0.000004    -1.906645
N       -3.358884    -0.000009    -2.502549
C       -4.404753    -0.000050    -1.638039
C       -5.752692    -0.000096    -2.242760
F       -6.450796    -1.132147    -1.852641
F       -6.429549     1.096236    -1.687775
F       -5.736131     0.223106    -3.578377
C       -4.152067    -0.000046    -0.206115
C       -2.946251    -0.000031     0.368372
C       -2.717502    -0.000050     1.818818
N       -2.079174    -0.000000    -0.547299
H       -5.007587    -0.000134     0.481971
H       -2.069182     0.901305     2.024243
H       -3.637205     0.179248     2.411316
H       -2.253707    -0.915684     2.199151
N        0.000000    -2.148480     0.080821
C       -0.000011    -2.860089    -0.935860
C       -0.000079    -4.419419    -0.697427
C       -0.000104    -4.738772     0.584451
C       -0.000078    -3.879210     1.782962
C       -0.000035    -2.537279     1.499729
C       -0.000038    -1.499721     2.535691
C       -0.000076    -1.782043     3.877784
C       -0.000088    -0.584389     4.737204
C       -0.000054     0.697073     4.416260
C        0.000003     0.937096     2.857453
N       -0.000000    -0.080821     2.148480
H        0.000029    -2.446734    -1.886463
H       -0.000082    -5.038187    -1.541680
H       -0.000167    -5.810857     0.802058
H       -0.000094    -4.209820     2.786082
H       -0.000104    -2.786163     4.209232
H       -0.000157    -0.801015     5.809235
H       -0.000066     1.541410     5.035682
H        0.000024     1.883906     2.445385
53
ex_0139 frame13 OC-6-chelate-3-conf2
Cd       0.000000     0.000000     0.000000
C        2.643629    -1.818076     0.000001
C        2.921230    -0.360266     0.000002
C        4.142029     0.151660     0.000005
C        4.449978     1.577883     0.000009
C        5.825606     2.123422     0.000017
F        5.862138     3.482593     0.000029
F        6.442704     1.595434    -1.136597
F        6.482655     1.556317     1.076300
N        3.421189     2.450371     0.000006
C        2.165264     1.911433     0.000002
S        0.731295     2.380191     0.000000
N        2.055185     0.631440    -0.000000
H        2.216907    -2.168351     0.959857
H        2.009859    -2.079821    -0.856471
H        3.623505    -2.354672    -0.163937
H        4.959916    -0.553833     0.000009
S       -0.633849     0.000000    -2.407973
C       -2.201371    -0.000004    -1.906645
N       -3.358884    -0.000009    -2.502549
C       -4.404753    -0.000050    -1.638039
C       -5.752692    -0.000096    -2.242760
F       -6.450796    -1.132147    -1.852641
F       -6.429549     1.096236    -1.687775
F       -5.736131     0.223106    -3.578377
C       -4.152067    -0.000046    -0.206115
C       -2.946251    -0.000031     0.368372
C       -2.717502    -0.000050     1.818818
N       -2.079174    -0.000000    -0.547299
H       -5.007587    -0.000134     0.481971
H       -2.069182     0.901305     2.024243
H       -3.637205     0.179248     2.411316
H       -2.253707    -0.915684     2.199151
N       -0.000000    -0.104455     2.147461
C       -0.000003     0.934918     2.853829
C       -0.000001     0.703163     4.403400
C        0.000004    -0.581082     4.737811
C        0.000005    -1.776147     3.888968
C       -0.000003    -1.496417     2.549826
C       -0.000013    -2.512420     1.503331
C       -0.000034    -3.841191     1.733918
C       -0.000044    -4.703708     0.545893
C       -0.000030    -4.314079    -0.718700
C       -0.000000    -2.796037    -0.925861
N       -0.000000    -2.147461     0.104455
H       -0.000013     1.879608     2.439289
H       -0.000005     1.539619     5.025324
H        0.000014    -0.779302     5.812355
H        0.000011    -2.778137     4.203071
H       -0.000048    -4.184517     2.740005
H       -0.000063    -5.775881     0.727815
H       -0.000036    -4.950123    -1.575366
H        0.000018    -2.358493    -1.877501
53
ex_0139 frame14 OC-6-chelate-3-conf6
Cd       0.000000     0.000000     0.000000
C        2.866641    -1.841157    -0.000514
C        3.011539    -0.381809    -0.000861
C        4.249226     0.269726    -0.002272
C        4.386864     1.723778    -0.002795
C        5.660343     2.389852    -0.004335
F        6.409039     2.046611     1.123682
F        6.380276     1.848661    -1.077247
F        5.546475     3.743690    -0.182488
N        3.237291     2.538033    -0.001792
C        2.105146     1.825842    -0.000699
S        0.508791     2.437464     0.000000
N        2.104638     0.439317     0.000000
H        2.430715    -2.251590    -0.936798
H        3.847042    -2.362017     0.105931
H        2.269804    -2.167893     0.900610
H        5.090571    -0.369431    -0.003007
S       -0.633849     0.000000    -2.407973
C       -2.153633    -0.000003    -1.912465
N       -3.358884    -0.000009    -2.502549
C       -4.452491    -0.000051    -1.632219
C       -5.752692    -0.000096    -2.242760
F       -6.450796    -1.132147    -1.852641
F       -6.429549     1.096236    -1.687775
F       -5.736131     0.223106    -3.578377
C       -4.203638    -0.000047    -0.197627
C       -2.946251    -0.000031     0.368372
C       -2.717502    -0.000050     1.818818
N       -2.079174     0.000000    -0.547299
H       -5.007587    -0.000134     0.481971
H       -2.069182     0.901305     2.024243
H       -3.637205     0.179248     2.411316
H       -2.253707    -0.915684     2.199151
N        0.000000    -2.148480     0.080821
C       -0.000011    -2.860089    -0.935860
C       -0.000079    -4.419419    -0.697427
C       -0.000104    -4.738772     0.584451
C       -0.000078    -3.879210     1.782962
C       -0.000035    -2.537279     1.499729
C       -0.000038    -1.499721     2.535691
C       -0.000076    -1.782043     3.877784
C       -0.000088    -0.584389     4.737204
C       -0.000054     0.697073     4.416260
C        0.000003     0.937096     2.857453
N        0.000000    -0.080821     2.148480
H        0.000029    -2.446734    -1.886463
H       -0.000082    -5.038187    -1.541680
H       -0.000167    -5.810857     0.802058
H       -0.000094    -4.209820     2.786082
H       -0.000104    -2.786163     4.209232
H       -0.000157    -0.801015     5.809235
H       -0.000066     1.541410     5.035682
H        0.000024     1.883906     2.445385
53
ex_0139 frame15 OC-6-chelate-3-conf8
Cd       0.000000     0.000000     0.000000
C        2.643629    -1.818076     0.000001
C        2.921230    -0.360266     0.000002
C        4.142029     0.151660     0.000005
C        4.449978     1.577883     0.000009
C        5.825606     2.123422     0.000017
F        5.862138     3.482593     0.000029
F        6.442704     1.595434    -1.136597
F        6.482655     1.556317     1.076300
N        3.421189     2.450371     0.000006
C        2.165264     1.911433     0.000002
S        0.731295     2.380191     0.000000
N        2.055185     0.631440    -0.000000
H        2.216907    -2.168351     0.959857
H        2.009859    -2.079821    -0.856471
H        3.623505    -2.354672    -0.163937
H        4.959916    -0.553833     0.000009
S       -0.674259    -0.000000    -2.396972
C       -2.174542     0.000674    -2.061656
N       -3.427700     0.001585    -2.616245
C       -4.484666     0.002087    -1.778076
C       -5.848924     0.003264    -2.386565
F       -6.539209    -1.116728    -1.994725
F       -5.709778     0.096245    -3.746620
F       -6.584757     1.090476    -1.935142
C       -4.387352     0.001556    -0.309972
C       -3.103632     0.000407     0.279928
C       -2.941790    -0.000272     1.734057
N       -2.069675     0.000000    -0.582192
H       -5.228088     0.002017     0.349434
H       -3.911348     0.086581     2.216754
H       -2.324299     0.915062     1.969942
H       -2.383527    -0.917349     2.087199
N        0.000000    -2.148480     0.080821
C       -0.000011    -2.860089    -0.935860
C       -0.000079    -4.419419    -0.697427
C       -0.000104    -4.738772     0.584451
C       -0.000078    -3.879210     1.782962
C       -0.000035    -2.537279     1.499729
C       -0.000038    -1.499721     2.535691
C       -0.000076    -1.782043     3.877784
C       -0.000088    -0.584389     4.737204
C       -0.000054     0.697073     4.416260
C        0.000003     0.937096     2.857453
N       -0.000000    -0.080821     2.148480
H        0.000029    -2.446734    -1.886463
H       -0.000082    -5.038187    -1.541680
H       -0.000167    -5.810857     0.802058
H       -0.000094    -4.209820     2.786082
H       -0.000104    -2.786163     4.209232
H       -0.000157    -0.801015     5.809235
H       -0.000066     1.541410     5.035682
H        0.000024     1.883906     2.445385
53
ex_0139 frame16 OC-6-chelate-4
Cd       0.000000     0.000000     0.000000
C        2.643629    -1.818076     0.000001
C        2.921230    -0.360266     0.000002
C        4.142029     0.151660     0.000005
C        4.449978     1.577883     0.000009
C        5.825606     2.123422     0.000017
F        5.862138     3.482593     0.000029
F        6.442704     1.595434    -1.136597
F        6.482655     1.556317     1.076300
N        3.421189     2.450371     0.000006
C        2.165264     1.911433     0.000002
S        0.731295     2.380191     0.000000
N        2.055185     0.631440    -0.000000
H        2.216907    -2.168351     0.959857
H        2.009859    -2.079821    -0.856471
H        3.623505    -2.354672    -0.163937
H        4.959916    -0.553833     0.000009
S       -2.407973    -0.000000    -0.633849
C       -1.906645     0.000004    -2.201371
N       -2.502549     0.000009    -3.358884
C       -1.638039     0.000050    -4.404753
C       -2.242760     0.000096    -5.752692
F       -1.852641     1.132147    -6.450796
F       -1.687775    -1.096236    -6.429549
F       -3.578377    -0.223106    -5.736131
C       -0.206115     0.000046    -4.152067
C        0.368372     0.000031    -2.946251
C        1.818818     0.000050    -2.717502
N       -0.547299    -0.000000    -2.079174
H        0.481971     0.000134    -5.007587
H        2.285317     0.207205    -3.724689
H        2.164908     0.834498    -2.074872
H        2.204391    -0.929443    -2.286783
N        0.000000    -2.148480     0.080821
C       -0.000011    -2.860089    -0.935860
C       -0.000079    -4.419419    -0.697427
C       -0.000104    -4.738772     0.584451
C       -0.000078    -3.879210     1.782962
C       -0.000035    -2.537279     1.499729
C       -0.000038    -1.499721     2.535691
C       -0.000076    -1.782043     3.877784
C       -0.000088    -0.584389     4.737204
C       -0.000054     0.697073     4.416260
C        0.000003     0.937096     2.857453
N       -0.000000    -0.080821     2.148480
H        0.000029    -2.446734    -1.886463
H       -0.000082    -5.038187    -1.541680
H       -0.000167    -5.810857     0.802058
H       -0.000094    -4.209820     2.786082
H       -0.000104    -2.786163     4.209232
H       -0.000157    -0.801015     5.809235
H       -0.000066     1.541410     5.035682
H        0.000024     1.883906     2.445385
53
ex_0139 frame17 OC-6-chelate-4-conf2
Cd       0.000000     0.000000     0.000000
C        2.643629    -1.818076     0.000001
C        2.921230    -0.360266     0.000002
C        4.142029     0.151660     0.000005
C        4.449978     1.577883     0.000009
C        5.825606     2.123422     0.000017
F        5.862138     3.482593     0.000029
F        6.442704     1.595434    -1.136597
F        6.482655     1.556317     1.076300
N        3.421189     2.450371     0.000006
C        2.165264     1.911433     0.000002
S        0.731295     2.380191     0.000000
N        2.055185     0.631440    -0.000000
H        2.216907    -2.168351     0.959857
H        2.009859    -2.079821    -0.856471
H        3.623505    -2.354672    -0.163937
H        4.959916    -0.553833     0.000009
S       -2.407973    -0.000000    -0.633849
C       -1.906645     0.000004    -2.201371
N       -2.502549     0.000009    -3.358884
C       -1.638039     0.000050    -4.404753
C       -2.242760     0.000096    -5.752692
F       -1.852641     1.132147    -6.450796
F       -1.687775    -1.096236    -6.429549
F       -3.578377    -0.223106    -5.736131
C       -0.206115     0.000046    -4.152067
C        0.368372     0.000031    -2.946251
C        1.818818     0.000050    -2.717502
N       -0.547299    -0.000000    -2.079174
H        0.481971     0.000134    -5.007587
H        2.285317     0.207205    -3.724689
H        2.164908     0.834498    -2.074872
H        2.204391    -0.929443    -2.286783
N       -0.000000    -0.104455     2.147461
C       -0.000003     0.934918     2.853829
C       -0.000001     0.703163     4.403400
C        0.000004    -0.581082     4.737811
C        0.000005    -1.776147     3.888968
C       -0.000003    -1.496417     2.549826
C       -0.000013    -2.512420     1.503331
C       -0.000034    -3.841191     1.733918
C       -0.000044    -4.703708     0.545893
C       -0.000030    -4.314079    -0.718700
C       -0.000000    -2.796037    -0.925861
N       -0.000000    -2.147461     0.104455
H       -0.000013     1.879608     2.439289
H       -0.000005     1.539619     5.025324
H        0.000014    -0.779302     5.812355
H        0.000011    -2.778137     4.203071
H       -0.000048    -4.184517     2.740005
H       -0.000063    -5.775881     0.727815
H       -0.000036    -4.950123    -1.575366
H        0.000018    -2.358493    -1.877501
53
ex_0139 frame18 OC-6-chelate-4-conf4
Cd       0.000000     0.000000     0.000000
C        2.643629    -1.818076     0.000001
C        2.921230    -0.360266     0.000002
C        4.142029     0.151660     0.000005
C        4.449978     1.577883     0.000009
C        5.825606     2.123422     0.000017
F        5.862138     3.482593     0.000029
F        6.442704     1.595434    -1.136597
F        6.482655     1.556317     1.076300
N        3.421189     2.450371     0.000006
C        2.165264     1.911433     0.000002
S        0.731295     2.380191     0.000000
N        2.055185     0.631440    -0.000000
H        2.216907    -2.168351     0.959857
H        2.009859    -2.079821    -0.856471
H        3.623505    -2.354672    -0.163937
H        4.959916    -0.553833     0.000009
S       -2.421139    -0.000000    -0.581536
C       -1.784549     0.000008    -2.176105
N       -2.438197     0.000021    -3.299238
C       -1.572705     0.000018    -4.360772
C       -2.181510     0.000028    -5.700133
F       -3.539761     0.000135    -5.685006
F       -1.658788    -1.124687    -6.352584
F       -1.655830     1.081032    -6.395857
C       -0.138804     0.000004    -4.100734
C        0.445934    -0.000005    -2.917474
C        1.883619    -0.000018    -2.648070
N       -0.502129    -0.000000    -2.090542
H        0.539979    -0.000000    -4.971558
H        2.383687     0.136401    -3.645808
H        2.121081     0.898630    -2.064506
H        2.246723    -0.923689    -2.157918
N        0.000000    -2.148480     0.080821
C       -0.000011    -2.860089    -0.935860
C       -0.000079    -4.419419    -0.697427
C       -0.000104    -4.738772     0.584451
C       -0.000078    -3.879210     1.782962
C       -0.000035    -2.537279     1.499729
C       -0.000038    -1.499721     2.535691
C       -0.000076    -1.782043     3.877784
C       -0.000088    -0.584389     4.737204
C       -0.000054     0.697073     4.416260
C        0.000003     0.937096     2.857453
N       -0.000000    -0.080821     2.148480
H        0.000029    -2.446734    -1.886463
H       -0.000082    -5.038187    -1.541680
H       -0.000167    -5.810857     0.802058
H       -0.000094    -4.209820     2.786082
H       -0.000104    -2.786163     4.209232
H       -0.000157    -0.801015     5.809235
H       -0.000066     1.541410     5.035682
H        0.000024     1.883906     2.445385
53
ex_0139 frame19 OC-6-chelate-4-conf6
Cd       0.000000     0.000000     0.000000
C        2.866641    -1.841157    -0.000514
C        3.011539    -0.381809    -0.000861
C        4.249226     0.269726    -0.002272
C        4.386864     1.723778    -0.002795
C        5.660343     2.389852    -0.004335
F        6.409039     2.046611     1.123682
F        6.380276     1.848661    -1.077247
F        5.546475     3.743690    -0.182488
N        3.237291     2.538033    -0.001792
C        2.105146     1.825842    -0.000699
S        0.508791     2.437464     0.000000
N        2.104638     0.439317     0.000000
H        2.430715    -2.251590    -0.936798
H        3.847042    -2.362017     0.105931
H        2.269804    -2.167893     0.900610
H        5.090571    -0.369431    -0.003007
S       -2.407973     0.000000    -0.633849
C       -1.912465     0.000003    -2.153633
N       -2.502549     0.000009    -3.358884
C       -1.632219     0.000051    -4.452491
C       -2.242760     0.000096    -5.752692
F       -1.852641     1.132147    -6.450796
F       -1.687775    -1.096236    -6.429549
F       -3.578377    -0.223106    -5.736131
C       -0.197627     0.000047    -4.203638
C        0.368372     0.000031    -2.946251
C        1.818818     0.000050    -2.717502
N       -0.547299     0.000000    -2.079174
H        0.481971     0.000134    -5.007587
H        2.024243    -0.901305    -2.069182
H        2.411316    -0.179248    -3.637205
H        2.199151     0.915684    -2.253707
N        0.000000    -2.148480     0.080821
C       -0.000011    -2.860089    -0.935860
C       -0.000079    -4.419419    -0.697427
C       -0.000104    -4.738772     0.584451
C       -0.000078    -3.879210     1.782962
C       -0.000035    -2.537279     1.499729
C       -0.000038    -1.499721     2.535691
C       -0.000076    -1.782043     3.877784
C       -0.000088    -0.584389     4.737204
C       -0.000054     0.697073     4.416260
C        0.000003     0.937096     2.857453
N        0.000000    -0.080821     2.148480
H        0.000029    -2.446734    -1.886463
H       -0.000082    -5.038187    -1.541680
H       -0.000167    -5.810857     0.802058
H       -0.000094    -4.209820     2.786082
H       -0.000104    -2.786163     4.209232
H       -0.000157    -0.801015     5.809235
H       -0.000066     1.541410     5.035682
H        0.000024     1.883906     2.445385
53
ex_0139 frame20 OC-6-chelate-4-conf7
Cd       0.000000     0.000000     0.000000
C        2.643629    -1.818076     0.000001
C        2.921230    -0.360266     0.000002
C        4.142029     0.151660     0.000005
C        4.449978     1.577883     0.000009
C        5.825606     2.123422     0.000017
F        5.862138     3.482593     0.000029
F        6.442704     1.595434    -1.136597
F        6.482655     1.556317     1.076300
N        3.421189     2.450371     0.000006
C        2.165264     1.911433     0.000002
S        0.731295     2.380191     0.000000
N        2.055185     0.631440    -0.000000
H        2.216907    -2.168351     0.959857
H        2.009859    -2.079821    -0.856471
H        3.623505    -2.354672    -0.163937
H        4.959916    -0.553833     0.000009
S       -2.421139    -0.000000    -0.581536
C       -1.784549     0.000008    -2.176105
N       -2.438197     0.000021    -3.299238
C       -1.572705     0.000018    -4.360772
C       -2.181510     0.000028    -5.700133
F       -3.539761     0.000135    -5.685006
F       -1.658788    -1.124687    -6.352584
F       -1.655830     1.081032    -6.395857
C       -0.138804     0.000004    -4.100734
C        0.445934    -0.000005    -2.917474
C        1.883619    -0.000018    -2.648070
N       -0.502129    -0.000000    -2.090542
H        0.539979    -0.000000    -4.971558
H        2.383687     0.136401    -3.645808
H        2.121081     0.898630    -2.064506
H        2.246723    -0.923689    -2.157918
N       -0.000000    -0.104455     2.147461
C       -0.000003     0.934918     2.853829
C       -0.000001     0.703163     4.403400
C        0.000004    -0.581082     4.737811
C        0.000005    -1.776147     3.888968
C       -0.000003    -1.496417     2.549826
C       -0.000013    -2.512420     1.503331
C       -0.000034    -3.841191     1.733918
C       -0.000044    -4.703708     0.545893
C       -0.000030    -4.314079    -0.718700
C       -0.000000    -2.796037    -0.925861
N       -0.000000    -2.147461     0.104455
H       -0.000013     1.879608     2.439289
H       -0.000005     1.539619     5.025324
H        0.000014    -0.779302     5.812355
H        0.000011    -2.778137     4.203071
H       -0.000048    -4.184517     2.740005
H       -0.000063    -5.775881     0.727815
H       -0.000036    -4.950123    -1.575366
H        0.000018    -2.358493    -1.877501
53
ex_0139 frame21 OC-6-chelate-4-conf8
Cd       0.000000     0.000000     0.000000
C        2.643629    -1.818076     0.000001
C        2.921230    -0.360266     0.000002
C        4.142029     0.151660     0.000005
C        4.449978     1.577883     0.000009
C        5.825606     2.123422     0.000017
F        5.862138     3.482593     0.000029
F        6.442704     1.595434    -1.136597
F        6.482655     1.556317     1.076300
N        3.421189     2.450371     0.000006
C        2.165264     1.911433     0.000002
S        0.731295     2.380191     0.000000
N        2.055185     0.631440    -0.000000
H        2.216907    -2.168351     0.959857
H        2.009859    -2.079821    -0.856471
H        3.623505    -2.354672    -0.163937
H        4.959916    -0.553833     0.000009
S       -2.396972     0.000000    -0.674259
C       -2.061656    -0.000674    -2.174542
N       -2.616245    -0.001585    -3.427700
C       -1.778076    -0.002087    -4.484666
C       -2.386565    -0.003264    -5.848924
F       -1.994725     1.116728    -6.539209
F       -3.746620    -0.096245    -5.709778
F       -1.935142    -1.090476    -6.584757
C       -0.309972    -0.001556    -4.387352
C        0.279928    -0.000407    -3.103632
C        1.734057     0.000272    -2.941790
N       -0.582192    -0.000000    -2.069675
H        0.349434    -0.002017    -5.228088
H        2.055881     0.924707    -2.470163
H        2.154740    -0.050735    -3.988307
H        2.085784    -0.904652    -2.363175
N        0.000000    -2.148480     0.080821
C       -0.000011    -2.860089    -0.935860
C       -0.000079    -4.419419    -0.697427
C       -0.000104    -4.738772     0.584451
C       -0.000078    -3.879210     1.782962
C       -0.000035    -2.537279     1.499729
C       -0.000038    -1.499721     2.535691
C       -0.000076    -1.782043     3.877784
C       -0.000088    -0.584389     4.737204
C       -0.000054     0.697073     4.416260
C        0.000003     0.937096     2.857453
N       -0.000000    -0.080821     2.148480
H        0.000029    -2.446734    -1.886463
H       -0.000082    -5.038187    -1.541680
H       -0.000167    -5.810857     0.802058
H       -0.000094    -4.209820     2.786082
H       -0.000104    -2.786163     4.209232
H       -0.000157    -0.801015     5.809235
H       -0.000066     1.541410     5.035682
H        0.000024     1.883906     2.445385
53
ex_0139 frame22 OC-6-chelate-5
Cd       0.000000     0.000000     0.000000
C        2.643629    -1.818076     0.000001
C        2.921230    -0.360266     0.000002
C        4.142029     0.151660     0.000005
C        4.449978     1.577883     0.000009
C        5.825606     2.123422     0.000017
F        5.862138     3.482593     0.000029
F        6.442704     1.595434    -1.136597
F        6.482655     1.556317     1.076300
N        3.421189     2.450371     0.000006
C        2.165264     1.911433     0.000002
S        0.731295     2.380191     0.000000
N        2.055185     0.631440    -0.000000
H        2.472789    -2.217077     1.018686
H        1.811302    -2.042011    -0.678823
H        3.546244    -2.339959    -0.433464
H        4.959916    -0.553833     0.000009
S       -0.000000    -2.407973     0.633849
C        0.000004    -1.906645     2.201371
N        0.000009    -2.502549     3.358884
C        0.000050    -1.638039     4.404753
C        0.000096    -2.242760     5.752692
F        1.132147    -1.852641     6.450796
F       -1.096236    -1.687775     6.429549
F       -0.223106    -3.578377     5.736131
C        0.000046    -0.206115     4.152067
C        0.000031     0.368372     2.946251
C        0.000050     1.818818     2.717502
N       -0.000000    -0.547299     2.079174
H        0.000134     0.481971     5.007587
H       -0.713126     1.991127     1.859219
H       -0.432158     2.398777     3.557680
H        0.987723     2.238185     2.501222
N       -0.080821     0.000000    -2.148480
C        0.935860     0.000011    -2.860089
C        0.697427     0.000079    -4.419419
C       -0.584451     0.000104    -4.738772
C       -1.782962     0.000078    -3.879210
C       -1.499729     0.000035    -2.537279
C       -2.535691     0.000038    -1.499721
C       -3.877784     0.000076    -1.782043
C       -4.737204     0.000088    -0.584389
C       -4.416260     0.000054     0.697073
C       -2.857453    -0.000003     0.937096
N       -2.148480    -0.000000    -0.080821
H        1.886463    -0.000029    -2.446734
H        1.541680     0.000082    -5.038187
H       -0.802058     0.000167    -5.810857
H       -2.786082     0.000094    -4.209820
H       -4.209232     0.000104    -2.786163
H       -5.809235     0.000157    -0.801015
H       -5.035682     0.000066     1.541410
H       -2.445385    -0.000024     1.883906
53
ex_0139 frame23 OC-6-chelate-5-conf3
Cd       0.000000     0.000000     0.000000
C        2.643629    -1.818076     0.000001
C        2.921230    -0.360266     0.000002
C        4.142029     0.151660     0.000005
C        4.449978     1.577883     0.000009
C        5.825606     2.123422     0.000017
F        5.862138     3.482593     0.000029
F        6.442704     1.595434    -1.136597
F        6.482655     1.556317     1.076300
N        3.421189     2.450371     0.000006
C        2.165264     1.911433     0.000002
S        0.731295     2.380191     0.000000
N        2.055185     0.631440    -0.000000
H        2.216907    -2.168351     0.959857
H        2.009859    -2.079821    -0.856471
H        3.623505    -2.354672    -0.163937
H        4.959916    -0.553833     0.000009
S        0.000000    -2.421139     0.581536
C        0.000008    -1.784549     2.176105
N        0.000021    -2.438197     3.299238
C        0.000018    -1.572705     4.360772
C        0.000028    -2.181510     5.700133
F        0.000135    -3.539761     5.685006
F       -1.124687    -1.658788     6.352584
F        1.081032    -1.655830     6.395857
C        0.000004    -0.138804     4.100734
C       -0.000005     0.445934     2.917474
C       -0.000018     1.883619     2.648070
N       -0.000000    -0.502129     2.090542
H       -0.000000     0.539979     4.971558
H       -0.145902     2.383455     3.644585
H        1.005143     2.167246     2.310860
H       -0.784834     2.205297     1.936840
N       -0.080821     0.000000    -2.148480
C        0.935860     0.000011    -2.860089
C        0.697427     0.000079    -4.419419
C       -0.584451     0.000104    -4.738772
C       -1.782962     0.000078    -3.879210
C       -1.499729     0.000035    -2.537279
C       -2.535691     0.000038    -1.499721
C       -3.877784     0.000076    -1.782043
C       -4.737204     0.000088    -0.584389
C       -4.416260     0.000054     0.697073
C       -2.857453    -0.000003     0.937096
N       -2.148480    -0.000000    -0.080821
H        1.886463    -0.000029    -2.446734
H        1.541680     0.000082    -5.038187
H       -0.802058     0.000167    -5.810857
H       -2.786082     0.000094    -4.209820
H       -4.209232     0.000104    -2.786163
H       -5.809235     0.000157    -0.801015
H       -5.035682     0.000066     1.541410
H       -2.445385    -0.000024     1.883906
53
ex_0139 frame24 OC-6-chelate-5-conf4
Cd       0.000000     0.000000     0.000000
C        2.866641    -1.841157    -0.000514
C        3.011539    -0.381809    -0.000861
C        4.249226     0.269726    -0.002272
C        4.386864     1.723778    -0.002795
C        5.660343     2.389852    -0.004335
F        6.409039     2.046611     1.123682
F        6.380276     1.848661    -1.077247
F        5.546475     3.743690    -0.182488
N        3.237291     2.538033    -0.001792
C        2.105146     1.825842    -0.000699
S        0.508791     2.437464     0.000000
N        2.104638     0.439317     0.000000
H        2.202882    -2.228937    -0.803113
H        3.841514    -2.361770    -0.165371
H        2.520914    -2.192798     1.015269
H        5.090571    -0.369431    -0.003007
S        0.000000    -2.407973     0.633849
C        0.000003    -1.912465     2.153633
N        0.000009    -2.502549     3.358884
C        0.000051    -1.632219     4.452491
C        0.000096    -2.242760     5.752692
F        1.132147    -1.852641     6.450796
F       -1.096236    -1.687775     6.429549
F       -0.223106    -3.578377     5.736131
C        0.000047    -0.197627     4.203638
C        0.000031     0.368372     2.946251
C        0.000050     1.818818     2.717502
N        0.000000    -0.547299     2.079174
H        0.000134     0.481971     5.007587
H       -0.076159     2.288006     3.741716
H        0.956405     2.201634     2.307756
H       -0.803201     2.168852     2.061447
N       -0.080821     0.000000    -2.148480
C        0.935860     0.000011    -2.860089
C        0.697427     0.000079    -4.419419
C       -0.584451     0.000104    -4.738772
C       -1.782962     0.000078    -3.879210
C       -1.499729     0.000035    -2.537279
C       -2.535691     0.000038    -1.499721
C       -3.877784     0.000076    -1.782043
C       -4.737204     0.000088    -0.584389
C       -4.416260     0.000054     0.697073
C       -2.857453    -0.000003     0.937096
N       -2.148480     0.000000    -0.080821
H        1.886463    -0.000029    -2.446734
H        1.541680     0.000082    -5.038187
H       -0.802058     0.000167    -5.810857
H       -2.786082     0.000094    -4.209820
H       -4.209232     0.000104    -2.786163
H       -5.809235     0.000157    -0.801015
H       -5.035682     0.000066     1.541410
H       -2.445385    -0.000024     1.883906
53
ex_0139 frame25 OC-6-chelate-5-conf5
Cd       0.000000     0.000000     0.000000
C        2.643629    -1.818076     0.000001
C        2.921230    -0.360266     0.000002
C        4.142029     0.151660     0.000005
C        4.449978     1.577883     0.000009
C        5.825606     2.123422     0.000017
F        5.862138     3.482593     0.000029
F        6.442704     1.595434    -1.136597
F        6.482655     1.556317     1.076300
N        3.421189     2.450371     0.000006
C        2.165264     1.911433     0.000002
S        0.731295     2.380191     0.000000
N        2.055185     0.631440    -0.000000
H        2.472789    -2.217077     1.018686
H        1.811302    -2.042011    -0.678823
H        3.546244    -2.339959    -0.433464
H        4.959916    -0.553833     0.000009
S       -0.000000    -2.396972     0.674259
C       -0.000674    -2.061656     2.174542
N       -0.001585    -2.616245     3.427700
C       -0.002087    -1.778076     4.484666
C       -0.003264    -2.386565     5.848924
F        1.116728    -1.994725     6.539209
F       -0.096245    -3.746620     5.709778
F       -1.090476    -1.935142     6.584757
C       -0.001556    -0.309972     4.387352
C       -0.000407     0.279928     3.103632
C        0.000272     1.734057     2.941790
N        0.000000    -0.582192     2.069675
H       -0.002017     0.349434     5.228088
H        1.005317     2.083938     2.722584
H       -0.330232     2.149309     3.938337
H       -0.735043     2.061814     2.148517
N       -0.080821     0.000000    -2.148480
C        0.935860     0.000011    -2.860089
C        0.697427     0.000079    -4.419419
C       -0.584451     0.000104    -4.738772
C       -1.782962     0.000078    -3.879210
C       -1.499729     0.000035    -2.537279
C       -2.535691     0.000038    -1.499721
C       -3.877784     0.000076    -1.782043
C       -4.737204     0.000088    -0.584389
C       -4.416260     0.000054     0.697073
C       -2.857453    -0.000003     0.937096
N       -2.148480    -0.000000    -0.080821
H        1.886463    -0.000029    -2.446734
H        1.541680     0.000082    -5.038187
H       -0.802058     0.000167    -5.810857
H       -2.786082     0.000094    -4.209820
H       -4.209232     0.000104    -2.786163
H       -5.809235     0.000157    -0.801015
H       -5.035682     0.000066     1.541410
H       -2.445385    -0.000024     1.883906
53
ex_0139 frame26 OC-6-chelate-6
Cd       0.000000     0.000000     0.000000
C        2.643629    -1.818076     0.000001
C        2.921230    -0.360266     0.000002
C        4.142029     0.151660     0.000005
C        4.449978     1.577883     0.000009
C        5.825606     2.123422     0.000017
F        5.862138     3.482593     0.000029
F        6.442704     1.595434    -1.136597
F        6.482655     1.556317     1.076300
N        3.421189     2.450371     0.000006
C        2.165264     1.911433     0.000002
S        0.731295     2.380191     0.000000
N        2.055185     0.631440    -0.000000
H        1.984702    -2.124134     0.835615
H        2.246818    -2.124943    -0.975751
H        3.629606    -2.355834     0.116763
H        4.959916    -0.553833     0.000009
S       -0.000000    -2.421139    -0.581536
C       -0.000008    -1.784549    -2.176105
N       -0.000021    -2.438197    -3.299238
C       -0.000018    -1.572705    -4.360772
C       -0.000028    -2.181510    -5.700133
F       -0.000135    -3.539761    -5.685006
F        1.124687    -1.658788    -6.352584
F       -1.081032    -1.655830    -6.395857
C       -0.000004    -0.138804    -4.100734
C        0.000005     0.445934    -2.917474
C        0.000018     1.883619    -2.648070
N        0.000000    -0.502129    -2.090542
H        0.000000     0.539979    -4.971558
H       -0.409406     2.370454    -3.575175
H       -0.730876     2.081566    -1.853643
H        0.999597     2.293357    -2.406786
N       -0.080821    -0.000000     2.148480
C        0.935860    -0.000011     2.860089
C        0.697427    -0.000079     4.419419
C       -0.584451    -0.000104     4.738772
C       -1.782962    -0.000078     3.879210
C       -1.499729    -0.000035     2.537279
C       -2.535691    -0.000038     1.499721
C       -3.877784    -0.000076     1.782043
C       -4.737204    -0.000088     0.584389
C       -4.416260    -0.000054    -0.697073
C       -2.857453     0.000003    -0.937096
N       -2.148480     0.000000     0.080821
H        1.886463     0.000029     2.446734
H        1.541680    -0.000082     5.038187
H       -0.802058    -0.000167     5.810857
H       -2.786082    -0.000094     4.209820
H       -4.209232    -0.000104     2.786163
H       -5.809235    -0.000157     0.801015
H       -5.035682    -0.000066    -1.541410
H       -2.445385     0.000024    -1.883906
53
ex_0139 frame27 OC-6-chelate-6-conf1
Cd       0.000000     0.000000     0.000000
C        2.643629    -1.818076     0.000001
C        2.921230    -0.360266     0.000002
C        4.142029     0.151660     0.000005
C        4.449978     1.577883     0.000009
C        5.825606     2.123422     0.000017
F        5.862138     3.482593     0.000029
F        6.442704     1.595434    -1.136597
F        6.482655     1.556317     1.076300
N        3.421189     2.450371     0.000006
C        2.165264     1.911433     0.000002
S        0.731295     2.380191     0.000000
N        2.055185     0.631440    -0.000000
H        1.984702    -2.124134     0.835615
H        2.246818    -2.124943    -0.975751
H        3.629606    -2.355834     0.116763
H        4.959916    -0.553833     0.000009
S        0.000000    -2.407973    -0.633849
C       -0.000004    -1.906645    -2.201371
N       -0.000009    -2.502549    -3.358884
C       -0.000050    -1.638039    -4.404753
C       -0.000096    -2.242760    -5.752692
F       -1.132147    -1.852641    -6.450796
F        1.096236    -1.687775    -6.429549
F        0.223106    -3.578377    -5.736131
C       -0.000046    -0.206115    -4.152067
C       -0.000031     0.368372    -2.946251
C       -0.000050     1.818818    -2.717502
N        0.000000    -0.547299    -2.079174
H       -0.000134     0.481971    -5.007587
H        1.028059     2.063816    -2.320100
H       -0.085882     2.413229    -3.649362
H       -0.781246     2.164352    -2.033044
N       -0.080821    -0.000000     2.148480
C        0.935860    -0.000011     2.860089
C        0.697427    -0.000079     4.419419
C       -0.584451    -0.000104     4.738772
C       -1.782962    -0.000078     3.879210
C       -1.499729    -0.000035     2.537279
C       -2.535691    -0.000038     1.499721
C       -3.877784    -0.000076     1.782043
C       -4.737204    -0.000088     0.584389
C       -4.416260    -0.000054    -0.697073
C       -2.857453     0.000003    -0.937096
N       -2.148480     0.000000     0.080821
H        1.886463     0.000029     2.446734
H        1.541680    -0.000082     5.038187
H       -0.802058    -0.000167     5.810857
H       -2.786082    -0.000094     4.209820
H       -4.209232    -0.000104     2.786163
H       -5.809235    -0.000157     0.801015
H       -5.035682    -0.000066    -1.541410
H       -2.445385     0.000024    -1.883906
53
ex_0139 frame28 OC-6-chelate-6-conf4
Cd       0.000000     0.000000     0.000000
C        2.866641    -1.841157    -0.000514
C        3.011539    -0.381809    -0.000861
C        4.249226     0.269726    -0.002272
C        4.386864     1.723778    -0.002795
C        5.660343     2.389852    -0.004335
F        6.409039     2.046611     1.123682
F        6.380276     1.848661    -1.077247
F        5.546475     3.743690    -0.182488
N        3.237291     2.538033    -0.001792
C        2.105146     1.825842    -0.000699
S        0.508791     2.437464     0.000000
N        2.104638     0.439317     0.000000
H        2.685217    -2.276876    -1.006670
H        3.730300    -2.336875     0.358967
H        2.056780    -2.146784     0.724547
H        5.090571    -0.369431    -0.003007
S        0.000000    -2.407973    -0.633849
C       -0.000003    -1.912465    -2.153633
N       -0.000009    -2.502549    -3.358884
C       -0.000051    -1.632219    -4.452491
C       -0.000096    -2.242760    -5.752692
F       -1.132147    -1.852641    -6.450796
F        1.096236    -1.687775    -6.429549
F        0.223106    -3.578377    -5.736131
C       -0.000047    -0.197627    -4.203638
C       -0.000031     0.368372    -2.946251
C       -0.000050     1.818818    -2.717502
N        0.000000    -0.547299    -2.079174
H       -0.000134     0.481971    -5.007587
H        1.008541     2.050907    -2.367788
H       -0.085882     2.413229    -3.649362
H       -0.781246     2.164352    -2.033044
N       -0.080821     0.000000     2.148480
C        0.935860    -0.000011     2.860089
C        0.697427    -0.000079     4.419419
C       -0.584451    -0.000104     4.738772
C       -1.782962    -0.000078     3.879210
C       -1.499729    -0.000035     2.537279
C       -2.535691    -0.000038     1.499721
C       -3.877784    -0.000076     1.782043
C       -4.737204    -0.000088     0.584389
C       -4.416260    -0.000054    -0.697073
C       -2.857453     0.000003    -0.937096
N       -2.148480     0.000000     0.080821
H        1.886463     0.000029     2.446734
H        1.541680    -0.000082     5.038187
H       -0.802058    -0.000167     5.810857
H       -2.786082    -0.000094     4.209820
H       -4.209232    -0.000104     2.786163
H       -5.809235    -0.000157     0.801015
H       -5.035682    -0.000066    -1.541410
H       -2.445385     0.000024    -1.883906
53
ex_0139 frame29 OC-6-chelate-6-conf5
Cd       0.000000     0.000000     0.000000
C        2.643629    -1.818076     0.000001
C        2.921230    -0.360266     0.000002
C        4.142029     0.151660     0.000005
C        4.449978     1.577883     0.000009
C        5.825606     2.123422     0.000017
F        5.862138     3.482593     0.000029
F        6.442704     1.595434    -1.136597
F        6.482655     1.556317     1.076300
N        3.421189     2.450371     0.000006
C        2.165264     1.911433     0.000002
S        0.731295     2.380191     0.000000
N        2.055185     0.631440    -0.000000
H        1.984702    -2.124134     0.835615
H        2.246818    -2.124943    -0.975751
H        3.629606    -2.355834     0.116763
H        4.959916    -0.553833     0.000009
S        0.000000    -2.396972    -0.674259
C        0.000674    -2.061656    -2.174542
N        0.001585    -2.616245    -3.427700
C        0.002087    -1.778076    -4.484666
C        0.003264    -2.386565    -5.848924
F       -1.116728    -1.994725    -6.539209
F        0.096245    -3.746620    -5.709778
F        1.090476    -1.935142    -6.584757
C        0.001556    -0.309972    -4.387352
C        0.000407     0.279928    -3.103632
C       -0.000272     1.734057    -2.941790
N       -0.000000    -0.582192    -2.069675
H        0.002017     0.349434    -5.228088
H       -0.781110     2.031119    -2.247075
H       -0.232248     2.151978    -3.964679
H        1.012579     2.113768    -2.614151
N       -0.080821    -0.000000     2.148480
C        0.935860    -0.000011     2.860089
C        0.697427    -0.000079     4.419419
C       -0.584451    -0.000104     4.738772
C       -1.782962    -0.000078     3.879210
C       -1.499729    -0.000035     2.537279
C       -2.535691    -0.000038     1.499721
C       -3.877784    -0.000076     1.782043
C       -4.737204    -0.000088     0.584389
C       -4.416260    -0.000054    -0.697073
C       -2.857453     0.000003    -0.937096
N       -2.148480     0.000000     0.080821
H        1.886463     0.000029     2.446734
H        1.541680    -0.000082     5.038187
H       -0.802058    -0.000167     5.810857
H       -2.786082    -0.000094     4.209820
H       -4.209232    -0.000104     2.786163
H       -5.809235    -0.000157     0.801015
H       -5.035682    -0.000066    -1.541410
H       -2.445385     0.000024    -1.883906
53
ex_0139 frame30 OC-6-chelate-1_mirror
Cd       0.000000     0.000000     0.000000
C        2.643629    -1.818076    -0.000001
C        2.921230    -0.360266    -0.000002
C        4.142029     0.151660    -0.000005
C        4.449978     1.577883    -0.000009
C        5.825606     2.123422    -0.000017
F        5.862138     3.482593    -0.000029
F        6.442704     1.595434     1.136597
F        6.482655     1.556317    -1.076300
N        3.421189     2.450371    -0.000006
C        2.165264     1.911433    -0.000002
S        0.731295     2.380191     0.000000
N        2.055185     0.631440     0.000000
H        2.216907    -2.168351    -0.959857
H        2.009859    -2.079821     0.856471
H        3.623505    -2.354672     0.163937
H        4.959916    -0.553833    -0.000009
S       -0.633849     0.000000    -2.407973
C       -2.201371     0.000004    -1.906645
N       -3.358884     0.000009    -2.502549
C       -4.404753     0.000050    -1.638039
C       -5.752692     0.000096    -2.242760
F       -6.450796     1.132147    -1.852641
F       -6.429549    -1.096236    -1.687775
F       -5.736131    -0.223106    -3.578377
C       -4.152067     0.000046    -0.206115
C       -2.946251     0.000031     0.368372
C       -2.717502     0.000050     1.818818
N       -2.079174     0.000000    -0.547299
H       -5.007587     0.000134     0.481971
H       -2.069182    -0.901305     2.024243
H       -3.637205    -0.179248     2.411316
H       -2.253707     0.915684     2.199151
N        0.000000    -2.148480     0.080821
C        0.000011    -2.860089    -0.935860
C        0.000079    -4.419419    -0.697427
C        0.000104    -4.738772     0.584451
C        0.000078    -3.879210     1.782962
C        0.000035    -2.537279     1.499729
C        0.000038    -1.499721     2.535691
C        0.000076    -1.782043     3.877784
C        0.000088    -0.584389     4.737204
C        0.000054     0.697073     4.416260
C       -0.000003     0.937096     2.857453
N        0.000000    -0.080821     2.148480
H       -0.000029    -2.446734    -1.886463
H        0.000082    -5.038187    -1.541680
H        0.000167    -5.810857     0.802058
H        0.000094    -4.209820     2.786082
H        0.000104    -2.786163     4.209232
H        0.000157    -0.801015     5.809235
H        0.000066     1.541410     5.035682
H       -0.000024     1.883906     2.445385
