35
ex_0588 frame0 
S       -0.747998     3.128701     0.516225
Sb       1.507845     2.392636     1.148794
S       -2.287648    -0.162801    -1.883301
Cr      -0.206466    -0.239947    -0.811700
N       -0.422901    -1.764738     0.192159
C       -0.266401    -1.561439     1.586571
C       -1.633612    -1.448525     2.238098
C       -2.193136    -0.628242     1.084791
N       -1.211431     0.324039     0.592536
N       -0.062691     1.251664    -1.710933
C        0.028807     1.438968    -3.088050
C       -0.111612     0.204796    -3.936754
C        0.952803    -0.652458    -3.388757
N        0.741466    -1.006660    -2.048947
S        2.013133     0.140262     0.544635
H        0.410492    -2.452072     0.111165
H       -1.107125    -2.460859    -0.154650
H        0.404397    -0.718664     1.760098
H        0.197485    -2.396817     2.161883
H       -1.536429    -0.895663     3.166931
H       -2.059641    -2.448545     2.308474
H       -2.572295    -1.255547     0.280242
H       -3.095523    -0.172185     1.540888
H       -0.713992     0.823747     1.361755
H       -1.884097     1.109126     0.464830
H       -0.661580     2.113768    -1.445176
H        0.816148     1.852101    -1.406480
H       -0.815987     2.080435    -3.498392
H        0.896768     2.051837    -3.480724
H       -1.101029    -0.175754    -4.071641
H        0.224369     0.518749    -4.971691
H        1.084054    -1.566532    -4.039386
H        1.954919    -0.143724    -3.528625
H        1.649830    -1.547935    -1.768960
H        0.353829    -2.048901    -2.318960
