46
ex_0249 frame0 OC-6-chelate-2
Cr       0.000000     0.000000     0.000000
N        0.482261     1.986188     0.482165
C       -0.391384     2.648904    -0.419030
C       -0.872709     4.038628    -0.222815
Br      -1.700412     4.367822     1.466715
C        0.258408     5.066802    -0.367162
Br       1.064661     4.988448    -2.117797
C        0.127681     1.844010     1.820131
N        0.484820     0.482165     1.985565
C       -0.395758    -0.388489     2.632978
C        0.010267    -0.917788     4.004688
Br       0.064097     0.488148     5.332791
C       -0.991933    -1.955072     4.498614
Br      -0.340818    -2.528242     6.242065
C        1.828183     0.142981     1.840980
N        1.985541     0.482261     0.484820
C        2.551501    -0.457887    -0.385960
C        4.024021    -0.292040    -0.467392
Br       4.471358     1.453442    -1.123498
C        4.553473    -1.346133    -1.445868
Br       3.781583    -1.123541    -3.191579
C        1.827284     1.818781     0.098396
H       -1.323827     2.054485    -0.459067
H        0.075413     2.599253    -1.423953
H       -1.617066     4.364843    -0.997792
H       -0.168732     6.083969    -0.260943
H        0.977600     4.937530     0.461730
H       -0.982867     1.856998     1.899700
H        0.523022     2.552293     2.593485
H       -1.387551     0.094983     2.737869
H       -0.550916    -1.291822     2.052383
H        0.992778    -1.392633     3.993893
H       -0.956618    -2.800961     3.805532
H       -1.999628    -1.501190     4.634729
H        1.965316    -0.938472     1.958303
H        2.601513     0.722589     2.415504
H        2.336498    -1.478673    -0.005411
H        2.117467    -0.421955    -1.397693
H        4.545082    -0.517051     0.487177
H        4.362265    -2.369513    -1.106123
H        5.659715    -1.193865    -1.541645
H        2.624854     2.411075     0.597759
H        1.874910     1.885829    -1.003802
Cl      -2.410000     0.000000     0.000000
Cl       0.000000    -2.410000     0.000000
Cl       0.000000     0.000000    -2.410000
46
ex_0249 frame1 OC-6-chelate-2-conf2
Cr       0.000000     0.000000     0.000000
N        2.005367     0.364610     0.505532
C        2.690807    -0.443316    -0.407088
C        3.157530     0.049673    -1.703643
Br       4.191925     1.657396    -1.458856
C        4.118480    -0.968158    -2.337735
Br       4.728846    -0.308825    -4.047552
C        1.899873     1.745020     0.179547
N        0.364610     2.012494     0.476371
C       -0.244461     2.695231    -0.367808
C       -1.407426     3.650497    -0.169697
Br      -2.971049     2.734253     0.489941
C       -1.777899     4.170808    -1.556984
Br      -0.271530     5.083920    -2.348227
C        0.233746     1.839040     1.848152
N        0.505532     0.476371     1.981794
C       -0.452560    -0.345644     2.572241
C       -0.840178    -0.276564     4.033317
Br      -1.413255     1.497189     4.542046
C       -1.955781    -1.224322     4.396849
Br      -2.314554    -0.996493     6.298316
C        1.832450     0.007445     1.838539
H        3.615218    -0.758652     0.186968
H        2.202843    -1.434320    -0.606633
H        2.369755     0.173953    -2.478021
H        3.567355    -1.931368    -2.543827
H        4.937076    -1.199615    -1.653217
H        1.994733     1.919797    -0.886583
H        2.205150     2.532806     0.843214
H       -0.568832     2.003451    -1.174387
H        0.576420     3.292998    -0.799813
H       -1.126003     4.510992     0.442882
H       -2.688269     4.792181    -1.500028
H       -2.039547     3.262129    -2.155114
H       -0.816290     2.044790     2.048637
H        0.852319     2.691578     2.178092
H       -1.409041    -0.070130     2.039271
H       -0.203404    -1.410824     2.399317
H        0.025804    -0.526203     4.709501
H       -2.853573    -0.868934     3.840072
H       -1.701889    -2.269038     4.177593
H        1.802333    -1.101385     1.912454
H        2.633277     0.332305     2.548217
Cl      -2.410000     0.000000     0.000000
Cl       0.000000    -2.410000     0.000000
Cl       0.000000     0.000000    -2.410000
46
ex_0249 frame2 OC-6-chelate-2-conf4
Cr       0.000000     0.000000     0.000000
N        0.480008     0.461549     1.991624
C       -0.335743    -0.377099     2.683571
C        0.251273    -1.685674     3.075983
Br       1.601046    -1.410330     4.450465
C       -0.868287    -2.501843     3.727068
Br      -1.489686    -1.496144     5.277475
C        0.188840     1.838245     1.832414
N        0.498228     1.987144     0.461549
C       -0.436988     2.725059    -0.294972
C        0.059726     3.570267    -1.456061
Br      -1.531320     4.049612    -2.478781
C        0.692185     4.856044    -0.990163
Br      -0.533017     5.956298     0.005868
C        1.815072     1.832427     0.050470
N        1.982766     0.498228     0.480008
C        2.525458    -0.446762    -0.386874
C        3.975765    -0.700280    -0.569481
Br       4.942934     0.839956    -1.194087
C        4.271477    -1.883017    -1.486298
Br       3.556854    -1.642972    -3.251634
C        1.840719     0.194146     1.841402
H       -0.822181     0.052616     3.595544
H       -1.147440    -0.559480     1.949363
H        0.607675    -2.311284     2.243953
H       -0.520353    -3.474269     4.102030
H       -1.745594    -2.612230     3.058346
H       -0.905524     1.991134     1.934694
H        0.772327     2.345294     2.619199
H       -1.032784     3.485656     0.305002
H       -1.204406     2.084956    -0.696542
H        0.730216     3.050263    -2.138333
H        1.644888     4.688676    -0.445507
H        0.960628     5.440861    -1.894766
H        2.585663     2.601401     0.300523
H        1.828564     1.714612    -1.059458
H        2.074654    -1.428141    -0.075108
H        2.113056    -0.122424    -1.367899
H        4.438329    -1.002779     0.414436
H        3.952796    -2.836841    -1.005798
H        5.375112    -1.957753    -1.573628
H        2.031477    -0.892189     1.955824
H        2.324271     0.740794     2.693116
Cl      -2.410000     0.000000     0.000000
Cl       0.000000    -2.410000     0.000000
Cl       0.000000     0.000000    -2.410000
46
ex_0249 frame3 OC-6-chelate-2-conf5
Cr       0.000000     0.000000     0.000000
N        1.988606     0.471514     0.482827
C        2.537691    -0.404221    -0.387615
C        3.957744    -0.743645    -0.720409
Br       3.891835    -2.126161    -2.100294
C        4.631310    -1.334045     0.486130
Br       6.466897    -1.780236     0.079564
C        1.844108     0.181401     1.848176
N        0.482827     0.487377     1.984778
C       -0.321043    -0.457766     2.679205
C       -1.644608     0.048830     3.121533
Br      -1.559663     1.399939     4.481644
C       -2.369712    -1.150451     3.749744
Br      -1.412962    -1.873199     5.247965
C        0.069027     1.814474     1.841808
N        0.471514     1.987496     0.487377
C       -0.381081     2.695389    -0.369703
C        0.292250     3.795430    -1.165843
Br       0.879647     5.107267     0.153879
C       -0.690379     4.510615    -2.066296
Br      -1.501281     3.297036    -3.330658
C        1.835220     1.843719     0.177024
H        2.100363    -0.064651    -1.372252
H        2.091314    -1.386269    -0.057683
H        4.516170     0.094338    -1.180295
H        4.119233    -2.311490     0.693896
H        4.522472    -0.691291     1.380545
H        2.483809     0.598974     2.652959
H        1.956920    -0.920138     1.917884
H        0.203822    -0.868882     3.572950
H       -0.513079    -1.363812     2.058733
H       -2.307600     0.324435     2.258156
H       -3.403484    -0.916606     4.028139
H       -2.459415    -1.970100     2.979730
H        0.460134     2.631003     2.511462
H       -1.038479     1.866561     1.846070
H       -1.202716     3.217121     0.201948
H       -0.902880     2.076263    -1.113179
H        1.111457     3.457638    -1.800743
H       -0.156854     5.271539    -2.670895
H       -1.475079     5.036549    -1.501438
H        2.487152     2.649650     0.521335
H        1.906934     1.767501    -0.941152
Cl      -2.410000     0.000000     0.000000
Cl       0.000000    -2.410000     0.000000
Cl       0.000000     0.000000    -2.410000
46
ex_0249 frame4 OC-6-chelate-2_mirror
Cr       0.000000     0.000000     0.000000
N        0.482261     1.986188    -0.482165
C       -0.391384     2.648904     0.419030
C       -0.872709     4.038628     0.222815
Br      -1.700412     4.367822    -1.466715
C        0.258408     5.066802     0.367162
Br       1.064661     4.988448     2.117797
C        0.127681     1.844010    -1.820131
N        0.484820     0.482165    -1.985565
C       -0.395758    -0.388489    -2.632978
C        0.010267    -0.917788    -4.004688
Br       0.064097     0.488148    -5.332791
C       -0.991933    -1.955072    -4.498614
Br      -0.340818    -2.528242    -6.242065
C        1.828183     0.142981    -1.840980
N        1.985541     0.482261    -0.484820
C        2.551501    -0.457887     0.385960
C        4.024021    -0.292040     0.467392
Br       4.471358     1.453442     1.123498
C        4.553473    -1.346133     1.445868
Br       3.781583    -1.123541     3.191579
C        1.827284     1.818781    -0.098396
H       -1.323827     2.054485     0.459067
H        0.075413     2.599253     1.423953
H       -1.617066     4.364843     0.997792
H       -0.168732     6.083969     0.260943
H        0.977600     4.937530    -0.461730
H       -0.982867     1.856998    -1.899700
H        0.523022     2.552293    -2.593485
H       -1.387551     0.094983    -2.737869
H       -0.550916    -1.291822    -2.052383
H        0.992778    -1.392633    -3.993893
H       -0.956618    -2.800961    -3.805532
H       -1.999628    -1.501190    -4.634729
H        1.965316    -0.938472    -1.958303
H        2.601513     0.722589    -2.415504
H        2.336498    -1.478673     0.005411
H        2.117467    -0.421955     1.397693
H        4.545082    -0.517051    -0.487177
H        4.362265    -2.369513     1.106123
H        5.659715    -1.193865     1.541645
H        2.624854     2.411075    -0.597759
H        1.874910     1.885829     1.003802
Cl      -2.410000     0.000000     0.000000
Cl       0.000000    -2.410000     0.000000
Cl       0.000000     0.000000     2.410000
