79
ex_0357 frame0 trans-1
C        0.915063    -3.896496    -0.070716
C       -0.373103    -3.041022    -0.170537
N       -0.866569    -2.029803     0.706862
C       -2.239862    -1.728473     0.636538
C       -2.996051    -2.401427     1.485722
C       -4.348730    -2.220276     1.574067
C       -4.963498    -1.316424     0.746606
C       -4.195901    -0.602245    -0.172366
C       -2.817561    -0.780346    -0.262418
Cr       0.425126    -0.503676     0.403267
O       -0.875681     1.006242     0.302780
O        1.784207    -1.917636     0.770953
N        0.202839    -1.045885    -1.512624
C        0.856120    -0.455470    -2.512043
C        2.160242    -0.815151    -2.778079
C        2.761108    -0.367180    -3.912688
C        2.073776     0.532848    -4.722707
C        0.777767     0.963234    -4.386533
C        0.171744     0.507769    -3.242961
C       -0.458775    -2.185686    -2.033588
C       -0.455265    -2.292769    -3.376270
C       -1.131523    -3.225985    -1.151810
N        0.469641    -0.227848     2.384035
C       -0.491577    -0.679747     3.211876
C       -0.437777    -1.963463     3.694396
C       -1.361357    -2.382857     4.623758
C       -2.369334    -1.520802     5.015137
C       -2.425387    -0.237853     4.467535
C       -1.497313     0.181242     3.539179
C        1.623807     0.154995     3.037138
C        1.550158     0.121093     4.396821
C        2.821213     0.561947     2.269824
C        2.587272     1.414292     1.097314
C        3.318903     2.535207     0.851046
N        1.595033     1.093328     0.191969
C        1.484355     2.025479    -0.834704
C        0.383120     2.833365    -0.938753
C        0.416558     3.861001    -1.870278
C        1.506204     4.010597    -2.713441
C        2.553134     3.125337    -2.621482
C        2.517641     2.099450    -1.730666
H        1.563613    -3.466926    -0.895144
H        1.461536    -4.086102     0.850505
H        0.644387    -4.876956    -0.456363
H       -2.521123    -3.106233     2.112575
H       -4.916561    -2.789943     2.295399
H       -6.027440    -1.176145     0.818959
H       -4.694370     0.090164    -0.805148
H       -2.309386    -0.212711    -1.009474
H       -1.615248     0.880712     0.912255
H        2.594434    -1.709185     0.467168
H        2.662308    -1.552166    -2.143457
H        3.759388    -0.690624    -4.185509
H        2.561333     0.893523    -5.603583
H        0.269880     1.656887    -5.030654
H       -0.839439     0.774155    -2.948749
H       -0.871572    -3.165182    -3.589424
H       -1.058543    -1.472791    -3.828575
H        0.615096    -2.306723    -3.763693
H       -0.989015    -4.188217    -1.657950
H       -2.219473    -3.009289    -1.052719
H        0.361876    -2.620230     3.402882
H       -1.274324    -3.386405     5.020645
H       -3.097633    -1.851179     5.732996
H       -3.210589     0.413619     4.784937
H       -1.547945     1.170147     3.163140
H        0.600505     0.672780     4.718741
H        1.534634    -0.949661     4.717413
H        2.341640     0.598633     4.787937
H        3.305481     1.317205     3.027331
H        3.602314    -0.183656     2.143700
H        2.743103     3.327746     0.292859
H        4.209434     2.262536     0.273351
H        3.473698     3.023951     1.766328
H       -0.463228     2.833156    -0.315386
H       -0.398715     4.557952    -1.946382
H        1.550084     4.793737    -3.439421
H        3.402269     3.239239    -3.273356
H        3.359561     1.450323    -1.661623
79
ex_0357 frame1 trans-3
C        4.247121     0.165188    -2.299825
C        3.355715    -0.047810    -1.208194
N        2.034164    -0.016426    -1.542738
C        1.666285     0.169128    -2.859700
C        1.852742    -0.860718    -3.743083
C        1.516038    -0.686397    -5.080866
C        0.975779     0.514667    -5.531723
C        0.781394     1.548020    -4.621705
C        1.119076     1.372984    -3.280945
Cr       0.680307    -0.485556    -0.106748
O        1.091814    -2.117442    -1.175656
O        0.909143     1.461484    -0.465371
N        1.800068    -0.465148     1.571321
C        1.277865    -0.388370     2.843762
C        0.540636     0.691590     3.208459
C        0.037084     0.798592     4.504246
C        0.264865    -0.203406     5.431511
C        1.003592    -1.302815     5.041745
C        1.505323    -1.412232     3.748996
C        3.154839    -0.349250     1.418908
C        3.896676    -0.296669     2.636792
C        3.885973    -0.276721     0.142915
N       -1.211909     0.302972    -0.191174
C       -1.626474     1.386797     0.459137
C       -1.363313     2.593866    -0.089041
C       -1.852976     3.744098     0.470969
C       -2.586858     3.688723     1.631893
C       -2.811033     2.451069     2.220205
C       -2.301333     1.284928     1.651066
C       -2.007308    -0.294025    -1.050556
C       -3.298848     0.327541    -1.188343
C       -1.535914    -1.489798    -1.766190
C       -1.541363    -2.262392    -0.500865
C       -2.476040    -3.334448    -0.169983
N       -0.611486    -1.971265     0.448315
C       -0.514450    -2.692852     1.552761
C       -1.381613    -2.456833     2.596752
C       -1.352924    -3.293036     3.707753
C       -0.438171    -4.315110     3.794699
C        0.451868    -4.490148     2.755120
C        0.436352    -3.654949     1.643642
H        3.748213     0.743339    -3.122110
H        5.108219     0.676986    -1.920547
H        4.490745    -0.851467    -2.633908
H        2.283172    -1.798334    -3.394388
H        1.657221    -1.469449    -5.804541
H        0.710532     0.642571    -6.578339
H        0.364880     2.497890    -4.931667
H        0.971641     2.180766    -2.608503
H        1.881649    -2.561089    -0.811352
H        1.059697     1.959257     0.328786
H        0.371587     1.495331     2.541932
H       -0.534975     1.669825     4.786432
H       -0.108425    -0.162633     6.445959
H        1.195324    -2.091636     5.741743
H        2.084491    -2.271682     3.499858
H        3.314383     0.205132     3.440911
H        4.780773     0.287937     2.472102
H        4.164241    -1.309428     2.936007
H        4.560788     0.635599     0.305627
H        4.687263    -1.069369     0.133194
H       -0.819817     2.694126    -1.012053
H       -1.667570     4.697680    -0.005730
H       -2.957924     4.614397     2.036806
H       -3.385186     2.392387     3.124945
H       -2.517319     0.378558     2.127251
H       -3.254225     1.379300    -1.559469
H       -3.895133    -0.337384    -1.754181
H       -3.711216     0.335129    -0.145638
H       -0.605938    -1.462384    -2.359218
H       -2.318799    -1.864828    -2.434159
H       -3.462340    -2.954687     0.113727
H       -2.600584    -4.042887    -0.987798
H       -2.026165    -3.959686     0.640991
H       -2.121546    -1.706735     2.571447
H       -2.048231    -3.150315     4.507582
H       -0.414082    -4.963372     4.652852
H        1.162981    -5.288977     2.825198
H        1.142319    -3.869580     0.878666
79
ex_0357 frame2 cis-same-N-3
C       -0.743515    -4.822392     1.374114
C       -0.987008    -3.637472     0.601193
N        0.024170    -2.751338     0.619276
C        1.033754    -2.975512     1.481327
C        2.220570    -3.473903     1.015593
C        3.207526    -3.768201     1.937554
C        3.019680    -3.535631     3.291528
C        1.828456    -3.000768     3.710077
C        0.837757    -2.696221     2.798795
Cr      -0.176814    -1.141842    -0.602022
O       -0.574477    -2.455107    -2.051088
O        1.574464    -2.013683    -1.001120
N       -1.703302    -1.128219     0.757269
C       -2.039731    -0.137737     1.606240
C       -1.211583     0.248450     2.654694
C       -1.689170     1.186116     3.565591
C       -2.935490     1.745872     3.381241
C       -3.691352     1.371242     2.288668
C       -3.219846     0.468520     1.397317
C       -2.548084    -2.200837     0.656774
C       -3.795726    -2.188590     1.393748
C       -2.220249    -3.350397    -0.172669
N        0.588141    -0.278640    -2.301552
C        1.873064     0.012603    -2.525620
C        2.332970     1.290939    -2.326915
C        3.666443     1.578678    -2.585765
C        4.503814     0.573403    -3.019499
C        4.023513    -0.709401    -3.194448
C        2.704449    -0.989078    -2.953312
C       -0.394748    -0.042998    -3.231867
C        0.013562     0.389496    -4.570604
C       -1.789732    -0.252605    -2.782590
C       -1.608025     0.925557    -1.958907
C       -2.170336     2.200777    -2.353024
N       -0.888967     0.770597    -0.808743
C       -0.462985     1.659586     0.084636
C        0.787631     1.473878     0.605812
C        1.318617     2.389850     1.491160
C        0.559672     3.472008     1.863746
C       -0.722285     3.608891     1.339893
C       -1.247141     2.697632     0.450674
H        0.334074    -5.117656     1.164837
H       -0.850724    -4.539956     2.443922
H       -1.338780    -5.637250     1.092799
H        2.433840    -3.731013    -0.003845
H        4.136917    -4.189349     1.622117
H        3.766324    -3.757169     4.038483
H        1.667482    -2.820903     4.757183
H       -0.081582    -2.323555     3.181769
H       -0.256796    -3.383672    -1.961689
H        2.246610    -1.501771    -0.521564
H       -0.253066    -0.136505     2.825754
H       -1.089588     1.475135     4.415189
H       -3.289655     2.470225     4.086144
H       -4.651886     1.793156     2.129953
H       -3.839177     0.189008     0.557034
H       -3.687364    -1.688433     2.379546
H       -3.942896    -3.222039     1.682745
H       -4.700745    -1.938036     0.827135
H       -2.887871    -4.171651     0.167217
H       -2.382662    -3.346065    -1.255619
H        1.706900     2.076573    -2.006115
H        4.062805     2.580333    -2.457706
H        5.526003     0.817104    -3.215923
H        4.703576    -1.463931    -3.533035
H        2.368955    -2.002594    -3.107707
H       -0.736533     0.187998    -5.325518
H        0.938226    -0.156690    -4.886766
H        0.224831     1.468456    -4.496881
H       -2.053657    -1.095690    -2.134141
H       -2.539447    -0.097957    -3.547592
H       -1.554327     3.059157    -2.106586
H       -2.171636     2.171343    -3.467142
H       -3.194008     2.369319    -1.972922
H        1.399712     0.645513     0.325042
H        2.312597     2.269119     1.886646
H        0.947105     4.200381     2.553900
H       -1.336221     4.431517     1.609439
H       -2.241816     2.816922     0.084501
79
ex_0357 frame3 cis-same-N-2
C        2.750148     0.213583     2.472763
C        1.953006     0.155019     1.306589
N        0.645640    -0.110943     1.473636
C        0.194346    -0.149018     2.822535
C        0.123705    -1.359404     3.478403
C       -0.281332    -1.387856     4.786245
C       -0.617548    -0.223461     5.447156
C       -0.557880     0.987018     4.772290
C       -0.165609     1.025254     3.453623
Cr      -0.621297    -0.344213    -0.116345
O       -1.644244     0.638841    -1.524939
O       -1.444521    -1.304479     1.430300
N        0.315694     1.401853    -0.571869
C       -0.362003     2.582241    -0.873162
C       -0.400520     2.964661    -2.206875
C       -1.005514     4.139050    -2.551982
C       -1.596281     4.935526    -1.591405
C       -1.575539     4.534824    -0.258053
C       -0.969268     3.341749     0.101932
C        1.687796     1.478931    -0.532694
C        2.242358     2.695518    -1.016488
C        2.520089     0.373105    -0.023151
N        0.463036    -1.656643    -1.250224
C        1.094308    -1.248618    -2.390152
C        0.463622    -0.412461    -3.281164
C        1.139709    -0.007734    -4.408975
C        2.426799    -0.441846    -4.649258
C        3.047948    -1.290406    -3.761547
C        2.384095    -1.692053    -2.634992
C        0.231215    -3.033191    -1.028416
C        0.941355    -4.017765    -1.828899
C       -0.722444    -3.486304     0.005263
C       -2.022994    -2.912748    -0.482265
C       -3.148914    -3.713502    -0.773969
N       -2.126999    -1.592721    -0.649289
C       -3.306915    -1.067877    -1.194540
C       -4.284932    -0.611469    -0.355137
C       -5.468174    -0.191965    -0.907416
C       -5.618813    -0.192297    -2.300291
C       -4.587617    -0.617005    -3.127782
C       -3.417762    -1.040638    -2.579225
H        2.511311     1.235518     2.800725
H        3.747156     0.055717     2.185395
H        2.449030    -0.567891     3.211146
H        0.379189    -2.280989     2.984194
H       -0.332596    -2.310922     5.305652
H       -0.918489    -0.277055     6.479967
H       -0.810670     1.891931     5.277507
H       -0.114014     1.963272     2.947605
H       -2.332602     1.178400    -1.045683
H       -2.027070    -0.697763     1.903076
H        0.063699     2.374580    -2.987293
H       -1.021934     4.449487    -3.570064
H       -2.064958     5.854853    -1.902792
H       -2.027033     5.147092     0.499125
H       -0.944931     3.061668     1.127241
H        1.583720     3.487806    -0.600777
H        2.235196     2.719735    -2.102118
H        3.158962     2.833793    -0.557807
H        2.848637    -0.555955    -0.497867
H        3.482207     0.890423     0.161342
H       -0.527271    -0.075520    -3.185363
H        0.682315     0.646612    -5.119200
H        2.937397    -0.118315    -5.528461
H        4.045380    -1.623148    -3.959645
H        2.889009    -2.352504    -1.956012
H        1.880644    -4.335424    -1.358680
H        0.997748    -3.624097    -2.857208
H        0.282105    -4.865127    -1.893010
H       -0.477851    -3.242552     1.049320
H       -0.819678    -4.596884    -0.095167
H       -2.888193    -4.415857    -1.543712
H       -3.456326    -4.129149     0.157177
H       -3.989564    -3.087642    -1.102334
H       -4.131737    -0.652545     0.722586
H       -6.267586     0.130401    -0.267033
H       -6.526444     0.134347    -2.763957
H       -4.706393    -0.618776    -4.192572
H       -2.615544    -1.388648    -3.223784
79
ex_0357 frame4 trans-2
C       -3.615480     1.207819     1.518673
C       -2.670929     0.224624     0.926467
N       -1.442767     0.707489     0.325938
C       -1.225733     1.976765     0.168419
C       -0.041405     2.475112     0.665281
C        0.174772     3.831712     0.593110
C       -0.765995     4.648789    -0.016113
C       -1.915084     4.108719    -0.542722
C       -2.137491     2.766960    -0.461798
Cr      -0.461539    -0.842708    -0.553248
O       -1.580384     0.004538    -1.977001
O        1.118302    -1.995341    -0.139360
N       -0.532022    -1.399718     1.395572
C        0.473346    -1.082190     2.331238
C        1.548028    -1.943550     2.441464
C        2.456246    -1.715005     3.436439
C        2.329150    -0.613499     4.271610
C        1.287213     0.272379     4.112589
C        0.385147     0.059599     3.116025
C       -1.771137    -1.470850     1.855363
C       -1.898689    -1.793808     3.237249
C       -2.894566    -1.212217     0.906009
N       -0.908201    -2.719272    -1.197344
C       -1.557238    -3.696930    -0.514040
C       -2.794083    -4.101162    -0.982495
C       -3.456081    -5.138323    -0.374330
C       -2.910665    -5.746460     0.743588
C       -1.689211    -5.310565     1.221842
C       -1.010238    -4.273612     0.610026
C       -0.438148    -3.064249    -2.463720
C       -0.750822    -4.385911    -2.898645
C        0.352121    -2.170546    -3.379266
C        0.963932    -0.835900    -3.127397
C        1.814386    -0.239238    -4.104905
N        0.776709    -0.080667    -1.976979
C        1.278364     1.141351    -1.915867
C        0.641446     2.165954    -2.579035
C        1.216934     3.421071    -2.594799
C        2.408921     3.647506    -1.902097
C        3.013521     2.593530    -1.200233
C        2.435490     1.337152    -1.178685
H       -3.039904     2.099833     1.875046
H       -4.043212     0.767115     2.402423
H       -4.445905     1.466418     0.843134
H        0.696134     1.876058     1.144580
H        1.065715     4.271347     0.995800
H       -0.600405     5.698740    -0.086312
H       -2.627526     4.755039    -1.007178
H       -3.036226     2.344424    -0.863454
H       -2.241976    -0.585061    -2.287860
H        1.899227    -1.473084    -0.105822
H        1.688155    -2.838979     1.854233
H        3.275906    -2.378389     3.594944
H        3.040932    -0.446945     5.042039
H        1.174723     1.123760     4.757355
H       -0.440611     0.736247     3.013521
H       -2.254176    -0.894070     3.731910
H       -2.464779    -2.690994     3.298912
H       -0.881319    -2.077184     3.643464
H       -3.859227    -1.535034     1.261114
H       -2.737507    -1.591601    -0.137300
H       -3.214362    -3.654804    -1.860214
H       -4.396177    -5.474887    -0.750477
H       -3.407982    -6.551050     1.258895
H       -1.271659    -5.783252     2.082063
H       -0.064860    -3.994437     0.995355
H        0.068968    -4.697090    -3.462900
H       -1.665135    -4.323986    -3.488497
H       -0.793852    -5.097025    -2.028687
H       -0.264222    -2.084449    -4.277864
H        1.242655    -2.773557    -3.735684
H        1.199310     0.286262    -4.824501
H        2.414972    -1.007523    -4.531160
H        2.479189     0.507202    -3.608387
H       -0.277653     1.958891    -3.128252
H        0.740977     4.221457    -3.140047
H        2.866115     4.634120    -1.903571
H        3.928855     2.748483    -0.667154
H        2.935295     0.524952    -0.651948
79
ex_0357 frame5 cis-same-N-1
C        2.173069    -1.822492    -1.993786
C        0.824412    -1.518798    -1.375768
N        0.819809    -0.302965    -1.095039
C        1.986275     0.387325    -1.411346
C        2.921056     0.732969    -0.464060
C        4.131260     1.325596    -0.860460
C        4.318971     1.597835    -2.214063
C        3.343381     1.295753    -3.157663
C        2.145672     0.708473    -2.766892
Cr      -0.689599     0.459725    -0.257699
O       -1.631910     0.943015    -1.913826
O       -2.287209     1.557008     0.129725
N       -1.825691    -1.048223    -0.574630
C       -3.222911    -0.997830    -0.373217
C       -3.923789    -1.100068    -1.591890
C       -5.294774    -1.101776    -1.638044
C       -6.013484    -0.987565    -0.476740
C       -5.310373    -0.875395     0.700190
C       -3.912695    -0.874528     0.744840
C       -1.340947    -2.140204    -0.918419
C       -2.422842    -3.194069    -0.956550
C       -0.045538    -2.642152    -1.279693
N        0.025477     2.201508     0.124168
C        0.201784     3.137178    -0.944211
C       -0.951252     3.547296    -1.625781
C       -0.902135     4.479924    -2.641819
C        0.304491     5.008026    -3.015797
C        1.426959     4.578487    -2.351887
C        1.371012     3.629414    -1.319648
C        0.214667     2.608186     1.265391
C        0.633572     4.083169     1.231218
C        0.142492     2.060856     2.578277
C        0.157172     0.630496     2.360419
C        0.524404    -0.156599     3.589866
N       -0.052902    -0.144123     1.423331
C        0.153264    -1.517752     1.696142
C       -0.822668    -2.407990     1.973152
C       -0.531284    -3.741363     2.298407
C        0.752782    -4.196678     2.313310
C        1.757225    -3.318674     2.002377
C        1.465492    -1.985349     1.676841
H        3.000759    -1.257814    -1.645562
H        2.358346    -2.901034    -1.797818
H        2.041352    -1.732162    -3.078260
H        2.817960     0.569298     0.580403
H        4.891957     1.565484    -0.153779
H        5.217730     2.051112    -2.597911
H        3.475999     1.503700    -4.217671
H        1.388255     0.483375    -3.504535
H       -1.097459     1.248447    -2.543024
H       -2.629862     1.329006     0.948925
H       -3.405195    -1.168074    -2.537086
H       -5.849641    -1.189327    -2.562329
H       -7.100217    -0.983221    -0.460486
H       -5.871488    -0.785842     1.604929
H       -3.477942    -0.760177     1.695762
H       -2.731760    -3.264123    -1.991689
H       -3.216666    -2.941235    -0.291648
H       -1.959958    -4.190700    -0.719199
H       -0.106530    -3.220840    -2.275465
H        0.270120    -3.404511    -0.508091
H       -1.930679     3.173169    -1.377522
H       -1.789660     4.814247    -3.160738
H        0.356381     5.732491    -3.802989
H        2.368227     4.996035    -2.649631
H        2.302915     3.386475    -0.882256
H        0.054636     4.540353     0.424014
H        0.241004     4.564787     2.170008
H        1.688875     4.217684     1.103910
H       -0.781441     2.395377     3.120503
H        0.973711     2.418323     3.251196
H        0.366805     0.486758     4.470904
H       -0.062596    -1.040599     3.752877
H        1.606357    -0.368524     3.523891
H       -1.825401    -2.141982     1.999314
H       -1.324112    -4.417859     2.539702
H        0.994160    -5.201668     2.556467
H        2.776538    -3.677131     2.013699
H        2.311588    -1.388112     1.458225
