50
ex_0166 frame0 T-4-chelate-2
Cu       0.000000     0.000000     0.000000
C        1.315664     0.123603     3.213766
C        1.901173     0.025524     1.849598
N        1.545111     0.924461     0.937499
C        0.993790     2.153815     1.091372
C        2.042615     3.147710     1.400430
C        2.381701     0.883962    -0.307528
C        2.667470    -0.609438    -0.702639
N        1.410956    -1.226997    -0.790306
C        0.894470    -2.313025    -1.154099
C       -0.539449    -2.624967    -1.098457
C       -1.079740    -3.415985    -2.118658
C       -2.401305    -3.792583    -2.144816
N       -2.853179    -4.609371    -3.221982
O       -4.039248    -4.981044    -3.312882
O       -2.004474    -5.039966    -4.232459
C       -3.235210    -3.367286    -1.134388
C       -2.747197    -2.564872    -0.107932
C       -1.416074    -2.228877    -0.121438
O       -0.979683    -1.405618     0.992401
H        0.488203     0.805531     3.361719
H        2.121772     0.411086     3.956263
H        0.949365    -0.866367     3.624931
H        3.041533     0.070197     1.912546
H        1.749388    -1.061166     1.536918
H        0.377494     2.554024     0.217003
H        0.237056     2.195801     1.933479
H        1.963644     3.994195     0.657100
H        3.076451     2.814061     1.326866
H        1.857877     3.675289     2.375434
H        3.304986     1.341372     0.007458
H        1.954575     1.364985    -1.177633
H        3.449455    -0.994608     0.008897
H        3.210580    -0.543594    -1.684272
H        1.492056    -3.167905    -1.533088
H       -0.448125    -3.767293    -2.930566
H       -4.292821    -3.668190    -1.152223
H       -3.406085    -2.228703     0.690919
O       -1.143154     1.143154    -1.143154
C       -1.849869     1.849869    -1.849869
N       -1.430143     2.585873    -2.938472
C       -0.047663     2.526988    -3.371527
C       -2.375639     3.286594    -3.782769
H       -2.928184     1.961015    -1.648219
H        0.586037     2.035875    -2.628324
H        0.317337     3.545099    -3.534398
H        0.002540     1.965431    -4.308947
H       -2.034984     4.316559    -3.920960
H       -3.373182     3.294652    -3.334955
H       -2.424184     2.781820    -4.751938
50
ex_0166 frame1 T-4-chelate-2-conf2
Cu       0.000000     0.000000     0.000000
C        1.315664     0.123603     3.213766
C        1.901173     0.025524     1.849598
N        1.545111     0.924461     0.937499
C        0.993790     2.153815     1.091372
C        2.042615     3.147710     1.400430
C        2.381701     0.883962    -0.307528
C        2.667470    -0.609438    -0.702639
N        1.410956    -1.226997    -0.790306
C        0.894470    -2.313025    -1.154099
C       -0.539449    -2.624967    -1.098457
C       -1.079740    -3.415985    -2.118658
C       -2.401305    -3.792583    -2.144816
N       -2.853179    -4.609371    -3.221982
O       -4.039248    -4.981044    -3.312882
O       -2.004474    -5.039966    -4.232459
C       -3.235210    -3.367286    -1.134388
C       -2.747197    -2.564872    -0.107932
C       -1.416074    -2.228877    -0.121438
O       -0.979683    -1.405618     0.992401
H        0.488203     0.805531     3.361719
H        2.121772     0.411086     3.956263
H        0.949365    -0.866367     3.624931
H        3.041533     0.070197     1.912546
H        1.749388    -1.061166     1.536918
H        0.377494     2.554024     0.217003
H        0.237056     2.195801     1.933479
H        1.963644     3.994195     0.657100
H        3.076451     2.814061     1.326866
H        1.857877     3.675289     2.375434
H        3.304986     1.341372     0.007458
H        1.954575     1.364985    -1.177633
H        3.449455    -0.994608     0.008897
H        3.210580    -0.543594    -1.684272
H        1.492056    -3.167905    -1.533088
H       -0.448125    -3.767293    -2.930566
H       -4.292821    -3.668190    -1.152223
H       -3.406085    -2.228703     0.690919
O       -1.143154     1.143154    -1.143154
C       -1.849869     1.849869    -1.849869
N       -3.019739     1.464027    -2.470723
C       -3.545368     0.127196    -2.273614
C       -3.845606     2.419301    -3.180094
H       -1.580310     2.898451    -2.058657
H       -3.812712    -0.296426    -3.245917
H       -2.813841    -0.525287    -1.789617
H       -4.437501     0.190519    -1.643763
H       -4.087564     2.017109    -4.167851
H       -3.329081     3.375875    -3.297833
H       -4.766615     2.579199    -2.612099
50
ex_0166 frame2 T-4-chelate-2-pucker r0:1
Cu       0.000000     0.000000     0.000000
C        1.228971     0.194554     3.315958
C        2.193186     0.339718     2.136894
N        1.545111     0.924461     0.937499
C        0.972018     2.276927     1.162878
C        1.982907     3.323396     1.653238
C        2.479719     0.914401    -0.224427
C        2.661230    -0.487920    -0.846613
N        1.410956    -1.226997    -0.790306
C        1.303815    -2.514600    -0.821573
C        0.083153    -3.241774    -0.347363
C       -0.004492    -4.591910    -0.741561
C       -1.034111    -5.430416    -0.285463
N       -1.097850    -6.804858    -0.711022
O       -2.007504    -7.556550    -0.302742
O       -0.158765    -7.313917    -1.578792
C       -1.989565    -4.912932     0.598390
C       -1.926742    -3.583397     1.007283
C       -0.921042    -2.729512     0.542847
O       -0.979683    -1.405618     0.992401
H        0.280460    -0.276281     2.987524
H        1.014233     1.181928     3.774302
H        1.691360    -0.447202     4.095438
H        3.082909     0.929124     2.447107
H        2.552689    -0.683779     1.896936
H        0.517189     2.652261     0.221946
H        0.129421     2.214924     1.882724
H        1.487897     4.316673     1.688206
H        2.849461     3.397791     0.965393
H        2.335642     3.089752     2.678281
H        3.477792     1.315357     0.060883
H        2.088134     1.570052    -1.032451
H        3.446890    -1.035770    -0.281126
H        2.995177    -0.398047    -1.902686
H        2.150894    -3.097188    -1.167919
H        0.746919    -4.998886    -1.407738
H       -2.790561    -5.536828     0.973879
H       -2.681422    -3.204562     1.685504
O       -1.143154     1.143154    -1.143154
C       -1.899927     1.859100    -1.850948
N       -1.369754     2.656874    -2.918933
C        0.073116     2.686225    -3.170333
C       -2.297609     3.434859    -3.740081
H       -2.963108     1.862727    -1.646347
H        0.446441     1.654382    -3.342323
H        0.594417     3.124194    -2.294038
H        0.320050     3.297671    -4.063360
H       -2.856840     4.147932    -3.098127
H       -3.017831     2.752119    -4.238455
H       -1.764777     4.014420    -4.522876
50
ex_0166 frame3 T-4-chelate-2-pucker r0:4
Cu       0.000000     0.000000     0.000000
C        1.064455     0.137922     3.278249
C        2.075456     0.221576     2.131544
N        1.545111     0.924461     0.937499
C        1.060979     2.301492     1.212462
C        2.129609     3.243687     1.785347
C        2.562983     0.904985    -0.160119
C        2.580180    -0.392452    -1.027535
N        1.410956    -1.226997    -0.790306
C        1.371750    -2.517549    -0.760877
C        0.213831    -3.279745    -0.187511
C        0.215540    -4.662983    -0.458228
C       -0.756352    -5.523740     0.075824
N       -0.727468    -6.932084    -0.224366
O       -1.586527    -7.702742     0.252406
O        0.246330    -7.453802    -1.045084
C       -1.747313    -4.993636     0.911181
C       -1.775115    -3.631760     1.198126
C       -0.826287    -2.757240     0.658845
O       -0.979683    -1.405618     0.992401
H        0.066770    -0.164052     2.905419
H        0.979809     1.114828     3.797884
H        1.407995    -0.612571     4.021145
H        3.009477     0.698454     2.501111
H        2.335767    -0.821766     1.847712
H        0.664646     2.748081     0.274621
H        0.192321     2.268386     1.902703
H        1.705764     4.266667     1.866699
H        3.018077     3.292018     1.123132
H        2.439119     2.926029     2.801674
H        3.585642     1.092253     0.239220
H        2.368397     1.740614    -0.869476
H        3.498660    -0.965658    -0.770433
H        2.635796    -0.139237    -2.108137
H        2.224424    -3.070952    -1.138962
H        0.990704    -5.078180    -1.091202
H       -2.506486    -5.633140     1.343056
H       -2.556366    -3.245226     1.841006
O       -1.143154     1.143154    -1.143154
C       -1.894415     1.317627    -2.138993
N       -2.198405     0.234880    -3.030007
C       -1.624709    -1.092920    -2.798608
C       -3.086183     0.489036    -4.164785
H       -2.312396     2.300516    -2.316401
H       -0.517278    -1.033135    -2.840622
H       -1.962334    -1.823834    -3.562791
H       -1.935896    -1.465998    -1.800708
H       -2.646312     1.275026    -4.814407
H       -4.075097     0.833778    -3.795386
H       -3.240427    -0.424237    -4.776910
50
ex_0166 frame4 SP-4-chelate-1
Cu       0.000000     0.000000     0.000000
C        0.994172    -0.479993    -3.294810
C        1.349584     0.495466    -2.229184
N        1.739519     0.032199    -1.045915
C        2.216623    -1.189158    -0.700082
C        3.658703    -1.279308    -1.009369
C        2.312406     1.086408    -0.144771
C        1.462653     2.402215    -0.265559
N        0.137768     2.025320    -0.000000
C       -0.992227     2.542275     0.185553
C       -2.227853     1.794645     0.451645
C       -3.161329     2.359061     1.328282
C       -4.362496     1.758450     1.620703
N       -5.251169     2.419256     2.518041
O       -6.352471     1.928524     2.833447
O       -4.947058     3.644993     3.094111
C       -4.659874     0.545792     1.039095
C       -3.755394    -0.062417     0.174436
C       -2.575848     0.586400    -0.095136
O       -1.693837    -0.102969    -1.020154
H        0.889165    -1.520172    -3.014438
H        1.762161    -0.434549    -4.126606
H        0.032471    -0.230450    -3.838991
H        2.187742     1.181266    -2.594625
H        0.476847     1.229449    -2.193085
H        2.069777    -1.509785     0.386263
H        1.704349    -2.035535    -1.252147
H        4.206416    -1.594349    -0.073382
H        4.155242    -0.362014    -1.321730
H        3.893287    -2.124046    -1.712567
H        3.286599     1.263331    -0.569672
H        2.356500     0.833956     0.906526
H        1.738617     2.883916    -1.244307
H        1.900966     3.093918     0.504075
H       -1.170345     3.636501     0.135512
H       -2.956350     3.314787     1.803804
H       -5.620820     0.063621     1.270388
H       -3.990271    -1.020842    -0.285519
O        0.000000    -1.980000     0.000000
C        0.000000    -3.204067    -0.000000
N       -1.052824    -4.015176    -0.369587
C       -2.287335    -3.433027    -0.858811
C       -0.901093    -5.453073    -0.454661
H        0.886839    -3.774380     0.322551
H       -2.320732    -2.354530    -0.683176
H       -2.361802    -3.621030    -1.933861
H       -3.130324    -3.904147    -0.345278
H       -1.722028    -5.930841     0.087347
H       -0.933329    -5.749208    -1.507138
H        0.050556    -5.775114    -0.022977
50
ex_0166 frame5 SP-4-chelate-1-beta
Cu       0.000000     0.000000     0.000000
C        1.665527     0.229134     3.704001
C        1.267946    -0.490566     2.424952
N        1.653582     0.055982     1.176193
C        2.575356    -0.764204     0.468614
C        3.502182    -1.676612     1.238388
C        1.704946     1.463350     1.052109
C        1.214724     2.739974     0.277741
N       -0.064689     2.028969     0.000000
C       -1.190501     2.557347    -0.230413
C       -2.339311     1.674515    -0.404761
C       -3.462878     2.044728    -1.154152
C       -4.560486     1.180755    -1.255507
N       -5.696483     1.603008    -2.008671
O       -5.713425     2.718416    -2.565328
O       -6.772899     0.755622    -2.108856
C       -4.564558    -0.053694    -0.649536
C       -3.459475    -0.448435     0.073154
C       -2.491735     0.471473     0.239666
O       -1.609480     0.117699     1.147223
H        1.231332     1.226510     3.757096
H        2.774879     0.290081     3.766848
H        1.365165    -0.385495     4.601195
H        1.427882    -1.564970     2.482566
H        0.144896    -0.365097     2.456481
H        3.209575    -0.163621    -0.214820
H        1.987926    -1.451607    -0.132369
H        3.985257    -1.074504     2.034733
H        2.982994    -2.562020     1.623709
H        4.349066    -1.950123     0.547048
H        0.801368     1.472102     1.596048
H        1.936969     1.144730    -0.005209
H        1.969881     2.975611    -0.436217
H        1.390631     3.486700     1.108432
H       -1.667719     3.664071    -0.376723
H       -3.519258     2.998705    -1.653007
H       -5.388607    -0.748442    -0.701417
H       -3.419200    -1.401965     0.562273
O        0.000000    -1.980000     0.000000
C        0.000000    -3.204067    -0.000000
N       -1.052824    -4.015176    -0.369587
C       -2.287335    -3.433027    -0.858811
C       -0.901093    -5.453073    -0.454661
H        0.886839    -3.774380     0.322551
H       -2.104068    -2.509407    -1.414201
H       -2.777508    -4.154202    -1.519310
H       -2.938636    -3.214070    -0.007832
H       -1.722028    -5.930841     0.087347
H       -0.933329    -5.749208    -1.507138
H        0.050556    -5.775114    -0.022977
50
ex_0166 frame6 SP-4-chelate-1-conf1
Cu       0.000000     0.000000     0.000000
C        0.994172    -0.479993    -3.294810
C        1.349584     0.495466    -2.229184
N        1.739519     0.032199    -1.045915
C        2.216623    -1.189158    -0.700082
C        3.658703    -1.279308    -1.009369
C        2.312406     1.086408    -0.144771
C        1.462653     2.402215    -0.265559
N        0.137768     2.025320    -0.000000
C       -0.992227     2.542275     0.185553
C       -2.227853     1.794645     0.451645
C       -3.161329     2.359061     1.328282
C       -4.362496     1.758450     1.620703
N       -5.251169     2.419256     2.518041
O       -6.352471     1.928524     2.833447
O       -4.947058     3.644993     3.094111
C       -4.659874     0.545792     1.039095
C       -3.755394    -0.062417     0.174436
C       -2.575848     0.586400    -0.095136
O       -1.693837    -0.102969    -1.020154
H        0.889165    -1.520172    -3.014438
H        1.762161    -0.434549    -4.126606
H        0.032471    -0.230450    -3.838991
H        2.187742     1.181266    -2.594625
H        0.476847     1.229449    -2.193085
H        2.069777    -1.509785     0.386263
H        1.704349    -2.035535    -1.252147
H        4.206416    -1.594349    -0.073382
H        4.155242    -0.362014    -1.321730
H        3.893287    -2.124046    -1.712567
H        3.286599     1.263331    -0.569672
H        2.356500     0.833956     0.906526
H        1.738617     2.883916    -1.244307
H        1.900966     3.093918     0.504075
H       -1.170345     3.636501     0.135512
H       -2.956350     3.314787     1.803804
H       -5.620820     0.063621     1.270388
H       -3.990271    -1.020842    -0.285519
O        0.000000    -1.980000     0.000000
C        0.000000    -3.204067     0.000000
N        0.490581    -4.015176     1.002179
C        1.026622    -3.433028     2.217094
C        0.322800    -5.453074     0.956285
H       -0.405353    -3.774380    -0.852181
H        1.173663    -2.354528     2.115426
H        1.987542    -3.904135     2.442909
H        0.325174    -3.621047     3.035165
H        1.287995    -5.930833     1.146327
H       -0.052143    -5.775112    -0.019114
H       -0.392883    -5.749220     1.728645
50
ex_0166 frame7 SP-4-chelate-1-conf6
Cu       0.000000     0.000000     0.000000
C        1.665527     0.229134     3.704001
C        1.267946    -0.490566     2.424952
N        1.653582     0.055982     1.176193
C        2.575356    -0.764204     0.468614
C        3.502182    -1.676612     1.238388
C        1.704946     1.463350     1.052109
C        1.214724     2.739974     0.277741
N       -0.064689     2.028969     0.000000
C       -1.190501     2.557347    -0.230413
C       -2.339311     1.674515    -0.404761
C       -3.462878     2.044728    -1.154152
C       -4.560486     1.180755    -1.255507
N       -5.696483     1.603008    -2.008671
O       -5.713425     2.718416    -2.565328
O       -6.772899     0.755622    -2.108856
C       -4.564558    -0.053694    -0.649536
C       -3.459475    -0.448435     0.073154
C       -2.491735     0.471473     0.239666
O       -1.609480     0.117699     1.147223
H        1.231332     1.226510     3.757096
H        2.774879     0.290081     3.766848
H        1.365165    -0.385495     4.601195
H        1.427882    -1.564970     2.482566
H        0.144896    -0.365097     2.456481
H        3.209575    -0.163621    -0.214820
H        1.987926    -1.451607    -0.132369
H        3.985257    -1.074504     2.034733
H        2.982994    -2.562020     1.623709
H        4.349066    -1.950123     0.547048
H        0.801368     1.472102     1.596048
H        1.936969     1.144730    -0.005209
H        1.969881     2.975611    -0.436217
H        1.390631     3.486700     1.108432
H       -1.667719     3.664071    -0.376723
H       -3.519258     2.998705    -1.653007
H       -5.388607    -0.748442    -0.701417
H       -3.419200    -1.401965     0.562273
O        0.000000    -1.980000     0.000000
C        0.000000    -3.204067     0.000000
N       -0.361754    -4.015176     1.055541
C       -0.841791    -3.433028     2.293654
C       -0.447942    -5.453074     0.904450
H        0.315955    -3.774380    -0.889211
H       -0.665927    -2.354528     2.325737
H       -0.321993    -3.904135     3.132802
H       -1.916253    -3.621047     2.376118
H        0.100174    -5.930833     1.721326
H       -0.023355    -5.775112    -0.050386
H       -1.500147    -5.749220     0.944526
50
ex_0166 frame8 SP-4-chelate-1-pucker r0:1
Cu       0.000000     0.000000     0.000000
C        0.842167    -0.585224    -3.317513
C        1.498854     0.486365    -2.441794
N        1.739519     0.032199    -1.045915
C        2.576884    -1.202278    -0.980316
C        3.978704    -1.092708    -1.605528
C        2.385118     1.112127    -0.239462
C        1.535973     2.387950    -0.094253
N        0.137768     2.025320     0.000000
C       -0.854013     2.806917    -0.278755
C       -2.235235     2.302526    -0.566303
C       -3.251894     3.277907    -0.534746
C       -4.576910     2.977182    -0.889076
N       -5.593669     3.996096    -0.841731
O       -6.771976     3.735535    -1.162516
O       -5.285435     5.275295    -0.438392
C       -4.890943     1.675512    -1.300504
C       -3.906511     0.691845    -1.344195
C       -2.587862     0.970873    -0.971648
O       -1.693837    -0.102969    -1.020154
H        0.010181    -1.077812    -2.775041
H        1.584855    -1.348459    -3.629509
H        0.435775    -0.115286    -4.238049
H        2.434323     0.845608    -2.922155
H        0.796807     1.345352    -2.436207
H        2.695055    -1.511956     0.081376
H        2.054668    -2.045589    -1.474974
H        4.617071    -0.371619    -1.057554
H        3.930978    -0.821528    -2.678709
H        4.476304    -2.083173    -1.538713
H        3.359382     1.414889    -0.679276
H        2.583041     0.732006     0.787603
H        1.698519     3.039235    -0.981913
H        1.840051     2.952587     0.813271
H       -0.669357     3.873652    -0.349505
H       -3.005269     4.290367    -0.237908
H       -5.901693     1.415029    -1.587469
H       -4.174748    -0.309550    -1.658198
O        0.000000    -1.980000     0.000000
C        0.028883    -3.240124     0.016086
N       -1.028223    -4.010746    -0.573216
C       -2.172218    -3.341167    -1.196636
C       -0.935044    -5.470316    -0.534031
H        0.868862    -3.739484     0.482303
H       -2.682778    -2.697932    -0.449206
H       -1.822932    -2.715302    -2.044112
H       -2.911044    -4.071972    -1.586941
H       -1.808399    -5.950179    -1.023428
H       -0.014693    -5.799905    -1.060967
H       -0.892761    -5.813722     0.521215
50
ex_0166 frame9 SP-4-chelate-1-pucker r0:2
Cu       0.000000     0.000000     0.000000
C        0.673114    -0.786141    -3.188709
C        1.349355     0.368977    -2.441884
N        1.739519     0.032199    -1.045915
C        2.608642    -1.178057    -0.965800
C        3.955927    -1.066063    -1.699380
C        2.448194     1.203983    -0.435948
C        1.544119     2.381689     0.025505
N        0.137768     2.025320     0.000000
C       -0.840891     2.816537    -0.295669
C       -2.214843     2.322512    -0.635364
C       -3.218986     3.311357    -0.660483
C       -4.533983     3.021481    -1.057806
N       -5.537241     4.054767    -1.068604
O       -6.706608     3.803477    -1.427267
O       -5.225830     5.337867    -0.680371
C       -4.851240     1.716131    -1.453715
C       -3.880296     0.718478    -1.440432
C       -2.571699     0.986356    -1.026019
O       -1.693837    -0.102969    -1.020154
H       -0.074095    -1.294952    -2.550087
H        1.427103    -1.525816    -3.529655
H        0.157255    -0.392415    -4.089901
H        2.221117     0.718403    -3.037089
H        0.624914     1.210234    -2.424172
H        2.809424    -1.413273     0.102540
H        2.076871    -2.067036    -1.361082
H        4.586392    -0.261151    -1.270505
H        3.814155    -0.896346    -2.785413
H        4.509903    -2.020995    -1.580495
H        3.224403     1.605698    -1.125897
H        2.998303     0.870180     0.472933
H        1.719495     3.241487    -0.659379
H        1.820025     2.708761     1.051222
H       -0.650772     3.883772    -0.335619
H       -2.970474     4.326268    -0.373833
H       -5.854419     1.463451    -1.772486
H       -4.152107    -0.285116    -1.743727
O        0.000000    -1.980000     0.000000
C       -0.025143    -2.610648     1.089958
N       -0.051338    -1.911925     2.342382
C       -0.027273    -0.447749     2.368267
C       -0.095989    -2.691230     3.579650
H       -0.026683    -3.693102     1.071409
H        0.907209    -0.082846     1.894015
H       -0.902037    -0.048702     1.812866
H       -0.066312    -0.055834     3.406046
H       -0.108731    -2.036314     4.476008
H       -1.011494    -3.319656     3.592273
H        0.797264    -3.348343     3.639532
50
ex_0166 frame10 SP-4-chelate-1-pucker r0:3
Cu       0.000000     0.000000     0.000000
C        0.626438    -0.823595    -3.155946
C        1.304733     0.347597    -2.435429
N        1.739519     0.032199    -1.045915
C        2.633070    -1.161034    -0.986234
C        3.947239    -1.029661    -1.775515
C        2.449164     1.224404    -0.467703
C        1.546927     2.304200     0.197531
N        0.137768     2.025320     0.000000
C       -0.769065     2.840306    -0.428040
C       -2.109911     2.377108    -0.920330
C       -3.043545     3.404841    -1.165049
C       -4.316999     3.139721    -1.693126
N       -5.247133     4.213944    -1.928473
O       -6.379414     3.983849    -2.401982
O       -4.905404     5.514063    -1.633564
C       -4.665229     1.817372    -1.994204
C       -3.765538     0.780325    -1.764870
C       -2.498380     1.024717    -1.225768
O       -1.693837    -0.102969    -1.020154
H       -0.105324    -1.331728    -2.501444
H        1.379848    -1.561248    -3.502064
H        0.091318    -0.445249    -4.052415
H        2.155092     0.698788    -3.060032
H        0.573093     1.181422    -2.408532
H        2.878884    -1.380564     0.075973
H        2.104730    -2.063648    -1.351224
H        4.551135    -0.168796    -1.424071
H        3.756142    -0.932741    -2.863165
H        4.551621    -1.948650    -1.623667
H        3.083163     1.721658    -1.236871
H        3.163879     0.901057     0.323273
H        1.804883     3.304716    -0.215971
H        1.744927     2.337743     1.290560
H       -0.537901     3.899225    -0.466666
H       -2.772542     4.430671    -0.945697
H       -5.637816     1.582166    -2.407235
H       -4.060715    -0.234483    -2.001912
O        0.000000    -1.980000     0.000000
C        0.125002    -3.078711     0.603237
N       -0.025139    -4.322108    -0.096298
C       -0.335400    -4.329378    -1.528109
C        0.132217    -5.569916     0.651033
H        0.348208    -3.074537     1.662590
H       -1.275812    -3.767696    -1.711213
H        0.492094    -3.851787    -2.092690
H       -0.467605    -5.362374    -1.912489
H       -0.622313    -5.615821     1.464557
H       -0.001621    -6.457986    -0.001623
H        1.149175    -5.613329     1.095139
50
ex_0166 frame11 SP-4-chelate-1-pucker r0:4
Cu       0.000000     0.000000     0.000000
C        1.963781    -0.216398    -3.568968
C        1.040149    -0.103832    -2.350354
N        1.739519     0.032199    -1.045915
C        2.648782    -1.106477    -0.730988
C        4.114753    -0.951437    -1.180897
C        2.340069     1.391852    -0.843779
C        1.559812     2.238952     0.174242
N        0.137768     2.025320     0.000000
C       -0.716379     2.837108    -0.530491
C       -2.050545     2.386041    -1.050858
C       -2.946867     3.423522    -1.378875
C       -4.212081     3.163793    -1.929299
N       -5.104617     4.247894    -2.249539
O       -6.229623     4.022402    -2.742214
O       -4.734121     5.552720    -2.016697
C       -4.589566     1.836439    -2.167355
C       -3.725545     0.789979    -1.857481
C       -2.466525     1.030627    -1.298463
O       -1.693837    -0.102969    -1.020154
H        2.518739    -1.177029    -3.554079
H        2.674094     0.632784    -3.623941
H        1.346980    -0.203331    -4.492194
H        0.365801     0.766040    -2.504192
H        0.392865    -1.004215    -2.332858
H        2.639635    -1.269864     0.367905
H        2.259427    -2.042523    -1.186953
H        4.713745    -0.459546    -0.385663
H        4.215017    -0.366498    -2.114546
H        4.558732    -1.955460    -1.349245
H        2.375861     1.963764    -1.796193
H        3.383240     1.353339    -0.475384
H        1.821537     3.315385     0.071515
H        1.836854     1.910492     1.198521
H       -0.448318     3.883874    -0.622534
H       -2.653739     4.452004    -1.205157
H       -5.556852     1.604881    -2.594632
H       -4.041086    -0.228325    -2.049454
O        0.000000    -1.980000     0.000000
C        0.038420    -3.239389     0.030602
N       -0.899684    -4.024537    -0.719070
C       -1.943010    -3.370496    -1.512606
C       -0.789746    -5.482565    -0.668164
H        0.796258    -3.726666     0.630997
H       -2.586008    -2.754241    -0.849601
H       -1.476794    -2.719757    -2.281619
H       -2.587915    -4.111102    -2.030181
H       -1.568971    -5.974309    -1.287454
H        0.206400    -5.795226    -1.046654
H       -0.905787    -5.829567     0.380356
50
ex_0166 frame12 T-4-chelate-2_mirror
Cu       0.000000     0.000000     0.000000
C        1.315664     0.123603    -3.213766
C        1.901173     0.025524    -1.849598
N        1.545111     0.924461    -0.937499
C        0.993790     2.153815    -1.091372
C        2.042615     3.147710    -1.400430
C        2.381701     0.883962     0.307528
C        2.667470    -0.609438     0.702639
N        1.410956    -1.226997     0.790306
C        0.894470    -2.313025     1.154099
C       -0.539449    -2.624967     1.098457
C       -1.079740    -3.415985     2.118658
C       -2.401305    -3.792583     2.144816
N       -2.853179    -4.609371     3.221982
O       -4.039248    -4.981044     3.312882
O       -2.004474    -5.039966     4.232459
C       -3.235210    -3.367286     1.134388
C       -2.747197    -2.564872     0.107932
C       -1.416074    -2.228877     0.121438
O       -0.979683    -1.405618    -0.992401
H        0.488203     0.805531    -3.361719
H        2.121772     0.411086    -3.956263
H        0.949365    -0.866367    -3.624931
H        3.041533     0.070197    -1.912546
H        1.749388    -1.061166    -1.536918
H        0.377494     2.554024    -0.217003
H        0.237056     2.195801    -1.933479
H        1.963644     3.994195    -0.657100
H        3.076451     2.814061    -1.326866
H        1.857877     3.675289    -2.375434
H        3.304986     1.341372    -0.007458
H        1.954575     1.364985     1.177633
H        3.449455    -0.994608    -0.008897
H        3.210580    -0.543594     1.684272
H        1.492056    -3.167905     1.533088
H       -0.448125    -3.767293     2.930566
H       -4.292821    -3.668190     1.152223
H       -3.406085    -2.228703    -0.690919
O       -1.143154     1.143154     1.143154
C       -1.849869     1.849869     1.849869
N       -1.430143     2.585873     2.938472
C       -0.047663     2.526988     3.371527
C       -2.375639     3.286594     3.782769
H       -2.928184     1.961015     1.648219
H        0.586037     2.035875     2.628324
H        0.317337     3.545099     3.534398
H        0.002540     1.965431     4.308947
H       -2.034984     4.316559     3.920960
H       -3.373182     3.294652     3.334955
H       -2.424184     2.781820     4.751938
