85
ex_0135 frame0 all-trans-conf9
C       -0.441806     2.766687     4.381617
C        0.062232     1.413930     4.000366
C        0.196764     1.250158     2.502455
N       -0.811632     0.634537     1.767744
O       -1.498087    -0.330146     2.529910
B       -1.802541    -1.610416     1.814207
C       -2.809228    -2.418188     2.780580
C       -3.375506    -1.780323     3.912385
C       -4.237308    -2.477432     4.762016
Br      -4.998933    -1.602648     6.283007
C       -4.541715    -3.813043     4.499394
C       -3.991591    -4.452696     3.382356
Br      -4.407731    -6.281484     3.037904
C       -3.136720    -3.754204     2.516994
O       -2.545436    -1.366506     0.534288
N       -1.768014    -0.907296    -0.507618
C       -2.433083     0.034939    -1.344876
C       -3.912117    -0.155622    -1.583872
C       -4.291864    -1.001372    -2.754269
C       -1.724419     1.074060    -1.905398
C       -2.125847     1.766271    -3.228009
C       -2.283177     0.851134    -4.478877
N       -0.559307     1.533839    -1.228049
O        0.387667     2.034640    -2.068000
B        1.784172     1.652436    -1.743964
C        2.702960     2.613882    -2.687815
C        2.100281     3.747031    -3.269510
C        2.814673     4.617945    -4.078168
Br       1.943263     6.147509    -4.821252
C        4.157061     4.374657    -4.343371
C        4.792410     3.254784    -3.785018
Br       6.640097     2.944799    -4.165280
C        4.071384     2.365215    -2.949385
O        2.144705     1.986663    -0.325754
N        1.674358     1.037329     0.570912
C        1.292423     1.689704     1.826239
C        2.119917     2.841363     2.352972
C        3.118577     2.362867     3.358934
Fe       0.000000     0.000000     0.000000
N        0.415572    -1.784940     0.909746
C        1.096546    -2.556793    -0.078799
C        1.189618    -4.039730     0.092501
C        2.425187    -4.446385     0.822582
C        1.652707    -1.946284    -1.162318
C        2.808859    -2.586420    -1.927148
C        3.738596    -1.626367    -2.709402
N        1.123718    -0.687030    -1.565314
O        2.035084     0.196483    -2.064037
O       -0.554293    -2.438005     1.601121
H        0.399659     3.362723     4.779139
H       -0.878565     3.251200     3.486136
H       -1.235357     2.644024     5.145275
H        0.984459     1.103795     4.559588
H       -0.646977     0.657963     4.397129
H       -3.171722    -0.739887     4.139328
H       -5.199869    -4.356575     5.165448
H       -2.722030    -4.258525     1.655785
H       -4.491726     0.781506    -1.422671
H       -4.301225    -0.727698    -0.712653
H       -4.788027    -0.340621    -3.482254
H       -3.392816    -1.505362    -3.160334
H       -5.015650    -1.781178    -2.428135
H       -1.254636     2.377203    -3.544561
H       -2.939449     2.488782    -3.132810
H       -3.354300     0.737820    -4.723042
H       -1.847461     1.335779    -5.388681
H       -1.787633    -0.143840    -4.401958
H        1.065280     3.987215    -3.078059
H        4.700970     5.062386    -4.981358
H        4.582840     1.510981    -2.527304
H        1.507021     3.713655     2.688653
H        2.683509     3.313467     1.514181
H        3.133060     1.254123     3.367788
H        2.834404     2.767968     4.346767
H        4.127800     2.714935     3.062044
H        1.032948    -4.549905    -0.889611
H        0.283868    -4.405135     0.635849
H        2.137076    -5.067059     1.691421
H        2.961045    -3.543564     1.187471
H        3.058147    -5.002832     0.109684
H        3.508636    -3.017323    -1.170597
H        2.404099    -3.366684    -2.577690
H        4.555745    -2.186447    -3.194638
H        3.184977    -1.104079    -3.515986
H        4.229081    -0.870716    -2.039408
85
ex_0135 frame1 all-trans-Λ-conf9
C        3.146075     1.677178     3.763310
C        1.911326     0.845495     3.698554
C        1.572973     0.448631     2.263832
N        0.587570     1.202370     1.547002
O       -0.325097     1.753970     2.356606
B       -1.695378     1.739882     1.799580
C       -2.563635     2.712346     2.738679
C       -1.922249     3.571353     3.659838
C       -2.673345     4.406024     4.493664
Br      -1.793558     5.563246     5.735198
C       -4.066386     4.393564     4.418733
C       -4.712401     3.553066     3.506893
Br      -6.617411     3.539411     3.420881
C       -3.964634     2.722709     2.658143
O       -1.733571     2.320772     0.423774
N       -1.282651     1.486484    -0.571659
C       -0.668591     2.152837    -1.632464
C       -1.213781     3.499398    -2.026455
C       -2.263661     3.502543    -3.079654
C        0.402476     1.567746    -2.279396
C        0.788391     1.841508    -3.745378
C       -0.284439     1.621384    -4.843315
N        1.206554     0.641406    -1.525762
O        1.732205    -0.328762    -2.328569
B        1.774944    -1.687053    -1.733729
C        2.760746    -2.548198    -2.694858
C        3.639135    -1.842479    -3.530340
C        4.527945    -2.494553    -4.370123
Br       5.713689    -1.474166    -5.462993
C        4.552168    -3.883179    -4.412931
C        3.684352    -4.626306    -3.599022
Br       3.741859    -6.536924    -3.676663
C        2.777490    -3.965732    -2.731108
O        2.396876    -1.679366    -0.391088
N        1.518867    -1.251038     0.576588
C        2.188510    -0.602764     1.659813
C        3.542261    -1.103370     2.090805
C        3.417027    -1.989464     3.286959
Fe       0.000000     0.000000     0.000000
N       -1.478791    -0.601104     1.241455
C       -2.204210    -1.561734     0.483278
C       -3.630792    -1.887990     0.913172
C       -3.650729    -3.049459     1.851581
C       -1.628111    -2.174431    -0.602712
C       -2.120123    -3.530805    -1.061898
C       -1.097797    -4.369227    -1.868274
N       -0.578442    -1.510989    -1.268411
O        0.420782    -2.326268    -1.713149
O       -2.272316     0.335336     1.870522
H        3.958958     1.057507     4.176564
H        3.399698     2.021529     2.740287
H        2.953584     2.562620     4.399706
H        1.892937    -0.002620     4.434578
H        1.071989     1.450425     4.111864
H       -0.843179     3.608757     3.730207
H       -4.649980     5.031211     5.070631
H       -4.482082     2.078697     1.960744
H       -0.409808     4.264774    -2.091107
H       -1.741460     3.900631    -1.127811
H       -1.823273     3.996424    -3.956529
H       -2.590278     2.463475    -3.281066
H       -3.139885     4.088065    -2.724366
H        1.517366     1.049201    -4.036946
H        1.347051     2.765679    -3.865161
H       -0.629285     2.605237    -5.206591
H        0.160062     1.126144    -5.744745
H       -1.142494     0.981809    -4.536085
H        3.662625    -0.765313    -3.512975
H        5.253386    -4.375267    -5.078314
H        2.120650    -4.560639    -2.109558
H        4.285364    -0.273874     2.206969
H        4.017270    -1.691233     1.267198
H        2.344221    -2.199364     3.482644
H        3.886731    -1.474199     4.141867
H        3.914333    -2.955278     3.075694
H       -4.285081    -2.014860     0.017912
H       -4.122291    -1.000005     1.379737
H       -4.188854    -2.755477     2.771043
H       -2.610052    -3.337405     2.114989
H       -4.153628    -3.884705     1.335779
H       -2.297620    -4.168757    -0.161362
H       -3.039481    -3.394095    -1.632329
H       -1.529170    -5.341009    -2.146429
H       -0.819884    -3.856018    -2.812739
H       -0.166192    -4.597487    -1.281368
85
ex_0135 frame2 all-trans-Δ-conf7
C        0.975460     1.874335    -4.399893
C        1.961670     0.945024    -3.656732
C        1.483054     0.332557    -2.338148
N        0.074857     0.277660    -2.030366
O       -0.621273     1.311306    -2.555571
B       -1.737325     1.754380    -1.742363
C       -2.668581     2.680687    -2.705439
C       -2.756148     4.071610    -2.498742
C       -3.552601     4.867684    -3.333886
Br      -3.649783     6.754483    -3.055757
C       -4.277118     4.283216    -4.371489
C       -4.207752     2.909634    -4.586908
Br      -5.212073     2.130851    -6.007029
C       -3.404473     2.106040    -3.764372
O       -1.276336     2.576925    -0.603185
N       -0.238196     2.030774     0.072091
C       -0.271731     2.339957     1.441157
C       -0.861519     3.677885     1.838032
C        0.214566     4.675008     2.064965
C        0.223287     1.435946     2.352807
C        0.740682     1.849289     3.702162
C       -0.385095     2.076199     4.646778
N        0.256791     0.054849     2.029202
O        1.338810    -0.594119     2.534978
B        1.745335    -1.769762     1.715187
C        2.626339    -2.730180     2.654035
C        2.135347    -3.999844     2.994369
C        2.866668    -4.861809     3.799971
Br       2.153529    -6.578923     4.235787
C        4.112648    -4.468148     4.283214
C        4.620982    -3.205680     3.956467
Br       6.322205    -2.681231     4.618044
C        3.881115    -2.329201     3.144882
O        2.559292    -1.363300     0.556313
N        2.025633    -0.279181    -0.066441
C        2.396694    -0.177502    -1.425793
C        3.796768    -0.642776    -1.799675
C        3.883842    -1.524265    -3.047890
Fe       0.000000     0.000000     0.000000
N       -2.035314    -0.046426    -0.209171
C       -2.398751    -1.413505    -0.138111
C       -3.786861    -1.863247    -0.576413
C       -4.600657    -0.837157    -1.369158
C       -1.485132    -2.318893     0.330374
C       -1.908091    -3.635285     0.954245
C       -2.202955    -4.631526    -0.110622
N       -0.090471    -2.033826     0.237897
O        0.581098    -2.566794     1.277793
O       -2.532642     0.604763    -1.290813
H        0.726171     2.800897    -3.808981
H        0.040670     1.337896    -4.694795
H        1.446910     2.209094    -5.325171
H        2.851494     1.608116    -3.476054
H        2.209977     0.121867    -4.308553
H       -2.196708     4.546394    -1.710710
H       -4.898144     4.889965    -5.015770
H       -3.372742     1.044957    -3.959417
H       -1.528735     4.087165     1.020266
H       -1.609161     3.594963     2.662845
H        1.185549     4.239986     1.757371
H        0.213182     4.911204     3.135721
H        0.037878     5.579017     1.452249
H        1.377898     1.022316     4.113045
H        1.482918     2.683972     3.644860
H       -0.530155     3.163470     4.744360
H       -0.130008     1.613992     5.615540
H       -1.303044     1.579200     4.266690
H        1.174269    -4.328246     2.644194
H        4.690523    -5.136858     4.907123
H        4.292606    -1.356365     2.905886
H        4.182358    -1.304173    -0.975079
H        4.478449     0.195223    -1.837943
H        4.274751    -0.876855    -3.854760
H        2.913550    -1.975719    -3.352064
H        4.605854    -2.356570    -2.885033
H       -4.351538    -2.138867     0.305965
H       -3.662002    -2.725892    -1.283443
H       -5.623717    -1.199580    -1.517650
H       -4.670599     0.104153    -0.782323
H       -4.140656    -0.660864    -2.381673
H       -2.694153    -3.551801     1.751302
H       -1.053658    -4.033975     1.559270
H       -1.777553    -4.279114    -1.079229
H       -3.294948    -4.761855    -0.162830
H       -1.729758    -5.587609     0.161665
85
ex_0135 frame3 all-trans-Δ-conf4
C        2.024660    -0.189396    -4.703314
C        1.856195     0.944964    -3.697611
C        1.540464     0.494416    -2.282199
N        0.521133     1.178192    -1.590635
O       -0.450983     1.604346    -2.439129
B       -1.750627     1.744168    -1.749788
C       -2.690536     2.669923    -2.647761
C       -3.812967     3.339435    -2.096467
C       -4.607755     4.139934    -2.934433
Br      -6.123198     5.068653    -2.250080
C       -4.292601     4.263432    -4.285902
C       -3.194260     3.604930    -4.820245
Br      -2.785697     3.781149    -6.672971
C       -2.395672     2.819409    -4.004197
O       -1.568916     2.381095    -0.417691
N       -1.279677     1.460567     0.679220
C       -0.543501     2.178016     1.655448
C       -0.942849     3.620258     1.958753
C        0.204211     4.603826     2.176660
C        0.495567     1.533274     2.283386
C        0.966840     1.867092     3.691457
C       -0.194669     2.016076     4.662232
N        1.177639     0.499098     1.599745
O        1.590116    -0.461578     2.464795
B        1.730981    -1.721911     1.749863
C        2.697273    -2.698052     2.634523
C        2.740261    -2.574952     4.026463
C        3.576573    -3.392621     4.790942
Br       3.619895    -3.193695     6.678431
C        4.377466    -4.352170     4.171239
C        4.341913    -4.494493     2.786777
Br       5.442136    -5.805273     1.954835
C        3.501235    -3.677157     2.014568
O        2.387727    -1.510929     0.422694
N        1.510138    -1.257322    -0.573406
C        2.187450    -0.533966    -1.638276
C        3.616543    -0.936239    -2.021902
C        4.607518     0.226174    -2.233246
Fe       0.000000     0.000000     0.000000
N       -1.545171    -0.546276    -1.220968
C       -2.222912    -1.582616    -0.563590
C       -3.601000    -1.942653    -1.042052
C       -4.647786    -1.946276     0.079089
C       -1.619314    -2.224875     0.475682
C       -2.024952    -3.633322     0.846000
C       -1.109124    -4.343976     1.843040
N       -0.594239    -1.538961     1.208741
O        0.400875    -2.358982     1.601417
O       -2.416140     0.433663    -1.588346
H        1.620020    -1.150687    -4.327085
H        1.510320     0.074122    -5.650446
H        3.107621    -0.309568    -4.897536
H        1.011463     1.586713    -4.091024
H        2.711636     1.587612    -3.653633
H       -4.071570     3.263594    -1.039909
H       -4.905505     4.870674    -4.928614
H       -1.546647     2.306014    -4.423241
H       -1.478423     4.022252     1.064598
H       -1.628384     3.600574     2.794605
H        0.407428     4.665101     3.264138
H        1.124492     4.295281     1.642224
H       -0.098658     5.600107     1.784923
H        1.650119     2.709357     3.689136
H        1.583633     1.006201     4.103241
H       -0.223593     3.079389     4.955844
H       -0.036166     1.396405     5.564329
H       -1.162347     1.695896     4.216594
H        2.123622    -1.836806     4.501997
H        5.029876    -4.987265     4.760350
H        3.495524    -3.806779     0.940184
H        4.054996    -1.548209    -1.194337
H        3.557260    -1.550528    -2.901868
H        4.220697     1.165968    -1.804659
H        4.773459     0.362881    -3.322769
H        5.585309     0.020785    -1.742176
H       -3.603861    -2.823265    -1.661376
H       -3.939617    -1.117608    -1.710494
H       -4.219004    -1.550926     1.022098
H       -5.027895    -2.982080     0.208759
H       -5.513205    -1.293892    -0.169181
H       -3.018634    -3.603458     1.265096
H       -1.999724    -4.251575    -0.085740
H       -1.006837    -3.741381     2.772665
H       -0.097471    -4.523125     1.394004
H       -1.542128    -5.312273     2.109583
85
ex_0135 frame4 all-trans-conf7
C        0.986461    -1.864984     4.407162
C        1.964294    -0.916919     3.665126
C        1.490327    -0.327173     2.327432
N        0.081211    -0.234526     2.031010
O       -0.641176    -1.220609     2.585902
B       -1.704229    -1.743667     1.739189
C       -2.651768    -2.677239     2.700836
C       -2.746008    -4.067984     2.492217
C       -3.546640    -4.863821     3.328649
Br      -3.647232    -6.751778     3.050403
C       -4.272907    -4.279615     4.367422
C       -4.201561    -2.904907     4.583719
Br      -5.208925    -2.124087     6.005861
C       -3.393997    -2.101332     3.760559
O       -1.151153    -2.603488     0.633474
N       -0.127649    -2.042238     0.008895
C       -0.231280    -2.361918    -1.453078
C       -0.844588    -3.685012    -1.859446
C        0.227454    -4.689350    -2.075711
C        0.240598    -1.438770    -2.363931
C        0.720493    -1.853463    -3.720661
C       -0.399015    -2.083465    -4.666839
N        0.279686    -0.063130    -2.026267
O        1.335988     0.595365    -2.562035
B        1.754767     1.753149    -1.738651
C        2.631241     2.724287    -2.663393
C        2.138306     4.000313    -2.996685
C        2.870698     4.861457    -3.801568
Br       2.159166     6.579649    -4.238915
C        4.117309     4.467426    -4.283963
C        4.626659     3.203563    -3.959410
Br       6.331060     2.677573    -4.621372
C        3.885935     2.326838    -3.149989
O        2.559750     1.292162    -0.579985
N        2.044600     0.104270     0.090340
C        2.404162     0.113427     1.408440
C        3.807770     0.614650     1.792337
C        3.884118     1.513805     3.042627
Fe       0.000000     0.000000     0.000000
N       -2.033720     0.030857     0.208306
C       -2.378020     1.401300     0.130200
C       -3.786079     1.865400     0.552541
C       -4.611044     0.847891     1.356575
C       -1.443802     2.309767    -0.327764
C       -1.889629     3.638750    -0.937964
C       -2.205228     4.643970     0.117542
N       -0.035351     2.031381    -0.243295
O        0.608871     2.548970    -1.297607
O       -2.549870    -0.647581     1.240202
H        0.732306    -2.783954     3.809371
H        0.051852    -1.338700     4.708219
H        1.454824    -2.214685     5.336793
H        2.847349    -1.584409     3.468431
H        2.225071    -0.106117     4.335431
H       -2.192324    -4.547088     1.701053
H       -4.895390    -4.891273     5.011606
H       -3.362490    -1.038976     3.956202
H       -1.508270    -4.083022    -1.036397
H       -1.606862    -3.604101    -2.670424
H        1.198795    -4.259980    -1.755307
H        0.231776    -4.921151    -3.149203
H        0.033515    -5.590803    -1.462090
H        1.355605    -1.030687    -4.127153
H        1.473007    -2.683361    -3.656388
H       -0.549320    -3.171283    -4.748823
H       -0.129441    -1.631216    -5.637002
H       -1.311843    -1.574348    -4.289764
H        1.175750     4.338357    -2.648688
H        4.690574     5.138727    -4.908804
H        4.293430     1.353191    -2.906981
H        4.185968     1.284035     0.979602
H        4.508645    -0.215005     1.842967
H        4.263182     0.881678     3.868448
H        2.913984     1.979429     3.334375
H        4.614132     2.343350     2.890577
H       -4.358733     2.158958    -0.330279
H       -3.670886     2.725887     1.267502
H       -5.633758     1.213897     1.524239
H       -4.695945    -0.095949     0.780593
H       -4.151127     0.666208     2.366550
H       -2.682018     3.548238    -1.735832
H       -1.049035     4.046804    -1.545809
H       -1.774335     4.301667     1.084131
H       -3.300908     4.758728     0.176406
H       -1.740373     5.605357    -0.161893
85
ex_0135 frame5 all-trans-conf2
C        2.144968     0.096949     4.648426
C        1.966238    -1.029502     3.648983
C        1.554963    -0.623963     2.212550
N        0.545324    -1.302261     1.487789
O       -0.504956    -1.681798     2.458619
B       -1.799517    -1.793791     1.821744
C       -2.664664    -2.671468     2.681237
C       -4.015460    -2.818646     2.381996
C       -4.814513    -3.622875     3.178291
Br      -6.664978    -3.812237     2.769031
C       -4.266566    -4.289954     4.273427
C       -2.913431    -4.157330     4.585047
Br      -2.165430    -5.082102     6.092236
C       -2.110197    -3.345010     3.788854
O       -1.706703    -2.443092     0.514911
N       -1.305114    -1.483580    -0.548670
C       -0.601158    -2.221667    -1.541262
C       -0.961545    -3.651819    -1.936960
C       -1.790698    -3.600682    -3.178668
C        0.545997    -1.563794    -2.226528
C        0.984935    -1.904514    -3.647125
C        1.826657    -3.140421    -3.646520
N        1.237664    -0.595146    -1.521303
O        1.755087     0.444438    -2.414977
B        1.777141     1.781272    -1.798941
C        2.619637     2.700830    -2.689079
C        2.685431     4.069720    -2.375725
C        3.432160     4.950896    -3.167482
Br       3.487523     6.806139    -2.727331
C        4.130616     4.463260    -4.273670
C        4.072152     3.102014    -4.579910
Br       5.019232     2.405880    -6.079580
C        3.313485     2.235111    -3.783175
O        2.443996     1.678913    -0.503151
N        1.545236     1.240370     0.523186
C        2.235612     0.531133     1.535077
C        3.676428     0.955139     1.926761
C        4.636164    -0.214064     2.036198
Fe       0.000000     0.000000     0.000000
N       -1.569383     0.536820     1.203894
C       -2.260591     1.553659     0.492589
C       -3.683431     1.935615     0.926281
C       -3.615805     3.234917     1.663717
C       -1.591400     2.211659    -0.642797
C       -1.997433     3.611388    -1.083849
C       -3.244106     3.496630    -1.905494
N       -0.578757     1.490789    -1.282704
O        0.462262     2.405389    -1.724993
O       -2.435844    -0.467320     1.720433
H        1.660517    -0.180146     5.603161
H        1.735593     1.041169     4.244471
H        3.225874     0.248375     4.843247
H        1.143381    -1.697784     4.016423
H        2.869775    -1.623501     3.598614
H       -4.468069    -2.312011     1.544397
H       -4.906529    -4.903777     4.866706
H       -1.064464    -3.241635     4.018736
H       -1.572953    -4.087136    -1.112186
H       -0.095597    -4.319392    -2.034357
H       -1.166988    -3.942454    -4.018485
H       -2.165276    -2.578846    -3.377873
H       -2.676162    -4.253299    -3.064965
H        0.163346    -1.953918    -4.362538
H        1.630926    -1.049157    -3.993046
H        2.304581    -3.328633    -2.659642
H        2.629254    -2.998755    -4.384860
H        1.227475    -3.999627    -3.997214
H        2.150157     4.457241    -1.541897
H        4.713106     5.123965    -4.890642
H        3.287440     1.192736    -4.034621
H        3.651174     1.503535     2.854392
H        4.048036     1.685457     1.155335
H        5.565400     0.012292     1.482250
H        4.865892    -0.385430     3.111625
H        4.173287    -1.136841     1.627907
H       -4.402071     1.983921     0.082721
H       -4.014941     1.137314     1.642276
H       -4.083441     4.017790     1.042719
H       -4.159358     3.147022     2.616547
H       -2.570848     3.509503     1.916589
H       -1.185449     4.013352    -1.742624
H       -2.114677     4.358725    -0.289922
H       -3.129712     4.012536    -2.873260
H       -3.509999     2.443951    -2.118030
H       -4.078249     3.976441    -1.372424
85
ex_0135 frame6 all-trans-Λ-conf4
C       -2.504619     3.943748    -2.097776
C       -1.356901     3.853369    -1.098088
C       -0.640002     2.499201    -1.004368
N       -0.303782     1.997267     0.342232
O       -1.335169     2.362585     1.163281
B       -1.395395     1.435194     2.320283
C       -2.122437     2.158167     3.507713
C       -1.993126     1.681879     4.829763
C       -2.659687     2.363044     5.859067
Br      -2.521732     1.782658     7.664164
C       -3.436659     3.481627     5.568088
C       -3.561006     3.939779     4.265903
Br      -4.636941     5.469729     3.893846
C       -2.902345     3.283311     3.239866
O       -0.045218     0.976922     2.678947
N        0.338313    -0.215647     2.003979
C        1.872502    -0.062318     2.007359
C        2.567658     0.416649     3.320878
C        3.761912     1.359581     3.163416
C        2.613167    -0.335365     0.894596
C        4.039806    -0.956875     0.910347
C        4.223347    -2.022314     1.976052
N        2.011854    -0.016995    -0.386330
O        2.382261    -1.137440    -1.189452
B        1.439408    -1.422139    -2.285119
C        2.125383    -2.162142    -3.519717
C        3.208745    -3.000114    -3.326172
C        3.830559    -3.623419    -4.409328
Br       5.326104    -4.751626    -4.111027
C        3.357402    -3.419969    -5.705145
C        2.259317    -2.592534    -5.916451
Br       1.627714    -2.322645    -7.687021
C        1.629023    -1.966632    -4.829537
O        0.918770    -0.128003    -2.759647
N       -0.179191     0.266164    -2.021226
C       -0.297977     1.738099    -2.131210
C       -0.043863     2.417021    -3.485028
C        0.814808     3.690206    -3.464161
Fe       0.000000     0.000000     0.000000
N       -1.931872    -0.063832     0.672842
C       -2.240180    -1.495029     0.504722
C       -3.453769    -2.044801     1.247409
C       -3.184842    -3.280415     2.117941
C       -1.467036    -2.327925    -0.293753
C       -2.036111    -3.605065    -0.875664
C       -1.151378    -4.295992    -1.909202
N       -0.106417    -1.963359    -0.566358
O        0.367278    -2.293653    -1.801737
O       -2.176797     0.262960     1.971852
H       -2.859336     2.943562    -2.413401
H       -3.345119     4.501549    -1.639998
H       -2.145711     4.490470    -2.991926
H       -1.785313     4.128372    -0.085731
H       -0.595669     4.581133    -1.299366
H       -1.383547     0.812150     5.077607
H       -3.950817     3.998901     6.357650
H       -3.005248     3.635243     2.226551
H        1.813352     1.016517     3.885053
H        2.823345    -0.462698     3.888738
H        4.686830     0.753412     3.170152
H        3.702312     1.939926     2.223311
H        3.753601     2.080645     4.008916
H        4.745262    -0.149155     0.978459
H        4.262316    -1.463669    -0.081400
H        4.902376    -1.594932     2.732131
H        4.686404    -2.920079     1.538267
H        3.258641    -2.341778     2.430371
H        3.565242    -3.153960    -2.329320
H        3.839624    -3.901185    -6.549840
H        0.777641    -1.325490    -5.026240
H        0.509157     1.693579    -4.140717
H       -0.997411     2.610808    -3.937716
H        1.344004     3.786297    -2.506244
H        0.157579     4.572120    -3.609960
H        1.586662     3.672416    -4.264089
H       -4.310131    -2.157346     0.590533
H       -3.754694    -1.259035     1.979281
H       -2.098527    -3.484609     2.159292
H       -3.751733    -4.149182     1.716241
H       -3.513149    -3.115209     3.166216
H       -2.214639    -4.319130    -0.075445
H       -2.988161    -3.351740    -1.393539
H       -0.145864    -4.515318    -1.483524
H       -1.040809    -3.650826    -2.816369
H       -1.605549    -5.245502    -2.207355
85
ex_0135 frame7 all-trans-Δ-conf9
C       -0.421603    -2.699148    -4.361971
C        0.113249    -1.346927    -4.027992
C        0.203233    -1.219962    -2.502493
N       -0.830751    -0.531244    -1.796154
O       -1.355553     0.458609    -2.585900
B       -1.824198     1.629742    -1.827445
C       -2.821088     2.415418    -2.777301
C       -3.391295     1.768638    -3.899892
C       -4.243215     2.469270    -4.762593
Br      -5.002809     1.604707    -6.293738
C       -4.538901     3.804535    -4.503288
C       -3.991252     4.440591    -3.388905
Br      -4.396302     6.260032    -3.051916
C       -3.146744     3.745506    -2.520326
O       -2.546716     1.197473    -0.626913
N       -1.680495     1.063918     0.504704
C       -2.392220     0.037600     1.337213
C       -3.910734     0.167990     1.507816
C       -4.278234     0.985678     2.686268
C       -1.677387    -1.014455     1.944867
C       -2.049632    -1.708222     3.270190
C       -2.266516    -0.839944     4.527071
N       -0.504401    -1.498033     1.298711
O        0.438206    -1.887854     2.188330
B        1.825139    -1.687626     1.740497
C        2.727708    -2.626471     2.686931
C        2.115703    -3.744414     3.256548
C        2.813365    -4.615882     4.070411
Br       1.928601    -6.131496     4.809506
C        4.151676    -4.383760     4.344948
C        4.799214    -3.268334     3.797216
Br       6.641919    -2.973809     4.190527
C        4.089533    -2.374231     2.962776
O        2.008778    -2.144579     0.353840
N        1.550331    -1.216355    -0.552547
C        1.252384    -1.751971    -1.792665
C        2.096181    -2.899050    -2.309461
C        3.078824    -2.378608    -3.305357
Fe       0.000000     0.000000     0.000000
N        0.426212     1.750786    -0.955586
C        1.060305     2.500156     0.012289
C        1.110617     4.020904    -0.081109
C        2.361491     4.402183    -0.791131
C        1.675100     1.864577     1.102921
C        2.837586     2.517070     1.862385
C        3.737258     1.559561     2.678887
N        1.225667     0.620554     1.506084
O        2.213722    -0.276228     1.878966
O       -0.689535     2.498522    -1.493854
H        0.392336    -3.302438    -4.791091
H       -0.800397    -3.189384    -3.440557
H       -1.254356    -2.608524    -5.080445
H        1.033841    -1.087229    -4.620906
H       -0.610910    -0.579007    -4.403383
H       -3.175678     0.729174    -4.107517
H       -5.188067     4.362399    -5.160505
H       -2.729023     4.252173    -1.667529
H       -4.485739    -0.778943     1.351352
H       -4.283904     0.759572     0.629255
H       -4.791323     0.325573     3.393393
H       -3.369316     1.441950     3.122124
H       -4.972533     1.792267     2.377545
H       -1.150808    -2.309152     3.590394
H       -2.818917    -2.442113     3.123899
H       -3.348679    -0.802001     4.756028
H       -1.789821    -1.315456     5.422232
H       -1.833332     0.175301     4.441525
H        1.079770    -3.949411     3.046652
H        4.672836    -5.080051     4.984943
H        4.597660    -1.521323     2.540554
H        1.467205    -3.742083    -2.691599
H        2.668115    -3.384648    -1.464910
H        3.058203    -1.265799    -3.324117
H        2.813212    -2.803077    -4.285047
H        4.102247    -2.674814    -3.017448
H        0.995424     4.544898     0.908730
H        0.202502     4.416997    -0.623990
H        2.110430     5.011110    -1.670147
H        2.904325     3.490363    -1.120667
H        2.994261     4.976523    -0.100386
H        3.543398     3.007095     1.141944
H        2.396605     3.245244     2.514362
H        4.522506     2.132099     3.174420
H        3.152909     1.039479     3.470459
H        4.256285     0.799157     2.035927
85
ex_0135 frame8 all-trans-Δ-conf3
C        2.046032    -0.204198    -4.738320
C        1.903060     0.931026    -3.742673
C        1.565051     0.442425    -2.370777
N        0.398842     0.925818    -1.780419
O       -0.505867     1.607860    -2.490615
B       -1.793862     1.808768    -1.756988
C       -2.699517     2.686439    -2.656396
C       -3.820194     3.340692    -2.112470
C       -4.615707     4.143087    -2.939852
Br      -6.127097     5.062532    -2.226639
C       -4.304089     4.273634    -4.295986
C       -3.200809     3.614401    -4.832870
Br      -2.785333     3.786925    -6.684130
C       -2.400168     2.828868    -4.018799
O       -1.582530     2.517061    -0.467373
N       -0.841585     1.820096     0.368022
C       -0.388304     2.338811     1.609497
C       -0.907618     3.685550     2.014232
C        0.227714     4.652778     2.203167
C        0.488079     1.579246     2.351711
C        0.948331     1.900645     3.730543
C       -0.215632     2.033100     4.693674
N        0.983507     0.404953     1.748471
O        1.626530    -0.504424     2.500491
B        1.800458    -1.766745     1.764222
C        2.716819    -2.708784     2.644260
C        2.744395    -2.575374     4.038870
C        3.578224    -3.394156     4.801775
Br       3.623855    -3.197196     6.696256
C        4.377917    -4.356372     4.177408
C        4.345259    -4.501179     2.788813
Br       5.442661    -5.810971     1.941121
C        3.509654    -3.687395     2.022304
O        2.519608    -1.550055     0.473250
N        1.764186    -0.940631    -0.442132
C        2.312288    -0.443318    -1.648141
C        3.671767    -0.916514    -2.056258
C        4.640634     0.244798    -2.248193
Fe       0.000000     0.000000     0.000000
N       -1.700769    -0.455993    -1.042201
C       -2.291290    -1.619169    -0.539106
C       -3.658067    -1.979670    -1.041852
C       -4.683565    -1.964032     0.087809
C       -1.593108    -2.357545     0.377806
C       -2.055201    -3.710817     0.828482
C       -1.141876    -4.400607     1.843853
N       -0.402131    -1.794831     0.895682
O        0.511382    -2.473002     1.604674
O       -2.495406     0.500261    -1.564463
H        1.590682    -1.149850    -4.362690
H        1.545715     0.071883    -5.689640
H        3.125467    -0.353068    -4.911746
H        1.057855     1.558205    -4.117319
H        2.762489     1.608905    -3.706652
H       -4.068349     3.249746    -1.057443
H       -4.918984     4.885453    -4.935406
H       -1.553146     2.322005    -4.461231
H       -1.479466     4.069494     1.141682
H       -1.624523     3.627066     2.839800
H        0.457509     4.681182     3.280781
H        1.128521     4.345870     1.621234
H       -0.097409     5.646500     1.839400
H        1.636256     2.752156     3.725870
H        1.562887     1.054187     4.123247
H       -0.276009     3.099234     4.971793
H       -0.032170     1.418934     5.600112
H       -1.174930     1.684832     4.245685
H        2.128224    -1.836558     4.533651
H        5.028722    -4.986929     4.766735
H        3.494681    -3.810192     0.944461
H        4.076330    -1.532782    -1.225650
H        3.601369    -1.571890    -2.933187
H        4.259813     1.180648    -1.781265
H        4.780742     0.400690    -3.335261
H        5.616375     0.006702    -1.776682
H       -3.646322    -2.892417    -1.652960
H       -3.990081    -1.174590    -1.733634
H       -4.255214    -1.544833     1.028349
H       -5.037720    -2.999122     0.244679
H       -5.545893    -1.316717    -0.180225
H       -3.048845    -3.618982     1.289825
H       -2.074266    -4.332877    -0.088600
H       -1.045924    -3.781248     2.770247
H       -0.136995    -4.596191     1.396730
H       -1.560651    -5.372889     2.122178
85
ex_0135 frame9 all-trans-conf4
C        2.023856     0.188696     4.703664
C        1.842682    -0.937223     3.699070
C        1.526049    -0.482699     2.281542
N        0.497748    -1.160726     1.610571
O       -0.473946    -1.590413     2.466658
B       -1.759517    -1.750893     1.754995
C       -2.697878    -2.675203     2.641176
C       -3.816028    -3.344374     2.091864
C       -4.608206    -4.141319     2.933489
Br      -6.122868    -5.069359     2.254730
C       -4.291862    -4.262458     4.284893
C       -3.194423    -3.604865     4.817733
Br      -2.786487    -3.780905     6.672333
C       -2.398243    -2.821749     3.998615
O       -1.554883    -2.426229     0.459883
N       -1.242642    -1.532411    -0.539405
C       -0.520571    -2.207294    -1.614270
C       -0.928914    -3.623200    -1.959058
C        0.206272    -4.607496    -2.177771
C        0.501619    -1.538365    -2.276706
C        0.961860    -1.847719    -3.696869
C       -0.197735    -2.012041    -4.660860
N        1.165962    -0.503793    -1.605029
O        1.575095     0.462867    -2.472376
B        1.751722     1.722252    -1.773399
C        2.701698     2.696001    -2.645088
C        2.741758     2.576247    -4.027013
C        3.577312     3.393153    -4.789672
Br       3.619516     3.193510    -6.675711
C        4.378650     4.352661    -4.170929
C        4.342267     4.494971    -2.787447
Br       5.441797     5.804282    -1.957989
C        3.500676     3.677703    -2.017051
O        2.425488     1.501983    -0.479648
N        1.497285     1.314536     0.478910
C        2.174769     0.544772     1.609606
C        3.616561     0.927303     2.006562
C        4.608658    -0.226578     2.233304
Fe       0.000000     0.000000     0.000000
N       -1.537273     0.546511     1.233141
C       -2.205665     1.573494     0.558553
C       -3.586989     1.928020     1.042363
C       -4.642832     1.944341    -0.076098
C       -1.617884     2.206518    -0.482566
C       -2.009567     3.620684    -0.844106
C       -1.104101     4.337789    -1.840686
N       -0.605491     1.504026    -1.245296
O        0.406826     2.348097    -1.601287
O       -2.412631    -0.427046     1.582543
H        1.624952     1.150963     4.324991
H        1.507144    -0.073562     5.647230
H        3.107501     0.305839     4.897140
H        1.000572    -1.589418     4.091229
H        2.701567    -1.579726     3.644846
H       -4.073857    -3.267106     1.037075
H       -4.903905    -4.868949     4.927863
H       -1.548861    -2.305806     4.418793
H       -1.473302    -4.016968    -1.058937
H       -1.620951    -3.594199    -2.788095
H        0.403725    -4.665238    -3.265002
H        1.124777    -4.294593    -1.646821
H       -0.099087    -5.598034    -1.778569
H        1.637784    -2.688470    -3.686853
H        1.582765    -0.986896    -4.102842
H       -0.216878    -3.076503    -4.953078
H       -0.039088    -1.394631    -5.560758
H       -1.166413    -1.696807    -4.215194
H        2.124109     1.837895    -4.496498
H        5.030814     4.988350    -4.760365
H        3.497224     3.808050    -0.941139
H        4.058053     1.546372     1.189492
H        3.549999     1.541247     2.891657
H        4.219092    -1.163946     1.808836
H        4.773760    -0.359411     3.323161
H        5.583500    -0.023720     1.738759
H       -3.599822     2.811258     1.660986
H       -3.934811     1.101377     1.712480
H       -4.214310     1.552298    -1.018641
H       -5.028250     2.981281    -0.204494
H       -5.511109     1.292075     0.166298
H       -3.008692     3.599502    -1.261296
H       -1.996296     4.247907     0.086565
H       -1.001922     3.736647    -2.769582
H       -0.093647     4.515815    -1.393386
H       -1.541231     5.305965    -2.109244
85
ex_0135 frame10 all-trans-Λ-conf2
C        1.745289     4.796833    -0.408506
C        1.738728     3.827808     0.757647
C        1.428518     2.361429     0.416429
N        0.549171     1.599508     1.158927
O       -0.553579     2.467054     1.638968
B       -1.796386     1.743552     1.886731
C       -2.655082     2.557224     2.799534
C       -3.961550     2.157866     3.064397
C       -4.757056     2.917545     3.907413
Br      -6.547295     2.370831     4.258679
C       -4.249198     4.075668     4.494977
C       -2.940428     4.487771     4.243206
Br      -2.247162     6.081428     5.059349
C       -2.141347     3.728326     3.391480
O       -1.549776     0.473329     2.562974
N       -1.133753    -0.565131     1.611508
C       -0.305614    -1.480001     2.300320
C       -0.513179    -1.873608     3.775665
C       -1.237114    -3.178887     3.826946
C        0.852703    -2.115601     1.562698
C        1.427489    -3.487790     1.924380
C        2.359372    -3.376203     3.088121
N        1.385802    -1.410273     0.536091
O        1.851167    -2.309768    -0.536880
B        1.774315    -1.719101    -1.890746
C        2.607399    -2.565850    -2.831816
C        2.543321    -2.304893    -4.206577
C        3.278323    -3.064064    -5.118093
Br       3.151087    -2.687155    -6.983924
C        4.100493    -4.092960    -4.656477
C        4.176194    -4.353181    -3.285480
Br       5.292446    -5.748129    -2.626101
C        3.429374    -3.587694    -2.382970
O        2.318934    -0.355296    -1.857340
N        1.429318     0.609803    -1.336260
C        2.068645     1.703572    -0.735347
C        3.420749     2.176555    -1.305167
C        4.458090     2.401556    -0.224291
Fe       0.000000     0.000000     0.000000
N       -1.697026     1.064275    -0.436932
C       -2.399605     0.257917    -1.373334
C       -3.886967     0.564100    -1.656818
C       -3.982860     1.256586    -2.978293
C       -1.675828    -0.854253    -2.048502
C       -2.180855    -1.370788    -3.403582
C       -3.344484    -2.280160    -3.163460
N       -0.543668    -1.390738    -1.404678
O        0.411285    -1.766595    -2.396529
O       -2.523963     1.540728     0.612065
H        1.208094     5.719569    -0.121117
H        1.296584     4.328194    -1.303985
H        2.791391     5.070088    -0.653131
H        0.943352     4.152468     1.479462
H        2.686666     3.869766     1.277957
H       -4.382903     1.269723     2.621345
H       -4.884933     4.638657     5.141253
H       -1.129224     4.036607     3.197469
H       -1.150384    -1.085620     4.232752
H        0.411225    -1.878800     4.371550
H       -0.522008    -3.953888     4.141170
H       -1.673544    -3.443011     2.845022
H       -2.074392    -3.111408     4.545904
H        0.670852    -4.263655     2.062167
H        2.028176    -3.812567     1.031382
H        2.768512    -2.348447     3.207016
H        3.205479    -4.053771     2.903168
H        1.859853    -3.741332     4.002880
H        1.910230    -1.528107    -4.570407
H        4.677296    -4.685458    -5.344136
H        3.499935    -3.803616    -1.336126
H        3.277051     3.077457    -1.879528
H        3.794760     1.409048    -2.042340
H        5.408201     1.914711    -0.509053
H        4.611707     3.496905    -0.103777
H        4.104226     1.991150     0.745078
H       -4.536937    -0.335608    -1.620309
H       -4.212808     1.278766    -0.855538
H       -4.458331     0.572782    -3.701397
H       -4.593750     2.166025    -2.874008
H       -2.986689     1.580921    -3.343719
H       -1.352979    -1.973635    -3.850132
H       -2.420410    -0.611473    -4.161920
H       -3.191684    -3.253300    -3.658146
H       -3.507612    -2.474687    -2.086480
H       -4.253700    -1.831370    -3.588994
85
ex_0135 frame11 all-trans-conf3
C        2.051703     0.209354     4.745235
C        1.896510    -0.916763     3.743399
C        1.529877    -0.409259     2.381166
N        0.326216    -0.849699     1.832663
O       -0.528363    -1.616489     2.496165
B       -1.780814    -1.797298     1.739860
C       -2.706274    -2.694474     2.648879
C       -3.824875    -3.349243     2.110156
C       -4.620851    -4.148327     2.939917
Br      -6.132517    -5.063140     2.224966
C       -4.309327    -4.278327     4.297811
C       -3.204892    -3.619907     4.833073
Br      -2.787651    -3.788167     6.686347
C       -2.404272    -2.838079     4.015357
O       -1.554893    -2.518849     0.447488
N       -0.942422    -1.750912    -0.486239
C       -0.431395    -2.314747    -1.653190
C       -0.909974    -3.680458    -2.030584
C        0.231135    -4.655728    -2.207202
C        0.467515    -1.572409    -2.361677
C        0.948217    -1.916163    -3.739560
C       -0.216612    -2.041368    -4.707749
N        0.971282    -0.411944    -1.754705
O        1.632297     0.488021    -2.501649
B        1.807307     1.755192    -1.774101
C        2.718336     2.703890    -2.652439
C        2.745489     2.573708    -4.046652
C        3.578963     3.394593    -4.807676
Br       3.626006     3.199463    -6.701915
C        4.377366     4.357736    -4.181166
C        4.343877     4.501376    -2.792633
Br       5.440434     5.810929    -1.940403
C        3.508108     3.686764    -2.028664
O        2.538485     1.544670    -0.502329
N        1.760206     0.958749     0.411996
C        2.298028     0.460032     1.635244
C        3.670401     0.906786     2.046459
C        4.640090    -0.252029     2.247828
Fe       0.000000     0.000000     0.000000
N       -1.655242     0.438893     1.110731
C       -2.266724     1.588248     0.553761
C       -3.633359     1.982332     1.064114
C       -4.665532     1.960689    -0.072334
C       -1.599168     2.299924    -0.426512
C       -2.053748     3.682951    -0.841784
C       -1.148681     4.394175    -1.850307
N       -0.449719     1.697240    -1.054552
O        0.513106     2.455850    -1.583912
O       -2.492799    -0.522362     1.539171
H        1.586261     1.152967     4.378766
H        1.558009    -0.073242     5.698073
H        3.131447     0.363249     4.913081
H        1.055865    -1.544880     4.120403
H        2.754122    -1.601957     3.699403
H       -4.070727    -3.254295     1.057317
H       -4.924393    -4.888935     4.938402
H       -1.557709    -2.331331     4.463285
H       -1.483998    -4.074159    -1.162329
H       -1.626013    -3.652009    -2.862704
H        0.475431    -4.686574    -3.282464
H        1.123825    -4.351916    -1.612900
H       -0.094973    -5.656011    -1.856548
H        1.633955    -2.771945    -3.734586
H        1.563666    -1.072792    -4.128586
H       -0.292837    -3.107971    -4.981204
H       -0.028627    -1.428450    -5.613859
H       -1.174767    -1.682977    -4.263021
H        2.130561     1.833373    -4.541752
H        5.028508     4.988437    -4.769095
H        3.493730     3.809355    -0.950470
H        4.083359     1.526210     1.222919
H        3.607937     1.565586     2.924841
H        4.266643    -1.185624     1.773707
H        4.777763    -0.411202     3.335558
H        5.620568    -0.006290     1.788505
H       -3.637067     2.908308     1.655984
H       -3.976031     1.185265     1.764301
H       -4.244774     1.539813    -1.015862
H       -5.026366     2.992884    -0.244218
H       -5.536916     1.323932     0.190168
H       -3.058182     3.617505    -1.279093
H       -2.058670     4.306227     0.079870
H       -1.049223     3.784862    -2.778756
H       -0.145857     4.595248    -1.401759
H       -1.569977     5.372075    -2.117666
85
ex_0135 frame12 all-trans-Λ-conf7
C        1.416545     3.199843     3.362173
C        2.401952     2.262648     2.643235
C        1.865308     1.407821     1.534468
N        0.603520     1.704292     0.967404
O       -0.307148     2.275983     1.887984
B       -1.690438     2.017204     1.599534
C       -2.533868     3.088055     2.410727
C       -3.240674     2.706098     3.557244
C       -3.987200     3.640815     4.276936
Br      -4.944928     3.118967     5.844119
C       -4.033733     4.960350     3.849919
C       -3.339807     5.355416     2.715118
Br      -3.427431     7.168226     2.152908
C       -2.584698     4.430127     1.993548
O       -2.052661     0.658116     2.061014
N       -1.086022    -0.256647     1.716618
C       -1.665433    -1.544824     1.547299
C       -2.885163    -1.853329     2.417538
C       -2.419949    -2.685169     3.568435
C       -1.104810    -2.436434     0.619399
C       -1.262548    -3.924180     0.733171
C       -2.632388    -4.327346     0.277479
N       -0.363189    -1.956166    -0.467455
O        0.699269    -2.747693    -0.870563
B        1.705044    -1.990357    -1.585107
C        2.532896    -3.015414    -2.440329
C        2.525604    -2.903436    -3.832778
C        3.250533    -3.771213    -4.632985
Br       3.213585    -3.567280    -6.533869
C        3.997784    -4.782084    -4.042991
C        4.009178    -4.911992    -2.650716
Br       5.026499    -6.285922    -1.859712
C        3.274994    -4.034768    -1.840564
O        2.608987    -1.284746    -0.639044
N        1.888533    -0.646459     0.452611
C        2.578669     0.323354     1.048224
C        4.072071     0.147949     1.136400
C        4.912865     1.369122     0.821468
Fe       0.000000     0.000000     0.000000
N       -1.601263     1.106904    -0.608188
C       -1.397341     1.380955    -1.964589
C       -2.233387     2.426431    -2.657102
C       -3.118969     3.276037    -1.752124
C       -0.415966     0.677158    -2.649731
C       -0.429782     0.491844    -4.151302
C        0.069394     1.764583    -4.777083
N        0.616782     0.120556    -1.946099
O        1.105610    -1.048168    -2.525358
O       -1.948044     2.218593     0.175803
H        0.644922     2.627807     3.946380
H        0.945131     3.951976     2.672972
H        1.991135     3.765503     4.080975
H        2.864634     1.671799     3.461730
H        3.149537     2.883138     2.165947
H       -3.207230     1.694469     3.900645
H       -4.605549     5.697539     4.387701
H       -2.064706     4.773123     1.116998
H       -3.349472    -0.913826     2.847865
H       -3.716661    -2.319725     1.864281
H       -1.314936    -2.761976     3.579294
H       -2.858290    -3.685954     3.460711
H       -2.724197    -2.244918     4.534599
H       -0.510720    -4.431293     0.055771
H       -1.000322    -4.325641     1.735326
H       -3.244224    -4.561495     1.166428
H       -2.549995    -5.209156    -0.383455
H       -3.106904    -3.522797    -0.327191
H        1.955167    -2.130716    -4.301076
H        4.573162    -5.472932    -4.644993
H        3.305206    -4.159449    -0.767420
H        4.417423    -0.663717     0.425595
H        4.287631    -0.235576     2.123756
H        5.233372     1.788570     1.792689
H        4.373114     2.134962     0.233484
H        5.805309     1.064598     0.244142
H       -2.904802     1.913576    -3.338468
H       -1.561107     3.128526    -3.194575
H       -3.811683     3.862115    -2.362630
H       -3.748105     2.600243    -1.126801
H       -2.475835     3.962018    -1.137595
H       -1.386746     0.136603    -4.595649
H        0.295313    -0.335215    -4.413183
H        0.580558     2.411183    -4.017255
H       -0.776858     2.282154    -5.262547
H        0.790361     1.503688    -5.566453
85
ex_0135 frame13 all-trans-Δ-conf2
C        2.145350    -0.096878    -4.649482
C        1.967342     1.026318    -3.648041
C        1.609108     0.584371    -2.241365
N        0.576525     1.239234    -1.530144
O       -0.471388     1.685793    -2.452066
B       -1.791296     1.801736    -1.828907
C       -2.662002     2.673394    -2.683610
C       -4.015258     2.817844    -2.381221
C       -4.814749     3.622946    -3.178416
Br      -6.665177     3.812398    -2.769068
C       -4.266834     4.289990    -4.273539
C       -2.913395     4.156363    -4.584659
Br      -2.165668     5.081969    -6.091871
C       -2.110033     3.342853    -3.788385
O       -1.717951     2.476537    -0.565980
N       -1.324100     1.483354     0.495886
C       -0.613592     2.207594     1.512961
C       -0.967101     3.652822     1.928760
C       -1.790812     3.600246     3.179394
C        0.537469     1.528996     2.212430
C        0.986729     1.903496     3.645542
C        1.826887     3.141397     3.645998
N        1.226887     0.530562     1.557204
O        1.723006    -0.538206     2.482287
B        1.771677    -1.795336     1.797815
C        2.621327    -2.711180     2.687793
C        2.687747    -4.071041     2.379226
C        3.432277    -4.950545     3.167943
Br       3.487651    -6.806197     2.727388
C        4.130766    -4.463196     4.273874
C        4.074492    -3.100580     4.579269
Br       5.019596    -2.406404     6.079929
C        3.321759    -2.231925     3.783756
O        2.409970    -1.682283     0.466239
N        1.605536    -1.131917    -0.567775
C        2.271645    -0.480680    -1.582714
C        3.676653    -0.947934    -1.930594
C        4.638007     0.214004    -2.036740
Fe       0.000000     0.000000     0.000000
N       -1.549937    -0.567461    -1.210837
C       -2.249653    -1.564232    -0.487981
C       -3.679650    -1.936823    -0.926906
C       -3.615862    -3.236350    -1.664214
C       -1.606311    -2.195649     0.632015
C       -1.998017    -3.606591     1.086328
C       -3.245646    -3.496981     1.906157
N       -0.599238    -1.463924     1.296623
O        0.438435    -2.433056     1.739696
O       -2.411185     0.456515    -1.735706
H        1.660772     0.180184    -5.603630
H        1.734716    -1.041661    -4.245784
H        3.225940    -0.248734    -4.842992
H        1.144138     1.697132    -4.016007
H        2.870309     1.623970    -3.598812
H       -4.467940     2.311948    -1.544016
H       -4.906651     4.904421    -4.867540
H       -1.064026     3.241876    -4.019357
H       -1.572762     4.087595     1.114138
H       -0.094404     4.320973     2.034474
H       -1.167218     3.942136     4.019308
H       -2.165517     2.578483     3.377512
H       -2.675852     4.253983     3.065310
H        0.162572     1.954584     4.364191
H        1.630785     1.051748     3.994727
H        2.304706     3.328175     2.659529
H        2.629320     2.999252     4.385539
H        1.227397     4.000037     3.996223
H        2.148771    -4.458026     1.542434
H        4.713195    -5.124444     4.890865
H        3.287628    -1.192123     4.036522
H        3.651332    -1.503923    -2.855047
H        4.047126    -1.684260    -1.155214
H        5.566012    -0.012490    -1.482564
H        4.865929     0.385774    -3.111409
H        4.175323     1.137638    -1.627261
H       -4.403067    -1.983482    -0.082879
H       -4.015500    -1.139077    -1.641557
H       -4.083031    -4.018414    -1.042831
H       -4.160242    -3.147231    -2.616674
H       -2.570795    -3.509406    -1.917068
H       -1.187175    -4.013082     1.742269
H       -2.114040    -4.359222     0.289142
H       -3.129547    -4.013144     2.873324
H       -3.509931    -2.443763     2.118571
H       -4.078789    -3.976191     1.372129
85
ex_0135 frame14 Isomer 1
C        1.309476     4.041832    -3.203444
C        1.120479     4.029105    -1.696485
C        1.323983     2.668570    -1.160778
N        0.307386     2.128781    -0.536800
O       -0.837201     2.668573    -0.359162
B       -1.884638     1.853703     0.225401
C       -3.252646     2.701318     0.263426
C       -4.433791     2.062723     0.610408
C       -5.612260     2.783111     0.643476
Br      -7.242764     1.909467     1.117335
C       -5.603017     4.137706     0.331870
C       -4.431842     4.791198    -0.015394
Br      -4.432748     6.667462    -0.443393
C       -3.256966     4.067142    -0.048935
O       -1.526330     1.463923     1.588365
N       -0.395644     0.879613     1.778176
C        0.163136     0.609076     2.923622
C       -0.567275     1.027993     4.121998
C       -0.938041    -0.124396     5.016386
C        1.392535    -0.048265     2.889241
C        2.198662    -0.454594     4.038958
C        2.628633     0.685540     4.914755
N        1.894127    -0.341041     1.708190
O        3.000773    -0.935337     1.500962
B        3.273111    -1.333213     0.133264
C        4.620905    -2.219066     0.083205
C        4.943450    -2.880972    -1.082704
C        6.077012    -3.660884    -1.185630
Br       6.485537    -4.568792    -2.814417
C        6.921531    -3.780032    -0.089439
C        6.611508    -3.112269     1.095906
Br       7.736319    -3.239978     2.629802
C        5.461987    -2.333370     1.176654
O        3.425575    -0.135388    -0.693594
N        2.469944     0.726352    -0.712207
C        2.490026     1.907214    -1.255431
C        3.740890     2.303203    -1.907069
C        4.279250     3.537123    -1.225022
Fe       0.698138     0.263467     0.176166
N       -1.114498    -0.200682    -0.627269
C       -1.171968    -1.410304    -1.122794
C       -2.456709    -1.838898    -1.711317
C       -2.277862    -2.199469    -3.166627
C       -0.011393    -2.173457    -1.044512
C        0.164108    -3.549662    -1.546644
C       -0.784863    -4.517751    -0.878452
N        1.035881    -1.633786    -0.473144
O        2.173018    -2.176583    -0.328646
O       -2.068170     0.664342    -0.600587
H        0.501957     4.646646    -3.673431
H        1.309103     3.004884    -3.573829
H        2.277107     4.502187    -3.486982
H        0.085069     4.413156    -1.458368
H        1.834276     4.772738    -1.279715
H       -4.476741     1.009504     0.856854
H       -6.532509     4.659003     0.369476
H       -2.319969     4.542102    -0.313887
H       -1.489505     1.612598     3.911049
H        0.088711     1.729829     4.677110
H       -0.213111    -0.196350     5.840319
H       -0.953564    -1.074556     4.454734
H       -1.964228     0.009753     5.423954
H        1.631158    -1.187258     4.629830
H        3.110085    -0.985672     3.674372
H        2.728129     1.639441     4.362395
H        3.631336     0.442244     5.322490
H        1.973925     0.781966     5.814626
H        4.299318    -2.798912    -1.933103
H        7.812127    -4.373733    -0.125051
H        5.221035    -1.817584     2.084171
H        3.590930     2.563888    -2.976300
H        4.513498     1.489792    -1.935809
H        5.365455     3.407001    -1.010256
H        4.135777     4.447845    -1.867292
H        3.731431     3.702182    -0.273656
H       -2.839546    -2.723424    -1.168153
H       -3.180216    -0.988336    -1.665201
H       -2.321510    -3.308813    -3.285287
H       -3.069202    -1.749176    -3.775560
H       -1.316313    -1.818428    -3.579877
H        1.181343    -3.958794    -1.404739
H       -0.031194    -3.613994    -2.634171
H       -0.280283    -5.447693    -0.547485
H       -1.263338    -4.084939     0.032158
H       -1.596984    -4.839035    -1.559030
85
ex_0135 frame15 trans-OH N0+N0|N0+N0|N0+N0
C        4.638759     2.147020     0.092389
C        3.625515     1.928354    -1.017738
C        2.310717     1.563641    -0.453370
N        1.824753     0.401528    -0.806359
O        2.389404    -0.441849    -1.586859
B        1.764711    -1.741557    -1.741911
C        2.691551    -2.663838    -2.681178
C        2.387313    -4.010005    -2.817865
C        3.179162    -4.808271    -3.620695
Br       2.767900    -6.663274    -3.810877
C        4.268876    -4.256207    -4.283961
C        4.585821    -2.913344    -4.159422
Br       6.096739    -2.161291    -5.084249
C        3.793046    -2.119744    -3.354795
O        0.447620    -1.604279    -2.361720
N       -0.399936    -0.807024    -1.823997
C       -1.547695    -0.426230    -2.307760
C       -1.904344    -0.961689    -3.621951
C       -3.166134    -1.781555    -3.598760
C       -2.313487     0.445705    -1.530547
C       -3.624594     0.993981    -1.870088
C       -3.634551     1.816214    -3.125236
N       -1.822446     0.825932    -0.367954
O       -2.386583     1.609016     0.455528
B       -1.759844     1.737165     1.756680
C       -2.696830     2.626043     2.724178
C       -2.398300     2.691611     4.068769
C       -3.165978     3.427001     4.948399
Br      -2.725580     3.486583     6.804906
C       -4.266252     4.126232     4.469312
C       -4.578423     4.073960     3.110303
Br      -6.075932     5.015554     2.399562
C       -3.791052     3.324115     2.242898
O       -0.450728     2.371785     1.598267
N        0.401215     1.830135     0.796633
C        1.539698     2.334523     0.415905
C        1.881056     3.657998     0.946033
C        2.035862     4.621890    -0.205034
Fe       0.000000     0.000000     0.000000
N        0.811031    -1.823077     0.406756
C        0.398319    -2.341253     1.537013
C        0.919393    -3.674800     1.899611
C        1.658697    -3.614401     3.214800
C       -0.493046    -1.578719     2.284035
C       -1.079539    -1.948632     3.587215
C       -1.891419    -3.220472     3.499030
N       -0.857243    -0.415832     1.796510
O       -1.650334     0.406072     2.348614
O        1.634687    -2.358241    -0.425392
H        5.599979     1.657056    -0.181021
H        4.231463     1.746726     1.033846
H        4.847014     3.224980     0.244944
H        4.013581     1.123122    -1.708473
H        3.598677     2.866622    -1.613708
H        1.547778    -4.472199    -2.314476
H        4.855092    -4.904640    -4.894652
H        4.006754    -1.064666    -3.233009
H       -1.104058    -1.572105    -4.095739
H       -2.037918    -0.096971    -4.303665
H       -4.008627    -1.166234    -3.946820
H       -3.378271    -2.156375    -2.582395
H       -3.061163    -2.681619    -4.243759
H       -4.343831     0.167763    -1.957703
H       -3.981401     1.630811    -1.025576
H       -2.660399     2.299216    -3.331796
H       -4.377057     2.629918    -2.993307
H       -4.011224     1.229238    -3.997736
H       -1.554720     2.155188     4.450083
H       -4.888953     4.710310     5.115849
H       -4.026054     3.282595     1.198528
H        2.846992     3.651779     1.494635
H        1.147280     4.046744     1.700562
H        1.477342     5.562127     0.011497
H        3.117850     4.867122    -0.383032
H        1.635321     4.158829    -1.131099
H        0.080776    -4.390317     1.993302
H        1.650456    -4.004219     1.121149
H        1.040338    -4.089727     4.013747
H        2.613378    -4.146898     3.145323
H        1.909010    -2.569931     3.509693
H       -1.745960    -1.180169     4.020064
H       -0.296856    -2.124627     4.349836
H       -2.874051    -3.133455     4.004782
H       -2.111346    -3.512964     2.444739
H       -1.377329    -4.075057     3.980036
85
ex_0135 frame16 all-trans
C        2.147022     0.092391     4.638759
C        1.928388    -1.017717     3.625513
C        1.562961    -0.453297     2.310869
N        0.396741    -0.807011     1.825355
O       -0.442322    -1.587189     2.389667
B       -1.741577    -1.741942     1.764745
C       -2.663842    -2.681178     2.691550
C       -4.010005    -2.817865     2.387312
C       -4.808271    -3.620697     3.179164
Br      -6.663273    -3.810877     2.767899
C       -4.256204    -4.283959     4.268874
C       -2.913338    -4.159426     4.585828
Br      -2.161291    -5.084249     6.096739
C       -2.119748    -3.354796     3.793046
O       -1.604237    -2.361693     0.447594
N       -0.805767    -1.824585    -0.399763
C       -0.425561    -2.308147    -1.547376
C       -0.961704    -3.621939    -1.904350
C       -1.781556    -3.598760    -3.166134
C        0.446513    -1.531158    -2.313020
C        0.993973    -1.870081    -3.624595
C        1.816213    -3.125237    -3.634553
N        0.827043    -0.370579    -1.821362
O        1.608938     0.455424    -2.386528
B        1.737145     1.756644    -1.759827
C        2.626044     2.724169    -2.696833
C        2.691611     4.068769    -2.398301
C        3.427000     4.948398    -3.165977
Br       3.486584     6.804906    -2.725581
C        4.126232     4.469313    -4.266251
C        4.073960     3.110304    -4.578421
Br       5.015553     2.399559    -6.075932
C        3.324116     2.242900    -3.791050
O        2.371787     1.598411    -0.450813
N        1.831135     0.795468     0.399165
C        2.334719     0.415496     1.539256
C        3.657990     0.946028     1.881068
C        4.621888    -0.205035     2.035865
Fe       0.000000     0.000000     0.000000
N       -1.822132     0.408923     0.812050
C       -2.341101     1.537450     0.398665
C       -3.674798     1.899597     0.919393
C       -3.614403     3.214801     1.658696
C       -1.579522     2.283820    -0.493257
C       -1.948591     3.587212    -1.079550
C       -3.220473     3.499031    -1.891417
N       -0.421158     1.795980    -0.857049
O        0.405478     2.348207    -1.650171
O       -2.358250    -0.425340     1.634497
H        1.657056    -0.181021     5.599979
H        1.746726     1.033845     4.231462
H        3.224980     0.244944     4.847014
H        1.123124    -1.708470     4.013581
H        2.866622    -1.613710     3.598676
H       -4.472199    -2.314476     1.547778
H       -4.904641    -4.894652     4.855092
H       -1.064666    -3.233010     4.006755
H       -1.572104    -4.095739    -1.104058
H       -0.096971    -4.303666    -2.037920
H       -1.166234    -3.946820    -4.008627
H       -2.156375    -2.582395    -3.378271
H       -2.681619    -4.243759    -3.061163
H        0.167762    -1.957701    -4.343832
H        1.630813    -1.025576    -3.981400
H        2.299216    -3.331796    -2.660400
H        2.629919    -2.993307    -4.377057
H        1.229238    -3.997737    -4.011224
H        2.155188     4.450083    -1.554719
H        4.710310     5.115849    -4.888953
H        3.282595     1.198527    -4.026054
H        3.651778     1.494638     2.846991
H        4.046745     1.700560     1.147280
H        5.562128     0.011497     1.477342
H        4.867122    -0.383032     3.117850
H        4.158828    -1.131098     1.635321
H       -4.390319     1.993299     0.080776
H       -4.004218     1.121150     1.650458
H       -4.089727     4.013747     1.040338
H       -4.146898     3.145323     2.613378
H       -2.569931     3.509694     1.909011
H       -1.180167     4.020063    -1.745963
H       -2.124625     4.349838    -0.296858
H       -3.133455     4.004783    -2.874051
H       -3.512964     2.444739    -2.111346
H       -4.075057     3.980035    -1.377329
85
ex_0135 frame17 trans-OH N0+N0|N0+N0|N0+N0
C       -4.787111     1.748396    -0.403739
C       -3.800372     1.701064     0.749922
C       -2.441639     1.400748     0.256109
N       -1.878394     0.310956     0.718009
O       -2.402897    -0.508841     1.546566
B       -1.683593    -1.736796     1.825032
C       -2.568058    -2.654596     2.808443
C       -2.163860    -3.956579     3.063164
C       -2.918737    -4.750927     3.904569
Br      -2.369765    -6.545544     4.257151
C       -4.071689    -4.238868     4.488241
C       -4.488725    -2.940245     4.245519
Br      -6.086452    -2.243165     5.061056
C       -3.732493    -2.150599     3.402729
O       -0.404624    -1.444512     2.470271
N        0.393665    -0.623799     1.895824
C        1.492111    -0.115473     2.379664
C        1.842706    -0.515248     3.742851
C        3.165150    -1.228990     3.823719
C        2.215575     0.750262     1.556289
C        3.465454     1.429867     1.889190
C        3.365490     2.346471     3.072993
N        1.740541     0.993144     0.351720
O        2.267221     1.757012    -0.514223
B        1.679572     1.730811    -1.839462
C        2.577850     2.614083    -2.848049
C        2.323616     2.549042    -4.201748
C        3.062129     3.272906    -5.115259
Br       2.685449     3.150050    -6.982647
C        4.085976     4.094918    -4.662394
C        4.352223     4.175418    -3.295015
Br       5.744396     5.288806    -2.619365
C        3.595673     3.434628    -2.393087
O        0.319354     2.267061    -1.771943
N       -0.518524     1.722270    -0.953827
C       -1.703309     2.161137    -0.650026
C       -2.128049     3.406869    -1.295729
C       -2.399593     4.442613    -0.232005
Fe       0.000000     0.000000     0.000000
N       -0.651965    -1.908410    -0.282436
C       -0.157557    -2.479517    -1.352775
C       -0.558222    -3.875588    -1.620547
C       -1.252213    -3.979329    -2.957539
C        0.698596    -1.708953    -2.131745
C        1.357942    -2.130745    -3.383284
C        2.263768    -3.321391    -3.167944
N        0.954124    -0.488097    -1.728231
O        1.696507     0.352644    -2.324048
O       -1.458114    -2.442645     0.567467
H       -5.715965     1.204886    -0.119858
H       -4.315966     1.309678    -1.297057
H       -5.073993     2.790457    -0.649601
H       -4.148397     0.923799     1.492149
H       -3.868954     2.682383     1.268098
H       -1.272977    -4.387115     2.624066
H       -4.626595    -4.882742     5.132105
H       -4.024115    -1.129295     3.189224
H        1.076450    -1.149568     4.240906
H        1.883155     0.408453     4.355567
H        3.943505    -0.521645     4.145268
H        3.442556    -1.664175     2.847940
H        3.108265    -2.081003     4.536452
H        4.243912     0.674395     2.064952
H        3.801141     2.025122     1.006547
H        2.349528     2.763345     3.210706
H        4.045866     3.204974     2.897257
H        3.755599     1.862636     4.001111
H        1.539163     1.917384    -4.562877
H        4.683587     4.674997    -5.335656
H        3.795510     3.494752    -1.342321
H       -3.070157     3.278864    -1.870285
H       -1.400529     3.793404    -2.057402
H       -1.909434     5.405200    -0.507756
H       -3.503231     4.612221    -0.106578
H       -1.997385     4.088062     0.740097
H        0.336966    -4.525631    -1.630881
H       -1.288589    -4.201080    -0.839779
H       -0.570014    -4.464190    -3.696542
H       -2.163872    -4.580628    -2.873168
H       -1.573243    -2.985176    -3.343718
H        1.976907    -1.347082    -3.857367
H        0.619481    -2.429366    -4.151824
H        3.254043    -3.194785    -3.649870
H        2.467995    -3.511063    -2.087315
H        1.836207    -4.250195    -3.592770
85
ex_0135 frame18 all-trans-Λ
C        1.748396     4.787111    -0.403739
C        1.701064     3.800372     0.749922
C        1.400757     2.441633     0.256122
N        0.310956     1.878394     0.718009
O       -0.508841     2.402897     1.546566
B       -1.736796     1.683593     1.825032
C       -2.654596     2.568058     2.808443
C       -3.956579     2.163860     3.063164
C       -4.750927     2.918737     3.904569
Br      -6.545544     2.369765     4.257151
C       -4.238868     4.071689     4.488241
C       -2.940245     4.488725     4.245519
Br      -2.243165     6.086452     5.061056
C       -2.150599     3.732493     3.402729
O       -1.444512     0.404624     2.470271
N       -0.623799    -0.393665     1.895824
C       -0.115371    -1.492043     2.379712
C       -0.515248    -1.842706     3.742851
C       -1.228990    -3.165150     3.823719
C        0.750298    -2.215551     1.556306
C        1.429867    -3.465454     1.889190
C        2.346471    -3.365490     3.072993
N        0.993144    -1.740541     0.351720
O        1.757012    -2.267221    -0.514223
B        1.730811    -1.679572    -1.839462
C        2.614083    -2.577850    -2.848049
C        2.549042    -2.323616    -4.201748
C        3.272906    -3.062129    -5.115259
Br       3.150050    -2.685449    -6.982647
C        4.094918    -4.085976    -4.662394
C        4.175418    -4.352223    -3.295015
Br       5.288806    -5.744396    -2.619365
C        3.434628    -3.595673    -2.393087
O        2.267061    -0.319354    -1.771943
N        1.722270     0.518524    -0.953827
C        2.161140     1.703307    -0.650022
C        3.406869     2.128049    -1.295729
C        4.442613     2.399593    -0.232005
Fe       0.000000     0.000000     0.000000
N       -1.908410     0.651965    -0.282436
C       -2.479509     0.157576    -1.352788
C       -3.875588     0.558222    -1.620547
C       -3.979329     1.252213    -2.957539
C       -1.708950    -0.698590    -2.131749
C       -2.130745    -1.357942    -3.383284
C       -3.321391    -2.263768    -3.167944
N       -0.488097    -0.954124    -1.728231
O        0.352644    -1.696507    -2.324048
O       -2.442645     1.458114     0.567467
H        1.204886     5.715965    -0.119858
H        1.309678     4.315966    -1.297057
H        2.790457     5.073993    -0.649601
H        0.923799     4.148397     1.492149
H        2.682383     3.868954     1.268098
H       -4.387115     1.272977     2.624066
H       -4.882742     4.626595     5.132105
H       -1.129295     4.024115     3.189224
H       -1.149568    -1.076450     4.240906
H        0.408453    -1.883155     4.355567
H       -0.521645    -3.943505     4.145268
H       -1.664175    -3.442556     2.847940
H       -2.081003    -3.108265     4.536452
H        0.674395    -4.243912     2.064952
H        2.025122    -3.801141     1.006547
H        2.763345    -2.349528     3.210706
H        3.204974    -4.045866     2.897257
H        1.862636    -3.755599     4.001111
H        1.917384    -1.539163    -4.562877
H        4.674997    -4.683587    -5.335656
H        3.494752    -3.795510    -1.342321
H        3.278864     3.070157    -1.870285
H        3.793404     1.400529    -2.057402
H        5.405200     1.909434    -0.507756
H        4.612221     3.503231    -0.106578
H        4.088062     1.997385     0.740097
H       -4.525631    -0.336966    -1.630881
H       -4.201080     1.288589    -0.839779
H       -4.464190     0.570014    -3.696542
H       -4.580628     2.163872    -2.873168
H       -2.985176     1.573243    -3.343718
H       -1.347082    -1.976907    -3.857367
H       -2.429366    -0.619481    -4.151824
H       -3.194785    -3.254043    -3.649870
H       -3.511063    -2.467995    -2.087315
H       -4.250195    -1.836207    -3.592770
85
ex_0135 frame19 all-trans-Δ-conf8
C       -0.408489    -2.655064    -4.340580
C        0.116742    -1.277974    -4.027287
C        0.322562    -1.125037    -2.590241
N       -0.372139    -0.209567    -1.988615
O       -1.271823     0.534491    -2.548855
B       -1.868025     1.605756    -1.783983
C       -2.849577     2.409249    -2.783176
C       -3.400554     1.771023    -3.900446
C       -4.243953     2.454497    -4.768627
Br      -5.012010     1.621982    -6.299429
C       -4.529814     3.772526    -4.510208
C       -3.989094     4.412127    -3.404636
Br      -4.386914     6.235105    -3.052588
C       -3.150714     3.732203    -2.539876
O       -2.609196     1.093775    -0.652141
N       -1.980105     0.383930     0.225385
C       -2.501466    -0.154462     1.270588
C       -3.906633     0.183461     1.425686
C       -4.253366     0.972402     2.644104
C       -1.663329    -0.955672     2.066301
C       -1.954281    -1.672797     3.300677
C       -2.267051    -0.860015     4.519227
N       -0.441600    -1.090558     1.658281
O        0.479569    -1.793827     2.221331
B        1.841819    -1.651601     1.743560
C        2.749594    -2.610256     2.686632
C        2.129532    -3.720507     3.239527
C        2.818008    -4.599672     4.058968
Br       1.930448    -6.130064     4.810705
C        4.154452    -4.375165     4.338829
C        4.798307    -3.272336     3.798111
Br       6.631979    -2.991625     4.200591
C        4.093920    -2.384838     2.967529
O        1.921099    -2.137950     0.379494
N        1.196937    -1.559055    -0.525332
C        1.190481    -1.861617    -1.787167
C        2.087025    -2.937089    -2.240204
C        3.053145    -2.372735    -3.272482
Fe       0.000000     0.000000     0.000000
N        0.011422     1.974497    -0.463254
C        0.940543     2.591371     0.165709
C        1.007044     4.019391    -0.087838
C        2.314701     4.366555    -0.754292
C        1.784800     1.855923     1.017266
C        2.861627     2.436561     1.783846
C        3.695973     1.523771     2.646826
N        1.587414     0.584396     1.121907
O        2.234424    -0.271010     1.824801
O       -0.825114     2.489399    -1.291086
H        0.385685    -3.282119    -4.797738
H       -0.765290    -3.177171    -3.429367
H       -1.264815    -2.607319    -5.056755
H        1.032691    -1.106863    -4.630842
H       -0.620005    -0.527500    -4.379797
H       -3.166108     0.740659    -4.084201
H       -5.179063     4.375128    -5.140062
H       -2.732896     4.240228    -1.681253
H       -4.464423    -0.759819     1.337810
H       -4.226405     0.798010     0.528614
H       -4.794375     0.336246     3.354406
H       -3.367038     1.409762     3.112497
H       -4.954958     1.795677     2.366257
H       -1.054295    -2.299132     3.572776
H       -2.751805    -2.398440     3.106862
H       -3.339716    -0.828420     4.776424
H       -1.765417    -1.304994     5.428081
H       -1.856073     0.174367     4.445929
H        1.093455    -3.914454     3.035802
H        4.647087    -5.088990     4.982707
H        4.580329    -1.543631     2.553566
H        1.455226    -3.731529    -2.699433
H        2.678970    -3.414731    -1.424618
H        3.033442    -1.262029    -3.309326
H        2.802794    -2.822346    -4.260941
H        4.091388    -2.652235    -3.009232
H        0.998090     4.535521     0.888128
H        0.130499     4.422637    -0.646008
H        2.113208     4.990596    -1.654631
H        2.891587     3.475687    -1.093115
H        2.974347     4.967551    -0.112913
H        3.554951     3.028600     1.157876
H        2.396418     3.174864     2.473223
H        4.500371     2.104757     3.155854
H        3.151358     1.014160     3.454371
H        4.247410     0.769434     2.043064
85
ex_0135 frame20 all-trans-Λ-conf5
C       -1.002973     4.286196    -2.462950
C       -0.261339     3.970785    -1.196114
C        0.015363     2.549230    -1.119411
N       -0.537701     1.954395    -0.124219
O       -1.295108     2.488619     0.762463
B       -1.717941     1.662706     1.864431
C       -2.650066     2.524967     2.873123
C       -3.190836     1.906053     3.975158
C       -3.998333     2.600928     4.862279
Br      -4.743277     1.724126     6.384449
C       -4.266899     3.940905     4.643185
C       -3.730701     4.581093     3.543531
Br      -4.107169     6.432111     3.248985
C       -2.919846     3.873948     2.657332
O       -0.570867     1.134537     2.584430
N        0.321261     0.465688     1.949488
C        1.439475     0.030750     2.362887
C        1.775483     0.365142     3.746960
C        1.958771    -0.825542     4.641062
C        2.227602    -0.712967     1.471884
C        3.515471    -1.278522     1.827294
C        4.283523    -2.048031     0.775573
N        1.792168    -0.909744     0.270047
O        2.383335    -1.582215    -0.639582
B        1.693422    -1.703716    -1.892471
C        2.559026    -2.601943    -2.916649
C        1.938586    -3.540581    -3.710299
C        2.666233    -4.326471    -4.597095
Br       1.733218    -5.603866    -5.661445
C        4.042747    -4.167293    -4.689061
C        4.675026    -3.215259    -3.886370
Br       6.567683    -2.981987    -3.998308
C        3.927959    -2.440329    -3.008922
O        1.587524    -0.360192    -2.402515
N        0.948404     0.522400    -1.719679
C        0.806221     1.773982    -2.000186
C        1.472960     2.278213    -3.199583
C        2.305122     1.308825    -4.011877
Fe       0.000000     0.000000     0.000000
N       -1.939250    -0.278094     0.552014
C       -2.489259    -1.370722     0.110154
C       -3.868703    -1.614640     0.530185
C       -4.763510    -1.746209    -0.676834
C       -1.685999    -2.170267    -0.711821
C       -2.038334    -3.418778    -1.369296
C       -2.438389    -4.560673    -0.492652
N       -0.483820    -1.750551    -0.913095
O        0.406323    -2.340297    -1.652480
O       -2.519549     0.580978     1.328831
H       -1.849587     4.985357    -2.245009
H       -0.311219     4.770972    -3.190796
H       -1.413153     3.340666    -2.874128
H        0.671800     4.546859    -1.086611
H       -0.935530     4.250807    -0.337433
H       -3.015183     0.858823     4.195849
H       -4.897338     4.526035     5.315525
H       -2.493389     4.358802     1.793771
H        0.967398     0.982086     4.199297
H        2.709389     0.957107     3.735892
H        3.031881    -0.972339     4.817843
H        1.510257    -0.650582     5.651554
H        1.483783    -1.748653     4.239679
H        4.200135    -0.483369     2.215815
H        3.420866    -1.997712     2.686327
H        3.775614    -2.975980     0.432980
H        4.544639    -1.358361    -0.047152
H        5.249781    -2.294869     1.264989
H        0.868409    -3.655516    -3.632669
H        4.585543    -4.782320    -5.377121
H        4.449553    -1.727795    -2.413872
H        0.682279     2.708271    -3.839495
H        2.100552     3.135941    -2.858074
H        1.707398     0.503551    -4.476769
H        3.149551     0.954089    -3.384908
H        2.793067     1.934714    -4.801514
H       -4.004627    -2.422557     1.276812
H       -4.233348    -0.679557     1.047485
H       -5.770428    -1.365867    -0.403406
H       -4.364548    -1.157646    -1.512010
H       -4.928243    -2.811495    -0.949504
H       -1.160524    -3.781214    -1.965548
H       -2.863498    -3.219635    -2.067303
H       -2.757392    -5.371403    -1.199876
H       -3.312718    -4.387162     0.149121
H       -1.575721    -5.012253     0.053329
85
ex_0135 frame21 all-trans-Λ-conf6
C        1.380835     3.181862     3.335498
C        2.360298     2.258193     2.649262
C        1.862848     1.321903     1.649459
N        0.595914     1.355547     1.389407
O       -0.262904     2.186471     1.888182
B       -1.661783     2.022075     1.568270
C       -2.535869     3.105901     2.410644
C       -3.236680     2.716224     3.555519
C       -3.982910     3.634337     4.276073
Br      -4.947459     3.125411     5.845018
C       -4.028588     4.949787     3.846684
C       -3.337302     5.340213     2.714645
Br      -3.431428     7.166797     2.159066
C       -2.590052     4.417534     1.998671
O       -2.068953     0.693723     1.957376
N       -1.501400    -0.269078     1.330151
C       -1.795421    -1.523069     1.465860
C       -2.886404    -1.806102     2.408252
C       -2.425137    -2.668192     3.554899
C       -1.063181    -2.462432     0.720484
C       -1.228871    -3.920845     0.721513
C       -2.613355    -4.322218     0.278863
N       -0.139204    -2.022344    -0.057005
O        0.645373    -2.682194    -0.823332
B        1.679050    -1.981490    -1.566548
C        2.541181    -3.033633    -2.433298
C        2.532033    -2.913203    -3.819691
C        3.251764    -3.772837    -4.633803
Br       3.211276    -3.564255    -6.534701
C        3.993534    -4.776237    -4.045922
C        3.998598    -4.897373    -2.656067
Br       5.018448    -6.274803    -1.869269
C        3.273781    -4.031414    -1.845095
O        2.555449    -1.242895    -0.684995
N        2.004082    -0.340663     0.059228
C        2.632394     0.387674     0.942692
C        4.068428     0.142766     1.091505
C        4.904481     1.355055     0.820911
Fe       0.000000     0.000000     0.000000
N       -1.285365     1.421521    -0.676049
C       -1.327303     1.478423    -1.982689
C       -2.218415     2.432862    -2.612997
C       -3.105454     3.268729    -1.722224
C       -0.499864     0.605896    -2.688207
C       -0.412799     0.468883    -4.151120
C        0.056813     1.762327    -4.757682
N        0.282553    -0.175148    -2.003376
O        1.106719    -1.025998    -2.496978
O       -1.913043     2.181590     0.151532
H        0.641992     2.625214     3.946896
H        0.939999     3.954777     2.672621
H        1.988688     3.751963     4.068456
H        2.860208     1.687094     3.458954
H        3.136439     2.873745     2.165944
H       -3.204625     1.708862     3.893166
H       -4.602751     5.702037     4.382048
H       -2.072542     4.778210     1.121775
H       -3.348292    -0.896913     2.845764
H       -3.702395    -2.318922     1.868880
H       -1.319165    -2.762471     3.570838
H       -2.861679    -3.675837     3.458475
H       -2.714387    -2.245585     4.531253
H       -0.491584    -4.440632     0.051017
H       -1.001383    -4.316896     1.729714
H       -3.237828    -4.567071     1.171063
H       -2.546178    -5.195709    -0.391623
H       -3.109224    -3.516743    -0.322964
H        1.950426    -2.126951    -4.278763
H        4.575758    -5.476766    -4.641147
H        3.308133    -4.163420    -0.771409
H        4.413819    -0.676492     0.412414
H        4.275147    -0.231982     2.109296
H        5.234619     1.776064     1.794698
H        4.375440     2.139296     0.243417
H        5.792537     1.065263     0.238130
H       -2.907296     1.926472    -3.325471
H       -1.551986     3.121586    -3.191906
H       -3.815379     3.849553    -2.360962
H       -3.734914     2.595194    -1.127168
H       -2.463823     3.953811    -1.134404
H       -1.380938     0.138364    -4.590646
H        0.307316    -0.363155    -4.395881
H        0.574515     2.414070    -4.004741
H       -0.771757     2.270174    -5.269976
H        0.793379     1.498398    -5.559293
85
ex_0135 frame22 trans-OH N0+N0|N0+N0|N0+N0
C        0.092390     4.638761     2.147022
C       -1.017726     3.625518     1.928399
C       -0.452784     2.311135     1.562810
N       -0.805624     1.825923     0.396912
O       -1.587155     2.389637    -0.442244
B       -1.741890     1.764715    -1.741529
C       -2.681169     2.691545    -2.663837
C       -2.817867     2.387311    -4.010009
C       -3.620696     3.179162    -4.808272
Br      -3.810877     2.767900    -6.663274
C       -4.283963     4.268878    -4.256210
C       -4.159424     4.585826    -2.913340
Br      -5.084248     6.096738    -2.161292
C       -3.354793     3.793045    -2.119742
O       -2.361422     0.447135    -1.604077
N       -1.824871    -0.403214    -0.803430
C       -2.308072    -1.547954    -0.425560
C       -3.621955    -1.904329    -0.961703
C       -3.598759    -3.166135    -1.781560
C       -1.530815    -2.313619     0.445520
C       -1.870088    -3.624600     0.993980
C       -3.125240    -3.634556     1.816220
N       -0.369705    -1.823207     0.824307
O        0.455332    -2.386512     1.608885
B        1.756656    -1.759838     1.737142
C        2.724168    -2.696837     2.626043
C        4.068774    -2.398294     2.691610
C        4.948400    -3.165980     3.427003
Br       6.804906    -2.725581     3.486583
C        4.469311    -4.266255     4.126234
C        3.110300    -4.578422     4.073959
Br       2.399562    -6.075933     5.015554
C        2.242897    -3.791051     3.324115
O        1.598494    -0.450891     2.371870
N        0.796769     0.398945     1.830646
C        0.415975     1.539467     2.334482
C        0.946017     1.881084     3.658004
C       -0.205037     2.035864     4.621893
Fe       0.000000     0.000000     0.000000
N        0.408924     0.814344    -1.821133
C        1.537702     0.399343    -2.340685
C        1.899612     0.919380    -3.674803
C        3.214806     1.658695    -3.614401
C        2.283915    -0.493237    -1.578929
C        3.587213    -1.079545    -1.948647
C        3.499028    -1.891423    -3.220479
N        1.795358    -0.858507    -0.417651
O        2.348639    -1.650267     0.406052
O       -0.425409     1.634690    -2.358302
H       -0.181021     5.599979     1.657057
H        1.033848     4.231466     1.746724
H        0.244945     4.847013     3.224981
H       -1.708467     4.013582     1.123126
H       -1.613713     3.598675     2.866619
H       -2.314475     1.547777    -4.472197
H       -4.894654     4.855095    -4.904641
H       -3.233011     4.006757    -1.064666
H       -4.095738    -1.104056    -1.572106
H       -4.303669    -2.037920    -0.096974
H       -3.946819    -4.008629    -1.166234
H       -2.582394    -3.378271    -2.156377
H       -4.243761    -3.061164    -2.681617
H       -1.957704    -4.343834     0.167762
H       -1.025578    -3.981405     1.630812
H       -3.331795    -2.660399     2.299217
H       -2.993308    -4.377058     2.629918
H       -3.997736    -4.011220     1.229238
H        4.450084    -1.554718     2.155187
H        5.115852    -4.888953     4.710310
H        1.198526    -4.026056     3.282595
H        1.494638     2.846990     3.651777
H        1.700557     1.147280     4.046745
H        0.011497     1.477344     5.562128
H       -0.383033     3.117848     4.867122
H       -1.131100     1.635319     4.158832
H        1.993294     0.080778    -4.390322
H        1.121153     1.650458    -4.004220
H        4.013748     1.040339    -4.089725
H        3.145323     2.613379    -4.146901
H        3.509693     1.909012    -2.569932
H        4.020062    -1.745962    -1.180168
H        4.349837    -0.296856    -2.124622
H        4.004784    -2.874051    -3.133454
H        2.444740    -2.111347    -3.512963
H        3.980035    -1.377327    -4.075057
85
ex_0135 frame23 trans-OH N0+N0|N0+N0|N0+N0
C        2.356395     0.327720    -4.525078
C        2.084678     1.342334    -3.428096
C        1.664149     0.662491    -2.186652
N        0.475468     0.971452    -1.723742
O       -0.343500     1.793350    -2.256662
B       -1.670765     1.888224    -1.680473
C       -2.556153     2.904266    -2.561253
C       -3.915672     3.009942    -2.308190
C       -4.682321     3.878304    -3.061123
Br      -6.555324     4.026406    -2.720149
C       -4.085657     4.637678    -4.060928
C       -2.728974     4.545209    -4.325665
Br      -1.915010     5.603211    -5.712062
C       -1.966913     3.674960    -3.572222
O       -1.598513     2.388855    -0.309147
N       -0.832328     1.784195     0.512514
C       -0.510537     2.159826     1.724751
C       -1.071006     3.435034     2.173531
C       -1.947371     3.297080     3.389164
C        0.325912     1.315750     2.460475
C        0.815707     1.541312     3.818700
C        1.628446     2.792543     3.978169
N        0.728388     0.191475     1.889258
O        1.502413    -0.663482     2.408102
B        1.666615    -1.902420     1.674101
C        2.518418    -2.947747     2.560947
C        2.606352    -4.260099     2.147070
C        3.311841    -5.202959     2.866294
Br       3.403564    -7.012534     2.265357
C        3.957122    -4.822332     4.035825
C        3.881774    -3.496761     4.465154
Br       4.749582    -2.920370     6.061672
C        3.162840    -2.564349     3.724633
O        2.358739    -1.626256     0.413694
N        1.850956    -0.750612    -0.394755
C        2.404555    -0.270907    -1.463156
C        3.745995    -0.765150    -1.788015
C        4.708312     0.397543    -1.795175
Fe       0.000000     0.000000     0.000000
N       -1.778708    -0.337587    -0.932249
C       -2.310198    -1.501250    -0.641323
C       -3.616650    -1.819046    -1.252760
C       -3.514000    -3.062729    -2.102777
C       -1.585908    -2.321399     0.217521
C       -1.972249    -3.674214     0.664863
C       -3.280180    -3.661965     1.422214
N       -0.444408    -1.862278     0.685144
O        0.346398    -2.486204     1.451688
O       -2.284235     0.563881    -1.697422
H        1.908900     0.684686    -5.479570
H        1.944172    -0.647367    -4.222132
H        3.443706     0.197040    -4.696390
H        1.293339     2.062969    -3.789531
H        3.016716     1.935852    -3.305130
H       -4.412240     2.432405    -1.538965
H       -4.710697     5.296667    -4.619511
H       -0.902479     3.575398    -3.747288
H       -1.647559     3.976819     1.391386
H       -0.217849     4.104142     2.406792
H       -1.373290     3.570013     4.286691
H       -2.324758     2.264912     3.492438
H       -2.845909     3.946667     3.300902
H       -0.042894     1.562230     4.504145
H        1.441208     0.669840     4.127627
H        2.153878     3.086482     3.049493
H        2.408339     2.596813     4.742520
H        1.019193     3.626430     4.403738
H        2.111387    -4.565838     1.249166
H        4.516488    -5.520488     4.624553
H        3.103825    -1.545270     4.049630
H        3.787251    -1.225268    -2.798235
H        4.105830    -1.581231    -1.107314
H        5.623537     0.134309    -1.215623
H        5.001309     0.672094    -2.844585
H        4.221434     1.282982    -1.335361
H       -4.368929    -1.988962    -0.459561
H       -3.917548    -0.979145    -1.925865
H       -4.011712    -3.914874    -1.580569
H       -4.002981    -2.909536    -3.070909
H       -2.457323    -3.331464    -2.330180
H       -1.231963    -4.162873     1.324692
H       -2.107301    -4.364212    -0.189863
H       -3.234603    -4.253285     2.358792
H       -3.589253    -2.632286     1.721564
H       -4.107283    -4.097246     0.828591
85
ex_0135 frame24 all-trans-conf8
C       -0.408479     2.655051     4.340571
C        0.116747     1.277949     4.027263
C        0.322135     1.124914     2.590124
N       -0.374348     0.205743     1.988193
O       -1.272333    -0.534418     2.548821
B       -1.868081    -1.605780     1.784017
C       -2.849595    -2.409264     2.783185
C       -3.400552    -1.771024     3.900444
C       -4.243953    -2.454490     4.768630
Br      -5.012011    -1.621985     6.299430
C       -4.529806    -3.772507     4.510206
C       -3.989095    -4.412121     3.404642
Br      -4.386912    -6.235103     3.052587
C       -3.150713    -3.732200     2.539879
O       -2.609507    -1.093829     0.652883
N       -1.979953    -0.390209    -0.218742
C       -2.501220     0.153924    -1.270031
C       -3.906638    -0.183458    -1.425704
C       -4.253356    -0.972392    -2.644098
C       -1.662939     0.956515    -2.065713
C       -1.954265     1.672777    -3.300666
C       -2.267055     0.860030    -4.519206
N       -0.434980     1.095278    -1.656416
O        0.480071     1.794074    -2.221521
B        1.841817     1.651638    -1.743563
C        2.749608     2.610270    -2.686639
C        2.129541     3.720498    -3.239523
C        2.818008     4.599667    -4.058964
Br       1.930449     6.130067    -4.810707
C        4.154459     4.375158    -4.338826
C        4.798302     3.272335    -3.798109
Br       6.631978     2.991629    -4.200593
C        4.093926     2.384835    -2.967530
O        1.921019     2.138070    -0.379687
N        1.193680     1.562367     0.522077
C        1.189222     1.862787     1.786642
C        2.087035     2.937066     2.240169
C        3.053141     2.372726     3.272478
Fe       0.000000     0.000000     0.000000
N        0.009685    -1.975203     0.463183
C        0.940067    -2.591439    -0.166085
C        1.007015    -4.019369     0.087869
C        2.314694    -4.366546     0.754271
C        1.784458    -1.856269    -1.017601
C        2.861617    -2.436473    -1.783834
C        3.695936    -1.523762    -2.646813
N        1.585897    -0.589263    -1.120905
O        2.234425     0.270761    -1.824316
O       -0.824955    -2.489314     1.291368
H        0.385683     3.282118     4.797741
H       -0.765281     3.177171     3.429365
H       -1.264821     2.607320     5.056754
H        1.032692     1.106867     4.630844
H       -0.620003     0.527495     4.379785
H       -3.166106    -0.740662     4.084196
H       -5.179064    -4.375135     5.140058
H       -2.732896    -4.240227     1.681253
H       -4.464412     0.759822    -1.337801
H       -4.226360    -0.798016    -0.528582
H       -4.794377    -0.336251    -3.354399
H       -3.367043    -1.409754    -3.112496
H       -4.954957    -1.795680    -2.366255
H       -1.054274     2.299128    -3.572754
H       -2.751808     2.398432    -3.106853
H       -3.339712     0.828422    -4.776432
H       -1.765410     1.304992    -5.428088
H       -1.856075    -0.174370    -4.445929
H        1.093459     3.914449    -3.035801
H        4.647079     5.088994    -4.982707
H        4.580318     1.543643    -2.553571
H        1.455220     3.731525     2.699441
H        2.678967     3.414735     1.424618
H        3.033439     1.262031     3.309325
H        2.802792     2.822352     4.260939
H        4.091386     2.652231     3.009230
H        0.998096    -4.535519    -0.888126
H        0.130494    -4.422632     0.646003
H        2.113208    -4.990596     1.654632
H        2.891589    -3.475686     1.093112
H        2.974346    -4.967550     0.112919
H        3.554949    -3.028606    -1.157881
H        2.396419    -3.174864    -2.473223
H        4.500374    -2.104755    -3.155855
H        3.151364    -1.014158    -3.454366
H        4.247408    -0.769428    -2.043067
85
ex_0135 frame25 trans-OH N0+N0|N0+N0|N0+N0
C        3.024756    -3.770814     1.663796
C        1.797877    -3.751864     0.768814
C        1.499216    -2.372535     0.333984
N        0.327450    -1.888724     0.682771
O       -0.565564    -2.507028     1.350474
B       -1.736812    -1.755024     1.755916
C       -2.670696    -2.690517     2.675241
C       -3.755068    -2.126924     3.331026
C       -4.559841    -2.922893     4.123162
Br      -6.052564    -2.152760     5.031452
C       -4.277820    -4.277786     4.253561
C       -3.199613    -4.856831     3.604354
Br      -2.820873    -6.734361     3.792345
C       -2.396936    -4.057531     2.815289
O       -2.499968    -1.325626     0.584034
N       -1.891953    -0.665737    -0.341132
C       -2.346578    -0.344411    -1.510479
C       -3.702268    -0.795996    -1.824911
C       -4.648723     0.340575    -2.103071
C       -1.502385     0.393209    -2.341680
C       -1.802051     0.864458    -3.691742
C       -2.103853    -0.233902    -4.668546
N       -0.307313     0.708344    -1.882258
O        0.578705     1.366092    -2.508531
B        1.745452     1.763052    -1.744870
C        2.672838     2.735220    -2.639047
C        3.718599     3.402275    -2.036663
C        4.541358     4.253861    -2.745101
Br       5.974066     5.166294    -1.873946
C        4.317060     4.442036    -4.102803
C        3.265905     3.770119    -4.727906
Br       2.914622     3.990831    -6.588570
C        2.448314     2.918256    -3.992721
O        2.495061     0.567998    -1.356376
N        1.878999    -0.350416    -0.701491
C        2.336607    -1.538323    -0.407292
C        3.682675    -1.859641    -0.891706
C        3.599170    -3.046908    -1.819702
Fe       0.000000     0.000000     0.000000
N       -0.658406     0.323953     1.899770
C       -0.383310     1.530053     2.347973
C       -0.852035     1.867291     3.707544
C        0.316928     2.220611     4.595514
C        0.324041     2.369797     1.493239
C        0.760413     3.748900     1.788704
C       -0.410724     4.660576     2.074301
N        0.642536     1.904989     0.302958
O        1.298828     2.526556    -0.582745
O       -1.305025    -0.591574     2.523373
H        2.835984    -4.433316     2.537973
H        3.256750    -2.740826     1.976566
H        3.910225    -4.169897     1.129635
H        0.929500    -4.200157     1.335601
H        2.009776    -4.441481    -0.077030
H       -4.001856    -1.075830     3.252775
H       -4.922609    -4.858670     4.873055
H       -1.545544    -4.473026     2.289879
H       -4.158807    -1.442670    -1.043297
H       -3.631897    -1.446123    -2.720703
H       -4.754901     0.470386    -3.190035
H       -4.284714     1.280538    -1.653148
H       -5.643084     0.144153    -1.645056
H       -2.646853     1.565462    -3.643252
H       -0.931571     1.449829    -4.073496
H       -1.599131    -1.185966    -4.416020
H       -1.723075     0.080023    -5.662128
H       -3.203695    -0.362008    -4.815376
H        3.899707     3.267368    -0.990875
H        4.931261     5.092642    -4.691344
H        1.641288     2.399090    -4.468968
H        4.367834    -2.143008    -0.064651
H        4.203046    -0.997604    -1.386874
H        4.181676    -2.842837    -2.748057
H        4.001406    -3.973014    -1.326767
H        2.537451    -3.235818    -2.083410
H       -1.541569     2.731260     3.663127
H       -1.350232     0.971483     4.153072
H        0.333374     3.323062     4.771201
H        0.234743     1.711575     5.561947
H        1.289759     1.898579     4.159180
H        1.338692     4.225793     0.976012
H        1.416192     3.786564     2.679451
H       -0.339743     5.625775     1.533701
H       -1.385540     4.208560     1.773059
H       -0.482701     4.919103     3.148517
85
ex_0135 frame26 trans-OH N0+N0|N0+N0|N0+N0
C       -3.770803     1.663793     3.024758
C       -3.751766     0.768863     1.797754
C       -2.373994     0.330466     1.497824
N       -1.893307     0.670599     0.326095
O       -2.506541     1.350237    -0.565088
B       -1.755184     1.756019    -1.736997
C       -2.690584     2.675269    -2.670741
C       -2.126926     3.331015    -3.755035
C       -2.922908     4.123166    -4.559835
Br      -2.152753     5.031447    -6.052559
C       -4.277759     4.253517    -4.277769
C       -4.856883     3.604352    -3.199599
Br      -6.734377     3.792343    -2.820866
C       -4.057533     2.815318    -2.396990
O       -1.326618     0.584620    -2.499914
N       -0.672111    -0.334586    -1.890652
C       -0.346166    -1.509898    -2.345933
C       -0.795909    -1.824823    -3.702222
C        0.340551    -2.103082    -4.648708
C        0.392285    -2.341991    -1.501584
C        0.864441    -3.691690    -1.801969
C       -0.233883    -4.668494    -2.103847
N        0.706568    -1.882987    -0.306634
O        1.366126    -2.508216     0.578612
B        1.763136    -1.744925     1.745640
C        2.735207    -2.639074     2.672837
C        3.402284    -2.036726     3.718563
C        4.253847    -2.745073     4.541340
Br       5.166297    -1.873954     5.974068
C        4.442034    -4.102770     4.317068
C        3.770134    -4.727880     3.265935
Br       3.990811    -6.588565     2.914599
C        2.918266    -3.992714     2.448338
O        0.567501    -1.356255     2.494472
N       -0.352311    -0.695885     1.880636
C       -1.538500    -0.407063     2.336702
C       -1.859475    -0.891722     3.682598
C       -3.046886    -1.819675     3.599154
Fe       0.000000     0.000000     0.000000
N        0.336151     1.896890    -0.659996
C        1.531621     2.347413    -0.384504
C        1.867153     3.707495    -0.852115
C        2.220586     4.595506     0.316898
C        2.369468     1.494440     0.324843
C        3.748813     1.788506     0.760469
C        4.660555     2.074300    -0.410662
N        1.903434     0.311464     0.644826
O        2.525828    -0.581940     1.298102
O       -0.590734     2.522670    -1.303678
H       -4.433316     2.537977     2.835976
H       -2.740829     1.976526     3.256741
H       -4.169905     1.129643     3.910222
H       -4.200164     1.335599     0.929465
H       -4.441483    -0.077028     2.009817
H       -1.075834     3.252785    -4.001867
H       -4.858644     4.873046    -4.922605
H       -4.473007     2.289867    -1.545535
H       -1.442680    -1.043316    -4.158811
H       -1.446111    -2.720718    -3.631876
H        0.470371    -3.190023    -4.754902
H        1.280531    -1.653161    -4.284709
H        0.144164    -1.645037    -5.643080
H        1.565450    -3.643237    -2.646850
H        1.449835    -4.073465    -0.931547
H       -1.185964    -4.416017    -1.599143
H        0.080020    -5.662123    -1.723062
H       -0.361993    -4.815399    -3.203705
H        3.267369    -0.990895     3.899700
H        5.092630    -4.691346     4.931246
H        2.399091    -4.468950     1.641297
H       -2.143034    -0.064653     4.367840
H       -0.997587    -1.386858     4.203064
H       -2.842830    -2.748066     4.181673
H       -3.973028    -1.326761     4.001416
H       -3.235805    -2.083374     2.537445
H        2.731278     3.663122    -1.541542
H        0.971456     4.153060    -1.350230
H        3.323071     4.771206     0.333363
H        1.711572     5.561923     0.234757
H        1.898587     4.159169     1.289760
H        4.225796     0.976022     1.338695
H        3.786574     2.679469     1.416170
H        5.625773     1.533699    -0.339761
H        4.208555     1.773069    -1.385549
H        4.919116     3.148509    -0.482701
85
ex_0135 frame27 trans-OH N0+N0|N0+N0|N0+N0
C        0.327716    -4.525081     2.356405
C        1.342276    -3.428100     2.084767
C        0.661143    -2.187727     1.662264
N        0.966793    -1.729358     0.464650
O        1.794122    -2.256985    -0.344227
B        1.888192    -1.680473    -1.670804
C        2.904250    -2.561248    -2.556152
C        3.009944    -2.308186    -3.915677
C        3.878310    -3.061126    -4.682326
Br       4.026404    -2.720147    -6.555323
C        4.637677    -4.060927    -4.085658
C        4.545224    -4.325688    -2.728953
Br       5.603209    -5.712059    -1.915013
C        3.674956    -3.572218    -1.966914
O        2.388491    -0.308532    -1.598131
N        1.778546     0.522800    -0.837663
C        2.159559     1.725759    -0.510723
C        3.435006     2.173536    -1.071058
C        3.297083     3.389176    -1.947371
C        1.320137     2.457502     0.332635
C        1.541308     3.818724     0.815656
C        2.792559     3.978184     1.628438
N        0.208209     1.879350     0.747533
O       -0.663409     2.408225     1.502169
B       -1.902328     1.674089     1.666654
C       -2.947711     2.560952     2.518435
C       -4.260106     2.147061     2.606352
C       -5.202959     2.866298     3.311845
Br      -7.012535     2.265359     3.403566
C       -4.822332     4.035830     3.957125
C       -3.496758     4.465149     3.881771
Br      -2.920365     6.061672     4.749581
C       -2.564352     3.724627     3.162840
O       -1.627163     0.415375     2.359660
N       -0.749639    -0.374718     1.855682
C       -0.269197    -1.459708     2.405773
C       -0.765091    -1.788167     3.745989
C        0.397553    -1.795187     4.708309
Fe       0.000000     0.000000     0.000000
N       -0.338698    -0.930307    -1.779521
C       -1.501530    -0.641093    -2.310532
C       -1.819042    -1.252749    -3.616642
C       -3.062735    -2.102786    -3.514006
C       -2.321873     0.216065    -1.587162
C       -3.674222     0.664891    -1.972161
C       -3.661959     1.422224    -3.280191
N       -1.865124     0.676538    -0.455775
O       -2.484787     1.451612     0.344435
O        0.563958    -1.696919    -2.284470
H        0.684685    -5.479571     1.908902
H       -0.647370    -4.222138     1.944167
H        0.197039    -4.696388     3.443706
H        2.062954    -3.789536     1.293347
H        1.935867    -3.305121     3.016707
H        2.432404    -1.538964    -4.412237
H        5.296673    -4.619516    -4.710701
H        3.575403    -3.747294    -0.902478
H        3.976808     1.391386    -1.647571
H        4.104155     2.406780    -0.217853
H        3.570010     4.286695    -1.373291
H        2.264910     3.492437    -2.324762
H        3.946672     3.300905    -2.845906
H        1.562205     4.504156    -0.042896
H        0.669856     4.127626     1.441222
H        3.086481     3.049492     2.153881
H        2.596815     4.742523     2.408340
H        3.626432     4.403731     1.019193
H       -4.565838     1.249161     2.111384
H       -5.520492     4.624554     4.516490
H       -1.545267     4.049633     3.103826
H       -1.225288    -2.798230     3.787244
H       -1.581207    -1.107313     4.105834
H        0.134309    -1.215626     5.623538
H        0.672095    -2.844581     5.001308
H        1.282979    -1.335358     4.221433
H       -1.988962    -0.459561    -4.368932
H       -0.979147    -1.925861    -3.917553
H       -3.914876    -1.580570    -4.011708
H       -2.909537    -3.070911    -4.002987
H       -3.331465    -2.330186    -2.457323
H       -4.162874     1.324695    -1.231950
H       -4.364222    -0.189859    -2.107302
H       -4.253289     2.358791    -3.234602
H       -2.632285     1.721567    -3.589249
H       -4.097243     0.828588    -4.107284
85
ex_0135 frame28 all-trans-Λ-conf3
C       -2.528497     3.982124    -2.140975
C       -1.342737     3.926411    -1.176753
C       -0.726785     2.545854    -1.082761
N       -0.622130     1.939303     0.185807
O       -1.373543     2.380508     1.202134
B       -1.391004     1.445662     2.352099
C       -2.134909     2.178885     3.531590
C       -2.022347     1.703869     4.844958
C       -2.677486     2.371557     5.883569
Br      -2.508525     1.743518     7.676605
C       -3.457796     3.501281     5.608457
C       -3.580427     3.968417     4.298850
Br      -4.654916     5.498049     3.916560
C       -2.917608     3.318100     3.265648
O       -0.011957     1.127806     2.809028
N        0.635143     0.357029     1.912740
C        2.022884     0.114976     2.054916
C        2.674957     0.409157     3.376271
C        3.832118     1.385382     3.198375
C        2.683530    -0.376308     0.969752
C        4.098428    -0.923941     1.011026
C        4.270311    -2.044951     2.034696
N        1.997543    -0.367095    -0.251801
O        2.468503    -1.122007    -1.270634
B        1.435988    -1.400893    -2.319735
C        2.137134    -2.153085    -3.536236
C        3.237809    -3.001337    -3.322945
C        3.851962    -3.636729    -4.409517
Br       5.351981    -4.780832    -4.120726
C        3.367212    -3.433896    -5.707200
C        2.267597    -2.599922    -5.922305
Br       1.605838    -2.322133    -7.692307
C        1.650648    -1.968041    -4.842626
O        0.884838    -0.129319    -2.858195
N        0.065116     0.463655    -1.994104
C       -0.259005     1.845330    -2.165195
C       -0.072332     2.475304    -3.531862
C        0.825284     3.722120    -3.478308
Fe       0.000000     0.000000     0.000000
N       -1.835240    -0.264486     0.862030
C       -2.299804    -1.576983     0.535841
C       -3.529075    -2.110774     1.249505
C       -3.211635    -3.327974     2.131407
C       -1.618426    -2.322105    -0.416302
C       -2.125745    -3.671215    -0.904893
C       -1.232515    -4.379281    -1.932154
N       -0.414662    -1.776539    -0.927289
O        0.378673    -2.331536    -1.846647
O       -2.135592     0.256056     2.053560
H       -2.945093     2.971083    -2.351470
H       -3.343376     4.602773    -1.711554
H       -2.191227     4.449110    -3.086139
H       -1.764412     4.175402    -0.179713
H       -0.596972     4.713269    -1.369541
H       -1.419500     0.828173     5.064369
H       -3.968731     4.015334     6.407861
H       -3.039748     3.699202     2.259742
H        1.927916     0.955050     3.985285
H        2.944715    -0.487839     3.957231
H        4.770937     0.810098     3.102958
H        3.691746     2.031884     2.299795
H        3.899503     2.043099     4.086703
H        4.856610    -0.130838     1.093897
H        4.321951    -1.396452     0.029287
H        4.882891    -1.653044     2.868933
H        4.792451    -2.915240     1.579385
H        3.294340    -2.414748     2.421138
H        3.621023    -3.174522    -2.324911
H        3.845914    -3.918113    -6.547713
H        0.792833    -1.332554    -5.027714
H        0.468452     1.740866    -4.165110
H       -1.024299     2.678704    -4.044729
H        1.434629     3.768534    -2.546916
H        0.190124     4.628942    -3.543918
H        1.526041     3.734635    -4.339434
H       -4.377873    -2.286873     0.564894
H       -3.876186    -1.328367     1.953148
H       -2.117179    -3.506338     2.225044
H       -3.709392    -4.225710     1.711187
H       -3.597376    -3.167067     3.162793
H       -2.223456    -4.364767    -0.053583
H       -3.113319    -3.493447    -1.378173
H       -0.229826    -4.590438    -1.489737
H       -1.132247    -3.765386    -2.855542
H       -1.673808    -5.343060    -2.235267
85
ex_0135 frame29 trans-OH N0+N0|N0+N0|N0+N0
C        1.663791     3.024759    -3.770805
C        0.768851     1.797762    -3.751777
C        0.331795     1.498496    -2.373422
N        0.674695     0.328186    -1.891466
O        1.350186    -0.565097    -2.506549
B        1.756019    -1.736983    -1.755156
C        2.675267    -2.670734    -2.690578
C        3.331016    -3.755040    -2.126927
C        4.123166    -4.559836    -2.922908
Br       5.031447    -6.052560    -2.152753
C        4.253521    -4.277773    -4.277761
C        3.604353    -3.199598    -4.856885
Br       3.792344    -2.820867    -6.734375
C        2.815315    -2.396985    -4.057532
O        0.584337    -2.499815    -1.326289
N       -0.336617    -1.891806    -0.667813
C       -1.509994    -2.346296    -0.345267
C       -1.824817    -3.702226    -0.795927
C       -2.103083    -4.648710     0.340554
C       -2.342313    -1.501631     0.391609
C       -3.691698    -1.801967     0.864443
C       -4.668501    -2.103849    -0.233885
N       -1.884390    -0.307697     0.703221
O       -2.508151     0.578413     1.366019
B       -1.744917     1.745611     1.763117
C       -2.639078     2.672832     2.735206
C       -2.036719     3.718567     3.402284
C       -2.745077     4.541342     4.253849
Br      -1.873954     5.974068     5.166297
C       -4.102774     4.317067     4.442034
C       -4.727882     3.265932     3.770132
Br      -6.588565     2.914600     3.990812
C       -3.992714     2.448336     2.918265
O       -1.356299     2.494547     0.567597
N       -0.697903     1.879928    -0.352248
C       -0.407177     2.336668    -1.538481
C       -0.891725     3.682602    -1.859500
C       -1.819678     3.599156    -3.046890
Fe       0.000000     0.000000     0.000000
N        1.897218    -0.661216     0.332063
C        2.347420    -0.384565     1.531160
C        3.707504    -0.852078     1.867184
C        4.595509     0.316901     2.220589
C        1.494213     0.324752     2.369473
C        1.788531     0.760459     3.748820
C        2.074300    -0.410671     4.660557
N        0.310369     0.644579     1.903415
O       -0.582100     1.298175     2.525940
O        2.522773    -1.304371    -0.590978
H        2.537976     2.835977    -4.433316
H        1.976532     3.256743    -2.740829
H        1.129642     3.910222    -4.169904
H        1.335602     0.929470    -4.200162
H       -0.077029     2.009807    -4.441483
H        3.252784    -4.001865    -1.075834
H        4.873047    -4.922606    -4.858647
H        2.289868    -1.545536    -4.473009
H       -1.043311    -4.158811    -1.442677
H       -2.720714    -3.631879    -1.446115
H       -3.190025    -4.754902     0.470373
H       -1.653159    -4.284710     1.280532
H       -1.645040    -5.643081     0.144163
H       -3.643239    -2.646849     1.565453
H       -4.073470    -0.931548     1.449833
H       -4.416018    -1.599142    -1.185965
H       -5.662124    -1.723064     0.080021
H       -4.815396    -3.203704    -0.361995
H       -0.990892     3.899701     3.267368
H       -4.691346     4.931248     5.092631
H       -4.468953     1.641296     2.399090
H       -0.064653     4.367839    -2.143029
H       -1.386861     4.203061    -0.997590
H       -2.748065     4.181674    -2.842831
H       -1.326761     4.001415    -3.973026
H       -2.083379     2.537446    -3.235807
H        3.663119    -1.541544     2.731277
H        4.153061    -1.350230     0.971461
H        4.771205     0.333364     3.323070
H        5.561926     0.234755     1.711572
H        4.159172     1.289761     1.898586
H        0.976021     1.338694     4.225796
H        2.679467     1.416173     3.786573
H        1.533700    -0.339758     5.625773
H        1.773068    -1.385548     4.208555
H        3.148510    -0.482701     4.919114
85
ex_0135 frame30 all-trans-conf6
C        0.917753    -1.876648     4.336336
C        1.918990    -1.011220     3.604521
C        1.564297    -0.479310     2.294395
N        0.376509    -0.768503     1.842746
O       -0.532678    -1.431382     2.468667
B       -1.756806    -1.752074     1.773754
C       -2.684573    -2.686068     2.731591
C       -2.757155    -4.066444     2.521429
C       -3.545611    -4.866129     3.332934
Br      -3.658459    -6.754717     3.065603
C       -4.266519    -4.280439     4.359556
C       -4.198528    -2.915670     4.571623
Br      -5.212615    -2.151135     5.999930
C       -3.406062    -2.119974     3.758316
O       -1.430090    -2.493788     0.580130
N       -0.734189    -1.856234    -0.315156
C       -0.432040    -2.312509    -1.472264
C       -0.947227    -3.654425    -1.774153
C        0.168067    -4.632915    -2.036254
C        0.343659    -1.500561    -2.313359
C        0.807450    -1.813941    -3.669866
C       -0.347497    -2.058719    -4.607689
N        0.702522    -0.346899    -1.871105
O        1.402113     0.553912    -2.455478
B        1.755308     1.764535    -1.731503
C        2.651306     2.720673    -2.672003
C        2.153834     3.977523    -3.004811
C        2.865815     4.859492    -3.801552
Br       2.141056     6.577819    -4.226950
C        4.101289     4.473109    -4.278171
C        4.597621     3.211805    -3.947074
Br       6.288183     2.699873    -4.606889
C        3.877826     2.331151    -3.147182
O        2.479268     1.464659    -0.516865
N        1.870857     0.722722     0.342201
C        2.383442     0.312842     1.480291
C        3.757291     0.734803     1.764314
C        3.880830     1.527480     3.028579
Fe       0.000000     0.000000     0.000000
N       -1.899241     0.308958     0.656888
C       -2.374213     1.472833     0.276846
C       -3.731418     1.826218     0.647549
C       -4.551327     0.801261     1.394253
C       -1.532442     2.298749    -0.463938
C       -1.865733     3.620083    -1.020049
C       -2.193297     4.574693     0.094859
N       -0.319942     1.879567    -0.701912
O        0.576648     2.521302    -1.353885
O       -2.489458    -0.563420     1.392390
H        0.712193    -2.822982     3.795469
H        0.010142    -1.336537     4.677606
H        1.431766    -2.184034     5.269218
H        2.837811    -1.624000     3.507179
H        2.170443    -0.153898     4.248859
H       -2.204708    -4.524209     1.737116
H       -4.897845    -4.871002     5.018408
H       -3.392615    -1.060832     3.968414
H       -1.579289    -4.084334    -0.968835
H       -1.601799    -3.596179    -2.660833
H        1.155035    -4.204317    -1.764201
H        0.182885    -4.896811    -3.106522
H        0.055842    -5.555181    -1.442476
H        1.438627    -0.994864    -4.111396
H        1.485906    -2.686787    -3.633778
H       -0.494880    -3.156624    -4.743736
H       -0.140542    -1.577939    -5.578908
H       -1.295186    -1.590911    -4.234495
H        1.186372     4.278754    -2.631199
H        4.699074     5.129292    -4.907207
H        4.302558     1.363130    -2.915787
H        4.175277     1.348253     0.927001
H        4.411693    -0.152207     1.815041
H        4.296895     0.864126     3.816595
H        2.920983     1.956152     3.379526
H        4.573331     2.368265     2.867563
H       -4.334140     2.091555    -0.248523
H       -3.632012     2.734712     1.292871
H       -5.599749     1.175160     1.487064
H       -4.619284    -0.105592     0.779461
H       -4.101205     0.656189     2.396084
H       -2.692964     3.556048    -1.761465
H       -0.983854     3.998147    -1.612287
H       -1.783269     4.225152     1.079365
H       -3.273588     4.773889     0.124562
H       -1.710764     5.552311    -0.159804
85
ex_0135 frame31 all-trans-Δ-conf6
C        0.917125     1.876261    -4.335202
C        1.917378     1.011377    -3.604035
C        1.564263     0.481585    -2.293193
N        0.388236     0.771115    -1.838075
O       -0.531262     1.430819    -2.466798
B       -1.757559     1.752395    -1.774819
C       -2.684858     2.686365    -2.731922
C       -2.757210     4.066308    -2.521633
C       -3.545441     4.866127    -3.332762
Br      -3.658541     6.754734    -3.065700
C       -4.266341     4.280259    -4.359375
C       -4.198358     2.915631    -4.571361
Br      -5.212664     2.151246    -5.999968
C       -3.405897     2.120289    -3.757882
O       -1.430368     2.491913    -0.579846
N       -0.740144     1.859681     0.298223
C       -0.431971     2.312036     1.469646
C       -0.947306     3.653973     1.772992
C        0.167744     4.632867     2.036235
C        0.343733     1.498727     2.312744
C        0.807437     1.812896     3.669405
C       -0.347205     2.058693     4.607616
N        0.699798     0.347936     1.871458
O        1.401112    -0.553630     2.452985
B        1.756030    -1.764827     1.732525
C        2.652441    -2.721041     2.672908
C        2.154164    -3.977243     3.004844
C        2.865821    -4.859571     3.801588
Br       2.141043    -6.577801     4.226935
C        4.101204    -4.473048     4.278095
C        4.597174    -3.211844     3.946826
Br       6.287993    -2.700001     4.606849
C        3.877517    -2.331314     3.147018
O        2.477041    -1.463612     0.516027
N        1.868097    -0.724074    -0.350169
C        2.383053    -0.314315    -1.479874
C        3.756565    -0.735200    -1.763809
C        3.880810    -1.527372    -3.028246
Fe       0.000000     0.000000     0.000000
N       -1.900764    -0.315157    -0.646781
C       -2.374795    -1.471061    -0.275604
C       -3.730511    -1.824982    -0.647766
C       -4.550680    -0.800819    -1.394255
C       -1.531195    -2.298687     0.463634
C       -1.864838    -3.619930     1.019881
C       -2.193597    -4.574220    -0.094851
N       -0.323148    -1.880065     0.696666
O        0.575915    -2.519648     1.353272
O       -2.487770     0.562493    -1.390636
H        0.712214     2.822936    -3.795480
H        0.010170     1.336583    -4.677631
H        1.431846     2.184008    -5.269190
H        2.837807     1.624011    -3.507266
H        2.170519     0.153914    -4.248779
H       -2.204853     4.524027    -1.737327
H       -4.897911     4.870943    -5.018502
H       -3.392738     1.060861    -3.968522
H       -1.579266     4.084261     0.968804
H       -1.601710     3.596135     2.660856
H        1.155004     4.204241     1.764259
H        0.182816     4.896805     3.106421
H        0.055964     5.555073     1.442475
H        1.438779     0.994796     4.111427
H        1.485913     2.686773     3.633669
H       -0.494788     3.156711     4.743785
H       -0.140631     1.577791     5.578743
H       -1.295283     1.590940     4.234405
H        1.186290    -4.278543     2.631055
H        4.699173    -5.129280     4.907255
H        4.302629    -1.363162     2.915847
H        4.175248    -1.348245    -0.926826
H        4.411584     0.152243    -1.815076
H        4.297004    -0.864080    -3.816508
H        2.921015    -1.956045    -3.379635
H        4.573133    -2.368258    -2.867505
H       -4.334287    -2.091593     0.248447
H       -3.631831    -2.734843    -1.292927
H       -5.599867    -1.175140    -1.486925
H       -4.619122     0.105409    -0.779493
H       -4.101034    -0.656260    -2.395955
H       -2.692964    -3.556006     1.761507
H       -0.983483    -3.997823     1.612455
H       -1.783289    -4.224966    -1.079434
H       -3.273420    -4.774011    -0.124421
H       -1.710623    -5.552352     0.159857
85
ex_0135 frame32 all-trans-conf5
C        2.195946    -0.076517     4.540584
C        1.893435    -1.135819     3.520607
C        1.554232    -0.522885     2.250422
N        0.354060    -0.770045     1.845382
O       -0.524668    -1.474954     2.451350
B       -1.764334    -1.723674     1.761883
C       -2.734373    -2.635828     2.688359
C       -3.989438    -2.956682     2.227096
C       -4.855309    -3.728642     2.986309
Br      -6.594580    -4.160380     2.331334
C       -4.456304    -4.190181     4.228780
C       -3.198942    -3.881238     4.708219
Br      -2.656348    -4.522884     6.425244
C       -2.334935    -3.104392     3.937557
O       -1.527528    -2.392090     0.492050
N       -0.733998    -1.856444    -0.369647
C       -0.306961    -2.329754    -1.462663
C       -0.748768    -3.687634    -1.780184
C       -1.551328    -3.793422    -3.043428
C        0.529666    -1.522598    -2.245499
C        1.070556    -1.939423    -3.525780
C        1.977626    -0.987124    -4.273578
N        0.841193    -0.343531    -1.812434
O        1.569202     0.510538    -2.423879
B        1.748341     1.775641    -1.771309
C        2.665979     2.742390    -2.682484
C        2.343804     4.074125    -2.822821
C        3.119199     4.922744    -3.605036
Br       2.606910     6.753561    -3.748851
C        4.239157     4.425851    -4.258999
C        4.569421     3.076226    -4.117851
Br       6.105669     2.373988    -5.009800
C        3.781428     2.247230    -3.330068
O        2.438299     1.480025    -0.541933
N        1.880323     0.703966     0.311646
C        2.376601     0.291531     1.437294
C        3.740264     0.704925     1.764616
C        4.485270     1.559306     0.760141
Fe       0.000000     0.000000     0.000000
N       -1.840030     0.401904     0.770616
C       -2.370584     1.527071     0.369537
C       -3.713996     1.818927     0.869644
C       -3.714594     3.126911     1.620091
C       -1.583203     2.306096    -0.485689
C       -1.895907     3.607075    -1.056589
C       -3.098894     3.691814    -1.938751
N       -0.432086     1.812270    -0.812801
O        0.441719     2.387360    -1.576395
O       -2.420908    -0.450386     1.547669
H        1.692114    -0.324677     5.508741
H        3.296865    -0.022738     4.708488
H        1.803266     0.892173     4.167877
H        2.715897    -1.856960     3.388581
H        0.996527    -1.708658     3.892049
H       -4.354852    -2.621849     1.262736
H       -5.105708    -4.800193     4.859289
H       -1.349917    -2.854043     4.297286
H       -1.389726    -4.084098    -0.961280
H        0.150142    -4.325051    -1.866995
H       -0.917413    -4.224839    -3.828663
H       -2.407175    -4.504776    -2.925134
H       -1.989223    -2.821719    -3.363783
H        1.625400    -2.904865    -3.421042
H        0.249794    -2.175285    -4.256070
H        1.479262    -0.045943    -4.594510
H        2.889158    -0.820293    -3.671743
H        2.315732    -1.566155    -5.158638
H        1.472836     4.451007    -2.309411
H        4.823045     5.094767    -4.857366
H        4.067208     1.224540    -3.250884
H        3.682392     1.239805     2.728589
H        4.302207    -0.238622     1.961929
H        4.034717     2.559175     0.618459
H        4.615828     0.975481    -0.174879
H        5.521286     1.655707     1.171536
H       -4.530529     1.730525     0.125370
H       -3.955537     1.045502     1.655921
H       -4.479758     3.064422     2.422313
H       -2.729569     3.309226     2.067520
H       -4.049135     3.968216     0.974847
H       -1.031073     3.952033    -1.681685
H       -2.025588     4.322286    -0.232821
H       -3.205073     4.782227    -2.179967
H       -4.053507     3.412242    -1.472627
H       -2.941069     3.215399    -2.935745
85
ex_0135 frame33 all-trans-Λ-conf8
C        3.060253     1.630615     3.746027
C        1.801078     0.803066     3.738572
C        1.505083     0.336151     2.387563
N        0.387121     0.729893     1.858448
O       -0.451423     1.548255     2.408131
B       -1.719460     1.789355     1.758536
C       -2.575735     2.747601     2.736244
C       -1.928675     3.589556     3.648161
C       -2.656436     4.415891     4.496524
Br      -1.813290     5.574049     5.751162
C       -4.027534     4.393080     4.424116
C       -4.676595     3.562707     3.522479
Br      -6.572798     3.534412     3.427252
C       -3.952892     2.741100     2.677373
O       -1.537197     2.418118     0.468674
N       -0.833019     1.802383    -0.420765
C       -0.565095     2.237942    -1.602274
C       -1.218253     3.504998    -1.886478
C       -2.219812     3.484876    -2.992655
C        0.285626     1.451814    -2.400017
C        0.749515     1.667771    -3.764111
C       -0.267717     1.610182    -4.861906
N        0.737989     0.364282    -1.859241
O        1.540938    -0.482756    -2.403065
B        1.763519    -1.748378    -1.730134
C        2.761274    -2.595841    -2.688632
C        3.625646    -1.872038    -3.495961
C        4.515457    -2.502448    -4.349911
Br       5.701190    -1.471264    -5.457018
C        4.551527    -3.884574    -4.406886
C        3.697864    -4.631945    -3.609492
Br       3.771294    -6.526041    -3.710266
C        2.798035    -3.985923    -2.745413
O        2.433873    -1.504405    -0.467437
N        1.838637    -0.766010     0.414136
C        2.298627    -0.492398     1.597009
C        3.593949    -1.075257     1.981894
C        3.396906    -1.948006     3.213559
Fe       0.000000     0.000000     0.000000
N       -1.844422    -0.318046     0.781575
C       -2.322978    -1.440790     0.393751
C       -3.655148    -1.740801     0.886962
C       -3.617011    -2.962156     1.770986
C       -1.542577    -2.255212    -0.446737
C       -1.972523    -3.536128    -0.955262
C       -1.024358    -4.308241    -1.837748
N       -0.371736    -1.834408    -0.784977
O        0.503156    -2.409902    -1.527838
O       -2.413018     0.527496     1.563242
H        3.900538     1.060531     4.195286
H        3.365220     1.926125     2.721390
H        2.923916     2.567917     4.338797
H        1.915828    -0.015739     4.479473
H        0.962577     1.427804     4.108534
H       -0.856876     3.593747     3.688392
H       -4.666875     5.007949     5.052270
H       -4.468344     2.096058     1.978712
H       -0.415793     4.242309    -2.031749
H       -1.761609     3.843277    -0.951064
H       -1.817713     4.013956    -3.864608
H       -2.512712     2.465292    -3.258930
H       -3.131086     4.049097    -2.678872
H        1.514321     0.874415    -4.013030
H        1.303627     2.612107    -3.801965
H       -0.566062     2.598463    -5.251838
H        0.149679     1.061129    -5.756335
H       -1.168560     1.023801    -4.563770
H        3.615146    -0.798870    -3.468024
H        5.262443    -4.328706    -5.088181
H        2.146065    -4.551196    -2.136331
H        4.286208    -0.233807     2.214200
H        4.075096    -1.689798     1.185319
H        2.323733    -2.138883     3.430970
H        3.909727    -1.454718     4.071210
H        3.857628    -2.941046     3.049297
H       -4.287004    -1.994288     0.017748
H       -4.160794    -0.879312     1.381541
H       -4.143403    -2.739532     2.727027
H       -2.584808    -3.290474     2.031779
H       -4.140616    -3.823082     1.332435
H       -2.310205    -4.217874    -0.152581
H       -2.879997    -3.344218    -1.568836
H       -1.479384    -5.283314    -2.130912
H       -0.758423    -3.816432    -2.784224
H       -0.094151    -4.594626    -1.298914
85
ex_0135 frame34 Isomer 2
C       -4.465123     0.208729    -2.573872
C       -3.339955    -0.792267    -2.604651
C       -2.524824    -0.683269    -1.403402
N       -1.289045    -0.363422    -1.576283
O       -0.718251    -0.067356    -2.690088
B        0.711633     0.139860    -2.725771
C        1.113453     0.363223    -4.272529
C        0.171728     0.848906    -5.186905
C        0.506796     1.041569    -6.521966
Br      -0.746345     1.699078    -7.796241
C        1.783938     0.746935    -6.930888
C        2.723923     0.266495    -6.031388
Br       4.488569    -0.140340    -6.602466
C        2.391250     0.075627    -4.702522
O        1.095707     1.288012    -1.933990
N        0.815157     1.285211    -0.684771
C        1.064930     2.240680     0.153213
C        1.808751     3.326749    -0.461817
C        3.176738     3.563872     0.085131
C        0.596394     2.088645     1.472923
C        0.741698     2.972507     2.621522
C        2.119196     3.170167     3.174640
N       -0.069362     1.002948     1.728913
O       -0.603466     0.682766     2.850941
B       -1.117702    -0.665133     3.005583
C       -1.653658    -0.768149     4.532321
C       -2.086758     0.406275     5.129307
C       -2.561670     0.423445     6.430208
Br      -3.154697     2.067714     7.230181
C       -2.609833    -0.751394     7.159898
C       -2.183207    -1.939523     6.586151
Br      -2.261701    -3.534273     7.612696
C       -1.702942    -1.949494     5.266025
O       -2.244085    -0.847652     2.110383
N       -2.059851    -0.725401     0.840449
C       -2.945420    -0.889262    -0.082829
C       -4.298622    -1.273251     0.339961
C       -4.652251    -2.612183    -0.291326
Fe      -0.210475    -0.256896     0.140857
N        1.155225    -1.281695    -0.958974
C        1.732668    -2.222777    -0.270023
C        2.732999    -2.998224    -0.987566
C        2.299627    -4.439874    -1.088173
C        1.346096    -2.396095     1.065974
C        1.911195    -3.394761     1.949738
C        1.392311    -3.476388     3.361691
N        0.417411    -1.600673     1.529921
O       -0.072592    -1.609370     2.718674
O        1.385049    -1.032088    -2.193226
H       -5.431681    -0.295898    -2.364032
H       -4.311220     0.978062    -1.789821
H       -4.559582     0.740982    -3.551884
H       -3.772788    -1.802071    -2.761061
H       -2.711300    -0.593363    -3.497571
H       -0.820566     1.074429    -4.847322
H        2.123942     0.869754    -7.956165
H        3.130912    -0.300855    -4.008892
H        1.159009     4.212775    -0.423924
H        1.926378     3.096307    -1.565680
H        3.185909     4.492868     0.667114
H        3.524732     2.722969     0.691674
H        3.892593     3.717716    -0.758295
H        0.125817     2.557885     3.473235
H        0.279348     3.937819     2.386372
H        2.579823     4.135467     2.903215
H        2.093500     3.170289     4.303977
H        2.799760     2.327809     2.906488
H       -2.058547     1.329436     4.581876
H       -2.988034    -0.685989     8.169632
H       -1.376967    -2.852266     4.825082
H       -5.000778    -0.483959    -0.012956
H       -4.424623    -1.358265     1.445430
H       -3.770610    -3.112445    -0.747041
H       -5.459537    -2.437556    -1.039468
H       -5.031712    -3.305854     0.483452
H        3.660875    -2.985948    -0.386886
H        3.013870    -2.573222    -1.977518
H        2.390042    -4.776383    -2.146308
H        1.243026    -4.609186    -0.777862
H        2.933091    -5.119365    -0.501216
H        1.869380    -4.413612     1.519172
H        2.997587    -3.165170     2.031180
H        1.900311    -4.303571     3.912122
H        1.555131    -2.578676     3.974525
H        0.315053    -3.752387     3.393767
85
ex_0135 frame35 all-trans-Δ-conf5
C        2.195921     0.076535    -4.540501
C        1.893115     1.135800    -3.520450
C        1.554932     0.524692    -2.249399
N        0.362513     0.774078    -1.841955
O       -0.524277     1.474008    -2.450817
B       -1.764528     1.724037    -1.762048
C       -2.734399     2.635920    -2.688422
C       -3.989281     2.956666    -2.227228
C       -4.855257     3.728601    -2.986284
Br      -6.594577     4.160385    -2.331345
C       -4.456269     4.190120    -4.228694
C       -3.198870     3.881162    -4.708144
Br      -2.656363     4.522894    -6.425249
C       -2.335036     3.104417    -3.937546
O       -1.526700     2.392178    -0.493289
N       -0.734587     1.857644     0.357421
C       -0.306757     2.329706     1.460985
C       -0.748890     3.687440     1.780063
C       -1.551220     3.793421     3.043343
C        0.527458     1.520412     2.246678
C        1.070619     1.939048     3.525414
C        1.977492     0.986892     4.273375
N        0.835869     0.334835     1.818003
O        1.569107    -0.510590     2.423559
B        1.748489    -1.776115     1.771500
C        2.665989    -2.742559     2.682524
C        2.343893    -4.074065     2.822832
C        3.119282    -4.922741     3.605081
Br       2.606868    -6.753544     3.748817
C        4.239173    -4.425818     4.259000
C        4.569361    -3.076185     4.117809
Br       6.105670    -2.373990     5.009801
C        3.781339    -2.247278     3.330051
O        2.437578    -1.479062     0.540969
N        1.878663    -0.702056    -0.325485
C        2.376267    -0.292241    -1.438153
C        3.740161    -0.705180    -1.764133
C        4.484915    -1.559390    -0.759994
Fe       0.000000     0.000000     0.000000
N       -1.841239    -0.404160    -0.766896
C       -2.371070    -1.526286    -0.368720
C       -3.713826    -1.818716    -0.869570
C       -3.714455    -3.126872    -1.620078
C       -1.583196    -2.305446     0.486956
C       -1.895702    -3.606837     1.056668
C       -3.098835    -3.691678     1.938595
N       -0.431584    -1.810500     0.815364
O        0.441886    -2.387007     1.576029
O       -2.420113     0.449895    -1.547532
H        1.692067     0.324673    -5.508751
H        3.296879     0.022774    -4.708511
H        1.803285    -0.892127    -4.167784
H        2.715872     1.856939    -3.388530
H        0.996352     1.708652    -3.891925
H       -4.354892     2.621869    -1.262736
H       -5.105698     4.800213    -4.859338
H       -1.349913     2.854023    -4.297246
H       -1.389726     4.084041     0.961248
H        0.150164     4.324992     1.867033
H       -0.917443     4.224875     3.828599
H       -2.407223     4.504765     2.925142
H       -1.989211     2.821714     3.363807
H        1.625399     2.904897     3.421095
H        0.249795     2.175321     4.256135
H        1.479275     0.045933     4.594462
H        2.889111     0.820301     3.671718
H        2.315733     1.566217     5.158604
H        1.472834    -4.450954     2.309398
H        4.822999    -5.094767     4.857334
H        4.067212    -1.224607     3.250915
H        3.682362    -1.239759    -2.728607
H        4.302185     0.238647    -1.961962
H        4.034699    -2.559134    -0.618443
H        4.615801    -0.975458     0.174854
H        5.521318    -1.655655    -1.171555
H       -4.530539    -1.730485    -0.125392
H       -3.955450    -1.045398    -1.655976
H       -4.479746    -3.064395    -2.422321
H       -2.729593    -3.309198    -2.067444
H       -4.049209    -3.968218    -0.974871
H       -1.030957    -3.951897     1.681709
H       -2.025596    -4.322278     0.232860
H       -3.205061    -4.782266     2.179959
H       -4.053500    -3.412289     1.472660
H       -2.941062    -3.215466     2.935800
85
ex_0135 frame36 trans-OH N0+N0|N0+N0|N0+N0
C       -4.525106     2.356388     0.327737
C       -3.428204     2.084916     1.342338
C       -2.188540     1.662875     0.659499
N       -1.728758     0.472427     0.963496
O       -2.256730    -0.343289     1.794036
B       -1.680220    -1.670576     1.887857
C       -2.561170    -2.556089     2.904149
C       -2.308177    -3.915730     3.009971
C       -3.061099    -4.682340     3.878297
Br      -2.720159    -6.555331     4.026417
C       -4.060979    -4.085754     4.637747
C       -4.325615    -2.729014     4.545165
Br      -5.712039    -1.915034     5.603197
C       -3.572211    -1.966814     3.674903
O       -0.308029    -1.598525     2.388573
N        0.528692    -0.841324     1.774949
C        1.727741    -0.512931     2.158200
C        2.173651    -1.070914     3.435206
C        3.389197    -1.947416     3.297068
C        2.458808     0.329873     1.319965
C        3.818850     0.815619     1.541379
C        3.978228     1.628498     2.792611
N        1.883245     0.741723     0.210237
O        2.407971     1.502810    -0.662267
B        1.673992     1.666463    -1.902193
C        2.560939     2.518413    -2.947735
C        2.146953     2.606335    -4.260165
C        2.866335     3.311889    -5.202984
Br       2.265346     3.403556    -7.012533
C        4.035877     3.957151    -4.822309
C        4.465186     3.881773    -3.496692
Br       6.061686     4.749603    -2.920416
C        3.724642     3.162823    -2.564305
O        0.415661     2.360346    -1.627982
N       -0.378789     1.849752    -0.762536
C       -1.462472     2.403848    -0.273070
C       -1.788374     3.746162    -0.764996
C       -1.795168     4.708373     0.397573
Fe       0.000000     0.000000     0.000000
N       -0.932566    -1.782928    -0.317893
C       -0.641237    -2.310342    -1.499321
C       -1.252668    -3.616709    -1.819313
C       -2.102798    -3.513985    -3.062792
C        0.212921    -1.581510    -2.323983
C        0.664753    -1.972630    -3.674333
C        1.422301    -3.280269    -3.661919
N        0.674696    -0.423785    -1.870939
O        1.453330     0.347659    -2.487346
O       -1.698725    -2.285689     0.565850
H       -5.479573     1.908916     0.684679
H       -4.222192     1.944132    -0.647402
H       -4.696372     3.443712     0.197029
H       -3.789542     1.293380     2.062930
H       -3.305103     3.016677     1.935891
H       -1.538954    -4.412215     2.432392
H       -4.619550    -4.710701     5.296704
H       -3.747321    -0.902486     3.575429
H        1.391377    -1.647590     3.976781
H        2.406764    -0.217879     4.104186
H        4.286724    -1.373286     3.569996
H        3.492433    -2.324787     2.264900
H        3.300919    -2.845884     3.946698
H        4.504195    -0.042888     1.562204
H        4.127678     1.441231     0.669901
H        3.049485     2.153897     3.086470
H        4.742540     2.408330     2.596827
H        4.403681     1.019188     3.626431
H        1.249132     2.111371    -4.565853
H        4.624555     4.516499    -5.520525
H        4.049659     3.103834    -1.545247
H       -2.798219     3.787230    -1.225294
H       -1.107315     4.105834    -1.581178
H       -1.215646     5.623538     0.134311
H       -2.844554     5.001296     0.672093
H       -1.335330     4.221485     1.283004
H       -0.459569    -4.368956    -1.988942
H       -1.925833    -3.917593    -0.979178
H       -1.580580    -4.011685    -3.914876
H       -3.070929    -4.003031    -2.909538
H       -2.330202    -2.457328    -3.331456
H        1.324679    -1.231939    -4.162871
H       -0.189871    -2.107287    -4.364217
H        2.358782    -3.234584    -4.253312
H        1.721581    -3.589232    -2.632296
H        0.828568    -4.107284    -4.097232
85
ex_0135 frame37 trans-OH N0+N0|N0+N0|N0+N0
C        1.748377    -0.403721    -4.787141
C        1.701476     0.749779    -3.800636
C        1.397828     0.255125    -2.442256
N        0.289945     0.722001    -1.881011
O       -0.510553     1.548940    -2.404429
B       -1.736501     1.824650    -1.683360
C       -2.654532     2.808286    -2.567912
C       -3.956653     3.063211    -2.163842
C       -4.750943     3.904559    -2.918698
Br      -6.545556     4.257167    -2.369782
C       -4.239010     4.488348    -4.071761
C       -2.940310     4.245464    -4.488622
Br      -2.243193     5.061044    -6.086417
C       -2.150459     3.402643    -3.732494
O       -1.445151     2.470484    -0.403757
N       -0.623185     1.895060     0.398928
C       -0.113489     2.380511     1.492206
C       -0.515088     3.743102     1.842902
C       -1.229065     3.823701     3.165193
C        0.755909     1.559949     2.211831
C        1.429701     1.889322     3.465731
C        2.346562     3.073086     3.365543
N        1.008368     0.362952     1.729372
O        1.758053    -0.513859     2.267368
B        1.730513    -1.839011     1.679399
C        2.614016    -2.848086     2.577786
C        2.548981    -4.201851     2.323466
C        3.272976    -5.115293     3.062184
Br       3.150036    -6.982647     2.685434
C        4.094970    -4.662356     4.086041
C        4.175433    -3.294910     4.352263
Br       5.288835    -2.619441     5.744422
C        3.434612    -2.393016     3.595686
O        2.268853    -1.774363     0.321360
N        1.726565    -0.959981    -0.495444
C        2.161586    -0.649971    -1.700766
C        3.407050    -1.295650    -2.128604
C        4.442701    -0.231975    -2.399603
Fe       0.000000     0.000000     0.000000
N       -1.906891    -0.275095    -0.660599
C       -2.478681    -1.353589    -0.159875
C       -3.875729    -1.620786    -0.558078
C       -3.979313    -2.957635    -1.252218
C       -1.707764    -2.133955     0.695226
C       -2.131149    -3.383488     1.357907
C       -3.321492    -3.167855     2.263881
N       -0.482388    -1.733649     0.947353
O        0.352435    -2.323969     1.698233
O       -2.443771     0.568267    -1.459788
H        1.204905    -0.119869    -5.715969
H        1.309611    -1.297109    -4.316032
H        2.790470    -0.649614    -5.073969
H        0.923863     1.492080    -4.148412
H        2.682341     1.268149    -3.868917
H       -4.387080     2.624047    -1.272964
H       -4.882745     5.132147    -4.626655
H       -1.129314     3.189267    -4.024166
H       -1.149597     4.240868     1.076444
H        0.408411     4.355610     1.883137
H       -0.521633     4.145250     3.943553
H       -1.664217     2.847927     3.442555
H       -2.080962     4.536493     3.108278
H        0.674413     2.064926     4.243979
H        2.025164     1.006638     3.801196
H        2.763368     3.210685     2.349516
H        3.204962     2.897281     4.045892
H        1.862618     4.001100     3.755522
H        1.917355    -4.562902     1.539124
H        4.675007    -5.335709     4.683593
H        3.494774    -1.342286     3.795546
H        3.278830    -1.870317    -3.070117
H        3.793420    -2.057326    -1.400528
H        5.405195    -0.507757    -1.909464
H        4.612207    -0.106575    -3.503186
H        4.088146     0.740129    -1.997357
H       -4.525679    -1.630824     0.336945
H       -4.201138    -0.839814    -1.288548
H       -4.464155    -3.696546    -0.570034
H       -4.580700    -2.873167    -2.163892
H       -2.985189    -3.343707    -1.573274
H       -1.347044    -3.857364     1.976903
H       -2.429323    -4.151837     0.619478
H       -3.194763    -3.649910     3.254029
H       -3.511031    -2.087332     2.468014
H       -4.250198    -3.592755     1.836170
85
ex_0135 frame38 trans-OH N0+N0|N0+N0|N0+N0
C       -0.403715    -4.787142     1.748370
C        0.749906    -3.800584     1.701270
C        0.255654    -2.441756     1.401559
N        0.718414    -1.877637     0.315017
O        1.546939    -2.403166    -0.508289
B        1.824698    -1.683298    -1.736545
C        2.808320    -2.567940    -2.654514
C        3.063207    -2.163845    -3.956645
C        3.904556    -2.918696    -4.750940
Br       4.257168    -2.369782    -6.545557
C        4.488341    -4.071756    -4.239001
C        4.245453    -4.488596    -2.940328
Br       5.061045    -6.086422    -2.243189
C        3.402647    -3.732493    -2.150467
O        2.471415    -0.405291    -1.445757
N        1.893924     0.388960    -0.632934
C        2.378786     1.493008    -0.117724
C        3.743108     1.842902    -0.514987
C        3.823704     3.165186    -1.229048
C        1.555542     2.216792     0.748285
C        1.889348     3.465642     1.429785
C        3.073063     3.365527     2.346557
N        0.346432     1.742508     0.990914
O       -0.514166     2.267256     1.758526
B       -1.839135     1.679438     1.730513
C       -2.848112     2.577814     2.614026
C       -4.201838     2.323484     2.548990
C       -5.115292     3.062176     3.272968
Br      -6.982646     2.685432     3.150034
C       -4.662359     4.086031     4.094962
C       -3.294922     4.352265     4.175436
Br      -2.619439     5.744420     5.288834
C       -2.393020     3.595690     3.434614
O       -1.773054     0.319285     2.267489
N       -0.960724    -0.519515     1.718137
C       -0.651902    -1.704559     2.159893
C       -1.295701    -2.128371     3.407055
C       -0.231987    -2.399591     4.442700
Fe       0.000000     0.000000     0.000000
N       -0.261295    -0.654145    -1.911254
C       -1.349844    -0.156370    -2.479958
C       -1.620865    -0.558137    -3.875683
C       -2.957616    -1.252226    -3.979313
C       -2.132898     0.697516    -1.706181
C       -3.383471     1.357833    -2.131249
C       -3.167869     2.263864    -3.321476
N       -1.733955     0.954469    -0.466480
O       -2.325858     1.698603     0.354732
O        0.569259    -1.459856    -2.444155
H       -0.119867    -5.715968     1.204903
H       -1.297102    -4.316024     1.309620
H       -0.649612    -5.073973     2.790468
H        1.492109    -4.148406     0.923843
H        1.268132    -3.868930     2.682350
H        2.624050    -1.272966    -4.387086
H        5.132140    -4.626645    -4.882744
H        3.189257    -4.024154    -1.129310
H        4.240873     1.076451    -1.149590
H        4.355601     1.883136     0.408424
H        4.145254     3.943545    -0.521635
H        2.847929     3.442555    -1.664209
H        4.536486     3.108276    -2.080969
H        2.064949     4.243961     0.674410
H        1.006620     3.801192     2.025146
H        3.210688     2.349518     2.763363
H        2.897277     4.045888     3.204964
H        4.001101     3.755535     1.862621
H       -4.562899     1.539130     1.917360
H       -5.335700     4.683592     4.675005
H       -1.342292     3.795540     3.494770
H       -1.870299    -3.070129     3.278842
H       -2.057356    -1.400529     3.793412
H       -0.507756    -1.909459     5.405196
H       -0.106576    -3.503193     4.612209
H        0.740129    -1.997362     4.088141
H       -1.630853     0.336954    -4.525661
H       -0.839806    -1.288543    -4.201133
H       -3.696545    -0.570031    -4.464161
H       -2.873167    -2.163889    -4.580688
H       -3.343709    -1.573268    -2.985186
H       -3.857364     1.976898    -1.347063
H       -4.151830     0.619470    -2.429331
H       -3.649902     3.254032    -3.194766
H       -2.087329     2.468011    -3.511038
H       -3.592758     1.836178    -4.250198
85
ex_0135 frame39 all-trans-Δ
C        2.147009    -0.092382    -4.638765
C        1.928444     1.017730    -3.625592
C        1.563716     0.454055    -2.310504
N        0.398481     0.810745    -1.823462
O       -0.442251     1.587276    -2.389861
B       -1.741457     1.741854    -1.764678
C       -2.663822     2.681140    -2.691510
C       -4.010026     2.817876    -2.387311
C       -4.808273     3.620687    -3.179147
Br      -6.663279     3.810884    -2.767906
C       -4.256251     4.283992    -4.268902
C       -2.913385     4.159389    -4.585768
Br      -2.161297     5.084245    -6.096732
C       -2.119699     3.354774    -3.793047
O       -1.605110     2.362247    -0.448291
N       -0.803745     1.828105     0.388354
C       -0.425335     2.308345     1.546236
C       -0.961597     3.622048     1.904432
C       -1.781579     3.598747     3.166136
C        0.441862     1.527676     2.315652
C        0.993944     1.870151     3.624653
C        1.816244     3.125252     3.634559
N        0.814999     0.354210     1.829413
O        1.609731    -0.456074     2.386900
B        1.736985    -1.756537     1.759799
C        2.626004    -2.724229     2.696808
C        2.691597    -4.068794     2.398257
C        3.427018    -4.948409     3.165993
Br       3.486577    -6.804906     2.725573
C        4.126243    -4.469301     4.266269
C        4.073965    -3.110274     4.578441
Br       5.015565    -2.399589     6.075940
C        3.324109    -2.242875     3.791061
O        2.371208    -1.598363     0.449580
N        1.829022    -0.794949    -0.409905
C        2.334194    -0.416001    -1.540974
C        3.658068    -0.946048    -1.881081
C        4.621919     0.205038    -2.035858
Fe       0.000000     0.000000     0.000000
N       -1.820558    -0.407419    -0.816354
C       -2.340895    -1.537238    -0.398898
C       -3.674836    -1.899683    -0.919394
C       -3.614391    -3.214824    -1.658692
C       -1.579943    -2.282339     0.495923
C       -1.948749    -3.587304     1.079487
C       -3.220502    -3.499014     1.891436
N       -0.416835    -1.790915     0.868247
O        0.406526    -2.349152     1.650743
O       -2.358342     0.425340    -1.635333
H        1.657060     0.181019    -5.599979
H        1.746713    -1.033859    -4.231479
H        3.224983    -0.244947    -4.847008
H        1.123138     1.708462    -4.013581
H        2.866613     1.613713    -3.598671
H       -4.472191     2.314472    -1.547774
H       -4.904638     4.894661    -4.855105
H       -1.064673     3.233019    -4.006765
H       -1.572101     4.095736     1.104057
H       -0.096979     4.303667     2.037924
H       -1.166231     3.946816     4.008638
H       -2.156383     2.582392     3.378270
H       -2.681610     4.243768     3.061167
H        0.167765     1.957715     4.343839
H        1.630806     1.025594     3.981419
H        2.299221     3.331791     2.660397
H        2.629913     2.993311     4.377062
H        1.229236     3.997733     4.011206
H        2.155184    -4.450090     1.554711
H        4.710313    -5.115861     4.888954
H        3.282599    -1.198520     4.026064
H        3.651771    -1.494637    -2.846982
H        4.046746    -1.700554    -1.147274
H        5.562126    -0.011497    -1.477349
H        4.867118     0.383032    -3.117840
H        4.158855     1.131113    -1.635312
H       -4.390331    -1.993282    -0.080785
H       -4.004232    -1.121159    -1.650453
H       -4.089719    -4.013746    -1.040342
H       -4.146914    -3.145324    -2.613385
H       -2.569935    -3.509689    -1.909016
H       -1.180167    -4.020058     1.745968
H       -2.124599    -4.349836     0.296856
H       -3.133449    -4.004790     2.874048
H       -3.512958    -2.444745     2.111350
H       -4.075057    -3.980033     1.377321
85
ex_0135 frame40 all-trans-conf9
C       -0.441806     2.766687     4.381617
C        0.062232     1.413930     4.000366
C        0.197056     1.249571     2.502546
N       -0.811632     0.634537     1.767744
O       -1.498087    -0.330146     2.529910
B       -1.802541    -1.610416     1.814207
C       -2.809228    -2.418188     2.780580
C       -3.375506    -1.780323     3.912385
C       -4.237308    -2.477432     4.762016
Br      -4.998933    -1.602648     6.283007
C       -4.541715    -3.813043     4.499394
C       -3.991591    -4.452696     3.382356
Br      -4.407731    -6.281484     3.037904
C       -3.136720    -3.754204     2.516994
O       -2.545436    -1.366506     0.534288
N       -1.768014    -0.907296    -0.507618
C       -2.432962     0.034598    -1.345355
C       -3.912117    -0.155622    -1.583872
C       -4.291864    -1.001372    -2.754269
C       -1.724313     1.073935    -1.905495
C       -2.125847     1.766271    -3.228009
C       -2.283177     0.851134    -4.478877
N       -0.559307     1.533839    -1.228049
O        0.387667     2.034640    -2.068000
B        1.784172     1.652436    -1.743964
C        2.702960     2.613882    -2.687815
C        2.100281     3.747031    -3.269510
C        2.814673     4.617945    -4.078168
Br       1.943263     6.147509    -4.821252
C        4.157061     4.374657    -4.343371
C        4.792410     3.254784    -3.785018
Br       6.640097     2.944799    -4.165280
C        4.071384     2.365215    -2.949385
O        2.144705     1.986663    -0.325754
N        1.674358     1.037329     0.570912
C        1.292543     1.689569     1.826345
C        2.119917     2.841363     2.352972
C        3.118577     2.362867     3.358934
Fe       0.000000     0.000000     0.000000
N        0.415572    -1.784940     0.909746
C        1.096527    -2.556796    -0.078810
C        1.189618    -4.039730     0.092501
C        2.425187    -4.446385     0.822582
C        1.652702    -1.946287    -1.162322
C        2.808859    -2.586420    -1.927148
C        3.738596    -1.626367    -2.709402
N        1.123718    -0.687030    -1.565314
O        2.035084     0.196483    -2.064037
O       -0.554293    -2.438005     1.601121
H        0.399659     3.362723     4.779139
H       -0.878565     3.251200     3.486136
H       -1.235357     2.644024     5.145275
H        0.984459     1.103795     4.559588
H       -0.646977     0.657963     4.397129
H       -3.171722    -0.739887     4.139328
H       -5.199869    -4.356575     5.165448
H       -2.722030    -4.258525     1.655785
H       -4.491726     0.781506    -1.422671
H       -4.301225    -0.727698    -0.712653
H       -4.788027    -0.340621    -3.482254
H       -3.392816    -1.505362    -3.160334
H       -5.015650    -1.781178    -2.428135
H       -1.254636     2.377203    -3.544561
H       -2.939449     2.488782    -3.132810
H       -3.354300     0.737820    -4.723042
H       -1.847461     1.335779    -5.388681
H       -1.787633    -0.143840    -4.401958
H        1.065280     3.987215    -3.078059
H        4.700970     5.062386    -4.981358
H        4.582840     1.510981    -2.527304
H        1.507021     3.713655     2.688653
H        2.683509     3.313467     1.514181
H        3.133060     1.254123     3.367788
H        2.834404     2.767968     4.346767
H        4.127800     2.714935     3.062044
H        1.032948    -4.549905    -0.889611
H        0.283868    -4.405135     0.635849
H        2.137076    -5.067059     1.691421
H        2.961045    -3.543564     1.187471
H        3.058147    -5.002832     0.109684
H        3.508636    -3.017323    -1.170597
H        2.404099    -3.366684    -2.577690
H        4.555745    -2.186447    -3.194638
H        3.184977    -1.104079    -3.515986
H        4.229081    -0.870716    -2.039408
85
ex_0135 frame41 all-trans-Λ-conf9
C        3.146075     1.677178     3.763310
C        1.911326     0.845495     3.698554
C        1.572917     0.448583     2.263858
N        0.587570     1.202370     1.547002
O       -0.325097     1.753970     2.356606
B       -1.695378     1.739882     1.799580
C       -2.563635     2.712346     2.738679
C       -1.922249     3.571353     3.659838
C       -2.673345     4.406024     4.493664
Br      -1.793558     5.563246     5.735198
C       -4.066386     4.393564     4.418733
C       -4.712401     3.553066     3.506893
Br      -6.617411     3.539411     3.420881
C       -3.964634     2.722709     2.658143
O       -1.733571     2.320772     0.423774
N       -1.282651     1.486484    -0.571659
C       -0.668725     2.152743    -1.632601
C       -1.213781     3.499398    -2.026455
C       -2.263661     3.502543    -3.079654
C        0.402436     1.567695    -2.279416
C        0.788391     1.841508    -3.745378
C       -0.284439     1.621384    -4.843315
N        1.206554     0.641406    -1.525762
O        1.732205    -0.328762    -2.328569
B        1.774944    -1.687053    -1.733729
C        2.760746    -2.548198    -2.694858
C        3.639135    -1.842479    -3.530340
C        4.527945    -2.494553    -4.370123
Br       5.713689    -1.474166    -5.462993
C        4.552168    -3.883179    -4.412931
C        3.684352    -4.626306    -3.599022
Br       3.741859    -6.536924    -3.676663
C        2.777490    -3.965732    -2.731108
O        2.396876    -1.679366    -0.391088
N        1.518867    -1.251038     0.576588
C        2.188499    -0.602780     1.659829
C        3.542261    -1.103370     2.090805
C        3.417027    -1.989464     3.286959
Fe       0.000000     0.000000     0.000000
N       -1.478791    -0.601104     1.241455
C       -2.204022    -1.562132     0.483602
C       -3.630792    -1.887990     0.913172
C       -3.650729    -3.049459     1.851581
C       -1.627998    -2.174507    -0.602609
C       -2.120123    -3.530805    -1.061898
C       -1.097797    -4.369227    -1.868274
N       -0.578442    -1.510989    -1.268411
O        0.420782    -2.326268    -1.713149
O       -2.272316     0.335336     1.870522
H        3.958958     1.057507     4.176564
H        3.399698     2.021529     2.740287
H        2.953584     2.562620     4.399706
H        1.892937    -0.002620     4.434578
H        1.071989     1.450425     4.111864
H       -0.843179     3.608757     3.730207
H       -4.649980     5.031211     5.070631
H       -4.482082     2.078697     1.960744
H       -0.409808     4.264774    -2.091107
H       -1.741460     3.900631    -1.127811
H       -1.823273     3.996424    -3.956529
H       -2.590278     2.463475    -3.281066
H       -3.139885     4.088065    -2.724366
H        1.517366     1.049201    -4.036946
H        1.347051     2.765679    -3.865161
H       -0.629285     2.605237    -5.206591
H        0.160062     1.126144    -5.744745
H       -1.142494     0.981809    -4.536085
H        3.662625    -0.765313    -3.512975
H        5.253386    -4.375267    -5.078314
H        2.120650    -4.560639    -2.109558
H        4.285364    -0.273874     2.206969
H        4.017270    -1.691233     1.267198
H        2.344221    -2.199364     3.482644
H        3.886731    -1.474199     4.141867
H        3.914333    -2.955278     3.075694
H       -4.285081    -2.014860     0.017912
H       -4.122291    -1.000005     1.379737
H       -4.188854    -2.755477     2.771043
H       -2.610052    -3.337405     2.114989
H       -4.153628    -3.884705     1.335779
H       -2.297620    -4.168757    -0.161362
H       -3.039481    -3.394095    -1.632329
H       -1.529170    -5.341009    -2.146429
H       -0.819884    -3.856018    -2.812739
H       -0.166192    -4.597487    -1.281368
85
ex_0135 frame42 all-trans-Δ-conf7
C        0.975460     1.874335    -4.399893
C        1.961670     0.945024    -3.656732
C        1.483021     0.332075    -2.338384
N        0.074857     0.277660    -2.030366
O       -0.621273     1.311306    -2.555571
B       -1.737325     1.754380    -1.742363
C       -2.668581     2.680687    -2.705439
C       -2.756148     4.071610    -2.498742
C       -3.552601     4.867684    -3.333886
Br      -3.649783     6.754483    -3.055757
C       -4.277118     4.283216    -4.371489
C       -4.207752     2.909634    -4.586908
Br      -5.212073     2.130851    -6.007029
C       -3.404473     2.106040    -3.764372
O       -1.276336     2.576925    -0.603185
N       -0.238196     2.030774     0.072091
C       -0.271267     2.340173     1.441119
C       -0.861519     3.677885     1.838032
C        0.214566     4.675008     2.064965
C        0.223437     1.435964     2.352744
C        0.740682     1.849289     3.702162
C       -0.385095     2.076199     4.646778
N        0.256791     0.054849     2.029202
O        1.338810    -0.594119     2.534978
B        1.745335    -1.769762     1.715187
C        2.626339    -2.730180     2.654035
C        2.135347    -3.999844     2.994369
C        2.866668    -4.861809     3.799971
Br       2.153529    -6.578923     4.235787
C        4.112648    -4.468148     4.283214
C        4.620982    -3.205680     3.956467
Br       6.322205    -2.681231     4.618044
C        3.881115    -2.329201     3.144882
O        2.559292    -1.363300     0.556313
N        2.025633    -0.279181    -0.066441
C        2.396632    -0.177664    -1.425822
C        3.796768    -0.642776    -1.799675
C        3.883842    -1.524265    -3.047890
Fe       0.000000     0.000000     0.000000
N       -2.035314    -0.046426    -0.209171
C       -2.398896    -1.413446    -0.137714
C       -3.786861    -1.863247    -0.576413
C       -4.600657    -0.837157    -1.369158
C       -1.485136    -2.318833     0.330498
C       -1.908091    -3.635285     0.954245
C       -2.202955    -4.631526    -0.110622
N       -0.090471    -2.033826     0.237897
O        0.581098    -2.566794     1.277793
O       -2.532642     0.604763    -1.290813
H        0.726171     2.800897    -3.808981
H        0.040670     1.337896    -4.694795
H        1.446910     2.209094    -5.325171
H        2.851494     1.608116    -3.476054
H        2.209977     0.121867    -4.308553
H       -2.196708     4.546394    -1.710710
H       -4.898144     4.889965    -5.015770
H       -3.372742     1.044957    -3.959417
H       -1.528735     4.087165     1.020266
H       -1.609161     3.594963     2.662845
H        1.185549     4.239986     1.757371
H        0.213182     4.911204     3.135721
H        0.037878     5.579017     1.452249
H        1.377898     1.022316     4.113045
H        1.482918     2.683972     3.644860
H       -0.530155     3.163470     4.744360
H       -0.130008     1.613992     5.615540
H       -1.303044     1.579200     4.266690
H        1.174269    -4.328246     2.644194
H        4.690523    -5.136858     4.907123
H        4.292606    -1.356365     2.905886
H        4.182358    -1.304173    -0.975079
H        4.478449     0.195223    -1.837943
H        4.274751    -0.876855    -3.854760
H        2.913550    -1.975719    -3.352064
H        4.605854    -2.356570    -2.885033
H       -4.351538    -2.138867     0.305965
H       -3.662002    -2.725892    -1.283443
H       -5.623717    -1.199580    -1.517650
H       -4.670599     0.104153    -0.782323
H       -4.140656    -0.660864    -2.381673
H       -2.694153    -3.551801     1.751302
H       -1.053658    -4.033975     1.559270
H       -1.777553    -4.279114    -1.079229
H       -3.294948    -4.761855    -0.162830
H       -1.729758    -5.587609     0.161665
85
ex_0135 frame43 all-trans-Δ-conf4
C        2.024660    -0.189396    -4.703314
C        1.856195     0.944964    -3.697611
C        1.540885     0.494819    -2.281977
N        0.521133     1.178192    -1.590635
O       -0.450983     1.604346    -2.439129
B       -1.750627     1.744168    -1.749788
C       -2.690536     2.669923    -2.647761
C       -3.812967     3.339435    -2.096467
C       -4.607755     4.139934    -2.934433
Br      -6.123198     5.068653    -2.250080
C       -4.292601     4.263432    -4.285902
C       -3.194260     3.604930    -4.820245
Br      -2.785697     3.781149    -6.672971
C       -2.395672     2.819409    -4.004197
O       -1.568916     2.381095    -0.417691
N       -1.279677     1.460567     0.679220
C       -0.544094     2.177711     1.656119
C       -0.942849     3.620258     1.958753
C        0.204211     4.603826     2.176660
C        0.495375     1.533074     2.283498
C        0.966840     1.867092     3.691457
C       -0.194669     2.016076     4.662232
N        1.177639     0.499098     1.599745
O        1.590116    -0.461578     2.464795
B        1.730981    -1.721911     1.749863
C        2.697273    -2.698052     2.634523
C        2.740261    -2.574952     4.026463
C        3.576573    -3.392621     4.790942
Br       3.619895    -3.193695     6.678431
C        4.377466    -4.352170     4.171239
C        4.341913    -4.494493     2.786777
Br       5.442136    -5.805273     1.954835
C        3.501235    -3.677157     2.014568
O        2.387727    -1.510929     0.422694
N        1.510138    -1.257322    -0.573406
C        2.187522    -0.533837    -1.638142
C        3.616543    -0.936239    -2.021902
C        4.607518     0.226174    -2.233246
Fe       0.000000     0.000000     0.000000
N       -1.545171    -0.546276    -1.220968
C       -2.222792    -1.582818    -0.563784
C       -3.601000    -1.942653    -1.042052
C       -4.647786    -1.946276     0.079089
C       -1.619247    -2.224910     0.475621
C       -2.024952    -3.633322     0.846000
C       -1.109124    -4.343976     1.843040
N       -0.594239    -1.538961     1.208741
O        0.400875    -2.358982     1.601417
O       -2.416140     0.433663    -1.588346
H        1.620020    -1.150687    -4.327085
H        1.510320     0.074122    -5.650446
H        3.107621    -0.309568    -4.897536
H        1.011463     1.586713    -4.091024
H        2.711636     1.587612    -3.653633
H       -4.071570     3.263594    -1.039909
H       -4.905505     4.870674    -4.928614
H       -1.546647     2.306014    -4.423241
H       -1.478423     4.022252     1.064598
H       -1.628384     3.600574     2.794605
H        0.407428     4.665101     3.264138
H        1.124492     4.295281     1.642224
H       -0.098658     5.600107     1.784923
H        1.650119     2.709357     3.689136
H        1.583633     1.006201     4.103241
H       -0.223593     3.079389     4.955844
H       -0.036166     1.396405     5.564329
H       -1.162347     1.695896     4.216594
H        2.123622    -1.836806     4.501997
H        5.029876    -4.987265     4.760350
H        3.495524    -3.806779     0.940184
H        4.054996    -1.548209    -1.194337
H        3.557260    -1.550528    -2.901868
H        4.220697     1.165968    -1.804659
H        4.773459     0.362881    -3.322769
H        5.585309     0.020785    -1.742176
H       -3.603861    -2.823265    -1.661376
H       -3.939617    -1.117608    -1.710494
H       -4.219004    -1.550926     1.022098
H       -5.027895    -2.982080     0.208759
H       -5.513205    -1.293892    -0.169181
H       -3.018634    -3.603458     1.265096
H       -1.999724    -4.251575    -0.085740
H       -1.006837    -3.741381     2.772665
H       -0.097471    -4.523125     1.394004
H       -1.542128    -5.312273     2.109583
85
ex_0135 frame44 all-trans-conf7
C        0.986461    -1.864984     4.407162
C        1.964294    -0.916919     3.665126
C        1.490333    -0.327378     2.327339
N        0.081211    -0.234526     2.031010
O       -0.641176    -1.220609     2.585902
B       -1.704229    -1.743667     1.739189
C       -2.651768    -2.677239     2.700836
C       -2.746008    -4.067984     2.492217
C       -3.546640    -4.863821     3.328649
Br      -3.647232    -6.751778     3.050403
C       -4.272907    -4.279615     4.367422
C       -4.201561    -2.904907     4.583719
Br      -5.208925    -2.124087     6.005861
C       -3.393997    -2.101332     3.760559
O       -1.151153    -2.603488     0.633474
N       -0.127649    -2.042238     0.008895
C       -0.229834    -2.362605    -1.453028
C       -0.844588    -3.685012    -1.859446
C        0.227454    -4.689350    -2.075711
C        0.241063    -1.438828    -2.363749
C        0.720493    -1.853463    -3.720661
C       -0.399015    -2.083465    -4.666839
N        0.279686    -0.063130    -2.026267
O        1.335988     0.595365    -2.562035
B        1.754767     1.753149    -1.738651
C        2.631241     2.724287    -2.663393
C        2.138306     4.000313    -2.996685
C        2.870698     4.861457    -3.801568
Br       2.159166     6.579649    -4.238915
C        4.117309     4.467426    -4.283963
C        4.626659     3.203563    -3.959410
Br       6.331060     2.677573    -4.621372
C        3.885935     2.326838    -3.149989
O        2.559750     1.292162    -0.579985
N        2.044600     0.104270     0.090340
C        2.404187     0.113361     1.408434
C        3.807770     0.614650     1.792337
C        3.884118     1.513805     3.042627
Fe       0.000000     0.000000     0.000000
N       -2.033720     0.030857     0.208306
C       -2.378257     1.401201     0.129520
C       -3.786079     1.865400     0.552541
C       -4.611044     0.847891     1.356575
C       -1.443809     2.309667    -0.327977
C       -1.889629     3.638750    -0.937964
C       -2.205228     4.643970     0.117542
N       -0.035351     2.031381    -0.243295
O        0.608871     2.548970    -1.297607
O       -2.549870    -0.647581     1.240202
H        0.732306    -2.783954     3.809371
H        0.051852    -1.338700     4.708219
H        1.454824    -2.214685     5.336793
H        2.847349    -1.584409     3.468431
H        2.225071    -0.106117     4.335431
H       -2.192324    -4.547088     1.701053
H       -4.895390    -4.891273     5.011606
H       -3.362490    -1.038976     3.956202
H       -1.508270    -4.083022    -1.036397
H       -1.606862    -3.604101    -2.670424
H        1.198795    -4.259980    -1.755307
H        0.231776    -4.921151    -3.149203
H        0.033515    -5.590803    -1.462090
H        1.355605    -1.030687    -4.127153
H        1.473007    -2.683361    -3.656388
H       -0.549320    -3.171283    -4.748823
H       -0.129441    -1.631216    -5.637002
H       -1.311843    -1.574348    -4.289764
H        1.175750     4.338357    -2.648688
H        4.690574     5.138727    -4.908804
H        4.293430     1.353191    -2.906981
H        4.185968     1.284035     0.979602
H        4.508645    -0.215005     1.842967
H        4.263182     0.881678     3.868448
H        2.913984     1.979429     3.334375
H        4.614132     2.343350     2.890577
H       -4.358733     2.158958    -0.330279
H       -3.670886     2.725887     1.267502
H       -5.633758     1.213897     1.524239
H       -4.695945    -0.095949     0.780593
H       -4.151127     0.666208     2.366550
H       -2.682018     3.548238    -1.735832
H       -1.049035     4.046804    -1.545809
H       -1.774335     4.301667     1.084131
H       -3.300908     4.758728     0.176406
H       -1.740373     5.605357    -0.161893
85
ex_0135 frame45 all-trans-conf2
C        2.144968     0.096949     4.648426
C        1.966238    -1.029502     3.648983
C        1.554809    -0.623823     2.212634
N        0.545324    -1.302261     1.487789
O       -0.504956    -1.681798     2.458619
B       -1.799517    -1.793791     1.821744
C       -2.664664    -2.671468     2.681237
C       -4.015460    -2.818646     2.381996
C       -4.814513    -3.622875     3.178291
Br      -6.664978    -3.812237     2.769031
C       -4.266566    -4.289954     4.273427
C       -2.913431    -4.157330     4.585047
Br      -2.165430    -5.082102     6.092236
C       -2.110197    -3.345010     3.788854
O       -1.706703    -2.443092     0.514911
N       -1.305114    -1.483580    -0.548670
C       -0.600869    -2.221831    -1.540935
C       -0.961545    -3.651819    -1.936960
C       -1.790698    -3.600682    -3.178668
C        0.546081    -1.563889    -2.226479
C        0.984935    -1.904514    -3.647125
C        1.826657    -3.140421    -3.646520
N        1.237664    -0.595146    -1.521303
O        1.755087     0.444438    -2.414977
B        1.777141     1.781272    -1.798941
C        2.619637     2.700830    -2.689079
C        2.685431     4.069720    -2.375725
C        3.432160     4.950896    -3.167482
Br       3.487523     6.806139    -2.727331
C        4.130616     4.463260    -4.273670
C        4.072152     3.102014    -4.579910
Br       5.019232     2.405880    -6.079580
C        3.313485     2.235111    -3.783175
O        2.443996     1.678913    -0.503151
N        1.545236     1.240370     0.523186
C        2.235587     0.531175     1.535123
C        3.676428     0.955139     1.926761
C        4.636164    -0.214064     2.036198
Fe       0.000000     0.000000     0.000000
N       -1.569383     0.536820     1.203894
C       -2.260777     1.553317     0.492281
C       -3.683431     1.935615     0.926281
C       -3.615805     3.234917     1.663717
C       -1.591499     2.211602    -0.642888
C       -1.997433     3.611388    -1.083849
C       -3.244106     3.496630    -1.905494
N       -0.578757     1.490789    -1.282704
O        0.462262     2.405389    -1.724993
O       -2.435844    -0.467320     1.720433
H        1.660517    -0.180146     5.603161
H        1.735593     1.041169     4.244471
H        3.225874     0.248375     4.843247
H        1.143381    -1.697784     4.016423
H        2.869775    -1.623501     3.598614
H       -4.468069    -2.312011     1.544397
H       -4.906529    -4.903777     4.866706
H       -1.064464    -3.241635     4.018736
H       -1.572953    -4.087136    -1.112186
H       -0.095597    -4.319392    -2.034357
H       -1.166988    -3.942454    -4.018485
H       -2.165276    -2.578846    -3.377873
H       -2.676162    -4.253299    -3.064965
H        0.163346    -1.953918    -4.362538
H        1.630926    -1.049157    -3.993046
H        2.304581    -3.328633    -2.659642
H        2.629254    -2.998755    -4.384860
H        1.227475    -3.999627    -3.997214
H        2.150157     4.457241    -1.541897
H        4.713106     5.123965    -4.890642
H        3.287440     1.192736    -4.034621
H        3.651174     1.503535     2.854392
H        4.048036     1.685457     1.155335
H        5.565400     0.012292     1.482250
H        4.865892    -0.385430     3.111625
H        4.173287    -1.136841     1.627907
H       -4.402071     1.983921     0.082721
H       -4.014941     1.137314     1.642276
H       -4.083441     4.017790     1.042719
H       -4.159358     3.147022     2.616547
H       -2.570848     3.509503     1.916589
H       -1.185449     4.013352    -1.742624
H       -2.114677     4.358725    -0.289922
H       -3.129712     4.012536    -2.873260
H       -3.509999     2.443951    -2.118030
H       -4.078249     3.976441    -1.372424
85
ex_0135 frame46 all-trans-Λ-conf4
C       -2.504619     3.943748    -2.097776
C       -1.356901     3.853369    -1.098088
C       -0.639309     2.499566    -1.004405
N       -0.303782     1.997267     0.342232
O       -1.335169     2.362585     1.163281
B       -1.395395     1.435194     2.320283
C       -2.122437     2.158167     3.507713
C       -1.993126     1.681879     4.829763
C       -2.659687     2.363044     5.859067
Br      -2.521732     1.782658     7.664164
C       -3.436659     3.481627     5.568088
C       -3.561006     3.939779     4.265903
Br      -4.636941     5.469729     3.893846
C       -2.902345     3.283311     3.239866
O       -0.045218     0.976922     2.678947
N        0.338313    -0.215647     2.003979
C        1.872477    -0.062069     2.007281
C        2.567658     0.416649     3.320878
C        3.761912     1.359581     3.163416
C        2.613198    -0.335293     0.894599
C        4.039806    -0.956875     0.910347
C        4.223347    -2.022314     1.976052
N        2.011854    -0.016995    -0.386330
O        2.382261    -1.137440    -1.189452
B        1.439408    -1.422139    -2.285119
C        2.125383    -2.162142    -3.519717
C        3.208745    -3.000114    -3.326172
C        3.830559    -3.623419    -4.409328
Br       5.326104    -4.751626    -4.111027
C        3.357402    -3.419969    -5.705145
C        2.259317    -2.592534    -5.916451
Br       1.627714    -2.322645    -7.687021
C        1.629023    -1.966632    -4.829537
O        0.918770    -0.128003    -2.759647
N       -0.179191     0.266164    -2.021226
C       -0.297739     1.738122    -2.131154
C       -0.043863     2.417021    -3.485028
C        0.814808     3.690206    -3.464161
Fe       0.000000     0.000000     0.000000
N       -1.931872    -0.063832     0.672842
C       -2.239931    -1.495122     0.505060
C       -3.453769    -2.044801     1.247409
C       -3.184842    -3.280415     2.117941
C       -1.466995    -2.327994    -0.293642
C       -2.036111    -3.605065    -0.875664
C       -1.151378    -4.295992    -1.909202
N       -0.106417    -1.963359    -0.566358
O        0.367278    -2.293653    -1.801737
O       -2.176797     0.262960     1.971852
H       -2.859336     2.943562    -2.413401
H       -3.345119     4.501549    -1.639998
H       -2.145711     4.490470    -2.991926
H       -1.785313     4.128372    -0.085731
H       -0.595669     4.581133    -1.299366
H       -1.383547     0.812150     5.077607
H       -3.950817     3.998901     6.357650
H       -3.005248     3.635243     2.226551
H        1.813352     1.016517     3.885053
H        2.823345    -0.462698     3.888738
H        4.686830     0.753412     3.170152
H        3.702312     1.939926     2.223311
H        3.753601     2.080645     4.008916
H        4.745262    -0.149155     0.978459
H        4.262316    -1.463669    -0.081400
H        4.902376    -1.594932     2.732131
H        4.686404    -2.920079     1.538267
H        3.258641    -2.341778     2.430371
H        3.565242    -3.153960    -2.329320
H        3.839624    -3.901185    -6.549840
H        0.777641    -1.325490    -5.026240
H        0.509157     1.693579    -4.140717
H       -0.997411     2.610808    -3.937716
H        1.344004     3.786297    -2.506244
H        0.157579     4.572120    -3.609960
H        1.586662     3.672416    -4.264089
H       -4.310131    -2.157346     0.590533
H       -3.754694    -1.259035     1.979281
H       -2.098527    -3.484609     2.159292
H       -3.751733    -4.149182     1.716241
H       -3.513149    -3.115209     3.166216
H       -2.214639    -4.319130    -0.075445
H       -2.988161    -3.351740    -1.393539
H       -0.145864    -4.515318    -1.483524
H       -1.040809    -3.650826    -2.816369
H       -1.605549    -5.245502    -2.207355
85
ex_0135 frame47 all-trans-Δ-conf9
C       -0.421603    -2.699148    -4.361971
C        0.113249    -1.346927    -4.027992
C        0.203051    -1.220272    -2.502457
N       -0.830751    -0.531244    -1.796154
O       -1.355553     0.458609    -2.585900
B       -1.824198     1.629742    -1.827445
C       -2.821088     2.415418    -2.777301
C       -3.391295     1.768638    -3.899892
C       -4.243215     2.469270    -4.762593
Br      -5.002809     1.604707    -6.293738
C       -4.538901     3.804535    -4.503288
C       -3.991252     4.440591    -3.388905
Br      -4.396302     6.260032    -3.051916
C       -3.146744     3.745506    -2.520326
O       -2.546716     1.197473    -0.626913
N       -1.680495     1.063918     0.504704
C       -2.392124     0.037988     1.337773
C       -3.910734     0.167990     1.507816
C       -4.278234     0.985678     2.686268
C       -1.677270    -1.014313     1.944974
C       -2.049632    -1.708222     3.270190
C       -2.266516    -0.839944     4.527071
N       -0.504401    -1.498033     1.298711
O        0.438206    -1.887854     2.188330
B        1.825139    -1.687626     1.740497
C        2.727708    -2.626471     2.686931
C        2.115703    -3.744414     3.256548
C        2.813365    -4.615882     4.070411
Br       1.928601    -6.131496     4.809506
C        4.151676    -4.383760     4.344948
C        4.799214    -3.268334     3.797216
Br       6.641919    -2.973809     4.190527
C        4.089533    -2.374231     2.962776
O        2.008778    -2.144579     0.353840
N        1.550331    -1.216355    -0.552547
C        1.252312    -1.752047    -1.792615
C        2.096181    -2.899050    -2.309461
C        3.078824    -2.378608    -3.305357
Fe       0.000000     0.000000     0.000000
N        0.426212     1.750786    -0.955586
C        1.061258     2.500090     0.011715
C        1.110617     4.020904    -0.081109
C        2.361491     4.402183    -0.791131
C        1.675325     1.864426     1.102706
C        2.837586     2.517070     1.862385
C        3.737258     1.559561     2.678887
N        1.225667     0.620554     1.506084
O        2.213722    -0.276228     1.878966
O       -0.689535     2.498522    -1.493854
H        0.392336    -3.302438    -4.791091
H       -0.800397    -3.189384    -3.440557
H       -1.254356    -2.608524    -5.080445
H        1.033841    -1.087229    -4.620906
H       -0.610910    -0.579007    -4.403383
H       -3.175678     0.729174    -4.107517
H       -5.188067     4.362399    -5.160505
H       -2.729023     4.252173    -1.667529
H       -4.485739    -0.778943     1.351352
H       -4.283904     0.759572     0.629255
H       -4.791323     0.325573     3.393393
H       -3.369316     1.441950     3.122124
H       -4.972533     1.792267     2.377545
H       -1.150808    -2.309152     3.590394
H       -2.818917    -2.442113     3.123899
H       -3.348679    -0.802001     4.756028
H       -1.789821    -1.315456     5.422232
H       -1.833332     0.175301     4.441525
H        1.079770    -3.949411     3.046652
H        4.672836    -5.080051     4.984943
H        4.597660    -1.521323     2.540554
H        1.467205    -3.742083    -2.691599
H        2.668115    -3.384648    -1.464910
H        3.058203    -1.265799    -3.324117
H        2.813212    -2.803077    -4.285047
H        4.102247    -2.674814    -3.017448
H        0.995424     4.544898     0.908730
H        0.202502     4.416997    -0.623990
H        2.110430     5.011110    -1.670147
H        2.904325     3.490363    -1.120667
H        2.994261     4.976523    -0.100386
H        3.543398     3.007095     1.141944
H        2.396605     3.245244     2.514362
H        4.522506     2.132099     3.174420
H        3.152909     1.039479     3.470459
H        4.256285     0.799157     2.035927
85
ex_0135 frame48 all-trans-Δ-conf3
C        2.046032    -0.204198    -4.738320
C        1.903060     0.931026    -3.742673
C        1.565106     0.442505    -2.370735
N        0.398842     0.925818    -1.780419
O       -0.505867     1.607860    -2.490615
B       -1.793862     1.808768    -1.756988
C       -2.699517     2.686439    -2.656396
C       -3.820194     3.340692    -2.112470
C       -4.615707     4.143087    -2.939852
Br      -6.127097     5.062532    -2.226639
C       -4.304089     4.273634    -4.295986
C       -3.200809     3.614401    -4.832870
Br      -2.785333     3.786925    -6.684130
C       -2.400168     2.828868    -4.018799
O       -1.582530     2.517061    -0.467373
N       -0.841585     1.820096     0.368022
C       -0.388420     2.338745     1.609567
C       -0.907618     3.685550     2.014232
C        0.227714     4.652778     2.203167
C        0.488038     1.579219     2.351731
C        0.948331     1.900645     3.730543
C       -0.215632     2.033100     4.693674
N        0.983507     0.404953     1.748471
O        1.626530    -0.504424     2.500491
B        1.800458    -1.766745     1.764222
C        2.716819    -2.708784     2.644260
C        2.744395    -2.575374     4.038870
C        3.578224    -3.394156     4.801775
Br       3.623855    -3.197196     6.696256
C        4.377917    -4.356372     4.177408
C        4.345259    -4.501179     2.788813
Br       5.442661    -5.810971     1.941121
C        3.509654    -3.687395     2.022304
O        2.519608    -1.550055     0.473250
N        1.764186    -0.940631    -0.442132
C        2.312304    -0.443289    -1.648122
C        3.671767    -0.916514    -2.056258
C        4.640634     0.244798    -2.248193
Fe       0.000000     0.000000     0.000000
N       -1.700769    -0.455993    -1.042201
C       -2.291343    -1.619101    -0.539011
C       -3.658067    -1.979670    -1.041852
C       -4.683565    -1.964032     0.087809
C       -1.593131    -2.357526     0.377839
C       -2.055201    -3.710817     0.828482
C       -1.141876    -4.400607     1.843853
N       -0.402131    -1.794831     0.895682
O        0.511382    -2.473002     1.604674
O       -2.495406     0.500261    -1.564463
H        1.590682    -1.149850    -4.362690
H        1.545715     0.071883    -5.689640
H        3.125467    -0.353068    -4.911746
H        1.057855     1.558205    -4.117319
H        2.762489     1.608905    -3.706652
H       -4.068349     3.249746    -1.057443
H       -4.918984     4.885453    -4.935406
H       -1.553146     2.322005    -4.461231
H       -1.479466     4.069494     1.141682
H       -1.624523     3.627066     2.839800
H        0.457509     4.681182     3.280781
H        1.128521     4.345870     1.621234
H       -0.097409     5.646500     1.839400
H        1.636256     2.752156     3.725870
H        1.562887     1.054187     4.123247
H       -0.276009     3.099234     4.971793
H       -0.032170     1.418934     5.600112
H       -1.174930     1.684832     4.245685
H        2.128224    -1.836558     4.533651
H        5.028722    -4.986929     4.766735
H        3.494681    -3.810192     0.944461
H        4.076330    -1.532782    -1.225650
H        3.601369    -1.571890    -2.933187
H        4.259813     1.180648    -1.781265
H        4.780742     0.400690    -3.335261
H        5.616375     0.006702    -1.776682
H       -3.646322    -2.892417    -1.652960
H       -3.990081    -1.174590    -1.733634
H       -4.255214    -1.544833     1.028349
H       -5.037720    -2.999122     0.244679
H       -5.545893    -1.316717    -0.180225
H       -3.048845    -3.618982     1.289825
H       -2.074266    -4.332877    -0.088600
H       -1.045924    -3.781248     2.770247
H       -0.136995    -4.596191     1.396730
H       -1.560651    -5.372889     2.122178
85
ex_0135 frame49 all-trans-conf4
C        2.023856     0.188696     4.703664
C        1.842682    -0.937223     3.699070
C        1.526080    -0.482730     2.281525
N        0.497748    -1.160726     1.610571
O       -0.473946    -1.590413     2.466658
B       -1.759517    -1.750893     1.754995
C       -2.697878    -2.675203     2.641176
C       -3.816028    -3.344374     2.091864
C       -4.608206    -4.141319     2.933489
Br      -6.122868    -5.069359     2.254730
C       -4.291862    -4.262458     4.284893
C       -3.194423    -3.604865     4.817733
Br      -2.786487    -3.780905     6.672333
C       -2.398243    -2.821749     3.998615
O       -1.554883    -2.426229     0.459883
N       -1.242642    -1.532411    -0.539405
C       -0.520828    -2.207157    -1.614528
C       -0.928914    -3.623200    -1.959058
C        0.206272    -4.607496    -2.177771
C        0.501536    -1.538283    -2.276751
C        0.961860    -1.847719    -3.696869
C       -0.197735    -2.012041    -4.660860
N        1.165962    -0.503793    -1.605029
O        1.575095     0.462867    -2.472376
B        1.751722     1.722252    -1.773399
C        2.701698     2.696001    -2.645088
C        2.741758     2.576247    -4.027013
C        3.577312     3.393153    -4.789672
Br       3.619516     3.193510    -6.675711
C        4.378650     4.352661    -4.170929
C        4.342267     4.494971    -2.787447
Br       5.441797     5.804282    -1.957989
C        3.500676     3.677703    -2.017051
O        2.425488     1.501983    -0.479648
N        1.497285     1.314536     0.478910
C        2.174775     0.544762     1.609596
C        3.616561     0.927303     2.006562
C        4.608658    -0.226578     2.233304
Fe       0.000000     0.000000     0.000000
N       -1.537273     0.546511     1.233141
C       -2.205893     1.573106     0.558188
C       -3.586989     1.928020     1.042363
C       -4.642832     1.944341    -0.076098
C       -1.618014     2.206453    -0.482679
C       -2.009567     3.620684    -0.844106
C       -1.104101     4.337789    -1.840686
N       -0.605491     1.504026    -1.245296
O        0.406826     2.348097    -1.601287
O       -2.412631    -0.427046     1.582543
H        1.624952     1.150963     4.324991
H        1.507144    -0.073562     5.647230
H        3.107501     0.305839     4.897140
H        1.000572    -1.589418     4.091229
H        2.701567    -1.579726     3.644846
H       -4.073857    -3.267106     1.037075
H       -4.903905    -4.868949     4.927863
H       -1.548861    -2.305806     4.418793
H       -1.473302    -4.016968    -1.058937
H       -1.620951    -3.594199    -2.788095
H        0.403725    -4.665238    -3.265002
H        1.124777    -4.294593    -1.646821
H       -0.099087    -5.598034    -1.778569
H        1.637784    -2.688470    -3.686853
H        1.582765    -0.986896    -4.102842
H       -0.216878    -3.076503    -4.953078
H       -0.039088    -1.394631    -5.560758
H       -1.166413    -1.696807    -4.215194
H        2.124109     1.837895    -4.496498
H        5.030814     4.988350    -4.760365
H        3.497224     3.808050    -0.941139
H        4.058053     1.546372     1.189492
H        3.549999     1.541247     2.891657
H        4.219092    -1.163946     1.808836
H        4.773760    -0.359411     3.323161
H        5.583500    -0.023720     1.738759
H       -3.599822     2.811258     1.660986
H       -3.934811     1.101377     1.712480
H       -4.214310     1.552298    -1.018641
H       -5.028250     2.981281    -0.204494
H       -5.511109     1.292075     0.166298
H       -3.008692     3.599502    -1.261296
H       -1.996296     4.247907     0.086565
H       -1.001922     3.736647    -2.769582
H       -0.093647     4.515815    -1.393386
H       -1.541231     5.305965    -2.109244
85
ex_0135 frame50 all-trans-conf3
C        2.051703     0.209354     4.745235
C        1.896510    -0.916763     3.743399
C        1.529902    -0.409300     2.381144
N        0.326216    -0.849699     1.832663
O       -0.528363    -1.616489     2.496165
B       -1.780814    -1.797298     1.739860
C       -2.706274    -2.694474     2.648879
C       -3.824875    -3.349243     2.110156
C       -4.620851    -4.148327     2.939917
Br      -6.132517    -5.063140     2.224966
C       -4.309327    -4.278327     4.297811
C       -3.204892    -3.619907     4.833073
Br      -2.787651    -3.788167     6.686347
C       -2.404272    -2.838079     4.015357
O       -1.554893    -2.518849     0.447488
N       -0.942422    -1.750912    -0.486239
C       -0.431691    -2.314586    -1.653397
C       -0.909974    -3.680458    -2.030584
C        0.231135    -4.655728    -2.207202
C        0.467412    -1.572336    -2.361731
C        0.948217    -1.916163    -3.739560
C       -0.216612    -2.041368    -4.707749
N        0.971282    -0.411944    -1.754705
O        1.632297     0.488021    -2.501649
B        1.807307     1.755192    -1.774101
C        2.718336     2.703890    -2.652439
C        2.745489     2.573708    -4.046652
C        3.578963     3.394593    -4.807676
Br       3.626006     3.199463    -6.701915
C        4.377366     4.357736    -4.181166
C        4.343877     4.501376    -2.792633
Br       5.440434     5.810929    -1.940403
C        3.508108     3.686764    -2.028664
O        2.538485     1.544670    -0.502329
N        1.760206     0.958749     0.411996
C        2.298035     0.460018     1.635235
C        3.670401     0.906786     2.046459
C        4.640090    -0.252029     2.247828
Fe       0.000000     0.000000     0.000000
N       -1.655242     0.438893     1.110731
C       -2.266855     1.588074     0.553545
C       -3.633359     1.982332     1.064114
C       -4.665532     1.960689    -0.072334
C       -1.599230     2.299882    -0.426585
C       -2.053748     3.682951    -0.841784
C       -1.148681     4.394175    -1.850307
N       -0.449719     1.697240    -1.054552
O        0.513106     2.455850    -1.583912
O       -2.492799    -0.522362     1.539171
H        1.586261     1.152967     4.378766
H        1.558009    -0.073242     5.698073
H        3.131447     0.363249     4.913081
H        1.055865    -1.544880     4.120403
H        2.754122    -1.601957     3.699403
H       -4.070727    -3.254295     1.057317
H       -4.924393    -4.888935     4.938402
H       -1.557709    -2.331331     4.463285
H       -1.483998    -4.074159    -1.162329
H       -1.626013    -3.652009    -2.862704
H        0.475431    -4.686574    -3.282464
H        1.123825    -4.351916    -1.612900
H       -0.094973    -5.656011    -1.856548
H        1.633955    -2.771945    -3.734586
H        1.563666    -1.072792    -4.128586
H       -0.292837    -3.107971    -4.981204
H       -0.028627    -1.428450    -5.613859
H       -1.174767    -1.682977    -4.263021
H        2.130561     1.833373    -4.541752
H        5.028508     4.988437    -4.769095
H        3.493730     3.809355    -0.950470
H        4.083359     1.526210     1.222919
H        3.607937     1.565586     2.924841
H        4.266643    -1.185624     1.773707
H        4.777763    -0.411202     3.335558
H        5.620568    -0.006290     1.788505
H       -3.637067     2.908308     1.655984
H       -3.976031     1.185265     1.764301
H       -4.244774     1.539813    -1.015862
H       -5.026366     2.992884    -0.244218
H       -5.536916     1.323932     0.190168
H       -3.058182     3.617505    -1.279093
H       -2.058670     4.306227     0.079870
H       -1.049223     3.784862    -2.778756
H       -0.145857     4.595248    -1.401759
H       -1.569977     5.372075    -2.117666
85
ex_0135 frame51 all-trans-Λ-conf7
C        1.416545     3.199843     3.362173
C        2.401952     2.262648     2.643235
C        1.864888     1.407257     1.535107
N        0.603520     1.704292     0.967404
O       -0.307148     2.275983     1.887984
B       -1.690438     2.017204     1.599534
C       -2.533868     3.088055     2.410727
C       -3.240674     2.706098     3.557244
C       -3.987200     3.640815     4.276936
Br      -4.944928     3.118967     5.844119
C       -4.033733     4.960350     3.849919
C       -3.339807     5.355416     2.715118
Br      -3.427431     7.168226     2.152908
C       -2.584698     4.430127     1.993548
O       -2.052661     0.658116     2.061014
N       -1.086022    -0.256647     1.716618
C       -1.665500    -1.544783     1.547219
C       -2.885163    -1.853329     2.417538
C       -2.419949    -2.685169     3.568435
C       -1.104840    -2.436432     0.619379
C       -1.262548    -3.924180     0.733171
C       -2.632388    -4.327346     0.277479
N       -0.363189    -1.956166    -0.467455
O        0.699269    -2.747693    -0.870563
B        1.705044    -1.990357    -1.585107
C        2.532896    -3.015414    -2.440329
C        2.525604    -2.903436    -3.832778
C        3.250533    -3.771213    -4.632985
Br       3.213585    -3.567280    -6.533869
C        3.997784    -4.782084    -4.042991
C        4.009178    -4.911992    -2.650716
Br       5.026499    -6.285922    -1.859712
C        3.274994    -4.034768    -1.840564
O        2.608987    -1.284746    -0.639044
N        1.888533    -0.646459     0.452611
C        2.578637     0.323213     1.048490
C        4.072071     0.147949     1.136400
C        4.912865     1.369122     0.821468
Fe       0.000000     0.000000     0.000000
N       -1.601263     1.106904    -0.608188
C       -1.396725     1.381596    -1.964366
C       -2.233387     2.426431    -2.657102
C       -3.118969     3.276037    -1.752124
C       -0.415811     0.677404    -2.649763
C       -0.429782     0.491844    -4.151302
C        0.069394     1.764583    -4.777083
N        0.616782     0.120556    -1.946099
O        1.105610    -1.048168    -2.525358
O       -1.948044     2.218593     0.175803
H        0.644922     2.627807     3.946380
H        0.945131     3.951976     2.672972
H        1.991135     3.765503     4.080975
H        2.864634     1.671799     3.461730
H        3.149537     2.883138     2.165947
H       -3.207230     1.694469     3.900645
H       -4.605549     5.697539     4.387701
H       -2.064706     4.773123     1.116998
H       -3.349472    -0.913826     2.847865
H       -3.716661    -2.319725     1.864281
H       -1.314936    -2.761976     3.579294
H       -2.858290    -3.685954     3.460711
H       -2.724197    -2.244918     4.534599
H       -0.510720    -4.431293     0.055771
H       -1.000322    -4.325641     1.735326
H       -3.244224    -4.561495     1.166428
H       -2.549995    -5.209156    -0.383455
H       -3.106904    -3.522797    -0.327191
H        1.955167    -2.130716    -4.301076
H        4.573162    -5.472932    -4.644993
H        3.305206    -4.159449    -0.767420
H        4.417423    -0.663717     0.425595
H        4.287631    -0.235576     2.123756
H        5.233372     1.788570     1.792689
H        4.373114     2.134962     0.233484
H        5.805309     1.064598     0.244142
H       -2.904802     1.913576    -3.338468
H       -1.561107     3.128526    -3.194575
H       -3.811683     3.862115    -2.362630
H       -3.748105     2.600243    -1.126801
H       -2.475835     3.962018    -1.137595
H       -1.386746     0.136603    -4.595649
H        0.295313    -0.335215    -4.413183
H        0.580558     2.411183    -4.017255
H       -0.776858     2.282154    -5.262547
H        0.790361     1.503688    -5.566453
85
ex_0135 frame52 all-trans-Δ-conf2
C        2.145350    -0.096878    -4.649482
C        1.967342     1.026318    -3.648041
C        1.608865     0.584136    -2.241501
N        0.576525     1.239234    -1.530144
O       -0.471388     1.685793    -2.452066
B       -1.791296     1.801736    -1.828907
C       -2.662002     2.673394    -2.683610
C       -4.015258     2.817844    -2.381221
C       -4.814749     3.622946    -3.178416
Br      -6.665177     3.812398    -2.769068
C       -4.266834     4.289990    -4.273539
C       -2.913395     4.156363    -4.584659
Br      -2.165668     5.081969    -6.091871
C       -2.110033     3.342853    -3.788385
O       -1.717951     2.476537    -0.565980
N       -1.324100     1.483354     0.495886
C       -0.613210     2.207809     1.512541
C       -0.967101     3.652822     1.928760
C       -1.790812     3.600246     3.179394
C        0.537583     1.529119     2.212362
C        0.986729     1.903496     3.645542
C        1.826887     3.141397     3.645998
N        1.226887     0.530562     1.557204
O        1.723006    -0.538206     2.482287
B        1.771677    -1.795336     1.797815
C        2.621327    -2.711180     2.687793
C        2.687747    -4.071041     2.379226
C        3.432277    -4.950545     3.167943
Br       3.487651    -6.806197     2.727388
C        4.130766    -4.463196     4.273874
C        4.074492    -3.100580     4.579269
Br       5.019596    -2.406404     6.079929
C        3.321759    -2.231925     3.783756
O        2.409970    -1.682283     0.466239
N        1.605536    -1.131917    -0.567775
C        2.271601    -0.480754    -1.582790
C        3.676653    -0.947934    -1.930594
C        4.638007     0.214004    -2.036740
Fe       0.000000     0.000000     0.000000
N       -1.549937    -0.567461    -1.210837
C       -2.249858    -1.563844    -0.487644
C       -3.679650    -1.936823    -0.926906
C       -3.615862    -3.236350    -1.664214
C       -1.606425    -2.195584     0.632117
C       -1.998017    -3.606591     1.086328
C       -3.245646    -3.496981     1.906157
N       -0.599238    -1.463924     1.296623
O        0.438435    -2.433056     1.739696
O       -2.411185     0.456515    -1.735706
H        1.660772     0.180184    -5.603630
H        1.734716    -1.041661    -4.245784
H        3.225940    -0.248734    -4.842992
H        1.144138     1.697132    -4.016007
H        2.870309     1.623970    -3.598812
H       -4.467940     2.311948    -1.544016
H       -4.906651     4.904421    -4.867540
H       -1.064026     3.241876    -4.019357
H       -1.572762     4.087595     1.114138
H       -0.094404     4.320973     2.034474
H       -1.167218     3.942136     4.019308
H       -2.165517     2.578483     3.377512
H       -2.675852     4.253983     3.065310
H        0.162572     1.954584     4.364191
H        1.630785     1.051748     3.994727
H        2.304706     3.328175     2.659529
H        2.629320     2.999252     4.385539
H        1.227397     4.000037     3.996223
H        2.148771    -4.458026     1.542434
H        4.713195    -5.124444     4.890865
H        3.287628    -1.192123     4.036522
H        3.651332    -1.503923    -2.855047
H        4.047126    -1.684260    -1.155214
H        5.566012    -0.012490    -1.482564
H        4.865929     0.385774    -3.111409
H        4.175323     1.137638    -1.627261
H       -4.403067    -1.983482    -0.082879
H       -4.015500    -1.139077    -1.641557
H       -4.083031    -4.018414    -1.042831
H       -4.160242    -3.147231    -2.616674
H       -2.570795    -3.509406    -1.917068
H       -1.187175    -4.013082     1.742269
H       -2.114040    -4.359222     0.289142
H       -3.129547    -4.013144     2.873324
H       -3.509931    -2.443763     2.118571
H       -4.078789    -3.976191     1.372129
85
ex_0135 frame53 all-trans-Λ
C        1.748396     4.787111    -0.403739
C        1.701064     3.800372     0.749922
C        1.400748     2.441639     0.256109
N        0.310956     1.878394     0.718009
O       -0.508841     2.402897     1.546566
B       -1.736796     1.683593     1.825032
C       -2.654596     2.568058     2.808443
C       -3.956579     2.163860     3.063164
C       -4.750927     2.918737     3.904569
Br      -6.545544     2.369765     4.257151
C       -4.238868     4.071689     4.488241
C       -2.940245     4.488725     4.245519
Br      -2.243165     6.086452     5.061056
C       -2.150599     3.732493     3.402729
O       -1.444512     0.404624     2.470271
N       -0.623799    -0.393665     1.895824
C       -0.115473    -1.492111     2.379664
C       -0.515248    -1.842706     3.742851
C       -1.228990    -3.165150     3.823719
C        0.750262    -2.215575     1.556289
C        1.429867    -3.465454     1.889190
C        2.346471    -3.365490     3.072993
N        0.993144    -1.740541     0.351720
O        1.757012    -2.267221    -0.514223
B        1.730811    -1.679572    -1.839462
C        2.614083    -2.577850    -2.848049
C        2.549042    -2.323616    -4.201748
C        3.272906    -3.062129    -5.115259
Br       3.150050    -2.685449    -6.982647
C        4.094918    -4.085976    -4.662394
C        4.175418    -4.352223    -3.295015
Br       5.288806    -5.744396    -2.619365
C        3.434628    -3.595673    -2.393087
O        2.267061    -0.319354    -1.771943
N        1.722270     0.518524    -0.953827
C        2.161137     1.703309    -0.650026
C        3.406869     2.128049    -1.295729
C        4.442613     2.399593    -0.232005
Fe       0.000000     0.000000     0.000000
N       -1.908410     0.651965    -0.282436
C       -2.479517     0.157557    -1.352775
C       -3.875588     0.558222    -1.620547
C       -3.979329     1.252213    -2.957539
C       -1.708953    -0.698596    -2.131745
C       -2.130745    -1.357942    -3.383284
C       -3.321391    -2.263768    -3.167944
N       -0.488097    -0.954124    -1.728231
O        0.352644    -1.696507    -2.324048
O       -2.442645     1.458114     0.567467
H        1.204886     5.715965    -0.119858
H        1.309678     4.315966    -1.297057
H        2.790457     5.073993    -0.649601
H        0.923799     4.148397     1.492149
H        2.682383     3.868954     1.268098
H       -4.387115     1.272977     2.624066
H       -4.882742     4.626595     5.132105
H       -1.129295     4.024115     3.189224
H       -1.149568    -1.076450     4.240906
H        0.408453    -1.883155     4.355567
H       -0.521645    -3.943505     4.145268
H       -1.664175    -3.442556     2.847940
H       -2.081003    -3.108265     4.536452
H        0.674395    -4.243912     2.064952
H        2.025122    -3.801141     1.006547
H        2.763345    -2.349528     3.210706
H        3.204974    -4.045866     2.897257
H        1.862636    -3.755599     4.001111
H        1.917384    -1.539163    -4.562877
H        4.674997    -4.683587    -5.335656
H        3.494752    -3.795510    -1.342321
H        3.278864     3.070157    -1.870285
H        3.793404     1.400529    -2.057402
H        5.405200     1.909434    -0.507756
H        4.612221     3.503231    -0.106578
H        4.088062     1.997385     0.740097
H       -4.525631    -0.336966    -1.630881
H       -4.201080     1.288589    -0.839779
H       -4.464190     0.570014    -3.696542
H       -4.580628     2.163872    -2.873168
H       -2.985176     1.573243    -3.343718
H       -1.347082    -1.976907    -3.857367
H       -2.429366    -0.619481    -4.151824
H       -3.194785    -3.254043    -3.649870
H       -3.511063    -2.467995    -2.087315
H       -4.250195    -1.836207    -3.592770
85
ex_0135 frame54 all-trans-Δ-conf8
C       -0.408489    -2.655064    -4.340580
C        0.116742    -1.277974    -4.027287
C        0.322380    -1.125204    -2.590197
N       -0.372139    -0.209567    -1.988615
O       -1.271823     0.534491    -2.548855
B       -1.868025     1.605756    -1.783983
C       -2.849577     2.409249    -2.783176
C       -3.400554     1.771023    -3.900446
C       -4.243953     2.454497    -4.768627
Br      -5.012010     1.621982    -6.299429
C       -4.529814     3.772526    -4.510208
C       -3.989094     4.412127    -3.404636
Br      -4.386914     6.235105    -3.052588
C       -3.150714     3.732203    -2.539876
O       -2.609196     1.093775    -0.652141
N       -1.980105     0.383930     0.225385
C       -2.501660    -0.155077     1.270174
C       -3.906633     0.183461     1.425686
C       -4.253366     0.972402     2.644104
C       -1.663400    -0.955888     2.066159
C       -1.954281    -1.672797     3.300677
C       -2.267051    -0.860015     4.519227
N       -0.441600    -1.090558     1.658281
O        0.479569    -1.793827     2.221331
B        1.841819    -1.651601     1.743560
C        2.749594    -2.610256     2.686632
C        2.129532    -3.720507     3.239527
C        2.818008    -4.599672     4.058968
Br       1.930448    -6.130064     4.810705
C        4.154452    -4.375165     4.338829
C        4.798307    -3.272336     3.798111
Br       6.631979    -2.991625     4.200591
C        4.093920    -2.384838     2.967529
O        1.921099    -2.137950     0.379494
N        1.196937    -1.559055    -0.525332
C        1.190420    -1.861674    -1.787153
C        2.087025    -2.937089    -2.240204
C        3.053145    -2.372735    -3.272482
Fe       0.000000     0.000000     0.000000
N        0.011422     1.974497    -0.463254
C        0.940471     2.591390     0.165797
C        1.007044     4.019391    -0.087838
C        2.314701     4.366555    -0.754292
C        1.784776     1.855929     1.017295
C        2.861627     2.436561     1.783846
C        3.695973     1.523771     2.646826
N        1.587414     0.584396     1.121907
O        2.234424    -0.271010     1.824801
O       -0.825114     2.489399    -1.291086
H        0.385685    -3.282119    -4.797738
H       -0.765290    -3.177171    -3.429367
H       -1.264815    -2.607319    -5.056755
H        1.032691    -1.106863    -4.630842
H       -0.620005    -0.527500    -4.379797
H       -3.166108     0.740659    -4.084201
H       -5.179063     4.375128    -5.140062
H       -2.732896     4.240228    -1.681253
H       -4.464423    -0.759819     1.337810
H       -4.226405     0.798010     0.528614
H       -4.794375     0.336246     3.354406
H       -3.367038     1.409762     3.112497
H       -4.954958     1.795677     2.366257
H       -1.054295    -2.299132     3.572776
H       -2.751805    -2.398440     3.106862
H       -3.339716    -0.828420     4.776424
H       -1.765417    -1.304994     5.428081
H       -1.856073     0.174367     4.445929
H        1.093455    -3.914454     3.035802
H        4.647087    -5.088990     4.982707
H        4.580329    -1.543631     2.553566
H        1.455226    -3.731529    -2.699433
H        2.678970    -3.414731    -1.424618
H        3.033442    -1.262029    -3.309326
H        2.802794    -2.822346    -4.260941
H        4.091388    -2.652235    -3.009232
H        0.998090     4.535521     0.888128
H        0.130499     4.422637    -0.646008
H        2.113208     4.990596    -1.654631
H        2.891587     3.475687    -1.093115
H        2.974347     4.967551    -0.112913
H        3.554951     3.028600     1.157876
H        2.396418     3.174864     2.473223
H        4.500371     2.104757     3.155854
H        3.151358     1.014160     3.454371
H        4.247410     0.769434     2.043064
85
ex_0135 frame55 all-trans-Λ-conf6
C        1.380835     3.181862     3.335498
C        2.360298     2.258193     2.649262
C        1.862880     1.322033     1.649322
N        0.595914     1.355547     1.389407
O       -0.262904     2.186471     1.888182
B       -1.661783     2.022075     1.568270
C       -2.535869     3.105901     2.410644
C       -3.236680     2.716224     3.555519
C       -3.982910     3.634337     4.276073
Br      -4.947459     3.125411     5.845018
C       -4.028588     4.949787     3.846684
C       -3.337302     5.340213     2.714645
Br      -3.431428     7.166797     2.159066
C       -2.590052     4.417534     1.998671
O       -2.068953     0.693723     1.957376
N       -1.501400    -0.269078     1.330151
C       -1.795328    -1.523079     1.465964
C       -2.886404    -1.806102     2.408252
C       -2.425137    -2.668192     3.554899
C       -1.063149    -2.462436     0.720520
C       -1.228871    -3.920845     0.721513
C       -2.613355    -4.322218     0.278863
N       -0.139204    -2.022344    -0.057005
O        0.645373    -2.682194    -0.823332
B        1.679050    -1.981490    -1.566548
C        2.541181    -3.033633    -2.433298
C        2.532033    -2.913203    -3.819691
C        3.251764    -3.772837    -4.633803
Br       3.211276    -3.564255    -6.534701
C        3.993534    -4.776237    -4.045922
C        3.998598    -4.897373    -2.656067
Br       5.018448    -6.274803    -1.869269
C        3.273781    -4.031414    -1.845095
O        2.555449    -1.242895    -0.684995
N        2.004082    -0.340663     0.059228
C        2.632407     0.387719     0.942646
C        4.068428     0.142766     1.091505
C        4.904481     1.355055     0.820911
Fe       0.000000     0.000000     0.000000
N       -1.285365     1.421521    -0.676049
C       -1.327036     1.478674    -1.982687
C       -2.218415     2.432862    -2.612997
C       -3.105454     3.268729    -1.722224
C       -0.499773     0.605985    -2.688210
C       -0.412799     0.468883    -4.151120
C        0.056813     1.762327    -4.757682
N        0.282553    -0.175148    -2.003376
O        1.106719    -1.025998    -2.496978
O       -1.913043     2.181590     0.151532
H        0.641992     2.625214     3.946896
H        0.939999     3.954777     2.672621
H        1.988688     3.751963     4.068456
H        2.860208     1.687094     3.458954
H        3.136439     2.873745     2.165944
H       -3.204625     1.708862     3.893166
H       -4.602751     5.702037     4.382048
H       -2.072542     4.778210     1.121775
H       -3.348292    -0.896913     2.845764
H       -3.702395    -2.318922     1.868880
H       -1.319165    -2.762471     3.570838
H       -2.861679    -3.675837     3.458475
H       -2.714387    -2.245585     4.531253
H       -0.491584    -4.440632     0.051017
H       -1.001383    -4.316896     1.729714
H       -3.237828    -4.567071     1.171063
H       -2.546178    -5.195709    -0.391623
H       -3.109224    -3.516743    -0.322964
H        1.950426    -2.126951    -4.278763
H        4.575758    -5.476766    -4.641147
H        3.308133    -4.163420    -0.771409
H        4.413819    -0.676492     0.412414
H        4.275147    -0.231982     2.109296
H        5.234619     1.776064     1.794698
H        4.375440     2.139296     0.243417
H        5.792537     1.065263     0.238130
H       -2.907296     1.926472    -3.325471
H       -1.551986     3.121586    -3.191906
H       -3.815379     3.849553    -2.360962
H       -3.734914     2.595194    -1.127168
H       -2.463823     3.953811    -1.134404
H       -1.380938     0.138364    -4.590646
H        0.307316    -0.363155    -4.395881
H        0.574515     2.414070    -4.004741
H       -0.771757     2.270174    -5.269976
H        0.793379     1.498398    -5.559293
85
ex_0135 frame56 all-trans-conf8
C       -0.408479     2.655051     4.340571
C        0.116747     1.277949     4.027263
C        0.321901     1.125128     2.590068
N       -0.374348     0.205743     1.988193
O       -1.272333    -0.534418     2.548821
B       -1.868081    -1.605780     1.784017
C       -2.849595    -2.409264     2.783185
C       -3.400552    -1.771024     3.900444
C       -4.243953    -2.454490     4.768630
Br      -5.012011    -1.621985     6.299430
C       -4.529806    -3.772507     4.510206
C       -3.989095    -4.412121     3.404642
Br      -4.386912    -6.235103     3.052587
C       -3.150713    -3.732200     2.539879
O       -2.609507    -1.093829     0.652883
N       -1.979953    -0.390209    -0.218742
C       -2.501423     0.154568    -1.269596
C       -3.906638    -0.183458    -1.425704
C       -4.253356    -0.972392    -2.644098
C       -1.663014     0.956742    -2.065564
C       -1.954265     1.672777    -3.300666
C       -2.267055     0.860030    -4.519206
N       -0.434980     1.095278    -1.656416
O        0.480071     1.794074    -2.221521
B        1.841817     1.651638    -1.743563
C        2.749608     2.610270    -2.686639
C        2.129541     3.720498    -3.239523
C        2.818008     4.599667    -4.058964
Br       1.930449     6.130067    -4.810707
C        4.154459     4.375158    -4.338826
C        4.798302     3.272335    -3.798109
Br       6.631978     2.991629    -4.200593
C        4.093926     2.384835    -2.967530
O        1.921019     2.138070    -0.379687
N        1.193680     1.562367     0.522077
C        1.189143     1.862860     1.786624
C        2.087035     2.937066     2.240169
C        3.053141     2.372726     3.272478
Fe       0.000000     0.000000     0.000000
N        0.009685    -1.975203     0.463183
C        0.939993    -2.591459    -0.166175
C        1.007015    -4.019369     0.087869
C        2.314694    -4.366546     0.754271
C        1.784433    -1.856275    -1.017631
C        2.861617    -2.436473    -1.783834
C        3.695936    -1.523762    -2.646813
N        1.585897    -0.589263    -1.120905
O        2.234425     0.270761    -1.824316
O       -0.824955    -2.489314     1.291368
H        0.385683     3.282118     4.797741
H       -0.765281     3.177171     3.429365
H       -1.264821     2.607320     5.056754
H        1.032692     1.106867     4.630844
H       -0.620003     0.527495     4.379785
H       -3.166106    -0.740662     4.084196
H       -5.179064    -4.375135     5.140058
H       -2.732896    -4.240227     1.681253
H       -4.464412     0.759822    -1.337801
H       -4.226360    -0.798016    -0.528582
H       -4.794377    -0.336251    -3.354399
H       -3.367043    -1.409754    -3.112496
H       -4.954957    -1.795680    -2.366255
H       -1.054274     2.299128    -3.572754
H       -2.751808     2.398432    -3.106853
H       -3.339712     0.828422    -4.776432
H       -1.765410     1.304992    -5.428088
H       -1.856075    -0.174370    -4.445929
H        1.093459     3.914449    -3.035801
H        4.647079     5.088994    -4.982707
H        4.580318     1.543643    -2.553571
H        1.455220     3.731525     2.699441
H        2.678967     3.414735     1.424618
H        3.033439     1.262031     3.309325
H        2.802792     2.822352     4.260939
H        4.091386     2.652231     3.009230
H        0.998096    -4.535519    -0.888126
H        0.130494    -4.422632     0.646003
H        2.113208    -4.990596     1.654632
H        2.891589    -3.475686     1.093112
H        2.974346    -4.967550     0.112919
H        3.554949    -3.028606    -1.157881
H        2.396419    -3.174864    -2.473223
H        4.500374    -2.104755    -3.155855
H        3.151364    -1.014158    -3.454366
H        4.247408    -0.769428    -2.043067
85
ex_0135 frame57 all-trans-Λ-conf3
C       -2.528497     3.982124    -2.140975
C       -1.342737     3.926411    -1.176753
C       -0.726093     2.546170    -1.082667
N       -0.622130     1.939303     0.185807
O       -1.373543     2.380508     1.202134
B       -1.391004     1.445662     2.352099
C       -2.134909     2.178885     3.531590
C       -2.022347     1.703869     4.844958
C       -2.677486     2.371557     5.883569
Br      -2.508525     1.743518     7.676605
C       -3.457796     3.501281     5.608457
C       -3.580427     3.968417     4.298850
Br      -4.654916     5.498049     3.916560
C       -2.917608     3.318100     3.265648
O       -0.011957     1.127806     2.809028
N        0.635143     0.357029     1.912740
C        2.022807     0.114606     2.055037
C        2.674957     0.409157     3.376271
C        3.832118     1.385382     3.198375
C        2.683481    -0.376434     0.969779
C        4.098428    -0.923941     1.011026
C        4.270311    -2.044951     2.034696
N        1.997543    -0.367095    -0.251801
O        2.468503    -1.122007    -1.270634
B        1.435988    -1.400893    -2.319735
C        2.137134    -2.153085    -3.536236
C        3.237809    -3.001337    -3.322945
C        3.851962    -3.636729    -4.409517
Br       5.351981    -4.780832    -4.120726
C        3.367212    -3.433896    -5.707200
C        2.267597    -2.599922    -5.922305
Br       1.605838    -2.322133    -7.692307
C        1.650648    -1.968041    -4.842626
O        0.884838    -0.129319    -2.858195
N        0.065116     0.463655    -1.994104
C       -0.258756     1.845396    -2.165131
C       -0.072332     2.475304    -3.531862
C        0.825284     3.722120    -3.478308
Fe       0.000000     0.000000     0.000000
N       -1.835240    -0.264486     0.862030
C       -2.299525    -1.577167     0.536185
C       -3.529075    -2.110774     1.249505
C       -3.211635    -3.327974     2.131407
C       -1.618341    -2.322180    -0.416182
C       -2.125745    -3.671215    -0.904893
C       -1.232515    -4.379281    -1.932154
N       -0.414662    -1.776539    -0.927289
O        0.378673    -2.331536    -1.846647
O       -2.135592     0.256056     2.053560
H       -2.945093     2.971083    -2.351470
H       -3.343376     4.602773    -1.711554
H       -2.191227     4.449110    -3.086139
H       -1.764412     4.175402    -0.179713
H       -0.596972     4.713269    -1.369541
H       -1.419500     0.828173     5.064369
H       -3.968731     4.015334     6.407861
H       -3.039748     3.699202     2.259742
H        1.927916     0.955050     3.985285
H        2.944715    -0.487839     3.957231
H        4.770937     0.810098     3.102958
H        3.691746     2.031884     2.299795
H        3.899503     2.043099     4.086703
H        4.856610    -0.130838     1.093897
H        4.321951    -1.396452     0.029287
H        4.882891    -1.653044     2.868933
H        4.792451    -2.915240     1.579385
H        3.294340    -2.414748     2.421138
H        3.621023    -3.174522    -2.324911
H        3.845914    -3.918113    -6.547713
H        0.792833    -1.332554    -5.027714
H        0.468452     1.740866    -4.165110
H       -1.024299     2.678704    -4.044729
H        1.434629     3.768534    -2.546916
H        0.190124     4.628942    -3.543918
H        1.526041     3.734635    -4.339434
H       -4.377873    -2.286873     0.564894
H       -3.876186    -1.328367     1.953148
H       -2.117179    -3.506338     2.225044
H       -3.709392    -4.225710     1.711187
H       -3.597376    -3.167067     3.162793
H       -2.223456    -4.364767    -0.053583
H       -3.113319    -3.493447    -1.378173
H       -0.229826    -4.590438    -1.489737
H       -1.132247    -3.765386    -2.855542
H       -1.673808    -5.343060    -2.235267
85
ex_0135 frame58 all-trans-conf6
C        0.917753    -1.876648     4.336336
C        1.918990    -1.011220     3.604521
C        1.564238    -0.479176     2.294466
N        0.376509    -0.768503     1.842746
O       -0.532678    -1.431382     2.468667
B       -1.756806    -1.752074     1.773754
C       -2.684573    -2.686068     2.731591
C       -2.757155    -4.066444     2.521429
C       -3.545611    -4.866129     3.332934
Br      -3.658459    -6.754717     3.065603
C       -4.266519    -4.280439     4.359556
C       -4.198528    -2.915670     4.571623
Br      -5.212615    -2.151135     5.999930
C       -3.406062    -2.119974     3.758316
O       -1.430090    -2.493788     0.580130
N       -0.734189    -1.856234    -0.315156
C       -0.431908    -2.312573    -1.472204
C       -0.947227    -3.654425    -1.774153
C        0.168067    -4.632915    -2.036254
C        0.343705    -1.500583    -2.313338
C        0.807450    -1.813941    -3.669866
C       -0.347497    -2.058719    -4.607689
N        0.702522    -0.346899    -1.871105
O        1.402113     0.553912    -2.455478
B        1.755308     1.764535    -1.731503
C        2.651306     2.720673    -2.672003
C        2.153834     3.977523    -3.004811
C        2.865815     4.859492    -3.801552
Br       2.141056     6.577819    -4.226950
C        4.101289     4.473109    -4.278171
C        4.597621     3.211805    -3.947074
Br       6.288183     2.699873    -4.606889
C        3.877826     2.331151    -3.147182
O        2.479268     1.464659    -0.516865
N        1.870857     0.722722     0.342201
C        2.383423     0.312888     1.480316
C        3.757291     0.734803     1.764314
C        3.880830     1.527480     3.028579
Fe       0.000000     0.000000     0.000000
N       -1.899241     0.308958     0.656888
C       -2.374088     1.472986     0.277159
C       -3.731418     1.826218     0.647549
C       -4.551327     0.801261     1.394253
C       -1.532401     2.298805    -0.463829
C       -1.865733     3.620083    -1.020049
C       -2.193297     4.574693     0.094859
N       -0.319942     1.879567    -0.701912
O        0.576648     2.521302    -1.353885
O       -2.489458    -0.563420     1.392390
H        0.712193    -2.822982     3.795469
H        0.010142    -1.336537     4.677606
H        1.431766    -2.184034     5.269218
H        2.837811    -1.624000     3.507179
H        2.170443    -0.153898     4.248859
H       -2.204708    -4.524209     1.737116
H       -4.897845    -4.871002     5.018408
H       -3.392615    -1.060832     3.968414
H       -1.579289    -4.084334    -0.968835
H       -1.601799    -3.596179    -2.660833
H        1.155035    -4.204317    -1.764201
H        0.182885    -4.896811    -3.106522
H        0.055842    -5.555181    -1.442476
H        1.438627    -0.994864    -4.111396
H        1.485906    -2.686787    -3.633778
H       -0.494880    -3.156624    -4.743736
H       -0.140542    -1.577939    -5.578908
H       -1.295186    -1.590911    -4.234495
H        1.186372     4.278754    -2.631199
H        4.699074     5.129292    -4.907207
H        4.302558     1.363130    -2.915787
H        4.175277     1.348253     0.927001
H        4.411693    -0.152207     1.815041
H        4.296895     0.864126     3.816595
H        2.920983     1.956152     3.379526
H        4.573331     2.368265     2.867563
H       -4.334140     2.091555    -0.248523
H       -3.632012     2.734712     1.292871
H       -5.599749     1.175160     1.487064
H       -4.619284    -0.105592     0.779461
H       -4.101205     0.656189     2.396084
H       -2.692964     3.556048    -1.761465
H       -0.983854     3.998147    -1.612287
H       -1.783269     4.225152     1.079365
H       -3.273588     4.773889     0.124562
H       -1.710764     5.552311    -0.159804
85
ex_0135 frame59 all-trans-Δ-conf6
C        0.917125     1.876261    -4.335202
C        1.917378     1.011377    -3.604035
C        1.564190     0.481424    -2.293278
N        0.388236     0.771115    -1.838075
O       -0.531262     1.430819    -2.466798
B       -1.757559     1.752395    -1.774819
C       -2.684858     2.686365    -2.731922
C       -2.757210     4.066308    -2.521633
C       -3.545441     4.866127    -3.332762
Br      -3.658541     6.754734    -3.065700
C       -4.266341     4.280259    -4.359375
C       -4.198358     2.915631    -4.571361
Br      -5.212664     2.151246    -5.999968
C       -3.405897     2.120289    -3.757882
O       -1.430368     2.491913    -0.579846
N       -0.740144     1.859681     0.298223
C       -0.431847     2.312096     1.469590
C       -0.947306     3.653973     1.772992
C        0.167744     4.632867     2.036235
C        0.343776     1.498748     2.312725
C        0.807437     1.812896     3.669405
C       -0.347205     2.058693     4.607616
N        0.699798     0.347936     1.871458
O        1.401112    -0.553630     2.452985
B        1.756030    -1.764827     1.732525
C        2.652441    -2.721041     2.672908
C        2.154164    -3.977243     3.004844
C        2.865821    -4.859571     3.801588
Br       2.141043    -6.577801     4.226935
C        4.101204    -4.473048     4.278095
C        4.597174    -3.211844     3.946826
Br       6.287993    -2.700001     4.606849
C        3.877517    -2.331314     3.147018
O        2.477041    -1.463612     0.516027
N        1.868097    -0.724074    -0.350169
C        2.383030    -0.314370    -1.479905
C        3.756565    -0.735200    -1.763809
C        3.880810    -1.527372    -3.028246
Fe       0.000000     0.000000     0.000000
N       -1.900764    -0.315157    -0.646781
C       -2.374673    -1.471209    -0.275908
C       -3.730511    -1.824982    -0.647766
C       -4.550680    -0.800819    -1.394255
C       -1.531156    -2.298741     0.463529
C       -1.864838    -3.619930     1.019881
C       -2.193597    -4.574220    -0.094851
N       -0.323148    -1.880065     0.696666
O        0.575915    -2.519648     1.353272
O       -2.487770     0.562493    -1.390636
H        0.712214     2.822936    -3.795480
H        0.010170     1.336583    -4.677631
H        1.431846     2.184008    -5.269190
H        2.837807     1.624011    -3.507266
H        2.170519     0.153914    -4.248779
H       -2.204853     4.524027    -1.737327
H       -4.897911     4.870943    -5.018502
H       -3.392738     1.060861    -3.968522
H       -1.579266     4.084261     0.968804
H       -1.601710     3.596135     2.660856
H        1.155004     4.204241     1.764259
H        0.182816     4.896805     3.106421
H        0.055964     5.555073     1.442475
H        1.438779     0.994796     4.111427
H        1.485913     2.686773     3.633669
H       -0.494788     3.156711     4.743785
H       -0.140631     1.577791     5.578743
H       -1.295283     1.590940     4.234405
H        1.186290    -4.278543     2.631055
H        4.699173    -5.129280     4.907255
H        4.302629    -1.363162     2.915847
H        4.175248    -1.348245    -0.926826
H        4.411584     0.152243    -1.815076
H        4.297004    -0.864080    -3.816508
H        2.921015    -1.956045    -3.379635
H        4.573133    -2.368258    -2.867505
H       -4.334287    -2.091593     0.248447
H       -3.631831    -2.734843    -1.292927
H       -5.599867    -1.175140    -1.486925
H       -4.619122     0.105409    -0.779493
H       -4.101034    -0.656260    -2.395955
H       -2.692964    -3.556006     1.761507
H       -0.983483    -3.997823     1.612455
H       -1.783289    -4.224966    -1.079434
H       -3.273420    -4.774011    -0.124421
H       -1.710623    -5.552352     0.159857
85
ex_0135 frame60 all-trans-Λ-conf8
C        3.060253     1.630615     3.746027
C        1.801078     0.803066     3.738572
C        1.505206     0.336364     2.387462
N        0.387121     0.729893     1.858448
O       -0.451423     1.548255     2.408131
B       -1.719460     1.789355     1.758536
C       -2.575735     2.747601     2.736244
C       -1.928675     3.589556     3.648161
C       -2.656436     4.415891     4.496524
Br      -1.813290     5.574049     5.751162
C       -4.027534     4.393080     4.424116
C       -4.676595     3.562707     3.522479
Br      -6.572798     3.534412     3.427252
C       -3.952892     2.741100     2.677373
O       -1.537197     2.418118     0.468674
N       -0.833019     1.802383    -0.420765
C       -0.564453     2.238339    -1.601981
C       -1.218253     3.504998    -1.886478
C       -2.219812     3.484876    -2.992655
C        0.285850     1.451956    -2.399918
C        0.749515     1.667771    -3.764111
C       -0.267717     1.610182    -4.861906
N        0.737989     0.364282    -1.859241
O        1.540938    -0.482756    -2.403065
B        1.763519    -1.748378    -1.730134
C        2.761274    -2.595841    -2.688632
C        3.625646    -1.872038    -3.495961
C        4.515457    -2.502448    -4.349911
Br       5.701190    -1.471264    -5.457018
C        4.551527    -3.884574    -4.406886
C        3.697864    -4.631945    -3.609492
Br       3.771294    -6.526041    -3.710266
C        2.798035    -3.985923    -2.745413
O        2.433873    -1.504405    -0.467437
N        1.838637    -0.766010     0.414136
C        2.298670    -0.492325     1.596976
C        3.593949    -1.075257     1.981894
C        3.396906    -1.948006     3.213559
Fe       0.000000     0.000000     0.000000
N       -1.844422    -0.318046     0.781575
C       -2.323018    -1.440745     0.393671
C       -3.655148    -1.740801     0.886962
C       -3.617011    -2.962156     1.770986
C       -1.542590    -2.255197    -0.446764
C       -1.972523    -3.536128    -0.955262
C       -1.024358    -4.308241    -1.837748
N       -0.371736    -1.834408    -0.784977
O        0.503156    -2.409902    -1.527838
O       -2.413018     0.527496     1.563242
H        3.900538     1.060531     4.195286
H        3.365220     1.926125     2.721390
H        2.923916     2.567917     4.338797
H        1.915828    -0.015739     4.479473
H        0.962577     1.427804     4.108534
H       -0.856876     3.593747     3.688392
H       -4.666875     5.007949     5.052270
H       -4.468344     2.096058     1.978712
H       -0.415793     4.242309    -2.031749
H       -1.761609     3.843277    -0.951064
H       -1.817713     4.013956    -3.864608
H       -2.512712     2.465292    -3.258930
H       -3.131086     4.049097    -2.678872
H        1.514321     0.874415    -4.013030
H        1.303627     2.612107    -3.801965
H       -0.566062     2.598463    -5.251838
H        0.149679     1.061129    -5.756335
H       -1.168560     1.023801    -4.563770
H        3.615146    -0.798870    -3.468024
H        5.262443    -4.328706    -5.088181
H        2.146065    -4.551196    -2.136331
H        4.286208    -0.233807     2.214200
H        4.075096    -1.689798     1.185319
H        2.323733    -2.138883     3.430970
H        3.909727    -1.454718     4.071210
H        3.857628    -2.941046     3.049297
H       -4.287004    -1.994288     0.017748
H       -4.160794    -0.879312     1.381541
H       -4.143403    -2.739532     2.727027
H       -2.584808    -3.290474     2.031779
H       -4.140616    -3.823082     1.332435
H       -2.310205    -4.217874    -0.152581
H       -2.879997    -3.344218    -1.568836
H       -1.479384    -5.283314    -2.130912
H       -0.758423    -3.816432    -2.784224
H       -0.094151    -4.594626    -1.298914
85
ex_0135 frame61 Isomer 2
C       -4.465123     0.208729    -2.573872
C       -3.339955    -0.792267    -2.604651
C       -2.524879    -0.683048    -1.403385
N       -1.289045    -0.363422    -1.576283
O       -0.718251    -0.067356    -2.690088
B        0.711633     0.139860    -2.725771
C        1.113453     0.363223    -4.272529
C        0.171728     0.848906    -5.186905
C        0.506796     1.041569    -6.521966
Br      -0.746345     1.699078    -7.796241
C        1.783938     0.746935    -6.930888
C        2.723923     0.266495    -6.031388
Br       4.488569    -0.140340    -6.602466
C        2.391250     0.075627    -4.702522
O        1.095707     1.288012    -1.933990
N        0.815157     1.285211    -0.684771
C        1.064282     2.241016     0.153022
C        1.808751     3.326749    -0.461817
C        3.176738     3.563872     0.085131
C        0.596170     2.088767     1.472858
C        0.741698     2.972507     2.621522
C        2.119196     3.170167     3.174640
N       -0.069362     1.002948     1.728913
O       -0.603466     0.682766     2.850941
B       -1.117702    -0.665133     3.005583
C       -1.653658    -0.768149     4.532321
C       -2.086758     0.406275     5.129307
C       -2.561670     0.423445     6.430208
Br      -3.154697     2.067714     7.230181
C       -2.609833    -0.751394     7.159898
C       -2.183207    -1.939523     6.586151
Br      -2.261701    -3.534273     7.612696
C       -1.702942    -1.949494     5.266025
O       -2.244085    -0.847652     2.110383
N       -2.059851    -0.725401     0.840449
C       -2.945439    -0.889188    -0.082824
C       -4.298622    -1.273251     0.339961
C       -4.652251    -2.612183    -0.291326
Fe      -0.210475    -0.256896     0.140857
N        1.155225    -1.281695    -0.958974
C        1.732760    -2.222693    -0.269985
C        2.732999    -2.998224    -0.987566
C        2.299627    -4.439874    -1.088173
C        1.346127    -2.396067     1.065987
C        1.911195    -3.394761     1.949738
C        1.392311    -3.476388     3.361691
N        0.417411    -1.600673     1.529921
O       -0.072592    -1.609370     2.718674
O        1.385049    -1.032088    -2.193226
H       -5.431681    -0.295898    -2.364032
H       -4.311220     0.978062    -1.789821
H       -4.559582     0.740982    -3.551884
H       -3.772788    -1.802071    -2.761061
H       -2.711300    -0.593363    -3.497571
H       -0.820566     1.074429    -4.847322
H        2.123942     0.869754    -7.956165
H        3.130912    -0.300855    -4.008892
H        1.159009     4.212775    -0.423924
H        1.926378     3.096307    -1.565680
H        3.185909     4.492868     0.667114
H        3.524732     2.722969     0.691674
H        3.892593     3.717716    -0.758295
H        0.125817     2.557885     3.473235
H        0.279348     3.937819     2.386372
H        2.579823     4.135467     2.903215
H        2.093500     3.170289     4.303977
H        2.799760     2.327809     2.906488
H       -2.058547     1.329436     4.581876
H       -2.988034    -0.685989     8.169632
H       -1.376967    -2.852266     4.825082
H       -5.000778    -0.483959    -0.012956
H       -4.424623    -1.358265     1.445430
H       -3.770610    -3.112445    -0.747041
H       -5.459537    -2.437556    -1.039468
H       -5.031712    -3.305854     0.483452
H        3.660875    -2.985948    -0.386886
H        3.013870    -2.573222    -1.977518
H        2.390042    -4.776383    -2.146308
H        1.243026    -4.609186    -0.777862
H        2.933091    -5.119365    -0.501216
H        1.869380    -4.413612     1.519172
H        2.997587    -3.165170     2.031180
H        1.900311    -4.303571     3.912122
H        1.555131    -2.578676     3.974525
H        0.315053    -3.752387     3.393767
85
ex_0135 frame62 all-trans-Δ-conf5
C        2.195921     0.076535    -4.540501
C        1.893115     1.135800    -3.520450
C        1.554853     0.524499    -2.249513
N        0.362513     0.774078    -1.841955
O       -0.524277     1.474008    -2.450817
B       -1.764528     1.724037    -1.762048
C       -2.734399     2.635920    -2.688422
C       -3.989281     2.956666    -2.227228
C       -4.855257     3.728601    -2.986284
Br      -6.594577     4.160385    -2.331345
C       -4.456269     4.190120    -4.228694
C       -3.198870     3.881162    -4.708144
Br      -2.656363     4.522894    -6.425249
C       -2.335036     3.104417    -3.937546
O       -1.526700     2.392178    -0.493289
N       -0.734587     1.857644     0.357421
C       -0.306992     2.329597     1.461122
C       -0.748890     3.687440     1.780063
C       -1.551220     3.793421     3.043343
C        0.527380     1.520375     2.246723
C        1.070619     1.939048     3.525414
C        1.977492     0.986892     4.273375
N        0.835869     0.334835     1.818003
O        1.569107    -0.510590     2.423559
B        1.748489    -1.776115     1.771500
C        2.665989    -2.742559     2.682524
C        2.343893    -4.074065     2.822832
C        3.119282    -4.922741     3.605081
Br       2.606868    -6.753544     3.748817
C        4.239173    -4.425818     4.259000
C        4.569361    -3.076185     4.117809
Br       6.105670    -2.373990     5.009801
C        3.781339    -2.247278     3.330051
O        2.437578    -1.479062     0.540969
N        1.878663    -0.702056    -0.325485
C        2.376239    -0.292306    -1.438190
C        3.740161    -0.705180    -1.764133
C        4.484915    -1.559390    -0.759994
Fe       0.000000     0.000000     0.000000
N       -1.841239    -0.404160    -0.766896
C       -2.370976    -1.526397    -0.368907
C       -3.713826    -1.818716    -0.869570
C       -3.714455    -3.126872    -1.620078
C       -1.583162    -2.305482     0.486892
C       -1.895702    -3.606837     1.056668
C       -3.098835    -3.691678     1.938595
N       -0.431584    -1.810500     0.815364
O        0.441886    -2.387007     1.576029
O       -2.420113     0.449895    -1.547532
H        1.692067     0.324673    -5.508751
H        3.296879     0.022774    -4.708511
H        1.803285    -0.892127    -4.167784
H        2.715872     1.856939    -3.388530
H        0.996352     1.708652    -3.891925
H       -4.354892     2.621869    -1.262736
H       -5.105698     4.800213    -4.859338
H       -1.349913     2.854023    -4.297246
H       -1.389726     4.084041     0.961248
H        0.150164     4.324992     1.867033
H       -0.917443     4.224875     3.828599
H       -2.407223     4.504765     2.925142
H       -1.989211     2.821714     3.363807
H        1.625399     2.904897     3.421095
H        0.249795     2.175321     4.256135
H        1.479275     0.045933     4.594462
H        2.889111     0.820301     3.671718
H        2.315733     1.566217     5.158604
H        1.472834    -4.450954     2.309398
H        4.822999    -5.094767     4.857334
H        4.067212    -1.224607     3.250915
H        3.682362    -1.239759    -2.728607
H        4.302185     0.238647    -1.961962
H        4.034699    -2.559134    -0.618443
H        4.615801    -0.975458     0.174854
H        5.521318    -1.655655    -1.171555
H       -4.530539    -1.730485    -0.125392
H       -3.955450    -1.045398    -1.655976
H       -4.479746    -3.064395    -2.422321
H       -2.729593    -3.309198    -2.067444
H       -4.049209    -3.968218    -0.974871
H       -1.030957    -3.951897     1.681709
H       -2.025596    -4.322278     0.232860
H       -3.205061    -4.782266     2.179959
H       -4.053500    -3.412289     1.472660
H       -2.941062    -3.215466     2.935800
85
ex_0135 frame63 all-trans-Δ
C        2.147009    -0.092382    -4.638765
C        1.928444     1.017730    -3.625592
C        1.563697     0.454021    -2.310524
N        0.398481     0.810745    -1.823462
O       -0.442251     1.587276    -2.389861
B       -1.741457     1.741854    -1.764678
C       -2.663822     2.681140    -2.691510
C       -4.010026     2.817876    -2.387311
C       -4.808273     3.620687    -3.179147
Br      -6.663279     3.810884    -2.767906
C       -4.256251     4.283992    -4.268902
C       -2.913385     4.159389    -4.585768
Br      -2.161297     5.084245    -6.096732
C       -2.119699     3.354774    -3.793047
O       -1.605110     2.362247    -0.448291
N       -0.803745     1.828105     0.388354
C       -0.425534     2.308233     1.546347
C       -0.961597     3.622048     1.904432
C       -1.781579     3.598747     3.166136
C        0.441793     1.527638     2.315691
C        0.993944     1.870151     3.624653
C        1.816244     3.125252     3.634559
N        0.814999     0.354210     1.829413
O        1.609731    -0.456074     2.386900
B        1.736985    -1.756537     1.759799
C        2.626004    -2.724229     2.696808
C        2.691597    -4.068794     2.398257
C        3.427018    -4.948409     3.165993
Br       3.486577    -6.804906     2.725573
C        4.126243    -4.469301     4.266269
C        4.073965    -3.110274     4.578441
Br       5.015565    -2.399589     6.075940
C        3.324109    -2.242875     3.791061
O        2.371208    -1.598363     0.449580
N        1.829022    -0.794949    -0.409905
C        2.334188    -0.416013    -1.540981
C        3.658068    -0.946048    -1.881081
C        4.621919     0.205038    -2.035858
Fe       0.000000     0.000000     0.000000
N       -1.820558    -0.407419    -0.816354
C       -2.340937    -1.537191    -0.398822
C       -3.674836    -1.899683    -0.919394
C       -3.614391    -3.214824    -1.658692
C       -1.579958    -2.282323     0.495950
C       -1.948749    -3.587304     1.079487
C       -3.220502    -3.499014     1.891436
N       -0.416835    -1.790915     0.868247
O        0.406526    -2.349152     1.650743
O       -2.358342     0.425340    -1.635333
H        1.657060     0.181019    -5.599979
H        1.746713    -1.033859    -4.231479
H        3.224983    -0.244947    -4.847008
H        1.123138     1.708462    -4.013581
H        2.866613     1.613713    -3.598671
H       -4.472191     2.314472    -1.547774
H       -4.904638     4.894661    -4.855105
H       -1.064673     3.233019    -4.006765
H       -1.572101     4.095736     1.104057
H       -0.096979     4.303667     2.037924
H       -1.166231     3.946816     4.008638
H       -2.156383     2.582392     3.378270
H       -2.681610     4.243768     3.061167
H        0.167765     1.957715     4.343839
H        1.630806     1.025594     3.981419
H        2.299221     3.331791     2.660397
H        2.629913     2.993311     4.377062
H        1.229236     3.997733     4.011206
H        2.155184    -4.450090     1.554711
H        4.710313    -5.115861     4.888954
H        3.282599    -1.198520     4.026064
H        3.651771    -1.494637    -2.846982
H        4.046746    -1.700554    -1.147274
H        5.562126    -0.011497    -1.477349
H        4.867118     0.383032    -3.117840
H        4.158855     1.131113    -1.635312
H       -4.390331    -1.993282    -0.080785
H       -4.004232    -1.121159    -1.650453
H       -4.089719    -4.013746    -1.040342
H       -4.146914    -3.145324    -2.613385
H       -2.569935    -3.509689    -1.909016
H       -1.180167    -4.020058     1.745968
H       -2.124599    -4.349836     0.296856
H       -3.133449    -4.004790     2.874048
H       -3.512958    -2.444745     2.111350
H       -4.075057    -3.980033     1.377321
85
ex_0135 frame64 all-trans-conf9_mirror
C       -0.441806     2.766687    -4.381617
C        0.062232     1.413930    -4.000366
C        0.197056     1.249571    -2.502546
N       -0.811632     0.634537    -1.767744
O       -1.498087    -0.330146    -2.529910
B       -1.802541    -1.610416    -1.814207
C       -2.809228    -2.418188    -2.780580
C       -3.375506    -1.780323    -3.912385
C       -4.237308    -2.477432    -4.762016
Br      -4.998933    -1.602648    -6.283007
C       -4.541715    -3.813043    -4.499394
C       -3.991591    -4.452696    -3.382356
Br      -4.407731    -6.281484    -3.037904
C       -3.136720    -3.754204    -2.516994
O       -2.545436    -1.366506    -0.534288
N       -1.768014    -0.907296     0.507618
C       -2.432962     0.034598     1.345355
C       -3.912117    -0.155622     1.583872
C       -4.291864    -1.001372     2.754269
C       -1.724313     1.073935     1.905495
C       -2.125847     1.766271     3.228009
C       -2.283177     0.851134     4.478877
N       -0.559307     1.533839     1.228049
O        0.387667     2.034640     2.068000
B        1.784172     1.652436     1.743964
C        2.702960     2.613882     2.687815
C        2.100281     3.747031     3.269510
C        2.814673     4.617945     4.078168
Br       1.943263     6.147509     4.821252
C        4.157061     4.374657     4.343371
C        4.792410     3.254784     3.785018
Br       6.640097     2.944799     4.165280
C        4.071384     2.365215     2.949385
O        2.144705     1.986663     0.325754
N        1.674358     1.037329    -0.570912
C        1.292543     1.689569    -1.826345
C        2.119917     2.841363    -2.352972
C        3.118577     2.362867    -3.358934
Fe       0.000000     0.000000     0.000000
N        0.415572    -1.784940    -0.909746
C        1.096527    -2.556796     0.078810
C        1.189618    -4.039730    -0.092501
C        2.425187    -4.446385    -0.822582
C        1.652702    -1.946287     1.162322
C        2.808859    -2.586420     1.927148
C        3.738596    -1.626367     2.709402
N        1.123718    -0.687030     1.565314
O        2.035084     0.196483     2.064037
O       -0.554293    -2.438005    -1.601121
H        0.399659     3.362723    -4.779139
H       -0.878565     3.251200    -3.486136
H       -1.235357     2.644024    -5.145275
H        0.984459     1.103795    -4.559588
H       -0.646977     0.657963    -4.397129
H       -3.171722    -0.739887    -4.139328
H       -5.199869    -4.356575    -5.165448
H       -2.722030    -4.258525    -1.655785
H       -4.491726     0.781506     1.422671
H       -4.301225    -0.727698     0.712653
H       -4.788027    -0.340621     3.482254
H       -3.392816    -1.505362     3.160334
H       -5.015650    -1.781178     2.428135
H       -1.254636     2.377203     3.544561
H       -2.939449     2.488782     3.132810
H       -3.354300     0.737820     4.723042
H       -1.847461     1.335779     5.388681
H       -1.787633    -0.143840     4.401958
H        1.065280     3.987215     3.078059
H        4.700970     5.062386     4.981358
H        4.582840     1.510981     2.527304
H        1.507021     3.713655    -2.688653
H        2.683509     3.313467    -1.514181
H        3.133060     1.254123    -3.367788
H        2.834404     2.767968    -4.346767
H        4.127800     2.714935    -3.062044
H        1.032948    -4.549905     0.889611
H        0.283868    -4.405135    -0.635849
H        2.137076    -5.067059    -1.691421
H        2.961045    -3.543564    -1.187471
H        3.058147    -5.002832    -0.109684
H        3.508636    -3.017323     1.170597
H        2.404099    -3.366684     2.577690
H        4.555745    -2.186447     3.194638
H        3.184977    -1.104079     3.515986
H        4.229081    -0.870716     2.039408
