63
ex_0585 frame0 Isomer 5
C       -3.737514     2.888894     0.966527
C       -3.122667     1.662506     0.335925
In      -1.170388     1.601955     0.609258
C       -0.404634     3.042253     1.533813
C       -0.624248     4.352789     0.745325
Ir      -0.195295    -0.372291     0.397769
C       -0.810781    -0.791158     2.108875
C       -0.392927    -1.996352     2.800434
P        2.039340    -0.119854     0.873615
C        2.582412    -1.835371     1.362485
C        3.746747     0.271490     0.327359
C        2.140347     0.999921     2.311744
P        0.170135     0.531712    -1.687678
C       -0.658476     1.110773    -3.206387
C        1.178723     2.056464    -1.489524
C        1.123535    -0.803362    -2.495334
P       -1.504065    -1.856041    -0.776561
C       -1.804917    -2.738459    -2.360072
C       -1.253573    -3.461314     0.096342
C       -3.233863    -1.332193    -0.620753
H       -4.843253     2.785719     0.941999
H       -3.511340     3.788163     0.369249
H       -3.426893     3.008760     2.026887
H       -3.412317     1.623039    -0.732546
H       -3.527543     0.820140     0.913895
H       -0.804670     3.130409     2.565252
H        0.665788     2.925865     1.561502
H       -0.245574     4.330327    -0.285025
H       -1.672711     4.673285     0.734545
H       -0.074228     5.164023     1.267563
H        0.655195    -1.757746    -0.019314
H       -1.897984    -0.927921     1.952627
H       -0.744503     0.033713     2.850667
H       -1.186428    -2.349114     3.495687
H       -0.038424    -2.813084     2.167030
H        0.451295    -1.733793     3.469686
H        2.538448    -2.563126     0.528392
H        3.630332    -1.839114     1.726891
H        2.048445    -2.225272     2.225171
H        4.009928    -0.395666    -0.525241
H        4.502127     0.140806     1.133540
H        3.802842     1.315642    -0.032149
H        2.399303     2.023925     1.998482
H        3.007602     0.690823     2.931910
H        1.252439     0.939115     2.962749
H       -1.263494     2.011003    -2.955102
H        0.035803     1.339142    -4.034316
H       -1.384454     0.329074    -3.517683
H        0.539266     2.941097    -1.601738
H        1.723488     2.114370    -0.537841
H        1.914166     2.106055    -2.318554
H        0.468116    -1.584766    -2.899726
H        1.663896    -0.366450    -3.362086
H        1.883863    -1.236901    -1.822920
H       -0.888240    -3.313124    -2.622090
H       -2.641142    -3.464046    -2.309980
H       -2.000476    -2.004983    -3.165261
H       -1.677705    -3.407944     1.111369
H       -0.197929    -3.803525     0.065402
H       -1.868225    -4.272443    -0.344500
H       -3.906260    -2.151246    -0.953506
H       -3.493441    -1.203161     0.441218
H       -3.437444    -0.463211    -1.262739
63
ex_0585 frame1 Isomer 4
C        0.129153    -1.617030     4.678741
C        1.159086    -1.128062     3.681410
In       0.402107     0.058190     2.446093
C        0.482784     2.041102     3.171814
C       -0.459205     2.233696     4.301109
Ir       0.316259    -0.014450     0.190058
C        2.143846     0.124238     0.246605
C        2.986651    -0.926196     0.885482
P       -1.981634     0.126895     0.169607
C       -2.851724    -1.126930     1.292286
C       -2.897201     1.531784     1.032910
C       -3.228007    -0.255319    -1.198108
P        0.409868    -1.828804    -1.228175
C        0.644105    -3.244839    -0.025571
C       -0.441255    -2.970221    -2.384989
C        1.822909    -1.663446    -2.401719
P        0.448458     1.382238    -1.634401
C       -1.029572     2.451410    -1.583197
C        0.681508     1.599358    -3.440907
C        1.797959     2.570191    -1.217880
H       -0.678698    -2.181308     4.163710
H       -0.319600    -0.771903     5.241394
H        0.616811    -2.296207     5.409441
H        1.977253    -0.602183     4.217278
H        1.551107    -2.036072     3.180649
H        1.517529     2.298640     3.481359
H        0.184648     2.697495     2.326834
H       -1.493627     1.957902     4.021154
H       -0.144765     1.614408     5.166041
H       -0.449928     3.298654     4.614609
H       -0.483286    -1.532832     0.912091
H        2.571515     0.198504    -0.747653
H        2.423849     1.070253     0.756197
H        2.929501    -1.894131     0.368507
H        2.937516    -1.023050     1.965850
H        4.046447    -0.622747     0.737551
H       -2.458396    -1.062650     2.326123
H       -3.948008    -0.954039     1.335827
H       -2.692891    -2.155213     0.906358
H       -3.988310     1.345477     1.074144
H       -2.764543     2.516453     0.565096
H       -2.530576     1.596992     2.073584
H       -3.158191    -1.331603    -1.454502
H       -3.059371     0.286039    -2.140652
H       -4.264725    -0.042573    -0.861337
H        1.111273    -4.118569    -0.517035
H        1.252355    -2.996823     0.855771
H       -0.333996    -3.595136     0.364885
H       -0.740797    -2.425718    -3.301705
H        0.182228    -3.845556    -2.666510
H       -1.360831    -3.356797    -1.897953
H        2.783202    -1.323668    -2.008567
H        2.106456    -2.677650    -2.751622
H        1.532768    -1.098433    -3.296671
H       -0.901179     3.316595    -2.265314
H       -1.956659     1.980887    -1.901002
H       -1.081924     2.899498    -0.580615
H        1.653584     1.157403    -3.739827
H       -0.128751     1.047861    -3.966737
H        0.661923     2.658683    -3.767645
H        1.674062     2.927226    -0.175581
H        1.706798     3.471330    -1.860145
H        2.814934     2.175462    -1.402424
