49
ex_0291 frame0 TBP-5-chelate-1
Zn       0.000000     0.000000     0.000000
C       -0.202728     0.259296    -5.023299
O       -0.906903     0.171316    -3.863524
C       -0.279184     0.698325    -2.713612
C       -1.110401     1.815499    -2.283693
C       -1.496457     2.742458    -3.251848
C       -2.268437     3.848094    -2.963130
Br      -2.759577     5.091279    -4.322804
C       -2.705753     4.085984    -1.688921
C       -2.350060     3.190342    -0.720412
Br      -2.965245     3.529352     1.059247
C       -1.564625     2.056271    -1.007007
O       -1.349151     1.306233     0.089148
N       -0.690454    -1.754848     0.410708
C       -0.456182    -2.488341    -0.823962
C       -0.720024    -1.480706    -1.968393
N        0.127173    -0.297043    -1.902759
C        1.510861    -0.710524    -2.059654
C        2.513280     0.147994    -1.206707
N        1.925165    -0.072718     0.115558
C        2.536211    -0.271798     1.183316
C        1.883959    -0.480061     2.471066
C        2.540049    -1.155473     3.479830
C        1.902453    -1.334332     4.694066
Br       2.803674    -2.265574     6.101256
C        0.629267    -0.837899     4.866997
C       -0.000368    -0.170999     3.840388
Br      -1.763876     0.490360     4.149237
C        0.616989     0.045629     2.613720
O       -0.089996     0.733020     1.728868
H       -0.814852    -0.131276    -5.890415
H        0.668388    -0.480858    -5.050735
H        0.258509     1.216072    -5.284093
H        0.672174     1.154908    -3.158443
H       -1.206562     2.647980    -4.294843
H       -3.309306     4.945865    -1.448013
H       -1.686683    -1.692528     0.680176
H       -0.060430    -2.170321     1.120202
H        0.516037    -2.968203    -0.882341
H       -1.244511    -3.236950    -0.875820
H       -1.783127    -1.275054    -1.982880
H       -0.439902    -2.010149    -2.895636
H        1.826035    -0.495447    -3.082276
H        1.726522    -1.740812    -1.811075
H        2.422234     1.212507    -1.463608
H        3.516514    -0.258090    -1.259564
H        3.613831    -0.290030     1.157844
H        3.529841    -1.531293     3.318708
H        0.112125    -0.971942     5.823116
49
ex_0291 frame1 TBP-5-chelate-1-beta
Zn       0.000000     0.000000     0.000000
C       -0.432367    -0.181339    -4.968623
O       -1.095464    -0.184441    -3.754738
C       -0.408364     0.534281    -2.739531
C       -1.294223     1.606410    -2.340490
C       -1.932060     2.327967    -3.363033
C       -2.794817     3.363356    -3.114877
Br      -3.632512     4.305147    -4.544801
C       -3.089720     3.762719    -1.834482
C       -2.481371     3.077986    -0.811520
Br      -2.886040     3.626727     0.970848
C       -1.590583     2.010586    -1.056804
O       -1.124548     1.504070     0.086978
N       -0.652546    -1.764692     0.430055
C       -0.193761    -2.624192    -0.675749
C       -0.456481    -1.668768    -1.879808
N        0.175550    -0.345532    -1.890685
C        1.593725    -0.550726    -2.090759
C        2.340641     0.518378    -1.278135
N        1.914727     0.228543     0.080548
C        2.583142     0.133745     1.097689
C        1.977596    -0.167532     2.383515
C        2.752295    -0.798575     3.355644
C        2.157955    -1.082768     4.581436
Br       3.247513    -1.949788     5.892026
C        0.845519    -0.743823     4.810915
C        0.103592    -0.112538     3.813862
Br      -1.707771     0.333455     4.186504
C        0.685894     0.199558     2.592018
O       -0.030109     0.836799     1.683229
H       -0.208648     0.777471    -5.416727
H        0.473453    -0.860225    -4.974952
H       -1.102598    -0.693969    -5.742388
H        0.452982     0.990489    -3.322980
H       -1.771989     2.090995    -4.410036
H       -3.766898     4.576142    -1.623863
H       -0.264460    -2.046864     1.342184
H       -1.656329    -1.700148     0.463961
H        0.842290    -2.840737    -0.522733
H       -0.825038    -3.484839    -0.721788
H       -0.133852    -2.235863    -2.760183
H       -1.545856    -1.557363    -1.926233
H        1.821371    -0.318333    -3.139474
H        1.953331    -1.527927    -1.809974
H        3.411033     0.252247    -1.302460
H        2.149652     1.530492    -1.602333
H        3.636964     0.277432     1.026568
H        3.792733    -1.065772     3.169841
H        0.404456    -0.979762     5.784639
49
ex_0291 frame2 TBP-5-chelate-1-conf3
Zn       0.000000     0.000000     0.000000
C       -1.011894    -2.031608    -4.436419
O       -1.273163    -1.888728    -3.104468
C       -1.017512    -0.573616    -2.600676
C       -2.268943    -0.018314    -2.078898
C       -3.426104    -0.315416    -2.821939
C       -4.673122     0.093090    -2.460857
Br      -6.211984    -0.363401    -3.502467
C       -4.838815     0.843629    -1.334933
C       -3.721222     1.161892    -0.599689
Br      -4.014444     2.217379     0.972945
C       -2.447620     0.751719    -0.975319
O       -1.469560     1.154414    -0.205234
N       -0.443185    -1.610063     0.967565
C        0.493364    -2.470858     0.193723
C        0.123192    -2.181404    -1.281561
N        0.063646    -0.794424    -1.757765
C        1.251582    -0.339734    -2.413436
C        2.371701    -0.625982    -1.406647
N        1.911400     0.103114    -0.246614
C        2.680194     0.706525     0.484684
C        2.288592     1.459973     1.666186
C        3.204014     1.694212     2.670769
C        2.840430     2.409361     3.790424
Br       4.055327     2.769215     5.211970
C        1.542783     2.863765     3.847043
C        0.629676     2.626958     2.837569
Br      -1.119518     3.328249     3.067403
C        0.989259     1.926403     1.700788
O        0.084302     1.737839     0.712186
H       -1.568448    -1.349156    -5.122359
H       -1.393047    -3.057889    -4.782165
H        0.025690    -2.002362    -4.760564
H       -0.686437    -0.014910    -3.480490
H       -3.363651    -0.918672    -3.732718
H       -5.814202     1.169965    -1.040711
H       -0.211784    -1.540176     1.947866
H       -1.380410    -1.864363     0.678273
H        1.504336    -2.345626     0.471093
H        0.135569    -3.486342     0.372997
H        0.836239    -2.752370    -1.887109
H       -0.884450    -2.611442    -1.446165
H        1.418035    -0.819598    -3.358862
H        1.190330     0.767738    -2.451173
H        3.286374    -0.100794    -1.791657
H        2.625573    -1.648772    -1.283384
H        3.743189     0.696158     0.254177
H        4.206246     1.335672     2.612608
H        1.257489     3.425416     4.726337
49
ex_0291 frame3 TBP-5-chelate-1-conf4
Zn       0.000000     0.000000     0.000000
C       -1.178446    -0.649797    -4.490369
O       -1.377206    -1.479060    -3.405751
C       -1.273349    -0.988359    -2.183631
C       -2.591549    -0.833572    -1.471429
C       -3.658138    -1.671806    -1.694715
C       -4.827640    -1.387436    -0.999499
Br      -6.350977    -2.480995    -1.273130
C       -4.899838    -0.322503    -0.112945
C       -3.816964     0.499524     0.118011
Br      -3.878585     1.969275     1.326417
C       -2.636084     0.230980    -0.578972
O       -1.540322     1.007470    -0.383162
N       -0.213879    -1.085469     1.581427
C       -0.243029    -2.353315     0.964536
C       -0.887353    -2.452142    -0.425952
N       -0.280956    -1.431691    -1.263418
C        0.895099    -1.731165    -1.954435
C        2.055291    -1.497555    -0.962497
N        1.848572    -0.175589    -0.526166
C        2.676121     0.717226    -0.490520
C        2.457130     2.094097    -0.048847
C        3.449711     2.887864     0.478971
C        3.092542     4.174736     0.836773
Br       4.438445     5.326988     1.567623
C        1.783996     4.644571     0.677079
C        0.787137     3.835080     0.151438
Br      -1.003639     4.432370    -0.082930
C        1.147203     2.567860    -0.216247
O        0.220172     1.699716    -0.772587
H       -1.309661    -1.256355    -5.423370
H       -1.965635     0.149940    -4.442985
H       -0.206695    -0.172024    -4.539255
H       -0.960980     0.156932    -2.355247
H       -3.567035    -2.481324    -2.383066
H       -5.819956    -0.100846     0.431987
H       -1.100779    -0.747741     1.972398
H        0.612862    -0.929390     2.138640
H        0.643240    -2.923731     1.025633
H       -0.986647    -2.954134     1.641726
H       -1.960787    -2.372916    -0.290114
H       -0.642674    -3.421689    -0.894741
H        1.062107    -0.992385    -2.741507
H        0.951811    -2.749811    -2.370999
H        2.130499    -2.227878    -0.224625
H        2.998278    -1.453202    -1.606932
H        3.676812     0.480822    -0.820742
H        4.435313     2.481351     0.581039
H        1.551554     5.641407     0.964787
49
ex_0291 frame4 TBP-5-chelate-1_mirror
Zn       0.000000     0.000000     0.000000
C       -0.202728     0.259296     5.023299
O       -0.906903     0.171316     3.863524
C       -0.279184     0.698325     2.713612
C       -1.110401     1.815499     2.283693
C       -1.496457     2.742458     3.251848
C       -2.268437     3.848094     2.963130
Br      -2.759577     5.091279     4.322804
C       -2.705753     4.085984     1.688921
C       -2.350060     3.190342     0.720412
Br      -2.965245     3.529352    -1.059247
C       -1.564625     2.056271     1.007007
O       -1.349151     1.306233    -0.089148
N       -0.690454    -1.754848    -0.410708
C       -0.456182    -2.488341     0.823962
C       -0.720024    -1.480706     1.968393
N        0.127173    -0.297043     1.902759
C        1.510861    -0.710524     2.059654
C        2.513280     0.147994     1.206707
N        1.925165    -0.072718    -0.115558
C        2.536211    -0.271798    -1.183316
C        1.883959    -0.480061    -2.471066
C        2.540049    -1.155473    -3.479830
C        1.902453    -1.334332    -4.694066
Br       2.803674    -2.265574    -6.101256
C        0.629267    -0.837899    -4.866997
C       -0.000368    -0.170999    -3.840388
Br      -1.763876     0.490360    -4.149237
C        0.616989     0.045629    -2.613720
O       -0.089996     0.733020    -1.728868
H       -0.814852    -0.131276     5.890415
H        0.668388    -0.480858     5.050735
H        0.258509     1.216072     5.284093
H        0.672174     1.154908     3.158443
H       -1.206562     2.647980     4.294843
H       -3.309306     4.945865     1.448013
H       -1.686683    -1.692528    -0.680176
H       -0.060430    -2.170321    -1.120202
H        0.516037    -2.968203     0.882341
H       -1.244511    -3.236950     0.875820
H       -1.783127    -1.275054     1.982880
H       -0.439902    -2.010149     2.895636
H        1.826035    -0.495447     3.082276
H        1.726522    -1.740812     1.811075
H        2.422234     1.212507     1.463608
H        3.516514    -0.258090     1.259564
H        3.613831    -0.290030    -1.157844
H        3.529841    -1.531293    -3.318708
H        0.112125    -0.971942    -5.823116
