101
ex_0539 frame0 tetrahedral-conf3
C       -3.542572     2.595948    -2.312425
S       -2.594382     1.255521    -1.562698
O       -3.118533    -0.106693    -2.031202
O       -2.890178     1.158548    -0.059197
N       -0.853125     1.074331    -1.653781
C       -0.169081     0.813048    -2.860777
C       -0.380962     1.598724    -3.990916
C        0.318121     1.323942    -5.164348
C        1.217274     0.237380    -5.232022
N        1.915345    -0.043598    -6.444400
O        2.662793    -0.972756    -6.511330
O        1.760270     0.647238    -7.406496
C        1.414298    -0.564446    -4.085150
C        0.738630    -0.266030    -2.896940
O        0.911677    -0.972167    -1.752646
C        1.552552    -2.111580    -1.403105
C        1.117059    -3.379028    -1.819006
C        1.767719    -4.529028    -1.338940
C        2.871995    -4.411223    -0.485851
C        3.336397    -3.146425    -0.120909
C        2.687349    -2.004218    -0.598525
Ag       0.000000     0.000000     0.000000
As       1.524205     1.524205     1.524205
C        2.450283     0.623503     3.039016
C        2.256024     0.977521     4.387857
C        2.926359     0.289637     5.408454
C        3.805163    -0.749939     5.098622
C        4.010841    -1.107092     3.768894
C        3.345359    -0.420408     2.752935
C        0.635824     2.995010     2.471630
C        1.334754     3.889010     3.297201
C        0.646418     4.905533     3.969080
C       -0.736831     5.039766     3.810427
C       -1.432472     4.161553     2.975967
C       -0.747122     3.144977     2.307763
C        2.960841     2.545356     0.648926
C        2.750215     3.885074     0.283015
C        3.754739     4.607431    -0.368891
C        4.984920     4.005784    -0.642513
C        5.209395     2.679913    -0.268510
C        4.205658     1.955184     0.379954
As      -1.524205    -1.524205     1.524205
C       -3.399084    -1.710895     0.929355
C       -3.668012    -2.337429    -0.297016
C       -4.982015    -2.477920    -0.753451
C       -6.043761    -1.998573     0.015361
C       -5.790753    -1.373666     1.237838
C       -4.477153    -1.234766     1.697386
C       -1.799512    -1.077505     3.412924
C       -2.599362    -1.852065     4.266074
C       -2.771469    -1.467808     5.602748
C       -2.138604    -0.319027     6.091512
C       -1.331701     0.443957     5.246170
C       -1.166958     0.061235     3.914861
C       -0.955436    -3.389006     1.807253
C        0.169705    -3.622042     2.612388
C        0.629020    -4.925583     2.830114
C       -0.032394    -6.007979     2.245529
C       -1.157376    -5.788090     1.450185
C       -1.624906    -4.488124     1.240365
H       -3.657590     2.401159    -3.397156
H       -3.051204     3.568683    -2.120605
H       -4.549988     2.600315    -1.841765
H       -1.058877     2.442207    -3.950611
H        0.156280     1.966131    -6.020132
H        2.102884    -1.398874    -4.107174
H        0.242926    -3.482113    -2.446780
H        1.407614    -5.513670    -1.608186
H        3.364172    -5.297018    -0.101258
H        4.186589    -3.050748     0.544028
H        3.027177    -1.023200    -0.310850
H        1.571779     1.756079     4.673468
H        2.759175     0.557242     6.443272
H        4.319643    -1.285327     5.886450
H        4.681681    -1.920871     3.521359
H        3.516539    -0.734321     1.746328
H        2.404195     3.788720     3.428584
H        1.183238     5.587006     4.615729
H       -1.269965     5.823753     4.332366
H       -2.502596     4.264570     2.849312
H       -1.293083     2.465205     1.667640
H        1.799415     4.364664     0.468865
H        3.576495     5.631722    -0.669181
H        5.760870     4.563203    -1.150970
H        6.159368     2.209400    -0.487828
H        4.404201     0.931784     0.640420
H       -2.854184    -2.700766    -0.911541
H       -5.175963    -2.953062    -1.706357
H       -7.060911    -2.103026    -0.339852
H       -6.613353    -0.990765     1.828132
H       -4.317113    -0.730096     2.636503
H       -3.094479    -2.738918     3.894141
H       -3.396641    -2.056931     6.260045
H       -2.271048    -0.019697     7.123148
H       -0.835908     1.331975     5.618363
H       -0.546493     0.648310     3.268145
H        0.695766    -2.791176     3.064819
H        1.500451    -5.097230     3.448046
H        0.325922    -7.016595     2.406467
H       -1.668075    -6.625689     0.991720
H       -2.490808    -4.366589     0.619452
101
ex_0539 frame1 
C        0.402460     1.060506     4.626888
S       -0.889722     0.700219     3.464663
O       -1.146563    -0.761355     3.466638
O       -2.174167     1.386271     3.971831
N       -0.416537     1.272301     1.988385
C       -0.118850     2.577716     1.482002
C        0.341874     3.615036     2.338029
C        0.627136     4.868839     1.893717
C        0.465927     5.135172     0.560720
N        0.751467     6.429149     0.031451
O        1.150868     7.330132     0.799964
O        0.610603     6.742889    -1.287846
C        0.028768     4.147281    -0.256282
C       -0.275323     2.829212     0.200607
O       -0.720548     1.849300    -0.679852
C       -1.298572     1.876042    -1.849406
C       -2.634869     2.284568    -1.984052
C       -3.269297     2.322048    -3.206826
C       -2.635152     1.961531    -4.372525
C       -1.321615     1.557105    -4.263689
C       -0.679369     1.519114    -3.029195
Ag      -0.153151     0.174210     0.297870
As       1.831967    -0.247370     0.030756
C        2.217077    -1.204367    -1.635328
C        2.575123    -0.543952    -2.795354
C        2.871406    -1.201364    -3.973907
C        2.805314    -2.563009    -4.028360
C        2.438484    -3.267853    -2.888637
C        2.147035    -2.580161    -1.721199
C        2.691388    -1.295144     1.395530
C        3.903193    -1.898862     1.064269
C        4.586735    -2.646192     1.993324
C        4.122193    -2.849896     3.277384
C        2.918520    -2.265458     3.610761
C        2.239231    -1.513044     2.663284
C        2.895871     1.421885    -0.033160
C        3.930955     1.637379     0.845633
C        4.711418     2.782889     0.837452
C        4.447773     3.753890    -0.078821
C        3.411986     3.554505    -0.961929
C        2.636875     2.405476    -0.946157
As      -1.686242    -1.235703     0.099601
C       -1.513973    -2.707021     1.374525
C       -0.347497    -3.376513     1.597015
C       -0.242921    -4.426569     2.493928
C       -1.341013    -4.839401     3.219054
C       -2.523218    -4.180241     3.020273
C       -2.616818    -3.140916     2.129688
C       -3.408546    -0.415685     0.517448
C       -3.575657     0.816988     1.032764
C       -4.801707     1.376243     1.323757
C       -5.925043     0.615362     1.064511
C       -5.764655    -0.636010     0.539776
C       -4.526453    -1.191419     0.250121
C       -1.715759    -1.921672    -1.683582
C       -1.036118    -3.117484    -1.959121
C       -1.040224    -3.683406    -3.214025
C       -1.700243    -3.092376    -4.262577
C       -2.364637    -1.903939    -4.016947
C       -2.348901    -1.355954    -2.760731
H        0.376750     0.235992     5.396250
H        0.127473     1.965102     5.198515
H        1.392918     1.157381     4.181918
H        0.480591     3.429914     3.394618
H        0.973045     5.643941     2.561052
H       -0.090474     4.390818    -1.310318
H       -3.219749     2.599034    -1.133037
H       -4.305570     2.643323    -3.260256
H       -3.128358     1.989314    -5.310336
H       -0.804059     1.270528    -5.174180
H        0.345699     1.188020    -3.056950
H        2.653440     0.529616    -2.815312
H        3.158033    -0.638331    -4.859581
H        3.040001    -3.067874    -4.958180
H        2.390608    -4.349579    -2.949041
H        1.868124    -3.161752    -0.875789
H        4.345283    -1.789779     0.069520
H        5.547154    -3.106793     1.715582
H        4.706904    -3.442392     3.950309
H        2.510145    -2.401504     4.615280
H        1.322877    -1.080968     2.951871
H        4.186541     0.890326     1.602469
H        5.522097     2.925339     1.535825
H        5.020371     4.662742    -0.128894
H        3.210134     4.328769    -1.680361
H        1.850155     2.349918    -1.662820
H        0.517883    -3.105984     1.053775
H        0.703834    -4.919141     2.622862
H       -1.277142    -5.652843     3.919913
H       -3.400470    -4.493207     3.586169
H       -3.577260    -2.662960     2.020625
H       -2.709056     1.421958     1.234812
H       -4.857371     2.364052     1.733905
H       -6.874441     1.074356     1.299557
H       -6.663002    -1.213734     0.344248
H       -4.448622    -2.182185    -0.162851
H       -0.493878    -3.646287    -1.189429
H       -0.515119    -4.621260    -3.400241
H       -1.666394    -3.581497    -5.215977
H       -2.885086    -1.442910    -4.851719
H       -2.882563    -0.447062    -2.604761
101
ex_0539 frame2 
C        0.402460     1.060506     4.626888
S       -0.889722     0.700219     3.464663
O       -1.146563    -0.761355     3.466638
O       -2.174167     1.386271     3.971831
N       -0.416537     1.272301     1.988385
C       -0.119759     2.577986     1.482165
C        0.341874     3.615036     2.338029
C        0.627136     4.868839     1.893717
C        0.466012     5.135147     0.560705
N        0.751494     6.429141     0.031446
O        1.150868     7.330132     0.799964
O        0.610603     6.742889    -1.287846
C        0.028768     4.147281    -0.256282
C       -0.275637     2.829304     0.200663
O       -0.720548     1.849300    -0.679852
C       -1.298572     1.876042    -1.849406
C       -2.634869     2.284568    -1.984052
C       -3.269297     2.322048    -3.206826
C       -2.635152     1.961531    -4.372525
C       -1.321615     1.557105    -4.263689
C       -0.679369     1.519114    -3.029195
Ag      -0.153151     0.174210     0.297870
As       1.831967    -0.247370     0.030756
C        2.217077    -1.204367    -1.635328
C        2.575123    -0.543952    -2.795354
C        2.871406    -1.201364    -3.973907
C        2.805314    -2.563009    -4.028360
C        2.438484    -3.267853    -2.888637
C        2.147035    -2.580161    -1.721199
C        2.691388    -1.295144     1.395530
C        3.903193    -1.898862     1.064269
C        4.586735    -2.646192     1.993324
C        4.122193    -2.849896     3.277384
C        2.918520    -2.265458     3.610761
C        2.239231    -1.513044     2.663284
C        2.895871     1.421885    -0.033160
C        3.930955     1.637379     0.845633
C        4.711418     2.782889     0.837452
C        4.447773     3.753890    -0.078821
C        3.411986     3.554505    -0.961929
C        2.636875     2.405476    -0.946157
As      -1.686242    -1.235703     0.099601
C       -1.513973    -2.707021     1.374525
C       -0.347497    -3.376513     1.597015
C       -0.242921    -4.426569     2.493928
C       -1.341013    -4.839401     3.219054
C       -2.523218    -4.180241     3.020273
C       -2.616818    -3.140916     2.129688
C       -3.408546    -0.415685     0.517448
C       -3.575657     0.816988     1.032764
C       -4.801707     1.376243     1.323757
C       -5.925043     0.615362     1.064511
C       -5.764655    -0.636010     0.539776
C       -4.526453    -1.191419     0.250121
C       -1.715759    -1.921672    -1.683582
C       -1.036118    -3.117484    -1.959121
C       -1.040224    -3.683406    -3.214025
C       -1.700243    -3.092376    -4.262577
C       -2.364637    -1.903939    -4.016947
C       -2.348901    -1.355954    -2.760731
H        0.376750     0.235992     5.396250
H        0.127473     1.965102     5.198515
H        1.392918     1.157381     4.181918
H        0.480591     3.429914     3.394618
H        0.973045     5.643941     2.561052
H       -0.090474     4.390818    -1.310318
H       -3.219749     2.599034    -1.133037
H       -4.305570     2.643323    -3.260256
H       -3.128358     1.989314    -5.310336
H       -0.804059     1.270528    -5.174180
H        0.345699     1.188020    -3.056950
H        2.653440     0.529616    -2.815312
H        3.158033    -0.638331    -4.859581
H        3.040001    -3.067874    -4.958180
H        2.390608    -4.349579    -2.949041
H        1.868124    -3.161752    -0.875789
H        4.345283    -1.789779     0.069520
H        5.547154    -3.106793     1.715582
H        4.706904    -3.442392     3.950309
H        2.510145    -2.401504     4.615280
H        1.322877    -1.080968     2.951871
H        4.186541     0.890326     1.602469
H        5.522097     2.925339     1.535825
H        5.020371     4.662742    -0.128894
H        3.210134     4.328769    -1.680361
H        1.850155     2.349918    -1.662820
H        0.517883    -3.105984     1.053775
H        0.703834    -4.919141     2.622862
H       -1.277142    -5.652843     3.919913
H       -3.400470    -4.493207     3.586169
H       -3.577260    -2.662960     2.020625
H       -2.709056     1.421958     1.234812
H       -4.857371     2.364052     1.733905
H       -6.874441     1.074356     1.299557
H       -6.663002    -1.213734     0.344248
H       -4.448622    -2.182185    -0.162851
H       -0.493878    -3.646287    -1.189429
H       -0.515119    -4.621260    -3.400241
H       -1.666394    -3.581497    -5.215977
H       -2.885086    -1.442910    -4.851719
H       -2.882563    -0.447062    -2.604761
