83
ex_0076 frame0 N1-trans-Λ-conf7
F        2.627071     2.604605    -2.553352
B        1.767166     1.768548    -1.707688
O        1.351482     0.606461    -2.541837
N        0.277603    -0.076138    -2.022316
C        0.235945    -1.428342    -2.356346
C        0.707677    -1.805252    -3.699847
C        2.083584    -1.620656    -4.016048
C        2.569116    -1.949660    -5.285116
C        1.688960    -2.465621    -6.236493
C        0.339158    -2.647565    -5.914986
C       -0.143310    -2.325576    -4.643844
C       -0.240088    -2.345000    -1.426486
C       -0.828599    -3.663871    -1.795422
C       -2.207561    -3.922911    -1.516392
C       -2.765555    -5.174261    -1.804773
C       -1.973033    -6.164177    -2.379414
C       -0.630924    -5.888533    -2.676941
C       -0.072683    -4.635947    -2.398336
N       -0.175404    -2.036829    -0.051189
O       -1.199687    -2.563295     0.652556
B       -1.708464    -1.707064     1.776101
F       -2.571167    -2.587073     2.599818
O       -0.616594    -1.179838     2.618350
N        0.002779    -0.127178     2.042488
C        1.383977    -0.214121     2.361525
C        1.709565    -0.830694     3.697430
C        1.076198    -0.383466     4.836103
C        1.372207    -0.925978     6.084088
C        2.321578    -1.943497     6.203224
C        2.953032    -2.440045     5.062524
C        2.672472    -1.880459     3.803945
C        2.315770     0.257946     1.481632
C        3.629344     0.790402     1.899808
C        4.719152     0.632546     1.058212
C        5.962687     1.116221     1.413280
C        6.134848     1.761338     2.630914
C        5.053357     1.952311     3.486152
C        3.792046     1.458468     3.145110
N        2.029564     0.249997     0.085871
O        2.569948     1.341824    -0.542775
Fe       0.000000     0.000000     0.000000
N       -0.015835     2.041070    -0.161452
C       -1.392596     2.392054    -0.203733
N       -1.699136     3.701185    -0.772834
C       -2.630514     3.915433    -1.725930
C       -2.584195     5.279959    -1.971977
N       -1.639204     5.854325    -1.173003
C       -1.114301     4.844978    -0.437965
C       -2.323653     1.504719     0.289917
N       -3.598563     1.928594     0.832282
C       -3.938848     3.183304     1.168154
C       -5.241613     3.079016     1.623617
N       -5.657136     1.786543     1.573081
C       -4.618831     1.098357     1.070542
N       -2.025379     0.090366     0.274590
O       -2.554683    -0.593596     1.319427
O        0.596104     2.583605    -1.247821
H        2.785284    -1.220771    -3.286121
H        3.618539    -1.807032    -5.531369
H        2.042859    -2.725666    -7.224722
H       -0.334975    -3.036663    -6.657724
H       -1.176309    -2.437274    -4.380449
H       -2.864454    -3.183692    -1.066975
H       -3.805464    -5.381952    -1.573358
H       -2.402440    -7.139857    -2.589230
H       -0.012164    -6.652385    -3.111573
H        0.957295    -4.414629    -2.600166
H        0.337010     0.390029     4.714597
H        0.875719    -0.540922     6.960105
H        2.566776    -2.354743     7.173857
H        3.669749    -3.246679     5.160517
H        3.158784    -2.326349     2.945464
H        4.585001     0.144196     0.103406
H        6.798246     0.976012     0.750389
H        7.108481     2.119515     2.912248
H        5.210320     2.475051     4.414189
H        2.967203     1.664495     3.823501
H       -3.239197     3.201191    -2.272010
H       -3.197120     5.819905    -2.695597
H       -0.318647     4.934459     0.285755
H       -3.344504     4.087806     1.146272
H       -5.857605     3.892249     1.972310
H       -4.629788     0.028432     0.918769
83
ex_0076 frame1 N1-trans-Λ-conf5
F        2.603915     2.612776    -2.633872
B        1.772095     1.753487    -1.780040
O        1.395258     0.521499    -2.519394
N        0.153252    -0.012140    -2.060645
C        0.154697    -1.424855    -2.405016
C        0.701463    -1.788289    -3.743279
C        0.262422    -1.004309    -4.773485
C        0.640678    -1.248386    -6.067256
C        1.506074    -2.299401    -6.343898
C        2.013272    -3.096177    -5.310775
C        1.611051    -2.855600    -3.990691
C       -0.346832    -2.341421    -1.503219
C       -0.977374    -3.628183    -1.896109
C       -0.934720    -4.651417    -0.955979
C       -1.454052    -5.894284    -1.219357
C       -2.041156    -6.143377    -2.445764
C       -2.130554    -5.124046    -3.397491
C       -1.596989    -3.853304    -3.137376
N       -0.258952    -2.034558    -0.072964
O       -1.478200    -2.491506     0.512263
B       -1.773691    -1.773391     1.776709
F       -2.573747    -2.660721     2.614023
O       -0.513598    -1.445172     2.496362
N        0.002947    -0.277104     2.024122
C        1.403398    -0.206407     2.362998
C        1.772852    -0.702193     3.717481
C        1.129574    -0.142875     4.788844
C        1.398411    -0.534539     6.081067
C        2.348829    -1.522726     6.325647
C        3.013053    -2.128665     5.249563
C        2.751685    -1.716603     3.930439
C        2.314264     0.304753     1.449868
C        3.607488     0.923244     1.890457
C        3.719326     1.833250     2.984914
C        4.983449     2.346466     3.330954
C        6.107932     1.940531     2.609404
C        5.966054     1.064370     1.532679
C        4.726406     0.574151     1.181140
N        2.028612     0.253641    -0.017279
O        2.543557     1.410714    -0.561924
Fe       0.000000     0.000000     0.000000
N        0.123067     2.029202    -0.106888
C       -1.426903     2.373142    -0.177406
N       -1.823157     3.652252    -0.793791
C       -1.283505     4.752599    -0.318023
C       -1.815232     5.785244    -1.033888
N       -2.672011     5.297818    -1.977988
C       -2.676233     3.950952    -1.806657
C       -2.361021     1.424977     0.359135
N       -3.657630     1.799325     0.887426
C       -3.940035     1.784212     2.202939
C       -5.265906     2.131477     2.285412
N       -5.745593     2.372850     1.030325
C       -4.705343     2.192414     0.188977
N       -2.013617     0.061924     0.379186
O       -2.542185    -0.623306     1.517271
O        0.546629     2.531706    -1.362387
H       -0.403195    -0.183839    -4.548294
H        0.242422    -0.626671    -6.851969
H        1.778207    -2.482484    -7.363498
H        2.699342    -3.900497    -5.543092
H        2.033539    -3.453379    -3.195530
H       -0.479988    -4.480843     0.011908
H       -1.382909    -6.672225    -0.481755
H       -2.426111    -7.129214    -2.647130
H       -2.602586    -5.336372    -4.337523
H       -1.696824    -3.062148    -3.860154
H        0.389477     0.611983     4.588932
H        0.868534    -0.048600     6.883746
H        2.562647    -1.816063     7.344807
H        3.736048    -2.903765     5.437965
H        3.256152    -2.226040     3.113740
H        2.848175     2.170504     3.523622
H        5.103397     3.040222     4.156607
H        7.090614     2.302617     2.874382
H        6.820566     0.744821     0.972605
H        4.605365    -0.105546     0.341663
H       -0.560340     4.790031     0.473460
H       -1.580068     6.829556    -0.859240
H       -3.217275     3.261686    -2.446933
H       -3.295281     1.507669     3.035611
H       -5.840456     2.204271     3.202959
H       -4.745050     2.247666    -0.882683
83
ex_0076 frame2 N1-trans-Δ-conf2
F        2.489533     2.821950     2.551788
B        1.675386     1.935159     1.744939
O        0.260150     2.440882     1.740600
N       -0.509910     1.853128     0.612058
C       -1.860261     1.739905     0.993056
C       -2.398542     2.779513     1.956826
C       -2.913472     2.476614     3.241715
C       -3.421359     3.494907     4.044581
C       -3.417038     4.810590     3.575369
C       -2.889289     5.111368     2.323981
C       -2.371711     4.102599     1.524178
C       -2.593053     0.717116     0.482656
C       -4.063116     0.789488     0.305364
C       -4.718613     1.364564    -0.820437
C       -6.117658     1.337706    -0.878580
C       -6.860076     0.779295     0.159626
C       -6.205554     0.232886     1.252557
C       -4.820452     0.255744     1.315202
N       -1.994786    -0.453898     0.099828
O       -2.594967    -1.012606    -1.051913
B       -1.683183    -1.920144    -1.741522
F       -2.477723    -2.833185    -2.549241
O       -0.782639    -1.171568    -2.635676
N       -0.367161    -0.029484    -2.009700
C        0.878089     0.467471    -2.557275
C        1.050035     0.221761    -4.033495
C        1.703543    -0.932360    -4.513981
C        1.837547    -1.139563    -5.878042
C        1.342277    -0.210422    -6.779468
C        0.692433     0.934272    -6.318004
C        0.555275     1.150161    -4.942181
C        1.818865     1.106223    -1.766311
C        2.835164     2.056709    -2.253691
C        2.668005     3.453410    -2.420087
C        3.746094     4.231711    -2.872588
C        4.963095     3.625321    -3.172816
C        5.104826     2.260923    -3.009597
C        4.042847     1.492426    -2.563952
N        1.809682     0.844988    -0.460347
O        2.226796     1.975930     0.322550
Fe       0.000000     0.000000     0.000000
N        0.650392    -0.185078     1.919683
C        1.071082    -1.555591     1.904611
N        2.064178    -1.954791     2.991992
C        1.814708    -2.786617     3.996844
C        2.943859    -2.787718     4.805748
N        3.904059    -2.005876     4.256909
C        3.367596    -1.525274     3.111875
C        0.607540    -2.499089     0.954130
N        0.497987    -3.946737     1.172126
C       -0.301608    -4.663276     2.017073
C        0.011049    -6.003498     1.771862
N        0.977886    -6.056742     0.822864
C        1.254594    -4.781189     0.487182
N        0.237908    -2.021543    -0.247655
O       -0.898316    -2.733915    -0.767217
O        1.702943     0.581987     2.286098
H       -2.908961     1.469130     3.621226
H       -3.828240     3.257696     5.020089
H       -3.816134     5.616992     4.170606
H       -2.899074     6.136041     1.988349
H       -1.964097     4.360626     0.554404
H       -4.180412     1.794258    -1.645409
H       -6.631884     1.756466    -1.720503
H       -7.941891     0.766117     0.118879
H       -6.780739    -0.200637     2.052576
H       -4.308810    -0.174920     2.154557
H        2.093511    -1.678147    -3.841530
H        2.337748    -2.021737    -6.233281
H        1.472128    -0.402252    -7.831076
H        0.311549     1.642792    -7.037858
H        0.047240     2.022768    -4.575543
H        1.735807     3.919679    -2.178375
H        3.636406     5.292413    -2.997836
H        5.803915     4.193352    -3.528869
H        6.044357     1.802679    -3.239903
H        4.159287     0.436511    -2.428414
H        0.901546    -3.270913     4.182206
H        3.079881    -3.315449     5.744031
H        3.911266    -0.849439     2.458180
H       -1.049001    -4.317038     2.688116
H       -0.405416    -6.902967     2.232256
H        1.979431    -4.485800    -0.259935
83
ex_0076 frame3 N1-trans-Δ-conf7
F        2.614619     2.589323     2.548140
B        1.752493     1.738811     1.717209
O        1.157143     2.622664     0.682155
N        0.123330     2.041146     0.042392
C       -0.051843     2.443659    -1.309708
C        0.296424     3.831078    -1.647017
C        1.659586     4.233669    -1.540911
C        2.030913     5.547587    -1.837150
C        1.052510     6.457708    -2.237759
C       -0.282863     6.050242    -2.344597
C       -0.654607     4.736448    -2.057569
C       -0.532857     1.537035    -2.243204
C       -1.225555     1.922697    -3.498777
C       -2.592529     1.552698    -3.676638
C       -3.260218     1.853128    -4.864161
C       -2.583908     2.533378    -5.872511
C       -1.248382     2.919088    -5.681660
C       -0.577640     2.626601    -4.489185
N       -0.363876     0.140262    -2.005390
O       -1.371013    -0.627227    -2.519420
B       -1.721350    -1.797597    -1.663945
F       -2.570966    -2.670317    -2.480561
O       -0.529509    -2.591222    -1.293685
N        0.182250    -2.018174    -0.292645
C        1.552339    -2.247556    -0.470261
C        1.920187    -3.523650    -1.140376
C        1.402755    -4.728099    -0.701439
C        1.733440    -5.918252    -1.343791
C        2.607121    -5.912174    -2.434651
C        3.127131    -4.704156    -2.904823
C        2.814999    -3.505192    -2.246107
C        2.439595    -1.325045    -0.022311
C        3.818642    -1.656028     0.400309
C        4.837123    -0.730601     0.221168
C        6.131319    -1.019740     0.612130
C        6.430510    -2.255083     1.179829
C        5.423572    -3.196197     1.392036
C        4.113225    -2.917644     0.990685
N        2.044439     0.048256     0.058367
O        2.612463     0.673530     1.108399
Fe       0.000000     0.000000     0.000000
N        0.097139     0.105132     2.042084
C       -1.239238     0.009887     2.498105
N       -1.477128     0.454910     3.857224
C       -2.465313     1.307662     4.186504
C       -2.321134     1.505990     5.551999
N       -1.277021     0.761579     6.015158
C       -0.788113     0.105483     4.936416
C       -2.193690    -0.494768     1.654343
N       -3.401247    -1.166060     2.134793
C       -3.612753    -1.593779     3.389880
C       -4.875093    -2.162590     3.355853
N       -5.394529    -2.082864     2.104119
C       -4.464462    -1.443573     1.374050
N       -1.999527    -0.364013     0.231796
O       -2.511588    -1.405667    -0.459910
O        0.719400     1.160225     2.612254
H        2.441541     3.539276    -1.232924
H        3.067991     5.863224    -1.754548
H        1.321502     7.480592    -2.464808
H       -1.034976     6.757901    -2.644008
H       -1.678239     4.409221    -2.116840
H       -3.154853     1.016784    -2.913749
H       -4.294053     1.551084    -5.006994
H       -3.095725     2.754408    -6.801109
H       -0.721793     3.434036    -6.464030
H        0.453498     2.892811    -4.337566
H        0.706443    -4.710049     0.122251
H        1.311105    -6.843869    -0.986452
H        2.872479    -6.840795    -2.922656
H        3.770660    -4.705502    -3.777711
H        3.197499    -2.581058    -2.672351
H        4.605282     0.234449    -0.202947
H        6.899600    -0.281867     0.459338
H        7.444846    -2.476563     1.462544
H        5.672213    -4.137737     1.862315
H        3.347976    -3.660429     1.212463
H       -3.159766     1.830854     3.533931
H       -2.923839     2.166617     6.170059
H        0.067114    -0.551569     4.930843
H       -2.945818    -1.570186     4.241776
H       -5.393091    -2.610135     4.187269
H       -4.573496    -1.244458     0.319875
83
ex_0076 frame4 N1-trans-Λ-conf2
F        2.621269     2.579413    -2.627278
B        1.760235     1.715896    -1.739254
O        1.680820     0.291328    -2.327423
N        1.231387    -0.677120    -1.484115
C        0.473712    -1.624103    -2.211000
C        0.904073    -1.900993    -3.606922
C        0.004584    -1.700178    -4.698745
C        0.430868    -1.989362    -6.004610
C        1.721168    -2.488487    -6.212221
C        2.589608    -2.657510    -5.134868
C        2.181923    -2.354960    -3.845457
C       -0.564298    -2.205932    -1.612883
C       -1.040556    -3.541373    -1.953811
C       -0.401935    -4.722567    -1.432284
C       -0.934278    -5.983005    -1.770781
C       -2.039965    -6.057034    -2.623116
C       -2.621888    -4.889301    -3.113867
C       -2.109481    -3.652203    -2.781519
N       -1.254160    -1.506591    -0.589898
O       -1.659569    -2.384571     0.376774
B       -1.755808    -1.737372     1.715782
F       -2.617222    -2.614101     2.555277
O       -0.381784    -1.631462     2.351115
N        0.601541    -1.268696     1.489454
C        1.607773    -0.519006     2.203321
C        1.912917    -0.950316     3.594396
C        1.294027    -0.295328     4.708731
C        1.568438    -0.735978     6.013043
C        2.460579    -1.787323     6.213831
C        3.063813    -2.411737     5.116952
C        2.792025    -1.981536     3.817122
C        2.223563     0.520098     1.599628
C        3.562299     1.019510     1.933593
C        4.750189     0.441862     1.364444
C        6.007675     0.985620     1.712133
C        6.068205     2.054883     2.612918
C        4.894686     2.582919     3.144247
C        3.663140     2.055658     2.805362
N        1.555890     1.204124     0.559996
O        2.383972     1.678272    -0.378998
Fe       0.000000     0.000000     0.000000
N       -0.507129     1.547388    -1.239744
C       -1.552265     2.232617    -0.566083
N       -1.869625     3.573517    -1.017002
C       -2.987750     3.980253    -1.573919
C       -2.777769     5.320322    -1.868785
N       -1.546338     5.714111    -1.443783
C       -0.993193     4.608563    -0.904002
C       -2.230537     1.614667     0.477882
N       -3.573202     1.923496     0.935172
C       -4.742608     1.747650     0.270142
C       -5.721118     2.188084     1.167587
N       -5.124758     2.611398     2.314493
C       -3.799049     2.441736     2.126727
N       -1.561112     0.553644     1.202054
O       -2.421582    -0.393501     1.636421
O        0.443669     2.386590    -1.690306
H       -0.995431    -1.279276    -4.574127
H       -0.229720    -1.836780    -6.854140
H        2.068643    -2.741631    -7.202458
H        3.584071    -3.034610    -5.293971
H        2.852432    -2.471445    -3.010127
H        0.444167    -4.715942    -0.733811
H       -0.512985    -6.909403    -1.386600
H       -2.463001    -7.011126    -2.907500
H       -3.477399    -4.926619    -3.757635
H       -2.550117    -2.735160    -3.123795
H        0.567820     0.506079     4.599237
H        1.093034    -0.270745     6.870143
H        2.676156    -2.118718     7.221093
H        3.741420    -3.235341     5.275616
H        3.227202    -2.466521     2.959747
H        4.735469    -0.373758     0.638110
H        6.935719     0.598980     1.296829
H        7.012152     2.495178     2.906027
H        4.928238     3.411211     3.823814
H        2.745672     2.459599     3.185242
H       -3.827050     3.359064    -1.793078
H       -3.472023     5.965243    -2.386975
H        0.014057     4.618954    -0.476796
H       -4.939197     1.286773    -0.700146
H       -6.804340     2.195642     1.035416
H       -3.028541     2.638599     2.847410
83
ex_0076 frame5 N1-trans-Δ-conf6
F        2.641930     2.652756     2.535383
B        1.782011     1.800060     1.727027
O        1.304805     2.625502     0.584654
N        0.329034     2.017687    -0.101043
C       -0.031294     2.484923    -1.388553
C        0.331999     3.855433    -1.702574
C        1.684275     4.259293    -1.589826
C        2.042170     5.574441    -1.854386
C        1.057833     6.482553    -2.246447
C       -0.276521     6.071622    -2.363214
C       -0.632191     4.753620    -2.106577
C       -0.679749     1.630875    -2.237973
C       -1.312081     1.976513    -3.501922
C       -2.655317     1.594773    -3.708072
C       -3.286055     1.865321    -4.906074
C       -2.589825     2.540675    -5.903840
C       -1.255779     2.929600    -5.697281
C       -0.620676     2.662225    -4.482471
N       -0.757728     0.278886    -1.879865
O       -1.520065    -0.594306    -2.538848
B       -1.757188    -1.815808    -1.738070
F       -2.618402    -2.682178    -2.544506
O       -0.501548    -2.555412    -1.497737
N        0.248805    -1.951639    -0.548800
C        1.608210    -2.261301    -0.548405
C        1.962920    -3.528859    -1.187785
C        1.429374    -4.724111    -0.720340
C        1.745564    -5.924251    -1.347918
C        2.616351    -5.929632    -2.442292
C        3.148280    -4.729518    -2.923927
C        2.848979    -3.528285    -2.280287
C        2.467632    -1.393213     0.034225
C        3.834061    -1.709221     0.431609
C        4.834721    -0.760834     0.236886
C        6.135980    -1.031374     0.613700
C        6.448528    -2.263801     1.183883
C        5.450670    -3.219655     1.397868
C        4.140325    -2.957065     1.005262
N        2.017894    -0.064922     0.287185
O        2.609456     0.631588     1.271135
Fe       0.000000     0.000000     0.000000
N       -0.006396     0.332819     2.018223
C       -1.294114     0.076255     2.518371
N       -1.521260     0.492737     3.874209
C       -2.501175     1.329848     4.220182
C       -2.337380     1.516685     5.582838
N       -1.290354     0.765947     6.031106
C       -0.816888     0.120183     4.939763
C       -2.207675    -0.543129     1.695874
N       -3.410119    -1.196728     2.173645
C       -3.629376    -1.613133     3.422184
C       -4.900406    -2.169360     3.381887
N       -5.413447    -2.082253     2.126930
C       -4.465403    -1.465063     1.400075
N       -1.952488    -0.542849     0.289801
O       -2.484926    -1.540289    -0.458254
O        0.652488     1.364757     2.587438
H        2.464864     3.564578    -1.279753
H        3.075629     5.885991    -1.746833
H        1.322823     7.505673    -2.453447
H       -1.042178     6.774612    -2.639017
H       -1.659688     4.424411    -2.155983
H       -3.209596     1.061152    -2.942418
H       -4.310575     1.544273    -5.044585
H       -3.089793     2.752523    -6.834086
H       -0.711895     3.430388    -6.479718
H        0.418985     2.923455    -4.324319
H        0.730437    -4.696410     0.106637
H        1.309934    -6.843200    -0.984391
H        2.867173    -6.859769    -2.928011
H        3.785664    -4.726851    -3.797161
H        3.226032    -2.597899    -2.694381
H        4.585850     0.203134    -0.190086
H        6.895078    -0.280282     0.457601
H        7.463507    -2.473573     1.468062
H        5.694583    -4.158229     1.869602
H        3.367355    -3.692733     1.218565
H       -3.191416     1.845509     3.558400
H       -2.924878     2.179020     6.204232
H        0.041493    -0.534472     4.915179
H       -2.962420    -1.580899     4.274577
H       -5.424359    -2.618789     4.206428
H       -4.559686    -1.248690     0.350090
83
ex_0076 frame6 N1-trans-Δ-conf4
F        3.029375     2.197849     2.590993
B        2.002838     1.473299     1.728849
O        0.856058     1.153938     2.551630
N       -0.095114     0.500487     1.964526
C       -1.180467     0.046058     2.564869
C       -1.288039     0.315653     3.983432
C       -0.394351    -0.308099     4.832228
C       -0.461752    -0.124664     6.195684
C       -1.434995     0.719288     6.700045
C       -2.334950     1.376021     5.871288
C       -2.249424     1.169609     4.500700
C       -2.093059    -0.636456     1.776755
C       -3.358373    -1.196507     2.191923
C       -4.485841    -0.985988     1.409859
C       -5.720676    -1.486765     1.779341
C       -5.855471    -2.218835     2.926187
C       -4.732769    -2.447355     3.710121
C       -3.475767    -1.934667     3.344521
N       -1.788408    -0.803912     0.497273
O       -2.538647    -1.414999    -0.355625
B       -2.030091    -1.479442    -1.711919
F       -3.054366    -2.199961    -2.582568
O       -1.790758    -0.166758    -2.298161
N       -0.920401     0.576087    -1.711827
C       -0.562301     1.792659    -2.093043
C       -1.155267     2.270026    -3.318617
C       -0.724728     1.736025    -4.520795
C       -1.238077     2.177918    -5.725942
C       -2.214159     3.160693    -5.733339
C       -2.661876     3.688877    -4.521019
C       -2.141102     3.247338    -3.305803
C        0.333983     2.481949    -1.287822
C        0.852662     3.796571    -1.540954
C        1.607277     4.048555    -2.683860
C        2.086647     5.323582    -2.955120
C        1.808641     6.343448    -2.058055
C        1.064559     6.068373    -0.912496
C        0.590673     4.801206    -0.634721
N        0.753029     1.877734    -0.183505
O        1.583176     2.378194     0.672832
Fe       0.000000     0.000000     0.000000
N        1.916228    -0.465064     0.436845
C        2.290150    -1.595722    -0.121513
N        3.643607    -1.982708     0.149965
C        4.679166    -1.381088    -0.422202
C        5.809967    -2.035554     0.046120
N        5.415823    -2.984742     0.922611
C        4.034595    -2.923346     0.948444
C        1.346518    -2.278126    -0.895400
N        1.538936    -3.513177    -1.566362
C        1.323481    -3.678944    -2.903078
C        1.645045    -4.977172    -3.186764
N        2.012111    -5.573765    -2.030029
C        1.934936    -4.644291    -1.045307
N        0.139670    -1.735011    -1.030732
O       -0.811032    -2.257980    -1.711080
O        2.639078     0.278429     1.187873
H        0.361298    -0.966149     4.447414
H        0.241873    -0.638140     6.845794
H       -1.470470     0.850392     7.763538
H       -3.082781     2.028332     6.295194
H       -2.930358     1.669750     3.861509
H       -4.434779    -0.413540     0.501005
H       -6.595303    -1.311509     1.173678
H       -6.816968    -2.607361     3.209006
H       -4.847802    -3.029251     4.618151
H       -2.616437    -2.124311     3.956181
H        0.031863     0.976068    -4.534387
H       -0.868260     1.746984    -6.646690
H       -2.629152     3.518123    -6.676186
H       -3.410935     4.444160    -4.505267
H       -2.495782     3.659338    -2.377314
H        1.815365     3.243238    -3.366502
H        2.666787     5.549824    -3.842854
H        2.164135     7.362145    -2.233788
H        0.845720     6.854561    -0.213734
H        0.007366     4.587771     0.257124
H        4.689080    -0.612239    -1.130088
H        6.833277    -1.792198    -0.255231
H        3.441782    -3.567239     1.603158
H        1.012995    -2.925466    -3.588212
H        1.587162    -5.401731    -4.183073
H        2.173167    -4.875734    -0.022774
83
ex_0076 frame7 N1-trans-Δ
F        2.492000     2.842876     2.556019
B        1.665142     1.883572     1.696556
O        0.273887     2.281248     1.802052
N       -0.591874     1.549231     1.164844
C       -1.888672     1.710421     1.173663
C       -2.386550     2.780209     1.982841
C       -2.895408     2.484628     3.239844
C       -3.419943     3.490088     4.042193
C       -3.413831     4.803054     3.572607
C       -2.888166     5.103867     2.319056
C       -2.361908     4.100929     1.517549
C       -2.644565     0.830938     0.401930
C       -4.077809     0.818116     0.277984
C       -4.719795     1.354099    -0.831253
C       -6.111774     1.333931    -0.869870
C       -6.854397     0.778088     0.160822
C       -6.199720     0.235341     1.248068
C       -4.811169     0.255252     1.296634
N       -2.002275    -0.083300    -0.287124
O       -2.568477    -0.964077    -1.050637
B       -1.652184    -1.876000    -1.698336
F       -2.477095    -2.835763    -2.565392
O       -0.760258    -1.151636    -2.579177
N        0.041354    -0.304910    -2.005321
C        0.970385     0.392199    -2.615887
C        1.064038     0.211401    -4.042571
C        1.690675    -0.931255    -4.515923
C        1.835745    -1.133463    -5.878843
C        1.339375    -0.206783    -6.774686
C        0.693482     0.931868    -6.314059
C        0.548897     1.141272    -4.934862
C        1.758989     1.221045    -1.823297
C        2.827411     2.089526    -2.266455
C        2.673076     3.462526    -2.408131
C        3.754963     4.226354    -2.874884
C        4.961663     3.621685    -3.171072
C        5.097367     2.265375    -3.007630
C        4.029668     1.508029    -2.551155
N        1.519931     1.227015    -0.529768
O        2.166028     1.949608     0.334430
Fe       0.000000     0.000000     0.000000
N        1.231772    -0.373450     1.562096
C        1.294880    -1.649959     1.854742
N        2.138613    -1.973418     2.970636
C        1.827141    -2.762889     3.995943
C        2.938973    -2.782286     4.809754
N        3.888502    -2.013414     4.257004
C        3.369523    -1.509199     3.118287
C        0.551429    -2.533092     1.067363
N        0.494694    -3.966036     1.181160
C       -0.328627    -4.674638     2.014225
C        0.007826    -6.012458     1.772182
N        0.970417    -6.048051     0.834604
C        1.238313    -4.767779     0.487480
N       -0.180369    -2.012740     0.115375
O       -0.930633    -2.672293    -0.716449
O        1.848088     0.559115     2.228179
H       -2.909119     1.472202     3.624359
H       -3.830617     3.256039     5.021375
H       -3.815238     5.621230     4.166894
H       -2.902822     6.135774     1.992428
H       -1.966415     4.363125     0.558827
H       -4.189371     1.792476    -1.640751
H       -6.631107     1.755111    -1.714169
H       -7.944297     0.765634     0.119918
H       -6.782536    -0.197771     2.050480
H       -4.307885    -0.172006     2.148274
H        2.094468    -1.679104    -3.846565
H        2.337119    -2.017373    -6.230343
H        1.475316    -0.407829    -7.826747
H        0.314768     1.640388    -7.041522
H        0.049894     2.015493    -4.576029
H        1.744905     3.912185    -2.181039
H        3.636300     5.285953    -2.998563
H        5.802202     4.185982    -3.527338
H        6.038729     1.808742    -3.240808
H        4.155417     0.441966    -2.427089
H        0.917265    -3.264282     4.185918
H        3.087564    -3.316259     5.745673
H        3.918313    -0.853552     2.464456
H       -1.035588    -4.334929     2.675839
H       -0.399851    -6.912692     2.231968
H        1.983458    -4.488898    -0.260869
83
ex_0076 frame8 N1-trans-Λ-conf6
F        2.668662     2.583965    -2.597624
B        1.791625     1.785846    -1.780294
O        1.469258     0.577657    -2.578913
N        0.656373    -0.260713    -1.917876
C        0.323733    -1.525244    -2.398772
C        0.754856    -1.841137    -3.718328
C        2.107128    -1.630762    -4.035310
C        2.577936    -1.945803    -5.297480
C        1.692848    -2.463197    -6.242899
C        0.343566    -2.644096    -5.922458
C       -0.123011    -2.336018    -4.652603
C       -0.379448    -2.364258    -1.564253
C       -0.899604    -3.676121    -1.853905
C       -2.244138    -3.956400    -1.546326
C       -2.775368    -5.200425    -1.802497
C       -1.974818    -6.177936    -2.377651
C       -0.630807    -5.898883    -2.672498
C       -0.096784    -4.636795    -2.420601
N       -0.626196    -1.922724    -0.301204
O       -1.324091    -2.626409     0.606737
B       -1.746280    -1.802558     1.783860
F       -2.634176    -2.626084     2.573698
O       -0.603392    -1.491093     2.614170
N        0.193821    -0.650654     1.922469
C        1.469297    -0.379665     2.388256
C        1.756543    -0.914522     3.696697
C        1.091999    -0.403950     4.816600
C        1.374023    -0.923027     6.079504
C        2.320393    -1.943859     6.210530
C        2.957515    -2.454637     5.082770
C        2.689328    -1.930631     3.833291
C        2.318091     0.358713     1.586502
C        3.616327     0.843997     1.955625
C        4.693270     0.652469     1.068007
C        5.952615     1.115474     1.410642
C        6.134300     1.761070     2.626230
C        5.062649     1.959835     3.488594
C        3.803314     1.490438     3.167350
N        1.898682     0.678526     0.289803
O        2.562597     1.506834    -0.529257
Fe       0.000000     0.000000     0.000000
N       -0.226546     1.897743    -0.723062
C       -1.471665     2.400603    -0.366662
N       -1.740252     3.699093    -0.855680
C       -2.648513     3.950290    -1.784798
C       -2.589319     5.308943    -1.985845
N       -1.645472     5.866831    -1.170322
C       -1.131518     4.830017    -0.460371
C       -2.306499     1.611508     0.418509
N       -3.601639     1.990431     0.895978
C       -3.955401     3.214153     1.189295
C       -5.253557     3.079516     1.624356
N       -5.653325     1.777707     1.567605
C       -4.592279     1.112854     1.091430
N       -1.853641     0.336352     0.782380
O       -2.546816    -0.579855     1.456998
O        0.590349     2.585286    -1.531288
H        2.793915    -1.228732    -3.288873
H        3.623367    -1.803783    -5.534794
H        2.042273    -2.726422    -7.225330
H       -0.334138    -3.032146    -6.658701
H       -1.160793    -2.437396    -4.375502
H       -2.878662    -3.200129    -1.091368
H       -3.808675    -5.389451    -1.566437
H       -2.406019    -7.145158    -2.588797
H       -0.009044    -6.656007    -3.103297
H        0.943203    -4.402259    -2.607017
H        0.343038     0.376705     4.688187
H        0.879314    -0.535302     6.957366
H        2.569868    -2.352869     7.175293
H        3.673022    -3.248665     5.166495
H        3.155930    -2.352896     2.959295
H        4.559898     0.154939     0.105285
H        6.794647     0.970126     0.754004
H        7.105532     2.113989     2.912023
H        5.216074     2.471861     4.412857
H        2.971159     1.682377     3.829801
H       -3.238417     3.220012    -2.308133
H       -3.209592     5.833522    -2.699160
H       -0.327265     4.914126     0.273928
H       -3.350557     4.099306     1.161359
H       -5.864462     3.890313     1.964304
H       -4.602183     0.029202     0.928159
83
ex_0076 frame9 N1-trans-Λ-conf4
F        2.607243     2.631223    -2.645652
B        1.745810     1.737195    -1.762130
O        1.492462     0.500562    -2.469636
N        0.739710    -0.354590    -1.856718
C        0.325939    -1.500865    -2.369868
C        0.766854    -1.794386    -3.717364
C        0.285149    -1.005804    -4.744255
C        0.635224    -1.251045    -6.053639
C        1.501703    -2.296147    -6.319851
C        2.018356    -3.094007    -5.307612
C        1.645253    -2.829528    -3.996406
C       -0.480299    -2.292056    -1.568848
C       -1.027419    -3.589851    -1.890209
C       -0.955395    -4.611118    -0.952689
C       -1.448151    -5.873879    -1.226098
C       -2.035273    -6.141460    -2.431559
C       -2.125307    -5.124745    -3.372538
C       -1.619482    -3.840728    -3.104209
N       -0.795212    -1.821852    -0.370522
O       -1.534510    -2.445413     0.484623
B       -1.750736    -1.766163     1.748077
F       -2.609147    -2.657103     2.640163
O       -0.514168    -1.477802     2.463602
N        0.320790    -0.694626     1.877890
C        1.495074    -0.318564     2.360844
C        1.796480    -0.760405     3.700833
C        1.131197    -0.169679     4.761123
C        1.401062    -0.531991     6.067675
C        2.341124    -1.516729     6.323180
C        3.001060    -2.125900     5.254262
C        2.733082    -1.757495     3.936919
C        2.311715     0.450880     1.543590
C        3.601123     0.974346     1.896915
C        3.733962     1.864821     2.959265
C        4.980804     2.351846     3.329859
C        6.094688     1.942509     2.613021
C        5.939643     1.062607     1.543694
C        4.701597     0.580080     1.167018
N        1.867490     0.732491     0.323229
O        2.496854     1.440558    -0.554738
Fe       0.000000     0.000000     0.000000
N       -0.341491     1.849762    -0.737354
C       -1.519422     2.314508    -0.373524
N       -1.821879     3.629490    -0.857794
C       -1.261633     4.718986    -0.346998
C       -1.813085     5.791904    -1.033152
N       -2.658270     5.305745    -1.968081
C       -2.641645     3.931930    -1.812997
C       -2.323895     1.491915     0.421578
N       -3.626494     1.791080     0.897669
C       -3.965377     1.751803     2.218177
C       -5.277095     2.130585     2.290471
N       -5.711500     2.356902     1.029945
C       -4.669364     2.137138     0.190141
N       -1.841238     0.308820     0.778017
O       -2.481053    -0.543963     1.495337
O        0.515535     2.459608    -1.463170
H       -0.389507    -0.195214    -4.544621
H        0.231532    -0.627521    -6.847134
H        1.763460    -2.470250    -7.344809
H        2.692496    -3.901796    -5.547397
H        2.037876    -3.431708    -3.218191
H       -0.499657    -4.454167     0.008522
H       -1.380127    -6.666513    -0.498398
H       -2.418168    -7.124119    -2.639443
H       -2.592684    -5.344824    -4.326152
H       -1.701544    -3.063733    -3.837734
H        0.401949     0.596060     4.582305
H        0.871349    -0.039270     6.871942
H        2.563383    -1.813638     7.348517
H        3.726220    -2.884365     5.429410
H        3.245511    -2.235890     3.120703
H        2.857252     2.173418     3.501418
H        5.114026     3.036954     4.159728
H        7.094977     2.299075     2.872247
H        6.799017     0.741652     0.984579
H        4.581458    -0.108950     0.335137
H       -0.587343     4.805670     0.446903
H       -1.574378     6.840869    -0.833425
H       -3.218487     3.271623    -2.465520
H       -3.314638     1.518200     3.027875
H       -5.824693     2.208843     3.223357
H       -4.762781     2.246204    -0.875320
83
ex_0076 frame10 N1-trans-Δ-conf3
F        2.606446     2.649660     2.667656
B        1.791122     1.802783     1.808646
O        1.588746     0.500449     2.531002
N        0.786963    -0.320766     1.858540
C        0.408485    -1.570739     2.354939
C        0.933464    -1.883108     3.663304
C        2.053749    -2.694974     3.779237
C        2.599546    -2.942026     5.030692
C        1.989475    -2.417177     6.175252
C        0.846316    -1.616799     6.060868
C        0.305173    -1.362452     4.801796
C       -0.389625    -2.347845     1.595496
C       -0.916493    -3.629260     1.960866
C       -2.117219    -3.670909     2.668697
C       -2.683943    -4.898951     2.985415
C       -2.024862    -6.080926     2.629173
C       -0.809589    -6.030231     1.935493
C       -0.246141    -4.799577     1.617455
N       -0.747250    -1.876260     0.330532
O       -1.657798    -2.502517    -0.446492
B       -1.816533    -1.813441    -1.774674
F       -2.646488    -2.661071    -2.617510
O       -0.518460    -1.630819    -2.466046
N        0.119559    -0.557420    -1.962410
C        1.495068    -0.354386    -2.332725
C        1.927671    -0.949826    -3.621270
C        1.400774    -0.459457    -4.816047
C        1.765731    -1.033525    -6.035071
C        2.673961    -2.096916    -6.064394
C        3.212816    -2.590132    -4.871605
C        2.863179    -2.003150    -3.649897
C        2.344941     0.370526    -1.493772
C        3.708806     0.792698    -1.838570
C        3.905945     2.093234    -2.336298
C        5.197531     2.548008    -2.612183
C        6.287761     1.694657    -2.424190
C        6.086106     0.391901    -1.953633
C        4.794428    -0.065887    -1.681355
N        1.893685     0.747747    -0.200232
O        2.551673     1.615984     0.567229
Fe       0.000000     0.000000     0.000000
N       -0.243841     1.947461     0.580068
C       -1.591346     2.328873     0.400258
N       -1.980418     3.582548     0.972985
C       -1.347770     4.718838     0.722137
C       -2.001163     5.665909     1.480013
N       -3.023596     5.082565     2.171927
C       -3.002556     3.775980     1.813184
C       -2.415842     1.487823    -0.308671
N       -3.747012     1.809976    -0.721015
C       -4.741251     0.929785    -0.744670
C       -5.814811     1.620981    -1.249994
N       -5.458663     2.914997    -1.499737
C       -4.160342     3.010783    -1.128290
N       -1.924079     0.206843    -0.665744
O       -2.515697    -0.519277    -1.629633
O        0.497277     2.529272     1.554917
H        2.544553    -3.056387     2.882689
H        3.503040    -3.527363     5.100006
H        2.415853    -2.615641     7.145715
H        0.390851    -1.182187     6.941196
H       -0.556870    -0.706056     4.706808
H       -2.641722    -2.750078     2.906876
H       -3.637222    -4.925368     3.492315
H       -2.464594    -7.033500     2.875711
H       -0.308733    -6.937410     1.630155
H        0.676212    -4.748537     1.047129
H        0.679000     0.347093    -4.792722
H        1.333606    -0.659328    -6.953749
H        2.949159    -2.548283    -7.008482
H        3.889719    -3.435229    -4.892116
H        3.257923    -2.422144    -2.732816
H        3.066135     2.771091    -2.453509
H        5.355229     3.563613    -2.955231
H        7.289270     2.047636    -2.628263
H        6.931373    -0.258784    -1.782582
H        4.642869    -1.059290    -1.283027
H       -0.482744     4.826043     0.080656
H       -1.732005     6.711007     1.529267
H       -3.640576     3.007750     2.236239
H       -4.678316    -0.114418    -0.459857
H       -6.787857     1.191568    -1.432392
H       -3.540603     3.890704    -1.252868
83
ex_0076 frame11 N1-trans-Δ-conf5
F        2.946611     2.105619     2.534861
B        1.981542     1.417298     1.697657
O        1.060218     0.720231     2.639589
N        0.258861    -0.161974     2.024197
C       -1.102468    -0.150043     2.549112
C       -1.260678     0.145838     4.011916
C       -0.374717    -0.435761     4.912197
C       -0.455174    -0.145485     6.265427
C       -1.442649     0.716867     6.744584
C       -2.349457     1.307682     5.856854
C       -2.286893     0.999190     4.488349
C       -2.159760    -0.428200     1.694442
C       -3.459171    -1.032920     2.176461
C       -4.626931    -0.847998     1.434608
C       -5.811239    -1.466897     1.800114
C       -5.875907    -2.231742     2.961807
C       -4.733727    -2.411622     3.746636
C       -3.527056    -1.794844     3.379838
N       -2.026247    -0.135718     0.261416
O       -2.664426    -1.082863    -0.451601
B       -1.954944    -1.452588    -1.704711
F       -2.922200    -2.164796    -2.529066
O       -1.536354    -0.268054    -2.494877
N       -0.447626     0.303340    -1.972843
C       -0.410052     1.716337    -2.141790
C       -1.000533     2.239348    -3.397811
C       -0.622112     1.732241    -4.625375
C       -1.226999     2.184766    -5.792026
C       -2.210111     3.177090    -5.741192
C       -2.599867     3.714394    -4.510299
C       -1.971128     3.279305    -3.331290
C        0.157294     2.506622    -1.182321
C        0.707441     3.858954    -1.478409
C        1.448724     4.066923    -2.680763
C        2.016883     5.321943    -2.939961
C        1.801688     6.373745    -2.045590
C        1.057874     6.160391    -0.880302
C        0.511099     4.912511    -0.608167
N        0.235724     2.024262     0.176787
O        1.284626     2.487183     0.885412
Fe       0.000000     0.000000     0.000000
N        2.037127    -0.155933    -0.117146
C        2.340032    -1.540750    -0.302456
N        3.690028    -1.950555    -0.029827
C        4.760342    -1.385016    -0.554815
C        5.829774    -2.044768     0.023517
N        5.381532    -3.014575     0.870162
C        4.033429    -2.957776     0.791091
C        1.335295    -2.354350    -0.723671
N        1.590373    -3.588071    -1.442330
C        1.378814    -3.654199    -2.774535
C        1.682434    -4.959202    -3.122689
N        2.085667    -5.639778    -2.012344
C        2.028079    -4.751895    -0.988280
N       -0.009565    -1.994771    -0.457190
O       -0.829060    -2.405131    -1.447310
O        2.777439     0.464911     0.833266
H        0.405700    -1.080267     4.540322
H        0.264448    -0.591912     6.931557
H       -1.487654     0.932608     7.802947
H       -3.084289     2.010507     6.239248
H       -2.975587     1.507035     3.812715
H       -4.609823    -0.280737     0.519860
H       -6.673694    -1.346421     1.163901
H       -6.812633    -2.693894     3.236929
H       -4.788849    -3.041716     4.628328
H       -2.654424    -2.016063     3.985727
H        0.115787     0.945757    -4.658091
H       -0.930936     1.747929    -6.731076
H       -2.678109     3.511207    -6.658240
H       -3.396156     4.454130    -4.479542
H       -2.325056     3.681324    -2.383483
H        1.667117     3.256617    -3.375518
H        2.629552     5.487854    -3.823361
H        2.219541     7.351971    -2.242358
H        0.900872     6.958887    -0.175030
H       -0.043784     4.743355     0.301062
H        4.753180    -0.548262    -1.232433
H        6.869472    -1.811861    -0.145858
H        3.369655    -3.545878     1.421611
H        1.017143    -2.872639    -3.442775
H        1.598735    -5.395569    -4.115946
H        2.240339    -4.968338     0.039309
83
ex_0076 frame12 N1-trans-Λ-conf3
F        2.584484     2.387593    -2.897949
B        1.755414     1.625518    -1.974975
O        1.890257     2.276397    -0.643136
N        0.982220     1.781844     0.215892
C        1.032741     2.106567     1.576700
C        1.846619     3.259449     1.893872
C        3.092621     3.077787     2.505194
C        3.903976     4.180581     2.757220
C        3.444880     5.465989     2.449224
C        2.189494     5.640872     1.854019
C        1.386501     4.535763     1.590014
C        0.328407     1.335424     2.467282
C        0.088163     1.660165     3.854275
C       -0.942697     2.559886     4.157485
C       -1.237886     2.851137     5.484991
C       -0.471151     2.280115     6.505091
C        0.568658     1.394424     6.192824
C        0.856555     1.097531     4.863956
N       -0.222937     0.116769     2.030856
O       -1.186834    -0.502350     2.738957
B       -1.758395    -1.630547     1.955206
F       -2.612149    -2.399514     2.847825
O       -0.695640    -2.553256     1.495290
N        0.002262    -1.989041     0.479414
C        1.142611    -2.598637    -0.026877
C        1.375775    -3.982191     0.341725
C        0.563602    -5.002863    -0.144517
C        0.784104    -6.319063     0.257181
C        1.835606    -6.612395     1.134319
C        2.654082    -5.587598     1.617778
C        2.442479    -4.276016     1.203597
C        1.976725    -1.855294    -0.837787
C        3.133607    -2.353932    -1.579596
C        3.009240    -2.726884    -2.932573
C        4.137172    -3.157261    -3.638404
C        5.370198    -3.243677    -2.985898
C        5.480203    -2.880254    -1.640257
C        4.357059    -2.456312    -0.936758
N        1.722835    -0.489582    -0.989439
O        2.293616     0.235113    -1.966311
Fe       0.000000     0.000000     0.000000
N       -0.499597     1.005108    -1.711128
C       -1.883209     1.010812    -1.917528
N       -2.333699     1.696061    -3.071803
C       -1.951523     1.419670    -4.311715
C       -2.600850     2.357296    -5.085521
N       -3.363864     3.167405    -4.293453
C       -3.197403     2.700993    -3.037175
C       -2.659607     0.366282    -1.009492
N       -4.058503     0.132981    -1.141691
C       -4.877256     0.148387    -0.099280
C       -6.116824    -0.107395    -0.615321
N       -6.029809    -0.292138    -1.965938
C       -4.721171    -0.122401    -2.271869
N       -2.037774    -0.111112     0.154108
O       -2.605434    -1.151466     0.811755
O        0.347441     1.673698    -2.497055
H        3.468105     2.077934     2.697506
H        4.887559     4.030150     3.179904
H        4.068390     6.322081     2.656212
H        1.837774     6.626449     1.586530
H        0.429331     4.656653     1.093490
H       -1.565186     2.969084     3.367384
H       -2.065104     3.509068     5.714226
H       -0.693794     2.512541     7.534783
H        1.147930     0.927306     6.974115
H        1.635110     0.385893     4.613847
H       -0.266572    -4.765397    -0.802948
H        0.136051    -7.106718    -0.104763
H        2.013801    -7.627746     1.453284
H        3.446547    -5.799147     2.320690
H        3.051881    -3.480108     1.611887
H        2.059658    -2.626197    -3.452777
H        4.064545    -3.414353    -4.688427
H        6.244557    -3.577196    -3.524253
H        6.435435    -2.914434    -1.140550
H        4.436832    -2.134294     0.091411
H       -1.241773     0.653745    -4.610646
H       -2.511562     2.450790    -6.156708
H       -3.593289     3.149454    -2.132572
H       -4.588782     0.321456     0.932365
H       -7.017061    -0.150526    -0.024558
H       -4.291518    -0.256542    -3.258839
83
ex_0076 frame13 N1-trans-Λ
F        2.636265     2.638187    -2.629832
B        1.751205     1.761433    -1.740549
O        1.520459     0.510592    -2.439352
N        0.744235    -0.360597    -1.849661
C        0.379911    -1.510489    -2.333837
C        0.860488    -1.828923    -3.643050
C        0.013850    -1.644767    -4.727334
C        0.430301    -1.974997    -6.010841
C        1.716952    -2.479636    -6.195995
C        2.573649    -2.648702    -5.111703
C        2.159788    -2.317193    -3.829500
C       -0.435031    -2.304769    -1.532222
C       -0.966094    -3.598426    -1.869166
C       -0.405674    -4.769370    -1.374542
C       -0.953339    -5.987996    -1.767683
C       -2.045960    -6.047038    -2.619394
C       -2.600602    -4.873267    -3.088305
C       -2.057625    -3.653150    -2.704498
N       -0.756721    -1.845646    -0.360267
O       -1.506583    -2.469227     0.507622
B       -1.739011    -1.752667     1.742822
F       -2.621409    -2.631055     2.639212
O       -0.489843    -1.536876     2.440744
N        0.365676    -0.779564     1.836743
C        1.532285    -0.406066     2.328680
C        1.859505    -0.917718     3.635832
C        1.261211    -0.321680     4.735488
C        1.567935    -0.753321     6.015783
C        2.457178    -1.793404     6.203133
C        3.048450    -2.410796     5.109952
C        2.743078    -1.973172     3.812954
C        2.311845     0.436488     1.540069
C        3.619411     0.965523     1.861275
C        4.793209     0.453168     1.324077
C        6.022199     1.008236     1.715658
C        6.060733     2.061639     2.609104
C        4.887337     2.563490     3.115016
C        3.672703     2.014686     2.733637
N        1.820712     0.802528     0.369504
O        2.428783     1.577115    -0.469255
Fe       0.000000     0.000000     0.000000
N       -0.325668     1.842300    -0.767772
C       -1.503618     2.322909    -0.423922
N       -1.804195     3.622940    -0.954917
C       -2.929623     3.988910    -1.563808
C       -2.767355     5.317344    -1.892075
N       -1.558758     5.718418    -1.471808
C       -0.968523     4.648261    -0.900206
C       -2.311920     1.533594     0.399977
N       -3.612584     1.863733     0.919022
C       -4.807354     1.682471     0.275661
C       -5.759967     2.174414     1.176941
N       -5.123204     2.601279     2.281060
C       -3.801137     2.385197     2.089175
N       -1.846270     0.352717     0.749873
O       -2.454649    -0.510179     1.495985
O        0.509423     2.460150    -1.543798
H       -0.988807    -1.253509    -4.606231
H       -0.238109    -1.843207    -6.858248
H        2.084067    -2.752294    -7.183236
H        3.564058    -3.043385    -5.298985
H        2.840278    -2.459548    -3.016528
H        0.433440    -4.769217    -0.722935
H       -0.527136    -6.908930    -1.406828
H       -2.468539    -7.006723    -2.919706
H       -3.453393    -4.923193    -3.752689
H       -2.497644    -2.741481    -3.073855
H        0.561551     0.496729     4.630358
H        1.107026    -0.271365     6.859290
H        2.664302    -2.095488     7.218811
H        3.741943    -3.224176     5.289198
H        3.194215    -2.447598     2.968325
H        4.750412    -0.353850     0.644321
H        6.932724     0.606965     1.313084
H        6.988319     2.502383     2.920867
H        4.931131     3.380876     3.807126
H        2.759208     2.423760     3.140973
H       -3.777794     3.399975    -1.785306
H       -3.464309     5.983550    -2.395663
H        0.017433     4.683401    -0.469923
H       -4.994881     1.284946    -0.651382
H       -6.842350     2.231853     1.062119
H       -3.035629     2.635250     2.827164
83
ex_0076 frame14 N1-trans-Λ-conf8
F        2.605778     2.023676    -3.137265
B        1.780564     1.396317    -2.132110
O        1.690485     2.347341    -1.020371
N        0.977231     1.797404    -0.040330
C        0.624490     2.507327     1.112167
C        1.181187     3.838147     1.162579
C        2.463169     4.056337     1.672033
C        2.990450     5.349287     1.672217
C        2.219317     6.414972     1.192281
C        0.938589     6.184371     0.687925
C        0.412893     4.901944     0.692184
C       -0.186078     1.902055     2.068626
C       -0.574963     2.474779     3.331440
C        0.382485     2.582388     4.322380
C        0.040734     3.080731     5.565400
C       -1.258130     3.523879     5.810953
C       -2.232808     3.432800     4.808751
C       -1.888333     2.913737     3.556760
N       -0.693883     0.614619     1.822353
O       -1.439283    -0.088001     2.675205
B       -1.768672    -1.426943     2.105643
F       -2.589355    -2.081506     3.094507
O       -0.568721    -2.272043     1.933056
N        0.318169    -1.675305     1.132650
C        1.445528    -2.369940     0.634940
C        1.712255    -3.674958     1.238624
C        1.905492    -3.657364     2.612495
C        2.179979    -4.814087     3.308440
C        2.258553    -6.024973     2.631484
C        2.043718    -6.072660     1.246875
C        1.779787    -4.889810     0.531399
C        2.197099    -1.772683    -0.345812
C        3.455501    -2.252543    -0.866367
C        4.514578    -2.364435     0.029075
C        5.758256    -2.773480    -0.419192
C        5.934875    -3.124440    -1.758551
C        4.869062    -3.025991    -2.661428
C        3.620811    -2.595488    -2.213248
N        1.733511    -0.587338    -0.916812
O        2.495401     0.158724    -1.722224
Fe       0.000000     0.000000     0.000000
N       -0.496265     0.698269    -1.858679
C       -1.803524     0.385474    -2.210737
N       -2.228623     0.814620    -3.487283
C       -2.949199     1.903632    -3.678579
C       -3.129623     1.958167    -5.042818
N       -2.511091     0.899411    -5.643715
C       -1.963083     0.189887    -4.635633
C       -2.542692    -0.297123    -1.298812
N       -3.919136    -0.639732    -1.408221
C       -4.900121     0.137645    -0.967327
C       -6.050608    -0.566976    -1.244303
N       -5.737940    -1.752729    -1.845135
C       -4.390473    -1.756480    -1.953317
N       -1.928315    -0.694140    -0.179371
O       -2.561707    -1.341311     0.830910
O        0.424295     1.121435    -2.756857
H        3.065169     3.214633     2.003753
H        3.990754     5.527882     2.040840
H        2.609279     7.419854     1.198390
H        0.344409     6.991536     0.291465
H       -0.564971     4.723941     0.259557
H        1.374854     2.198435     4.142659
H        0.794155     3.116593     6.330428
H       -1.492140     3.926618     6.783124
H       -3.245456     3.762026     5.003163
H       -2.644780     2.811416     2.783571
H        1.828558    -2.717891     3.145486
H        2.333768    -4.757368     4.373189
H        2.480973    -6.918965     3.191752
H        2.084427    -7.026792     0.743293
H        1.575950    -4.927571    -0.531127
H        4.388540    -2.052677     1.055596
H        6.572704    -2.816298     0.284850
H        6.901960    -3.464444    -2.087309
H        5.012073    -3.287034    -3.700514
H        2.791475    -2.491891    -2.913431
H       -3.252974     2.607283    -2.915735
H       -3.671172     2.730530    -5.561092
H       -1.357090    -0.706798    -4.759023
H       -4.793086     1.080571    -0.442385
H       -7.050368    -0.234293    -1.011073
H       -3.792034    -2.577479    -2.334049
83
ex_0076 frame15 mer
F       -1.374652     2.143948     3.302209
B       -0.752676     1.293691     2.191521
O       -1.812439     0.507472     1.589057
N       -1.460422    -0.315309     0.648849
C       -2.255140    -1.141902     0.014042
C       -3.624366    -1.146015     0.430404
C       -4.055293    -2.144933     1.292298
C       -5.384019    -2.205186     1.693217
C       -6.275386    -1.238420     1.229267
C       -5.841203    -0.225735     0.378292
C       -4.513896    -0.163067    -0.021165
C       -1.688797    -1.923286    -0.989509
C       -2.369404    -2.904127    -1.794821
C       -2.764397    -2.631265    -3.098303
C       -3.445033    -3.617112    -3.808580
C       -3.714228    -4.855809    -3.246548
C       -3.300338    -5.115754    -1.955672
C       -2.624494    -4.136153    -1.238380
N       -0.402527    -1.761876    -1.240428
O        0.251015    -2.419414    -2.140999
B        1.654219    -2.082567    -2.221135
F        2.280022    -2.928705    -3.337272
O        1.817086    -0.692232    -2.587916
N        1.365179     0.169477    -1.737739
C        1.479524     1.479001    -1.844725
C        2.133589     1.959191    -3.035576
C        3.517108     1.889262    -3.093534
C        4.193827     2.368964    -4.203254
C        3.492496     2.902432    -5.266816
C        2.106522     2.961299    -5.228912
C        1.419027     2.480315    -4.105069
C        0.963925     2.250368    -0.804371
C        0.959407     3.692350    -0.709206
C       -0.167892     4.461355    -0.967911
C       -0.074321     5.859792    -0.881857
C        1.118411     6.460282    -0.526624
C        2.215768     5.680045    -0.258870
C        2.127624     4.299311    -0.347248
N        0.418698     1.616168     0.208932
O       -0.108492     2.188661     1.245597
Fe       0.452736    -0.393793    -0.015955
N        0.863134    -0.325910     1.963566
C        1.822682    -1.156000     2.304105
N        2.149780    -1.159021     3.701881
C        2.288747    -2.230346     4.479162
C        2.606970    -1.750670     5.731152
N        2.656920    -0.411711     5.677508
C        2.359525    -0.059792     4.409404
C        2.403855    -1.925519     1.292559
N        3.481409    -2.870710     1.426977
C        3.356408    -4.186576     1.784238
C        4.672870    -4.664825     1.795117
N        5.495390    -3.660269     1.447163
C        4.723752    -2.572175     1.218836
N        1.924044    -1.780905     0.079706
O        2.337967    -2.408719    -0.978614
O        0.223967     0.432058     2.802728
H       -3.379828    -2.905019     1.665235
H       -5.723951    -2.995712     2.357866
H       -7.324682    -1.247933     1.516745
H       -6.565449     0.504749     0.041218
H       -4.210797     0.626136    -0.676562
H       -2.581398    -1.694837    -3.565532
H       -3.771793    -3.423187    -4.816351
H       -4.246323    -5.621783    -3.812158
H       -3.511999    -6.083666    -1.520363
H       -2.303476    -4.347840    -0.231752
H        4.102117     1.480615    -2.280427
H        5.267766     2.321023    -4.227379
H        4.062924     3.262645    -6.109794
H        1.584487     3.385310    -6.078816
H        0.351674     2.521416    -4.072981
H       -1.072749     3.990415    -1.241089
H       -0.939388     6.458890    -1.093701
H        1.212242     7.526882    -0.452961
H        3.134922     6.158366     0.015750
H        3.001325     3.701215    -0.131330
H        2.163352    -3.247391     4.223932
H        2.805093    -2.309121     6.643328
H        2.328331     0.963608     4.077526
H        2.511266    -4.725583     2.002594
H        5.033808    -5.664433     2.037098
H        5.123591    -1.601753     0.916461
83
ex_0076 frame16 N1-trans-Δ-conf8
F        2.662464     2.638065     2.605247
B        1.830373     1.799218     1.775096
O        1.613713     0.522616     2.506906
N        1.017117    -0.406457     1.728689
C        0.431062    -1.512813     2.339255
C        0.865008    -1.739869     3.706454
C        2.087942    -2.343006     3.955455
C        2.513245    -2.530199     5.267468
C        1.695547    -2.134161     6.332469
C        0.465550    -1.521303     6.083254
C        0.035453    -1.343318     4.770839
C       -0.463959    -2.266433     1.626723
C       -0.957326    -3.566202     1.998074
C       -0.064389    -4.624537     2.032845
C       -0.508208    -5.897133     2.337365
C       -1.847357    -6.108608     2.663376
C       -2.754094    -5.039874     2.644067
C       -2.306647    -3.757870     2.316697
N       -0.958620    -1.754426     0.429932
O       -1.581037    -2.528948    -0.483921
B       -1.797415    -1.814959    -1.790531
F       -2.612171    -2.673033    -2.612630
O       -0.546910    -1.604818    -2.542072
N        0.272965    -0.779297    -1.869210
C        1.515754    -0.366067    -2.360376
C        1.869973    -0.873836    -3.694416
C        1.994261    -2.255372    -3.834252
C        2.303510    -2.822269    -5.057205
C        2.505533    -2.006830    -6.165754
C        2.379879    -0.615764    -6.047142
C        2.081222    -0.035920    -4.801181
C        2.302971     0.466993    -1.563925
C        3.648135     0.900674    -1.902317
C        4.654999    -0.046655    -2.067143
C        5.949626     0.364110    -2.345745
C        6.231964     1.722444    -2.508341
C        5.218895     2.676840    -2.358953
C        3.921720     2.264879    -2.059884
N        1.786223     0.943746    -0.328220
O        2.582842     1.562376     0.547890
Fe       0.000000     0.000000     0.000000
N       -0.331042     1.851931     0.802915
C       -1.638811     2.262926     0.519070
N       -2.048548     3.495888     1.107164
C       -2.842880     3.594215     2.166504
C       -2.947739     4.954329     2.394539
N       -2.223003     5.642272     1.465397
C       -1.683292     4.698834     0.664033
C       -2.420277     1.447705    -0.300392
N       -3.766936     1.717763    -0.689130
C       -4.828284     1.267836    -0.032642
C       -5.908656     1.720126    -0.762727
N       -5.475540     2.444129    -1.835844
C       -4.125869     2.446040    -1.746208
N       -1.864631     0.252513    -0.802200
O       -2.544352    -0.567516    -1.617594
O        0.550058     2.560883     1.531339
H        2.717895    -2.605701     3.116782
H        3.474806    -2.982121     5.453094
H        2.018208    -2.289194     7.349531
H       -0.155226    -1.183889     6.902289
H       -0.904689    -0.822250     4.598018
H        0.964829    -4.466459     1.733503
H        0.194632    -6.711959     2.315446
H       -2.168916    -7.104369     2.919561
H       -3.795984    -5.202341     2.879920
H       -3.002464    -2.927239     2.268178
H        1.817229    -2.898480    -2.981943
H        2.385363    -3.895431    -5.133519
H        2.751646    -2.464044    -7.112153
H        2.513225     0.000278    -6.924359
H        1.943489     1.034428    -4.714549
H        4.446372    -1.093263    -1.903448
H        6.723682    -0.381321    -2.430192
H        7.238638     2.026331    -2.742139
H        5.440531     3.728910    -2.473783
H        3.130469     3.001952    -1.920433
H       -3.243502     2.778641     2.753160
H       -3.505334     5.412696     3.197471
H       -1.012349     4.895091    -0.167305
H       -4.822291     0.626766     0.838440
H       -6.943704     1.517462    -0.528794
H       -3.454735     2.887728    -2.475507
83
ex_0076 frame17 N1-trans-Λ-conf7
F        2.627071     2.604605    -2.553352
B        1.767166     1.768548    -1.707688
O        1.351482     0.606461    -2.541837
N        0.277603    -0.076138    -2.022316
C        0.235698    -1.428311    -2.356441
C        0.707670    -1.805220    -3.699859
C        2.083584    -1.620656    -4.016048
C        2.569116    -1.949660    -5.285116
C        1.688960    -2.465621    -6.236493
C        0.339158    -2.647565    -5.914986
C       -0.143310    -2.325576    -4.643844
C       -0.240172    -2.344961    -1.426491
C       -0.828602    -3.663867    -1.795433
C       -2.207561    -3.922911    -1.516392
C       -2.765555    -5.174261    -1.804773
C       -1.973033    -6.164177    -2.379414
C       -0.630924    -5.888533    -2.676941
C       -0.072683    -4.635947    -2.398336
N       -0.175404    -2.036829    -0.051189
O       -1.199687    -2.563295     0.652556
B       -1.708464    -1.707064     1.776101
F       -2.571167    -2.587073     2.599818
O       -0.616594    -1.179838     2.618350
N        0.002779    -0.127178     2.042488
C        1.383783    -0.210297     2.363350
C        1.710190    -0.830109     3.697549
C        1.076198    -0.383466     4.836103
C        1.372207    -0.925978     6.084088
C        2.321578    -1.943497     6.203224
C        2.953032    -2.440045     5.062524
C        2.672472    -1.880459     3.803945
C        2.314854     0.260082     1.481804
C        3.629208     0.790961     1.899526
C        4.719152     0.632546     1.058212
C        5.962687     1.116221     1.413280
C        6.134848     1.761338     2.630914
C        5.053357     1.952311     3.486152
C        3.792046     1.458468     3.145110
N        2.029564     0.249997     0.085871
O        2.569948     1.341824    -0.542775
Fe       0.000000     0.000000     0.000000
N       -0.015835     2.041070    -0.161452
C       -1.392311     2.393520    -0.200535
N       -1.699678     3.701300    -0.772279
C       -2.630514     3.915433    -1.725930
C       -2.584195     5.279959    -1.971977
N       -1.639204     5.854325    -1.173003
C       -1.114301     4.844978    -0.437965
C       -2.322685     1.504896     0.292064
N       -3.598291     1.928471     0.833019
C       -3.938848     3.183304     1.168154
C       -5.241613     3.079016     1.623617
N       -5.657136     1.786543     1.573081
C       -4.618831     1.098357     1.070542
N       -2.025379     0.090366     0.274590
O       -2.554683    -0.593596     1.319427
O        0.596104     2.583605    -1.247821
H        2.785284    -1.220771    -3.286121
H        3.618539    -1.807032    -5.531369
H        2.042859    -2.725666    -7.224722
H       -0.334975    -3.036663    -6.657724
H       -1.176309    -2.437274    -4.380449
H       -2.864454    -3.183692    -1.066975
H       -3.805464    -5.381952    -1.573358
H       -2.402440    -7.139857    -2.589230
H       -0.012164    -6.652385    -3.111573
H        0.957295    -4.414629    -2.600166
H        0.337010     0.390029     4.714597
H        0.875719    -0.540922     6.960105
H        2.566776    -2.354743     7.173857
H        3.669749    -3.246679     5.160517
H        3.158784    -2.326349     2.945464
H        4.585001     0.144196     0.103406
H        6.798246     0.976012     0.750389
H        7.108481     2.119515     2.912248
H        5.210320     2.475051     4.414189
H        2.967203     1.664495     3.823501
H       -3.239197     3.201191    -2.272010
H       -3.197120     5.819905    -2.695597
H       -0.318647     4.934459     0.285755
H       -3.344504     4.087806     1.146272
H       -5.857605     3.892249     1.972310
H       -4.629788     0.028432     0.918769
83
ex_0076 frame18 N1-trans-Λ-conf5
F        2.603915     2.612776    -2.633872
B        1.772095     1.753487    -1.780040
O        1.395258     0.521499    -2.519394
N        0.153252    -0.012140    -2.060645
C        0.151572    -1.424514    -2.406394
C        0.700876    -1.788764    -3.743391
C        0.262422    -1.004309    -4.773485
C        0.640678    -1.248386    -6.067256
C        1.506074    -2.299401    -6.343898
C        2.013272    -3.096177    -5.310775
C        1.611051    -2.855600    -3.990691
C       -0.348597    -2.340535    -1.503298
C       -0.977875    -3.628004    -1.895892
C       -0.934720    -4.651417    -0.955979
C       -1.454052    -5.894284    -1.219357
C       -2.041156    -6.143377    -2.445764
C       -2.130554    -5.124046    -3.397491
C       -1.596989    -3.853304    -3.137376
N       -0.258952    -2.034558    -0.072964
O       -1.478200    -2.491506     0.512263
B       -1.773691    -1.773391     1.776709
F       -2.573747    -2.660721     2.614023
O       -0.513598    -1.445172     2.496362
N        0.002947    -0.277104     2.024122
C        1.403206    -0.205128     2.363520
C        1.773032    -0.702016     3.717497
C        1.129574    -0.142875     4.788844
C        1.398411    -0.534539     6.081067
C        2.348829    -1.522726     6.325647
C        3.013053    -2.128665     5.249563
C        2.751685    -1.716603     3.930439
C        2.313945     0.305393     1.449907
C        3.607462     0.923371     1.890354
C        3.719326     1.833250     2.984914
C        4.983449     2.346466     3.330954
C        6.107932     1.940531     2.609404
C        5.966054     1.064370     1.532679
C        4.726406     0.574151     1.181140
N        2.028612     0.253641    -0.017279
O        2.543557     1.410714    -0.561924
Fe       0.000000     0.000000     0.000000
N        0.123067     2.029202    -0.106888
C       -1.426928     2.372948    -0.177792
N       -1.823092     3.652245    -0.793848
C       -1.283505     4.752599    -0.318023
C       -1.815232     5.785244    -1.033888
N       -2.672011     5.297818    -1.977988
C       -2.676233     3.950952    -1.806657
C       -2.361085     1.424959     0.358991
N       -3.657635     1.799310     0.887425
C       -3.940035     1.784212     2.202939
C       -5.265906     2.131477     2.285412
N       -5.745593     2.372850     1.030325
C       -4.705343     2.192414     0.188977
N       -2.013617     0.061924     0.379186
O       -2.542185    -0.623306     1.517271
O        0.546629     2.531706    -1.362387
H       -0.403195    -0.183839    -4.548294
H        0.242422    -0.626671    -6.851969
H        1.778207    -2.482484    -7.363498
H        2.699342    -3.900497    -5.543092
H        2.033539    -3.453379    -3.195530
H       -0.479988    -4.480843     0.011908
H       -1.382909    -6.672225    -0.481755
H       -2.426111    -7.129214    -2.647130
H       -2.602586    -5.336372    -4.337523
H       -1.696824    -3.062148    -3.860154
H        0.389477     0.611983     4.588932
H        0.868534    -0.048600     6.883746
H        2.562647    -1.816063     7.344807
H        3.736048    -2.903765     5.437965
H        3.256152    -2.226040     3.113740
H        2.848175     2.170504     3.523622
H        5.103397     3.040222     4.156607
H        7.090614     2.302617     2.874382
H        6.820566     0.744821     0.972605
H        4.605365    -0.105546     0.341663
H       -0.560340     4.790031     0.473460
H       -1.580068     6.829556    -0.859240
H       -3.217275     3.261686    -2.446933
H       -3.295281     1.507669     3.035611
H       -5.840456     2.204271     3.202959
H       -4.745050     2.247666    -0.882683
83
ex_0076 frame19 N1-trans-Δ-conf2
F        2.489533     2.821950     2.551788
B        1.675386     1.935159     1.744939
O        0.260150     2.440882     1.740600
N       -0.509910     1.853128     0.612058
C       -1.860085     1.739524     0.993566
C       -2.398449     2.779524     1.956866
C       -2.913472     2.476614     3.241715
C       -3.421359     3.494907     4.044581
C       -3.417038     4.810590     3.575369
C       -2.889289     5.111368     2.323981
C       -2.371711     4.102599     1.524178
C       -2.593080     0.717039     0.482850
C       -4.063116     0.789494     0.305367
C       -4.718613     1.364564    -0.820437
C       -6.117658     1.337706    -0.878580
C       -6.860076     0.779295     0.159626
C       -6.205554     0.232886     1.252557
C       -4.820452     0.255744     1.315202
N       -1.994786    -0.453898     0.099828
O       -2.594967    -1.012606    -1.051913
B       -1.683183    -1.920144    -1.741522
F       -2.477723    -2.833185    -2.549241
O       -0.782639    -1.171568    -2.635676
N       -0.367161    -0.029484    -2.009700
C        0.879074     0.465480    -2.556832
C        1.050008     0.221746    -4.033496
C        1.703543    -0.932360    -4.513981
C        1.837547    -1.139563    -5.878042
C        1.342277    -0.210422    -6.779468
C        0.692433     0.934272    -6.318004
C        0.555275     1.150161    -4.942181
C        1.819323     1.105680    -1.766416
C        2.835160     2.056707    -2.253703
C        2.668005     3.453410    -2.420087
C        3.746094     4.231711    -2.872588
C        4.963095     3.625321    -3.172816
C        5.104826     2.260923    -3.009597
C        4.042847     1.492426    -2.563952
N        1.809682     0.844988    -0.460347
O        2.226796     1.975930     0.322550
Fe       0.000000     0.000000     0.000000
N        0.650392    -0.185078     1.919683
C        1.070356    -1.555820     1.905191
N        2.064139    -1.954693     2.992063
C        1.814708    -2.786617     3.996844
C        2.943859    -2.787718     4.805748
N        3.904059    -2.005876     4.256909
C        3.367596    -1.525274     3.111875
C        0.607203    -2.499045     0.954251
N        0.497951    -3.946740     1.172089
C       -0.301608    -4.663276     2.017073
C        0.011049    -6.003498     1.771862
N        0.977886    -6.056742     0.822864
C        1.254594    -4.781189     0.487182
N        0.237908    -2.021543    -0.247655
O       -0.898316    -2.733915    -0.767217
O        1.702943     0.581987     2.286098
H       -2.908961     1.469130     3.621226
H       -3.828240     3.257696     5.020089
H       -3.816134     5.616992     4.170606
H       -2.899074     6.136041     1.988349
H       -1.964097     4.360626     0.554404
H       -4.180412     1.794258    -1.645409
H       -6.631884     1.756466    -1.720503
H       -7.941891     0.766117     0.118879
H       -6.780739    -0.200637     2.052576
H       -4.308810    -0.174920     2.154557
H        2.093511    -1.678147    -3.841530
H        2.337748    -2.021737    -6.233281
H        1.472128    -0.402252    -7.831076
H        0.311549     1.642792    -7.037858
H        0.047240     2.022768    -4.575543
H        1.735807     3.919679    -2.178375
H        3.636406     5.292413    -2.997836
H        5.803915     4.193352    -3.528869
H        6.044357     1.802679    -3.239903
H        4.159287     0.436511    -2.428414
H        0.901546    -3.270913     4.182206
H        3.079881    -3.315449     5.744031
H        3.911266    -0.849439     2.458180
H       -1.049001    -4.317038     2.688116
H       -0.405416    -6.902967     2.232256
H        1.979431    -4.485800    -0.259935
83
ex_0076 frame20 N1-trans-Δ-conf7
F        2.614619     2.589323     2.548140
B        1.752493     1.738811     1.717209
O        1.157143     2.622664     0.682155
N        0.123330     2.041146     0.042392
C       -0.051633     2.443595    -1.309754
C        0.296429     3.831070    -1.647046
C        1.659586     4.233669    -1.540911
C        2.030913     5.547587    -1.837150
C        1.052510     6.457708    -2.237759
C       -0.282863     6.050242    -2.344597
C       -0.654607     4.736448    -2.057569
C       -0.532775     1.537037    -2.243248
C       -1.225551     1.922686    -3.498782
C       -2.592529     1.552698    -3.676638
C       -3.260218     1.853128    -4.864161
C       -2.583908     2.533378    -5.872511
C       -1.248382     2.919088    -5.681660
C       -0.577640     2.626601    -4.489185
N       -0.363876     0.140262    -2.005390
O       -1.371013    -0.627227    -2.519420
B       -1.721350    -1.797597    -1.663945
F       -2.570966    -2.670317    -2.480561
O       -0.529509    -2.591222    -1.293685
N        0.182250    -2.018174    -0.292645
C        1.552496    -2.249629    -0.466257
C        1.920895    -3.523747    -1.139806
C        1.402755    -4.728099    -0.701439
C        1.733440    -5.918252    -1.343791
C        2.607121    -5.912174    -2.434651
C        3.127131    -4.704156    -2.904823
C        2.814999    -3.505192    -2.246107
C        2.438795    -1.325408    -0.019972
C        3.818514    -1.655766     0.400934
C        4.837123    -0.730601     0.221168
C        6.131319    -1.019740     0.612130
C        6.430510    -2.255083     1.179829
C        5.423572    -3.196197     1.392036
C        4.113225    -2.917644     0.990685
N        2.044439     0.048256     0.058367
O        2.612463     0.673530     1.108399
Fe       0.000000     0.000000     0.000000
N        0.097139     0.105132     2.042084
C       -1.238392     0.005656     2.499654
N       -1.477761     0.454120     3.857373
C       -2.465313     1.307662     4.186504
C       -2.321134     1.505990     5.551999
N       -1.277021     0.761579     6.015158
C       -0.788113     0.105483     4.936416
C       -2.192237    -0.497433     1.654290
N       -3.400841    -1.166963     2.134554
C       -3.612753    -1.593779     3.389880
C       -4.875093    -2.162590     3.355853
N       -5.394529    -2.082864     2.104119
C       -4.464462    -1.443573     1.374050
N       -1.999527    -0.364013     0.231796
O       -2.511588    -1.405667    -0.459910
O        0.719400     1.160225     2.612254
H        2.441541     3.539276    -1.232924
H        3.067991     5.863224    -1.754548
H        1.321502     7.480592    -2.464808
H       -1.034976     6.757901    -2.644008
H       -1.678239     4.409221    -2.116840
H       -3.154853     1.016784    -2.913749
H       -4.294053     1.551084    -5.006994
H       -3.095725     2.754408    -6.801109
H       -0.721793     3.434036    -6.464030
H        0.453498     2.892811    -4.337566
H        0.706443    -4.710049     0.122251
H        1.311105    -6.843869    -0.986452
H        2.872479    -6.840795    -2.922656
H        3.770660    -4.705502    -3.777711
H        3.197499    -2.581058    -2.672351
H        4.605282     0.234449    -0.202947
H        6.899600    -0.281867     0.459338
H        7.444846    -2.476563     1.462544
H        5.672213    -4.137737     1.862315
H        3.347976    -3.660429     1.212463
H       -3.159766     1.830854     3.533931
H       -2.923839     2.166617     6.170059
H        0.067114    -0.551569     4.930843
H       -2.945818    -1.570186     4.241776
H       -5.393091    -2.610135     4.187269
H       -4.573496    -1.244458     0.319875
83
ex_0076 frame21 N1-trans-Λ-conf2
F        2.621269     2.579413    -2.627278
B        1.760235     1.715896    -1.739254
O        1.680820     0.291328    -2.327423
N        1.231387    -0.677120    -1.484115
C        0.474104    -1.624582    -2.210784
C        0.904038    -1.901098    -3.606912
C        0.004584    -1.700178    -4.698745
C        0.430868    -1.989362    -6.004610
C        1.721168    -2.488487    -6.212221
C        2.589608    -2.657510    -5.134868
C        2.181923    -2.354960    -3.845457
C       -0.564168    -2.206015    -1.612738
C       -1.040563    -3.541373    -1.953802
C       -0.401935    -4.722567    -1.432284
C       -0.934278    -5.983005    -1.770781
C       -2.039965    -6.057034    -2.623116
C       -2.621888    -4.889301    -3.113867
C       -2.109481    -3.652203    -2.781519
N       -1.254160    -1.506591    -0.589898
O       -1.659569    -2.384571     0.376774
B       -1.755808    -1.737372     1.715782
F       -2.617222    -2.614101     2.555277
O       -0.381784    -1.631462     2.351115
N        0.601541    -1.268696     1.489454
C        1.608276    -0.519447     2.203074
C        1.912937    -0.950299     3.594397
C        1.294027    -0.295328     4.708731
C        1.568438    -0.735978     6.013043
C        2.460579    -1.787323     6.213831
C        3.063813    -2.411737     5.116952
C        2.792025    -1.981536     3.817122
C        2.223657     0.519951     1.599471
C        3.562299     1.019514     1.933588
C        4.750189     0.441862     1.364444
C        6.007675     0.985620     1.712133
C        6.068205     2.054883     2.612918
C        4.894686     2.582919     3.144247
C        3.663140     2.055658     2.805362
N        1.555890     1.204124     0.559996
O        2.383972     1.678272    -0.378998
Fe       0.000000     0.000000     0.000000
N       -0.507129     1.547388    -1.239744
C       -1.553478     2.231932    -0.567273
N       -1.869526     3.573460    -1.017243
C       -2.987750     3.980253    -1.573919
C       -2.777769     5.320322    -1.868785
N       -1.546338     5.714111    -1.443783
C       -0.993193     4.608563    -0.904002
C       -2.230804     1.614186     0.477425
N       -3.573210     1.923404     0.935210
C       -4.742608     1.747650     0.270142
C       -5.721118     2.188084     1.167587
N       -5.124758     2.611398     2.314493
C       -3.799049     2.441736     2.126727
N       -1.561112     0.553644     1.202054
O       -2.421582    -0.393501     1.636421
O        0.443669     2.386590    -1.690306
H       -0.995431    -1.279276    -4.574127
H       -0.229720    -1.836780    -6.854140
H        2.068643    -2.741631    -7.202458
H        3.584071    -3.034610    -5.293971
H        2.852432    -2.471445    -3.010127
H        0.444167    -4.715942    -0.733811
H       -0.512985    -6.909403    -1.386600
H       -2.463001    -7.011126    -2.907500
H       -3.477399    -4.926619    -3.757635
H       -2.550117    -2.735160    -3.123795
H        0.567820     0.506079     4.599237
H        1.093034    -0.270745     6.870143
H        2.676156    -2.118718     7.221093
H        3.741420    -3.235341     5.275616
H        3.227202    -2.466521     2.959747
H        4.735469    -0.373758     0.638110
H        6.935719     0.598980     1.296829
H        7.012152     2.495178     2.906027
H        4.928238     3.411211     3.823814
H        2.745672     2.459599     3.185242
H       -3.827050     3.359064    -1.793078
H       -3.472023     5.965243    -2.386975
H        0.014057     4.618954    -0.476796
H       -4.939197     1.286773    -0.700146
H       -6.804340     2.195642     1.035416
H       -3.028541     2.638599     2.847410
83
ex_0076 frame22 N1-trans-Δ-conf6
F        2.641930     2.652756     2.535383
B        1.782011     1.800060     1.727027
O        1.304805     2.625502     0.584654
N        0.329034     2.017687    -0.101043
C       -0.029478     2.484275    -1.389293
C        0.332058     3.855336    -1.702931
C        1.684275     4.259293    -1.589826
C        2.042170     5.574441    -1.854386
C        1.057833     6.482553    -2.246447
C       -0.276521     6.071622    -2.363214
C       -0.632191     4.753620    -2.106577
C       -0.678919     1.630704    -2.238435
C       -1.312023     1.976350    -3.501996
C       -2.655317     1.594773    -3.708072
C       -3.286055     1.865321    -4.906074
C       -2.589825     2.540675    -5.903840
C       -1.255779     2.929600    -5.697281
C       -0.620676     2.662225    -4.482471
N       -0.757728     0.278886    -1.879865
O       -1.520065    -0.594306    -2.538848
B       -1.757188    -1.815808    -1.738070
F       -2.618402    -2.682178    -2.544506
O       -0.501548    -2.555412    -1.497737
N        0.248805    -1.951639    -0.548800
C        1.607892    -2.262668    -0.545885
C        1.963287    -3.528907    -1.187488
C        1.429374    -4.724111    -0.720340
C        1.745564    -5.924251    -1.347918
C        2.616351    -5.929632    -2.442292
C        3.148280    -4.729518    -2.923927
C        2.848979    -3.528285    -2.280287
C        2.467128    -1.393647     0.035619
C        3.833992    -1.709076     0.431961
C        4.834721    -0.760834     0.236886
C        6.135980    -1.031374     0.613700
C        6.448528    -2.263801     1.183883
C        5.450670    -3.219655     1.397868
C        4.140325    -2.957065     1.005262
N        2.017894    -0.064922     0.287185
O        2.609456     0.631588     1.271135
Fe       0.000000     0.000000     0.000000
N       -0.006396     0.332819     2.018223
C       -1.293279     0.073829     2.519261
N       -1.521576     0.492338     3.874279
C       -2.501175     1.329848     4.220182
C       -2.337380     1.516685     5.582838
N       -1.290354     0.765947     6.031106
C       -0.816888     0.120183     4.939763
C       -2.206773    -0.544675     1.696035
N       -3.409890    -1.197248     2.173512
C       -3.629376    -1.613133     3.422184
C       -4.900406    -2.169360     3.381887
N       -5.413447    -2.082253     2.126930
C       -4.465403    -1.465063     1.400075
N       -1.952488    -0.542849     0.289801
O       -2.484926    -1.540289    -0.458254
O        0.652488     1.364757     2.587438
H        2.464864     3.564578    -1.279753
H        3.075629     5.885991    -1.746833
H        1.322823     7.505673    -2.453447
H       -1.042178     6.774612    -2.639017
H       -1.659688     4.424411    -2.155983
H       -3.209596     1.061152    -2.942418
H       -4.310575     1.544273    -5.044585
H       -3.089793     2.752523    -6.834086
H       -0.711895     3.430388    -6.479718
H        0.418985     2.923455    -4.324319
H        0.730437    -4.696410     0.106637
H        1.309934    -6.843200    -0.984391
H        2.867173    -6.859769    -2.928011
H        3.785664    -4.726851    -3.797161
H        3.226032    -2.597899    -2.694381
H        4.585850     0.203134    -0.190086
H        6.895078    -0.280282     0.457601
H        7.463507    -2.473573     1.468062
H        5.694583    -4.158229     1.869602
H        3.367355    -3.692733     1.218565
H       -3.191416     1.845509     3.558400
H       -2.924878     2.179020     6.204232
H        0.041493    -0.534472     4.915179
H       -2.962420    -1.580899     4.274577
H       -5.424359    -2.618789     4.206428
H       -4.559686    -1.248690     0.350090
83
ex_0076 frame23 N1-trans-Δ-conf4
F        3.029375     2.197849     2.590993
B        2.002838     1.473299     1.728849
O        0.856058     1.153938     2.551630
N       -0.095114     0.500487     1.964526
C       -1.180313     0.045776     2.564934
C       -1.288065     0.315621     3.983436
C       -0.394351    -0.308099     4.832228
C       -0.461752    -0.124664     6.195684
C       -1.434995     0.719288     6.700045
C       -2.334950     1.376021     5.871288
C       -2.249424     1.169609     4.500700
C       -2.092987    -0.636592     1.776790
C       -3.358366    -1.196537     2.191904
C       -4.485841    -0.985988     1.409859
C       -5.720676    -1.486765     1.779341
C       -5.855471    -2.218835     2.926187
C       -4.732769    -2.447355     3.710121
C       -3.475767    -1.934667     3.344521
N       -1.788408    -0.803912     0.497273
O       -2.538647    -1.414999    -0.355625
B       -2.030091    -1.479442    -1.711919
F       -3.054366    -2.199961    -2.582568
O       -1.790758    -0.166758    -2.298161
N       -0.920401     0.576087    -1.711827
C       -0.562854     1.792939    -2.092666
C       -1.155316     2.269977    -3.318613
C       -0.724728     1.736025    -4.520795
C       -1.238077     2.177918    -5.725942
C       -2.214159     3.160693    -5.733339
C       -2.661876     3.688877    -4.521019
C       -2.141102     3.247338    -3.305803
C        0.333756     2.482068    -1.287671
C        0.852624     3.796582    -1.540977
C        1.607277     4.048555    -2.683860
C        2.086647     5.323582    -2.955120
C        1.808641     6.343448    -2.058055
C        1.064559     6.068373    -0.912496
C        0.590673     4.801206    -0.634721
N        0.753029     1.877734    -0.183505
O        1.583176     2.378194     0.672832
Fe       0.000000     0.000000     0.000000
N        1.916228    -0.465064     0.436845
C        2.289765    -1.596353    -0.120489
N        3.643611    -1.982631     0.150054
C        4.679166    -1.381088    -0.422202
C        5.809967    -2.035554     0.046120
N        5.415823    -2.984742     0.922611
C        4.034595    -2.923346     0.948444
C        1.346339    -2.278408    -0.894934
N        1.538826    -3.513206    -1.566341
C        1.323481    -3.678944    -2.903078
C        1.645045    -4.977172    -3.186764
N        2.012111    -5.573765    -2.030029
C        1.934936    -4.644291    -1.045307
N        0.139670    -1.735011    -1.030732
O       -0.811032    -2.257980    -1.711080
O        2.639078     0.278429     1.187873
H        0.361298    -0.966149     4.447414
H        0.241873    -0.638140     6.845794
H       -1.470470     0.850392     7.763538
H       -3.082781     2.028332     6.295194
H       -2.930358     1.669750     3.861509
H       -4.434779    -0.413540     0.501005
H       -6.595303    -1.311509     1.173678
H       -6.816968    -2.607361     3.209006
H       -4.847802    -3.029251     4.618151
H       -2.616437    -2.124311     3.956181
H        0.031863     0.976068    -4.534387
H       -0.868260     1.746984    -6.646690
H       -2.629152     3.518123    -6.676186
H       -3.410935     4.444160    -4.505267
H       -2.495782     3.659338    -2.377314
H        1.815365     3.243238    -3.366502
H        2.666787     5.549824    -3.842854
H        2.164135     7.362145    -2.233788
H        0.845720     6.854561    -0.213734
H        0.007366     4.587771     0.257124
H        4.689080    -0.612239    -1.130088
H        6.833277    -1.792198    -0.255231
H        3.441782    -3.567239     1.603158
H        1.012995    -2.925466    -3.588212
H        1.587162    -5.401731    -4.183073
H        2.173167    -4.875734    -0.022774
83
ex_0076 frame24 N1-trans-Δ
F        2.492000     2.842876     2.556019
B        1.665142     1.883572     1.696556
O        0.273887     2.281248     1.802052
N       -0.591874     1.549231     1.164844
C       -1.888698     1.710194     1.173947
C       -2.386532     2.780211     1.982849
C       -2.895408     2.484628     3.239844
C       -3.419943     3.490088     4.042193
C       -3.413831     4.803054     3.572607
C       -2.888166     5.103867     2.319056
C       -2.361908     4.100929     1.517549
C       -2.644573     0.830856     0.402031
C       -4.077809     0.818108     0.277980
C       -4.719795     1.354099    -0.831253
C       -6.111774     1.333931    -0.869870
C       -6.854397     0.778088     0.160822
C       -6.199720     0.235341     1.248068
C       -4.811169     0.255252     1.296634
N       -2.002275    -0.083300    -0.287124
O       -2.568477    -0.964077    -1.050637
B       -1.652184    -1.876000    -1.698336
F       -2.477095    -2.835763    -2.565392
O       -0.760258    -1.151636    -2.579177
N        0.041354    -0.304910    -2.005321
C        0.971051     0.391433    -2.615747
C        1.064099     0.211434    -4.042571
C        1.690675    -0.931255    -4.515923
C        1.835745    -1.133463    -5.878843
C        1.339375    -0.206783    -6.774686
C        0.693482     0.931868    -6.314059
C        0.548897     1.141272    -4.934862
C        1.759231     1.220771    -1.823251
C        2.827418     2.089529    -2.266431
C        2.673076     3.462526    -2.408131
C        3.754963     4.226354    -2.874884
C        4.961663     3.621685    -3.171072
C        5.097367     2.265375    -3.007630
C        4.029668     1.508029    -2.551155
N        1.519931     1.227015    -0.529768
O        2.166028     1.949608     0.334430
Fe       0.000000     0.000000     0.000000
N        1.231772    -0.373450     1.562096
C        1.294753    -1.649942     1.854843
N        2.138599    -1.973388     2.970655
C        1.827141    -2.762889     3.995943
C        2.938973    -2.782286     4.809754
N        3.888502    -2.013414     4.257004
C        3.369523    -1.509199     3.118287
C        0.551385    -2.533087     1.067399
N        0.494693    -3.966036     1.181159
C       -0.328627    -4.674638     2.014225
C        0.007826    -6.012458     1.772182
N        0.970417    -6.048051     0.834604
C        1.238313    -4.767779     0.487480
N       -0.180369    -2.012740     0.115375
O       -0.930633    -2.672293    -0.716449
O        1.848088     0.559115     2.228179
H       -2.909119     1.472202     3.624359
H       -3.830617     3.256039     5.021375
H       -3.815238     5.621230     4.166894
H       -2.902822     6.135774     1.992428
H       -1.966415     4.363125     0.558827
H       -4.189371     1.792476    -1.640751
H       -6.631107     1.755111    -1.714169
H       -7.944297     0.765634     0.119918
H       -6.782536    -0.197771     2.050480
H       -4.307885    -0.172006     2.148274
H        2.094468    -1.679104    -3.846565
H        2.337119    -2.017373    -6.230343
H        1.475316    -0.407829    -7.826747
H        0.314768     1.640388    -7.041522
H        0.049894     2.015493    -4.576029
H        1.744905     3.912185    -2.181039
H        3.636300     5.285953    -2.998563
H        5.802202     4.185982    -3.527338
H        6.038729     1.808742    -3.240808
H        4.155417     0.441966    -2.427089
H        0.917265    -3.264282     4.185918
H        3.087564    -3.316259     5.745673
H        3.918313    -0.853552     2.464456
H       -1.035588    -4.334929     2.675839
H       -0.399851    -6.912692     2.231968
H        1.983458    -4.488898    -0.260869
83
ex_0076 frame25 N1-trans-Λ-conf6
F        2.668662     2.583965    -2.597624
B        1.791625     1.785846    -1.780294
O        1.469258     0.577657    -2.578913
N        0.656373    -0.260713    -1.917876
C        0.326843    -1.526554    -2.397452
C        0.755014    -1.841824    -3.718113
C        2.107128    -1.630762    -4.035310
C        2.577936    -1.945803    -5.297480
C        1.692848    -2.463197    -6.242899
C        0.343566    -2.644096    -5.922458
C       -0.123011    -2.336018    -4.652603
C       -0.377965    -2.364968    -1.563713
C       -0.899506    -3.676233    -1.853576
C       -2.244138    -3.956400    -1.546326
C       -2.775368    -5.200425    -1.802497
C       -1.974818    -6.177936    -2.377651
C       -0.630807    -5.898883    -2.672498
C       -0.096784    -4.636795    -2.420601
N       -0.626196    -1.922724    -0.301204
O       -1.324091    -2.626409     0.606737
B       -1.746280    -1.802558     1.783860
F       -2.634176    -2.626084     2.573698
O       -0.603392    -1.491093     2.614170
N        0.193821    -0.650654     1.922469
C        1.468529    -0.377727     2.389221
C        1.756749    -0.914329     3.696731
C        1.091999    -0.403950     4.816600
C        1.374023    -0.923027     6.079504
C        2.320393    -1.943859     6.210530
C        2.957515    -2.454637     5.082770
C        2.689328    -1.930631     3.833291
C        2.317622     0.359676     1.586890
C        3.616276     0.844217     1.955516
C        4.693270     0.652469     1.068007
C        5.952615     1.115474     1.410642
C        6.134300     1.761070     2.626230
C        5.062649     1.959835     3.488594
C        3.803314     1.490438     3.167350
N        1.898682     0.678526     0.289803
O        2.562597     1.506834    -0.529257
Fe       0.000000     0.000000     0.000000
N       -0.226546     1.897743    -0.723062
C       -1.470421     2.401838    -0.364086
N       -1.740523     3.699142    -0.855402
C       -2.648513     3.950290    -1.784798
C       -2.589319     5.308943    -1.985845
N       -1.645472     5.866831    -1.170322
C       -1.131518     4.830017    -0.460371
C       -2.305732     1.612213     0.420036
N       -3.601475     1.990358     0.896483
C       -3.955401     3.214153     1.189295
C       -5.253557     3.079516     1.624356
N       -5.653325     1.777707     1.567605
C       -4.592279     1.112854     1.091430
N       -1.853641     0.336352     0.782380
O       -2.546816    -0.579855     1.456998
O        0.590349     2.585286    -1.531288
H        2.793915    -1.228732    -3.288873
H        3.623367    -1.803783    -5.534794
H        2.042273    -2.726422    -7.225330
H       -0.334138    -3.032146    -6.658701
H       -1.160793    -2.437396    -4.375502
H       -2.878662    -3.200129    -1.091368
H       -3.808675    -5.389451    -1.566437
H       -2.406019    -7.145158    -2.588797
H       -0.009044    -6.656007    -3.103297
H        0.943203    -4.402259    -2.607017
H        0.343038     0.376705     4.688187
H        0.879314    -0.535302     6.957366
H        2.569868    -2.352869     7.175293
H        3.673022    -3.248665     5.166495
H        3.155930    -2.352896     2.959295
H        4.559898     0.154939     0.105285
H        6.794647     0.970126     0.754004
H        7.105532     2.113989     2.912023
H        5.216074     2.471861     4.412857
H        2.971159     1.682377     3.829801
H       -3.238417     3.220012    -2.308133
H       -3.209592     5.833522    -2.699160
H       -0.327265     4.914126     0.273928
H       -3.350557     4.099306     1.161359
H       -5.864462     3.890313     1.964304
H       -4.602183     0.029202     0.928159
83
ex_0076 frame26 N1-trans-Λ-conf4
F        2.607243     2.631223    -2.645652
B        1.745810     1.737195    -1.762130
O        1.492462     0.500562    -2.469636
N        0.739710    -0.354590    -1.856718
C        0.325676    -1.500717    -2.369987
C        0.766823    -1.794411    -3.717369
C        0.285149    -1.005804    -4.744255
C        0.635224    -1.251045    -6.053639
C        1.501703    -2.296147    -6.319851
C        2.018356    -3.094007    -5.307612
C        1.645253    -2.829528    -3.996406
C       -0.480427    -2.291987    -1.568908
C       -1.027450    -3.589841    -1.890196
C       -0.955395    -4.611118    -0.952689
C       -1.448151    -5.873879    -1.226098
C       -2.035273    -6.141460    -2.431559
C       -2.125307    -5.124745    -3.372538
C       -1.619482    -3.840728    -3.104209
N       -0.795212    -1.821852    -0.370522
O       -1.534510    -2.445413     0.484623
B       -1.750736    -1.766163     1.748077
F       -2.609147    -2.657103     2.640163
O       -0.514168    -1.477802     2.463602
N        0.320790    -0.694626     1.877890
C        1.495386    -0.319186     2.360569
C        1.796428    -0.760455     3.700828
C        1.131197    -0.169679     4.761123
C        1.401062    -0.531991     6.067675
C        2.341124    -1.516729     6.323180
C        3.001060    -2.125900     5.254262
C        2.733082    -1.757495     3.936919
C        2.311848     0.450625     1.543483
C        3.601130     0.974310     1.896945
C        3.733962     1.864821     2.959265
C        4.980804     2.351846     3.329859
C        6.094688     1.942509     2.613021
C        5.939643     1.062607     1.543694
C        4.701597     0.580080     1.167018
N        1.867490     0.732491     0.323229
O        2.496854     1.440558    -0.554738
Fe       0.000000     0.000000     0.000000
N       -0.341491     1.849762    -0.737354
C       -1.519910     2.314036    -0.374504
N       -1.821797     3.629482    -0.857867
C       -1.261633     4.718986    -0.346998
C       -1.813085     5.791904    -1.033152
N       -2.658270     5.305745    -1.968081
C       -2.641645     3.931930    -1.812997
C       -2.324110     1.491692     0.421131
N       -3.626522     1.790975     0.897659
C       -3.965377     1.751803     2.218177
C       -5.277095     2.130585     2.290471
N       -5.711500     2.356902     1.029945
C       -4.669364     2.137138     0.190141
N       -1.841238     0.308820     0.778017
O       -2.481053    -0.543963     1.495337
O        0.515535     2.459608    -1.463170
H       -0.389507    -0.195214    -4.544621
H        0.231532    -0.627521    -6.847134
H        1.763460    -2.470250    -7.344809
H        2.692496    -3.901796    -5.547397
H        2.037876    -3.431708    -3.218191
H       -0.499657    -4.454167     0.008522
H       -1.380127    -6.666513    -0.498398
H       -2.418168    -7.124119    -2.639443
H       -2.592684    -5.344824    -4.326152
H       -1.701544    -3.063733    -3.837734
H        0.401949     0.596060     4.582305
H        0.871349    -0.039270     6.871942
H        2.563383    -1.813638     7.348517
H        3.726220    -2.884365     5.429410
H        3.245511    -2.235890     3.120703
H        2.857252     2.173418     3.501418
H        5.114026     3.036954     4.159728
H        7.094977     2.299075     2.872247
H        6.799017     0.741652     0.984579
H        4.581458    -0.108950     0.335137
H       -0.587343     4.805670     0.446903
H       -1.574378     6.840869    -0.833425
H       -3.218487     3.271623    -2.465520
H       -3.314638     1.518200     3.027875
H       -5.824693     2.208843     3.223357
H       -4.762781     2.246204    -0.875320
83
ex_0076 frame27 N1-trans-Δ-conf3
F        2.606446     2.649660     2.667656
B        1.791122     1.802783     1.808646
O        1.588746     0.500449     2.531002
N        0.786963    -0.320766     1.858540
C        0.407522    -1.570246     2.355444
C        0.933427    -1.883158     3.663307
C        2.053749    -2.694974     3.779237
C        2.599546    -2.942026     5.030692
C        1.989475    -2.417177     6.175252
C        0.846316    -1.616799     6.060868
C        0.305173    -1.362452     4.801796
C       -0.389970    -2.347655     1.595664
C       -0.916497    -3.629260     1.960860
C       -2.117219    -3.670909     2.668697
C       -2.683943    -4.898951     2.985415
C       -2.024862    -6.080926     2.629173
C       -0.809589    -6.030231     1.935493
C       -0.246141    -4.799577     1.617455
N       -0.747250    -1.876260     0.330532
O       -1.657798    -2.502517    -0.446492
B       -1.816533    -1.813441    -1.774674
F       -2.646488    -2.661071    -2.617510
O       -0.518460    -1.630819    -2.466046
N        0.119559    -0.557420    -1.962410
C        1.495155    -0.354676    -2.332562
C        1.927638    -0.949855    -3.621268
C        1.400774    -0.459457    -4.816047
C        1.765731    -1.033525    -6.035071
C        2.673961    -2.096916    -6.064394
C        3.212816    -2.590132    -4.871605
C        2.863179    -2.003150    -3.649897
C        2.344985     0.370421    -1.493726
C        3.708807     0.792699    -1.838566
C        3.905945     2.093234    -2.336298
C        5.197531     2.548008    -2.612183
C        6.287761     1.694657    -2.424190
C        6.086106     0.391901    -1.953633
C        4.794428    -0.065887    -1.681355
N        1.893685     0.747747    -0.200232
O        2.551673     1.615984     0.567229
Fe       0.000000     0.000000     0.000000
N       -0.243841     1.947461     0.580068
C       -1.590449     2.330562     0.397192
N       -1.980862     3.582670     0.972418
C       -1.347770     4.718838     0.722137
C       -2.001163     5.665909     1.480013
N       -3.023596     5.082565     2.171927
C       -3.002556     3.775980     1.813184
C       -2.415113     1.488591    -0.310434
N       -3.746879     1.809840    -0.721551
C       -4.741251     0.929785    -0.744670
C       -5.814811     1.620981    -1.249994
N       -5.458663     2.914997    -1.499737
C       -4.160342     3.010783    -1.128290
N       -1.924079     0.206843    -0.665744
O       -2.515697    -0.519277    -1.629633
O        0.497277     2.529272     1.554917
H        2.544553    -3.056387     2.882689
H        3.503040    -3.527363     5.100006
H        2.415853    -2.615641     7.145715
H        0.390851    -1.182187     6.941196
H       -0.556870    -0.706056     4.706808
H       -2.641722    -2.750078     2.906876
H       -3.637222    -4.925368     3.492315
H       -2.464594    -7.033500     2.875711
H       -0.308733    -6.937410     1.630155
H        0.676212    -4.748537     1.047129
H        0.679000     0.347093    -4.792722
H        1.333606    -0.659328    -6.953749
H        2.949159    -2.548283    -7.008482
H        3.889719    -3.435229    -4.892116
H        3.257923    -2.422144    -2.732816
H        3.066135     2.771091    -2.453509
H        5.355229     3.563613    -2.955231
H        7.289270     2.047636    -2.628263
H        6.931373    -0.258784    -1.782582
H        4.642869    -1.059290    -1.283027
H       -0.482744     4.826043     0.080656
H       -1.732005     6.711007     1.529267
H       -3.640576     3.007750     2.236239
H       -4.678316    -0.114418    -0.459857
H       -6.787857     1.191568    -1.432392
H       -3.540603     3.890704    -1.252868
83
ex_0076 frame28 N1-trans-Δ-conf5
F        2.946611     2.105619     2.534861
B        1.981542     1.417298     1.697657
O        1.060218     0.720231     2.639589
N        0.258861    -0.161974     2.024197
C       -1.101857    -0.157628     2.550754
C       -1.261800     0.144395     4.012091
C       -0.374717    -0.435761     4.912197
C       -0.455174    -0.145485     6.265427
C       -1.442649     0.716867     6.744584
C       -2.349457     1.307682     5.856854
C       -2.286893     0.999190     4.488349
C       -2.158107    -0.432349     1.693735
C       -3.458911    -1.034035     2.175771
C       -4.626931    -0.847998     1.434608
C       -5.811239    -1.466897     1.800114
C       -5.875907    -2.231742     2.961807
C       -4.733727    -2.411622     3.746636
C       -3.527056    -1.794844     3.379838
N       -2.026247    -0.135718     0.261416
O       -2.664426    -1.082863    -0.451601
B       -1.954944    -1.452588    -1.704711
F       -2.922200    -2.164796    -2.529066
O       -1.536354    -0.268054    -2.494877
N       -0.447626     0.303340    -1.972843
C       -0.406470     1.716011    -2.143623
C       -0.999950     2.239896    -3.397858
C       -0.622112     1.732241    -4.625375
C       -1.226999     2.184766    -5.792026
C       -2.210111     3.177090    -5.741192
C       -2.599867     3.714394    -4.510299
C       -1.971128     3.279305    -3.331290
C        0.159121     2.505795    -1.182717
C        0.707862     3.858835    -1.478170
C        1.448724     4.066923    -2.680763
C        2.016883     5.321943    -2.939961
C        1.801688     6.373745    -2.045590
C        1.057874     6.160391    -0.880302
C        0.511099     4.912511    -0.608167
N        0.235724     2.024262     0.176787
O        1.284626     2.487183     0.885412
Fe       0.000000     0.000000     0.000000
N        2.037127    -0.155933    -0.117146
C        2.340459    -1.540436    -0.304086
N        3.690014    -1.950783    -0.030101
C        4.760342    -1.385016    -0.554815
C        5.829774    -2.044768     0.023517
N        5.381532    -3.014575     0.870162
C        4.033429    -2.957776     0.791091
C        1.335273    -2.354068    -0.724163
N        1.590419    -3.588057    -1.442338
C        1.378814    -3.654199    -2.774535
C        1.682434    -4.959202    -3.122689
N        2.085667    -5.639778    -2.012344
C        2.028079    -4.751895    -0.988280
N       -0.009565    -1.994771    -0.457190
O       -0.829060    -2.405131    -1.447310
O        2.777439     0.464911     0.833266
H        0.405700    -1.080267     4.540322
H        0.264448    -0.591912     6.931557
H       -1.487654     0.932608     7.802947
H       -3.084289     2.010507     6.239248
H       -2.975587     1.507035     3.812715
H       -4.609823    -0.280737     0.519860
H       -6.673694    -1.346421     1.163901
H       -6.812633    -2.693894     3.236929
H       -4.788849    -3.041716     4.628328
H       -2.654424    -2.016063     3.985727
H        0.115787     0.945757    -4.658091
H       -0.930936     1.747929    -6.731076
H       -2.678109     3.511207    -6.658240
H       -3.396156     4.454130    -4.479542
H       -2.325056     3.681324    -2.383483
H        1.667117     3.256617    -3.375518
H        2.629552     5.487854    -3.823361
H        2.219541     7.351971    -2.242358
H        0.900872     6.958887    -0.175030
H       -0.043784     4.743355     0.301062
H        4.753180    -0.548262    -1.232433
H        6.869472    -1.811861    -0.145858
H        3.369655    -3.545878     1.421611
H        1.017143    -2.872639    -3.442775
H        1.598735    -5.395569    -4.115946
H        2.240339    -4.968338     0.039309
83
ex_0076 frame29 N1-trans-Λ-conf3
F        2.584484     2.387593    -2.897949
B        1.755414     1.625518    -1.974975
O        1.890257     2.276397    -0.643136
N        0.982220     1.781844     0.215892
C        1.031614     2.107409     1.576540
C        1.846564     3.259456     1.893987
C        3.092621     3.077787     2.505194
C        3.903976     4.180581     2.757220
C        3.444880     5.465989     2.449224
C        2.189494     5.640872     1.854019
C        1.386501     4.535763     1.590014
C        0.327979     1.335664     2.467152
C        0.088145     1.660144     3.854277
C       -0.942697     2.559886     4.157485
C       -1.237886     2.851137     5.484991
C       -0.471151     2.280115     6.505091
C        0.568658     1.394424     6.192824
C        0.856555     1.097531     4.863956
N       -0.222937     0.116769     2.030856
O       -1.186834    -0.502350     2.738957
B       -1.758395    -1.630547     1.955206
F       -2.612149    -2.399514     2.847825
O       -0.695640    -2.553256     1.495290
N        0.002262    -1.989041     0.479414
C        1.143391    -2.598183    -0.025661
C        1.375670    -3.982172     0.341861
C        0.563602    -5.002863    -0.144517
C        0.784104    -6.319063     0.257181
C        1.835606    -6.612395     1.134319
C        2.654082    -5.587598     1.617778
C        2.442479    -4.276016     1.203597
C        1.977044    -1.855187    -0.837362
C        3.133611    -2.353916    -1.579601
C        3.009240    -2.726884    -2.932573
C        4.137172    -3.157261    -3.638404
C        5.370198    -3.243677    -2.985898
C        5.480203    -2.880254    -1.640257
C        4.357059    -2.456312    -0.936758
N        1.722835    -0.489582    -0.989439
O        2.293616     0.235113    -1.966311
Fe       0.000000     0.000000     0.000000
N       -0.499597     1.005108    -1.711128
C       -1.883115     1.009779    -1.918179
N       -2.333870     1.695915    -3.071823
C       -1.951523     1.419670    -4.311715
C       -2.600850     2.357296    -5.085521
N       -3.363864     3.167405    -4.293453
C       -3.197403     2.700993    -3.037175
C       -2.659461     0.365607    -1.009846
N       -4.058470     0.132766    -1.141662
C       -4.877256     0.148387    -0.099280
C       -6.116824    -0.107395    -0.615321
N       -6.029809    -0.292138    -1.965938
C       -4.721171    -0.122401    -2.271869
N       -2.037774    -0.111112     0.154108
O       -2.605434    -1.151466     0.811755
O        0.347441     1.673698    -2.497055
H        3.468105     2.077934     2.697506
H        4.887559     4.030150     3.179904
H        4.068390     6.322081     2.656212
H        1.837774     6.626449     1.586530
H        0.429331     4.656653     1.093490
H       -1.565186     2.969084     3.367384
H       -2.065104     3.509068     5.714226
H       -0.693794     2.512541     7.534783
H        1.147930     0.927306     6.974115
H        1.635110     0.385893     4.613847
H       -0.266572    -4.765397    -0.802948
H        0.136051    -7.106718    -0.104763
H        2.013801    -7.627746     1.453284
H        3.446547    -5.799147     2.320690
H        3.051881    -3.480108     1.611887
H        2.059658    -2.626197    -3.452777
H        4.064545    -3.414353    -4.688427
H        6.244557    -3.577196    -3.524253
H        6.435435    -2.914434    -1.140550
H        4.436832    -2.134294     0.091411
H       -1.241773     0.653745    -4.610646
H       -2.511562     2.450790    -6.156708
H       -3.593289     3.149454    -2.132572
H       -4.588782     0.321456     0.932365
H       -7.017061    -0.150526    -0.024558
H       -4.291518    -0.256542    -3.258839
83
ex_0076 frame30 N1-trans-Λ
F        2.636265     2.638187    -2.629832
B        1.751205     1.761433    -1.740549
O        1.520459     0.510592    -2.439352
N        0.744235    -0.360597    -1.849661
C        0.379651    -1.510353    -2.333966
C        0.860494    -1.828907    -3.643052
C        0.013850    -1.644767    -4.727334
C        0.430301    -1.974997    -6.010841
C        1.716952    -2.479636    -6.195995
C        2.573649    -2.648702    -5.111703
C        2.159788    -2.317193    -3.829500
C       -0.435123    -2.304719    -1.532267
C       -0.966099    -3.598426    -1.869160
C       -0.405674    -4.769370    -1.374542
C       -0.953339    -5.987996    -1.767683
C       -2.045960    -6.047038    -2.619394
C       -2.600602    -4.873267    -3.088305
C       -2.057625    -3.653150    -2.704498
N       -0.756721    -1.845646    -0.360267
O       -1.506583    -2.469227     0.507622
B       -1.739011    -1.752667     1.742822
F       -2.621409    -2.631055     2.639212
O       -0.489843    -1.536876     2.440744
N        0.365676    -0.779564     1.836743
C        1.531821    -0.405213     2.329131
C        1.859561    -0.917670     3.635837
C        1.261211    -0.321680     4.735488
C        1.567935    -0.753321     6.015783
C        2.457178    -1.793404     6.203133
C        3.048450    -2.410796     5.109952
C        2.743078    -1.973172     3.812954
C        2.311680     0.436796     1.540234
C        3.619409     0.965540     1.861255
C        4.793209     0.453168     1.324077
C        6.022199     1.008236     1.715658
C        6.060733     2.061639     2.609104
C        4.887337     2.563490     3.115016
C        3.672703     2.014686     2.733637
N        1.820712     0.802528     0.369504
O        2.428783     1.577115    -0.469255
Fe       0.000000     0.000000     0.000000
N       -0.325668     1.842300    -0.767772
C       -1.503636     2.322891    -0.423957
N       -1.804191     3.622937    -0.954926
C       -2.929623     3.988910    -1.563808
C       -2.767355     5.317344    -1.892075
N       -1.558758     5.718418    -1.471808
C       -0.968523     4.648261    -0.900206
C       -2.311926     1.533588     0.399965
N       -3.612584     1.863732     0.919022
C       -4.807354     1.682471     0.275661
C       -5.759967     2.174414     1.176941
N       -5.123204     2.601279     2.281060
C       -3.801137     2.385197     2.089175
N       -1.846270     0.352717     0.749873
O       -2.454649    -0.510179     1.495985
O        0.509423     2.460150    -1.543798
H       -0.988807    -1.253509    -4.606231
H       -0.238109    -1.843207    -6.858248
H        2.084067    -2.752294    -7.183236
H        3.564058    -3.043385    -5.298985
H        2.840278    -2.459548    -3.016528
H        0.433440    -4.769217    -0.722935
H       -0.527136    -6.908930    -1.406828
H       -2.468539    -7.006723    -2.919706
H       -3.453393    -4.923193    -3.752689
H       -2.497644    -2.741481    -3.073855
H        0.561551     0.496729     4.630358
H        1.107026    -0.271365     6.859290
H        2.664302    -2.095488     7.218811
H        3.741943    -3.224176     5.289198
H        3.194215    -2.447598     2.968325
H        4.750412    -0.353850     0.644321
H        6.932724     0.606965     1.313084
H        6.988319     2.502383     2.920867
H        4.931131     3.380876     3.807126
H        2.759208     2.423760     3.140973
H       -3.777794     3.399975    -1.785306
H       -3.464309     5.983550    -2.395663
H        0.017433     4.683401    -0.469923
H       -4.994881     1.284946    -0.651382
H       -6.842350     2.231853     1.062119
H       -3.035629     2.635250     2.827164
83
ex_0076 frame31 N1-trans-Λ-conf8
F        2.605778     2.023676    -3.137265
B        1.780564     1.396317    -2.132110
O        1.690485     2.347341    -1.020371
N        0.977231     1.797404    -0.040330
C        0.626361     2.506508     1.113240
C        1.181167     3.838154     1.162626
C        2.463169     4.056337     1.672033
C        2.990450     5.349287     1.672217
C        2.219317     6.414972     1.192281
C        0.938589     6.184371     0.687925
C        0.412893     4.901944     0.692184
C       -0.185363     1.901699     2.069008
C       -0.574985     2.474697     3.331470
C        0.382485     2.582388     4.322380
C        0.040734     3.080731     5.565400
C       -1.258130     3.523879     5.810953
C       -2.232808     3.432800     4.808751
C       -1.888333     2.913737     3.556760
N       -0.693883     0.614619     1.822353
O       -1.439283    -0.088001     2.675205
B       -1.768672    -1.426943     2.105643
F       -2.589355    -2.081506     3.094507
O       -0.568721    -2.272043     1.933056
N        0.318169    -1.675305     1.132650
C        1.448590    -2.367607     0.638678
C        1.713144    -3.674836     1.238498
C        1.905492    -3.657364     2.612495
C        2.179979    -4.814087     3.308440
C        2.258553    -6.024973     2.631484
C        2.043718    -6.072660     1.246875
C        1.779787    -4.889810     0.531399
C        2.198203    -1.771494    -0.344249
C        3.455598    -2.252209    -0.866440
C        4.514578    -2.364435     0.029075
C        5.758256    -2.773480    -0.419192
C        5.934875    -3.124440    -1.758551
C        4.869062    -3.025991    -2.661428
C        3.620811    -2.595488    -2.213248
N        1.733511    -0.587338    -0.916812
O        2.495401     0.158724    -1.722224
Fe       0.000000     0.000000     0.000000
N       -0.496265     0.698269    -1.858679
C       -1.803696     0.385948    -2.210521
N       -2.228597     0.814637    -3.487286
C       -2.949199     1.903632    -3.678579
C       -3.129623     1.958167    -5.042818
N       -2.511091     0.899411    -5.643715
C       -1.963083     0.189887    -4.635633
C       -2.542740    -0.296957    -1.298727
N       -3.919136    -0.639732    -1.408221
C       -4.900121     0.137645    -0.967327
C       -6.050608    -0.566976    -1.244303
N       -5.737940    -1.752729    -1.845135
C       -4.390473    -1.756480    -1.953317
N       -1.928315    -0.694140    -0.179371
O       -2.561707    -1.341311     0.830910
O        0.424295     1.121435    -2.756857
H        3.065169     3.214633     2.003753
H        3.990754     5.527882     2.040840
H        2.609279     7.419854     1.198390
H        0.344409     6.991536     0.291465
H       -0.564971     4.723941     0.259557
H        1.374854     2.198435     4.142659
H        0.794155     3.116593     6.330428
H       -1.492140     3.926618     6.783124
H       -3.245456     3.762026     5.003163
H       -2.644780     2.811416     2.783571
H        1.828558    -2.717891     3.145486
H        2.333768    -4.757368     4.373189
H        2.480973    -6.918965     3.191752
H        2.084427    -7.026792     0.743293
H        1.575950    -4.927571    -0.531127
H        4.388540    -2.052677     1.055596
H        6.572704    -2.816298     0.284850
H        6.901960    -3.464444    -2.087309
H        5.012073    -3.287034    -3.700514
H        2.791475    -2.491891    -2.913431
H       -3.252974     2.607283    -2.915735
H       -3.671172     2.730530    -5.561092
H       -1.357090    -0.706798    -4.759023
H       -4.793086     1.080571    -0.442385
H       -7.050368    -0.234293    -1.011073
H       -3.792034    -2.577479    -2.334049
83
ex_0076 frame32 mer
F       -1.374652     2.143948     3.302209
B       -0.752676     1.293691     2.191521
O       -1.812439     0.507472     1.589057
N       -1.460422    -0.315309     0.648849
C       -2.255073    -1.142133     0.014259
C       -3.624362    -1.146005     0.430417
C       -4.055293    -2.144933     1.292298
C       -5.384019    -2.205186     1.693217
C       -6.275386    -1.238420     1.229267
C       -5.841203    -0.225735     0.378292
C       -4.513896    -0.163067    -0.021165
C       -1.688771    -1.923368    -0.989431
C       -2.369397    -2.904130    -1.794824
C       -2.764397    -2.631265    -3.098303
C       -3.445033    -3.617112    -3.808580
C       -3.714228    -4.855809    -3.246548
C       -3.300338    -5.115754    -1.955672
C       -2.624494    -4.136153    -1.238380
N       -0.402527    -1.761876    -1.240428
O        0.251015    -2.419414    -2.140999
B        1.654219    -2.082567    -2.221135
F        2.280022    -2.928705    -3.337272
O        1.817086    -0.692232    -2.587916
N        1.365179     0.169477    -1.737739
C        1.480475     1.478958    -1.844221
C        2.133594     1.959258    -3.035547
C        3.517108     1.889262    -3.093534
C        4.193827     2.368964    -4.203254
C        3.492496     2.902432    -5.266816
C        2.106522     2.961299    -5.228912
C        1.419027     2.480315    -4.105069
C        0.964269     2.250357    -0.804192
C        0.959400     3.692348    -0.709180
C       -0.167892     4.461355    -0.967911
C       -0.074321     5.859792    -0.881857
C        1.118411     6.460282    -0.526624
C        2.215768     5.680045    -0.258870
C        2.127624     4.299311    -0.347248
N        0.418698     1.616168     0.208932
O       -0.108492     2.188661     1.245597
Fe       0.452736    -0.393793    -0.015955
N        0.863134    -0.325910     1.963566
C        1.822553    -1.156137     2.304135
N        2.149737    -1.159019     3.701891
C        2.288747    -2.230346     4.479162
C        2.606970    -1.750670     5.731152
N        2.656920    -0.411711     5.677508
C        2.359525    -0.059792     4.409404
C        2.403811    -1.925567     1.292571
N        3.481409    -2.870711     1.426975
C        3.356408    -4.186576     1.784238
C        4.672870    -4.664825     1.795117
N        5.495390    -3.660269     1.447163
C        4.723752    -2.572175     1.218836
N        1.924044    -1.780905     0.079706
O        2.337967    -2.408719    -0.978614
O        0.223967     0.432058     2.802728
H       -3.379828    -2.905019     1.665235
H       -5.723951    -2.995712     2.357866
H       -7.324682    -1.247933     1.516745
H       -6.565449     0.504749     0.041218
H       -4.210797     0.626136    -0.676562
H       -2.581398    -1.694837    -3.565532
H       -3.771793    -3.423187    -4.816351
H       -4.246323    -5.621783    -3.812158
H       -3.511999    -6.083666    -1.520363
H       -2.303476    -4.347840    -0.231752
H        4.102117     1.480615    -2.280427
H        5.267766     2.321023    -4.227379
H        4.062924     3.262645    -6.109794
H        1.584487     3.385310    -6.078816
H        0.351674     2.521416    -4.072981
H       -1.072749     3.990415    -1.241089
H       -0.939388     6.458890    -1.093701
H        1.212242     7.526882    -0.452961
H        3.134922     6.158366     0.015750
H        3.001325     3.701215    -0.131330
H        2.163352    -3.247391     4.223932
H        2.805093    -2.309121     6.643328
H        2.328331     0.963608     4.077526
H        2.511266    -4.725583     2.002594
H        5.033808    -5.664433     2.037098
H        5.123591    -1.601753     0.916461
83
ex_0076 frame33 N1-trans-Δ-conf8
F        2.662464     2.638065     2.605247
B        1.830373     1.799218     1.775096
O        1.613713     0.522616     2.506906
N        1.017117    -0.406457     1.728689
C        0.432623    -1.514018     2.338562
C        0.864951    -1.739985     3.706453
C        2.087942    -2.343006     3.955455
C        2.513245    -2.530199     5.267468
C        1.695547    -2.134161     6.332469
C        0.465550    -1.521303     6.083254
C        0.035453    -1.343318     4.770839
C       -0.463329    -2.266791     1.626309
C       -0.957348    -3.566224     1.997968
C       -0.064389    -4.624537     2.032845
C       -0.508208    -5.897133     2.337365
C       -1.847357    -6.108608     2.663376
C       -2.754094    -5.039874     2.644067
C       -2.306647    -3.757870     2.316697
N       -0.958620    -1.754426     0.429932
O       -1.581037    -2.528948    -0.483921
B       -1.797415    -1.814959    -1.790531
F       -2.612171    -2.673033    -2.612630
O       -0.546910    -1.604818    -2.542072
N        0.272965    -0.779297    -1.869210
C        1.516841    -0.368097    -2.359320
C        1.870340    -0.873812    -3.694328
C        1.994261    -2.255372    -3.834252
C        2.303510    -2.822269    -5.057205
C        2.505533    -2.006830    -6.165754
C        2.379879    -0.615764    -6.047142
C        2.081222    -0.035920    -4.801181
C        2.303373     0.466137    -1.563426
C        3.648172     0.900685    -1.902154
C        4.654999    -0.046655    -2.067143
C        5.949626     0.364110    -2.345745
C        6.231964     1.722444    -2.508341
C        5.218895     2.676840    -2.358953
C        3.921720     2.264879    -2.059884
N        1.786223     0.943746    -0.328220
O        2.582842     1.562376     0.547890
Fe       0.000000     0.000000     0.000000
N       -0.331042     1.851931     0.802915
C       -1.638865     2.262846     0.519201
N       -2.048537     3.495888     1.107172
C       -2.842880     3.594215     2.166504
C       -2.947739     4.954329     2.394539
N       -2.223003     5.642272     1.465397
C       -1.683292     4.698834     0.664033
C       -2.420296     1.447677    -0.300346
N       -3.766936     1.717763    -0.689130
C       -4.828284     1.267836    -0.032642
C       -5.908656     1.720126    -0.762727
N       -5.475540     2.444129    -1.835844
C       -4.125869     2.446040    -1.746208
N       -1.864631     0.252513    -0.802200
O       -2.544352    -0.567516    -1.617594
O        0.550058     2.560883     1.531339
H        2.717895    -2.605701     3.116782
H        3.474806    -2.982121     5.453094
H        2.018208    -2.289194     7.349531
H       -0.155226    -1.183889     6.902289
H       -0.904689    -0.822250     4.598018
H        0.964829    -4.466459     1.733503
H        0.194632    -6.711959     2.315446
H       -2.168916    -7.104369     2.919561
H       -3.795984    -5.202341     2.879920
H       -3.002464    -2.927239     2.268178
H        1.817229    -2.898480    -2.981943
H        2.385363    -3.895431    -5.133519
H        2.751646    -2.464044    -7.112153
H        2.513225     0.000278    -6.924359
H        1.943489     1.034428    -4.714549
H        4.446372    -1.093263    -1.903448
H        6.723682    -0.381321    -2.430192
H        7.238638     2.026331    -2.742139
H        5.440531     3.728910    -2.473783
H        3.130469     3.001952    -1.920433
H       -3.243502     2.778641     2.753160
H       -3.505334     5.412696     3.197471
H       -1.012349     4.895091    -0.167305
H       -4.822291     0.626766     0.838440
H       -6.943704     1.517462    -0.528794
H       -3.454735     2.887728    -2.475507
83
ex_0076 frame34 N1-trans-Λ-conf7_mirror
F        2.627071     2.604605     2.553352
B        1.767166     1.768548     1.707688
O        1.351482     0.606461     2.541837
N        0.277603    -0.076138     2.022316
C        0.235698    -1.428311     2.356441
C        0.707670    -1.805220     3.699859
C        2.083584    -1.620656     4.016048
C        2.569116    -1.949660     5.285116
C        1.688960    -2.465621     6.236493
C        0.339158    -2.647565     5.914986
C       -0.143310    -2.325576     4.643844
C       -0.240172    -2.344961     1.426491
C       -0.828602    -3.663867     1.795433
C       -2.207561    -3.922911     1.516392
C       -2.765555    -5.174261     1.804773
C       -1.973033    -6.164177     2.379414
C       -0.630924    -5.888533     2.676941
C       -0.072683    -4.635947     2.398336
N       -0.175404    -2.036829     0.051189
O       -1.199687    -2.563295    -0.652556
B       -1.708464    -1.707064    -1.776101
F       -2.571167    -2.587073    -2.599818
O       -0.616594    -1.179838    -2.618350
N        0.002779    -0.127178    -2.042488
C        1.383783    -0.210297    -2.363350
C        1.710190    -0.830109    -3.697549
C        1.076198    -0.383466    -4.836103
C        1.372207    -0.925978    -6.084088
C        2.321578    -1.943497    -6.203224
C        2.953032    -2.440045    -5.062524
C        2.672472    -1.880459    -3.803945
C        2.314854     0.260082    -1.481804
C        3.629208     0.790961    -1.899526
C        4.719152     0.632546    -1.058212
C        5.962687     1.116221    -1.413280
C        6.134848     1.761338    -2.630914
C        5.053357     1.952311    -3.486152
C        3.792046     1.458468    -3.145110
N        2.029564     0.249997    -0.085871
O        2.569948     1.341824     0.542775
Fe       0.000000     0.000000     0.000000
N       -0.015835     2.041070     0.161452
C       -1.392311     2.393520     0.200535
N       -1.699678     3.701300     0.772279
C       -2.630514     3.915433     1.725930
C       -2.584195     5.279959     1.971977
N       -1.639204     5.854325     1.173003
C       -1.114301     4.844978     0.437965
C       -2.322685     1.504896    -0.292064
N       -3.598291     1.928471    -0.833019
C       -3.938848     3.183304    -1.168154
C       -5.241613     3.079016    -1.623617
N       -5.657136     1.786543    -1.573081
C       -4.618831     1.098357    -1.070542
N       -2.025379     0.090366    -0.274590
O       -2.554683    -0.593596    -1.319427
O        0.596104     2.583605     1.247821
H        2.785284    -1.220771     3.286121
H        3.618539    -1.807032     5.531369
H        2.042859    -2.725666     7.224722
H       -0.334975    -3.036663     6.657724
H       -1.176309    -2.437274     4.380449
H       -2.864454    -3.183692     1.066975
H       -3.805464    -5.381952     1.573358
H       -2.402440    -7.139857     2.589230
H       -0.012164    -6.652385     3.111573
H        0.957295    -4.414629     2.600166
H        0.337010     0.390029    -4.714597
H        0.875719    -0.540922    -6.960105
H        2.566776    -2.354743    -7.173857
H        3.669749    -3.246679    -5.160517
H        3.158784    -2.326349    -2.945464
H        4.585001     0.144196    -0.103406
H        6.798246     0.976012    -0.750389
H        7.108481     2.119515    -2.912248
H        5.210320     2.475051    -4.414189
H        2.967203     1.664495    -3.823501
H       -3.239197     3.201191     2.272010
H       -3.197120     5.819905     2.695597
H       -0.318647     4.934459    -0.285755
H       -3.344504     4.087806    -1.146272
H       -5.857605     3.892249    -1.972310
H       -4.629788     0.028432    -0.918769
