57
ex_0275 frame0 cis
C       -5.145310     1.781205    -0.498623
C       -4.358009     2.881086    -0.746242
C       -2.993998     2.686976    -0.818803
C       -2.401569     1.461127    -0.601938
P       -0.613740     1.463170    -0.605165
C        0.056558     2.750643    -1.638326
C        0.227120     2.735207    -3.003609
C        0.732837     3.846649    -3.652598
C        1.096659     4.985309    -2.966709
C        0.948932     5.004390    -1.604808
C        0.440173     3.884232    -0.954586
C        0.103977     1.330620     0.993651
C       -0.085161    -0.105989     1.543428
P        0.763419    -1.262370     0.454332
C        2.503823    -1.004819     0.460130
C        3.132617     0.054061    -0.165526
C        4.506490     0.261653    -0.058857
C        5.294807    -0.626673     0.651218
C        4.664431    -1.704442     1.234621
C        3.298307    -1.906647     1.125344
C        0.141950    -2.909696     0.600225
C        0.882784    -3.972965     0.152532
C        0.506081    -5.287815     0.346854
C       -0.697659    -5.568314     0.962034
C       -1.488486    -4.509686     1.364454
C       -1.095766    -3.189905     1.162175
Pt       0.021397    -0.439042    -1.474548
Se       1.792255    -0.195033    -3.079501
Se       1.154194    -1.400929    -4.996875
Se      -0.989768    -2.388878    -4.570653
Se      -1.748402    -1.764339    -2.435303
C       -3.228985     0.363294    -0.405544
C       -4.606802     0.513054    -0.324903
H       -6.216486     1.954568    -0.445316
H       -4.757928     3.885169    -0.885819
H       -2.346230     3.528671    -1.011505
H       -0.054137     1.847476    -3.559740
H        0.849432     3.830317    -4.731919
H        1.485537     5.834396    -3.486779
H        1.206899     5.851889    -0.981877
H        0.309139     3.865796     0.130265
H        1.166843     1.575692     1.018744
H       -0.461412     2.002522     1.642795
H       -1.141180    -0.333195     1.644212
H        0.446873    -0.202373     2.494617
H        2.601356     0.806695    -0.742987
H        4.971282     1.134957    -0.539636
H        6.345386    -0.432778     0.710462
H        5.288221    -2.391799     1.786497
H        2.858372    -2.755959     1.595366
H        1.829481    -3.795643    -0.330944
H        1.145451    -6.085457     0.021448
H       -0.962512    -6.604219     1.098649
H       -2.443437    -4.730957     1.852503
H       -1.711438    -2.358938     1.475525
H       -2.789221    -0.614963    -0.273287
H       -5.275240    -0.317170    -0.132247
