88
ex_0286 frame0 Isomer 1
C       -0.109286     0.873577     4.291462
C        0.063179     0.768045     2.801583
C        0.589699     1.999821     2.152335
C        0.986026     2.294910     0.882330
C        1.788704     3.577118     0.724337
N        0.691038     1.482392    -0.263204
C        0.946623     2.020251    -1.564213
C        2.085016     1.582309    -2.310708
C        3.045818     0.509819    -1.812248
C        4.367709     1.163479    -1.393460
C        3.305422    -0.568694    -2.888877
C        2.342186     2.160595    -3.566669
C        1.500340     3.110403    -4.102631
C        0.370388     3.510270    -3.412963
C        0.068394     3.010865    -2.120863
C       -1.179274     3.543125    -1.366309
C       -2.058131     4.492314    -2.213736
C       -2.107074     2.450804    -0.806580
Zn      -0.261269    -0.296090     0.086564
N        0.675654    -1.896309    -0.783979
Si      -0.404487    -2.628174    -2.039556
C        0.587038    -3.377047    -3.433774
C       -1.452975    -1.252591    -2.757727
C       -1.670731    -3.861708    -1.399604
Si       1.760918    -3.031495     0.153079
C        3.467891    -3.067904    -0.570591
C        1.198575    -4.819529     0.219509
C        2.034635    -2.444944     1.905666
N       -0.271488    -0.447809     2.127982
C       -1.318392    -1.361591     2.681119
C       -1.732271    -2.406043     1.657670
C       -2.581336    -0.681752     3.204897
C       -2.992186    -0.911877     4.534604
C       -4.149827    -0.312729     5.034462
C       -4.904746     0.531893     4.219690
C       -4.503624     0.775364     2.902430
C       -3.348492     0.170779     2.393829
H       -0.758939     1.658306     4.732885
H       -0.383791    -0.088251     4.761243
H        0.943600     1.070874     4.585978
H        0.910869     2.724167     2.900660
H        2.100736     3.783835    -0.317053
H        2.708824     3.533197     1.343228
H        1.170466     4.437266     1.062756
H        2.632631     0.016150    -0.908884
H        5.066653     0.392956    -1.001814
H        4.181269     1.901221    -0.583903
H        4.853316     1.681234    -2.247253
H        2.356801    -1.061459    -3.180765
H        3.779451    -0.151085    -3.799396
H        4.020415    -1.329849    -2.534603
H        3.218130     1.898972    -4.142465
H        1.734367     3.552264    -5.063504
H       -0.216836     4.269198    -3.901416
H       -0.806958     4.129009    -0.498899
H       -2.457938     3.949235    -3.100355
H       -1.492434     5.387297    -2.546220
H       -2.920593     4.868400    -1.625115
H       -1.623401     1.849723    -0.020200
H       -2.470092     1.782596    -1.611564
H       -2.977306     2.921749    -0.299245
H        0.594000    -2.666045    -4.286823
H        0.116546    -4.324953    -3.763765
H        1.626529    -3.564930    -3.109571
H       -2.196861    -1.670357    -3.466193
H       -0.810246    -0.513369    -3.277511
H       -1.990392    -0.743663    -1.929177
H       -1.317321    -4.438434    -0.536701
H       -1.919620    -4.573700    -2.212811
H       -2.599737    -3.330248    -1.110996
H        4.088584    -3.773432     0.017896
H        3.432535    -3.406985    -1.623352
H        3.912031    -2.059707    -0.474553
H        1.037148    -5.206671    -0.807639
H        1.986257    -5.424411     0.711401
H        0.280874    -4.926778     0.827172
H        2.834970    -3.052452     2.373296
H        1.122383    -2.582017     2.508108
H        2.338213    -1.377814     1.899551
H       -0.858097    -1.928057     3.520328
H       -2.189468    -1.927959     0.769466
H       -0.861300    -3.001259     1.353274
H       -2.466819    -3.106900     2.113909
H       -2.423977    -1.567276     5.184244
H       -4.461575    -0.506104     6.053662
H       -5.801478     0.995451     4.609967
H       -5.090607     1.431623     2.274441
H       -3.050344     0.365422     1.372896
88
ex_0286 frame1 Isomer 2
C       -1.250413     4.451379     0.115658
C       -0.763189     3.079705    -0.239652
C       -0.270956     2.950941    -1.629520
C        0.479572     2.010470    -2.257284
C        1.094025     2.449342    -3.584859
N        0.707268     0.689483    -1.750658
C        1.257804    -0.264843    -2.656980
C        0.359344    -1.035887    -3.456164
C       -1.157096    -0.870989    -3.335797
C       -1.920583    -2.194886    -3.170481
C       -1.680802    -0.146019    -4.579865
C        0.881041    -1.963796    -4.370514
C        2.250425    -2.131848    -4.513281
C        3.131451    -1.401021    -3.730174
C        2.679510    -0.455060    -2.789875
C        3.802906     0.267412    -2.009727
C        4.619492    -0.744752    -1.189299
C        3.386325     1.399981    -1.072726
Zn      -0.247183     0.214435    -0.003177
N        0.961365    -0.841479     1.274187
Si       1.965250    -0.054211     2.555617
C        3.733787    -0.594803     2.340591
C        1.882496     1.809906     2.425233
C        1.385118    -0.429320     4.291087
Si       0.562196    -2.603765     1.438340
C       -0.204688    -3.117677     3.064643
C        2.023692    -3.709027     1.091747
C       -0.653501    -3.015626     0.113963
N       -0.805256     2.038718     0.741890
C       -1.828583     1.833304     1.812749
C       -2.930758     2.898499     1.968632
C       -2.548648     0.518122     1.691648
C       -3.155387     0.127236     0.487615
C       -3.855091    -1.080932     0.417449
C       -3.942615    -1.908569     1.541158
C       -3.327882    -1.532214     2.735276
C       -2.614667    -0.335145     2.806155
H       -0.650225     4.623504     1.033437
H       -0.916367     5.201073    -0.631505
H       -2.312206     4.725209     0.265123
H       -0.338729     3.879013    -2.192596
H        0.281644     2.747868    -4.281422
H        1.687006     1.666744    -4.091762
H        1.760914     3.324682    -3.432756
H       -1.394325    -0.235891    -2.458496
H       -1.859254    -2.816683    -4.087217
H       -2.990302    -1.990934    -2.956003
H       -1.523990    -2.795172    -2.346583
H       -1.138252     0.809717    -4.726337
H       -2.761106     0.082079    -4.456415
H       -1.550128    -0.771103    -5.489067
H        0.228429    -2.539116    -5.012213
H        2.637715    -2.826322    -5.247639
H        4.191901    -1.551055    -3.895724
H        4.478492     0.739537    -2.759527
H        5.103281    -1.502919    -1.835442
H        3.952613    -1.266851    -0.473728
H        5.430516    -0.234077    -0.625884
H        2.708108     1.008263    -0.298310
H        4.277271     1.838824    -0.572780
H        2.931587     2.234052    -1.631620
H        4.268366     0.133951     1.699957
H        3.769776    -1.588778     1.860848
H        4.225321    -0.657361     3.331418
H        2.695741     2.252165     3.033445
H        1.987446     2.152932     1.381406
H        0.916737     2.172858     2.815733
H        1.989400     0.169674     5.001222
H        1.535024    -1.488722     4.542988
H        0.317097    -0.146347     4.394851
H        0.569906    -3.234574     3.839798
H       -0.954724    -2.383102     3.393264
H       -0.687805    -4.108627     2.939273
H        2.452830    -3.439119     0.104183
H        2.785507    -3.596392     1.885179
H        1.685341    -4.765445     1.066205
H       -1.465026    -2.266578     0.090993
H       -1.078093    -4.028777     0.278374
H       -0.076568    -3.004300    -0.828148
H       -1.295633     1.846820     2.786354
H       -3.544773     2.979069     1.045252
H       -3.616628     2.610180     2.794635
H       -2.512799     3.876268     2.275080
H       -3.106324     0.767550    -0.383257
H       -4.334095    -1.372799    -0.506406
H       -4.489895    -2.839630     1.490421
H       -3.403290    -2.165220     3.610394
H       -2.156132    -0.052830     3.747354
88
ex_0286 frame2 T-shaped N0-N1-ax/N2-eq
C        0.414082     3.608578     2.040576
C        0.785337     2.445409     1.194463
C        1.917032     1.670566     1.713636
C        2.550280     0.546713     1.291113
C        3.938613     0.320426     1.865940
N        1.976990    -0.390018     0.362638
C        2.877983    -1.336171    -0.218511
C        3.818911    -0.941411    -1.246061
C        3.881150     0.467809    -1.851382
C        3.779659     0.447222    -3.394213
C        5.188877     1.182382    -1.467465
C        4.735609    -1.894254    -1.727544
C        4.725460    -3.194771    -1.255016
C        3.785749    -3.589276    -0.313125
C        2.853325    -2.683522     0.232542
C        1.886111    -3.258473     1.280783
C        0.999975    -4.335783     0.644814
C        0.976349    -2.273001     2.035673
Zn       0.000000     0.000000     0.000000
N       -1.961554    -0.530435     0.266516
Si      -3.016349     0.263072     1.548539
C       -3.974856    -1.056923     2.433435
C       -2.018655     1.128524     2.849792
C       -4.283255     1.601747     1.085622
Si      -2.908575    -0.869650    -1.269719
C       -4.205184     0.378520    -1.834771
C       -3.961709    -2.390922    -1.059383
C       -1.736801    -1.133180    -2.698861
N        0.166501     2.040880    -0.015566
C       -0.939813     2.759975    -0.723322
C       -1.129860     4.262524    -0.419548
C       -0.685939     2.753896    -2.219553
C        0.615263     2.904501    -2.730177
C        0.834403     2.926589    -4.111196
C       -0.235552     2.772752    -4.996560
C       -1.528139     2.613875    -4.503011
C       -1.747904     2.597331    -3.127968
H       -0.617717     3.925735     2.233398
H        0.834907     3.608234     3.068844
H        0.977299     4.357155     1.444765
H        2.500243     2.286814     2.397324
H        4.599220     1.189699     1.680436
H        4.435928    -0.594313     1.491045
H        3.837252     0.200978     2.965573
H        3.033256     1.062555    -1.458007
H        4.680814    -0.018607    -3.854781
H        3.718098     1.482160    -3.793762
H        2.888685    -0.119474    -3.731912
H        5.335058     1.180647    -0.376299
H        5.159499     2.240647    -1.807708
H        6.074839     0.694652    -1.928400
H        5.488417    -1.628461    -2.460247
H        5.459456    -3.904201    -1.618041
H        3.829485    -4.610239     0.041097
H        2.524936    -3.716453     2.067482
H        1.611423    -5.163507     0.233154
H        0.401300    -3.890574    -0.180556
H        0.310751    -4.767012     1.399199
H        0.240291    -1.800458     1.357970
H        0.397650    -2.806034     2.816127
H        1.579184    -1.510167     2.569494
H       -3.415211    -1.366673     3.335942
H       -4.121450    -1.928031     1.774315
H       -4.961345    -0.641555     2.728966
H       -2.598049     1.170180     3.793261
H       -1.058526     0.602265     3.014773
H       -1.866771     2.167206     2.517203
H       -4.737213     1.991446     2.019885
H       -5.124010     1.209339     0.494125
H       -3.824340     2.469070     0.570142
H       -5.178107     0.152969    -1.358283
H       -3.940816     1.409621    -1.579196
H       -4.374239     0.282734    -2.928694
H       -3.338521    -3.232967    -0.704608
H       -4.762512    -2.169875    -0.325095
H       -4.448046    -2.642178    -2.023656
H       -1.050569    -0.269366    -2.801066
H       -2.331264    -1.236026    -3.632961
H       -1.159412    -2.063709    -2.533718
H       -1.899487     2.263353    -0.502106
H       -0.186838     4.832527    -0.560384
H       -1.888229     4.692956    -1.110642
H       -1.585621     4.458528     0.558402
H        1.453439     3.044607    -2.060271
H        1.833307     3.073226    -4.495527
H       -0.068271     2.794813    -6.064519
H       -2.366271     2.519317    -5.182676
H       -2.756452     2.525890    -2.790690
88
ex_0286 frame3 Isomer 1
C       -0.109286     0.873577     4.291462
C        0.063179     0.768045     2.801583
C        0.589699     1.999821     2.152335
C        0.986026     2.294910     0.882330
C        1.788704     3.577118     0.724337
N        0.691038     1.482392    -0.263204
C        0.948904     2.023245    -1.562514
C        2.085816     1.583314    -2.310083
C        3.045818     0.509819    -1.812248
C        4.367709     1.163479    -1.393460
C        3.305422    -0.568694    -2.888877
C        2.342186     2.160595    -3.566669
C        1.500340     3.110403    -4.102631
C        0.370388     3.510270    -3.412963
C        0.069179     3.011889    -2.120285
C       -1.179274     3.543125    -1.366309
C       -2.058131     4.492314    -2.213736
C       -2.107074     2.450804    -0.806580
Zn      -0.261269    -0.296090     0.086564
N        0.675654    -1.896309    -0.783979
Si      -0.404487    -2.628174    -2.039556
C        0.587038    -3.377047    -3.433774
C       -1.452975    -1.252591    -2.757727
C       -1.670731    -3.861708    -1.399604
Si       1.760918    -3.031495     0.153079
C        3.467891    -3.067904    -0.570591
C        1.198575    -4.819529     0.219509
C        2.034635    -2.444944     1.905666
N       -0.271488    -0.447809     2.127982
C       -1.318392    -1.361591     2.681119
C       -1.732271    -2.406043     1.657670
C       -2.581336    -0.681752     3.204897
C       -2.992186    -0.911877     4.534604
C       -4.149827    -0.312729     5.034462
C       -4.904746     0.531893     4.219690
C       -4.503624     0.775364     2.902430
C       -3.348492     0.170779     2.393829
H       -0.758939     1.658306     4.732885
H       -0.383791    -0.088251     4.761243
H        0.943600     1.070874     4.585978
H        0.910869     2.724167     2.900660
H        2.100736     3.783835    -0.317053
H        2.708824     3.533197     1.343228
H        1.170466     4.437266     1.062756
H        2.632631     0.016150    -0.908884
H        5.066653     0.392956    -1.001814
H        4.181269     1.901221    -0.583903
H        4.853316     1.681234    -2.247253
H        2.356801    -1.061459    -3.180765
H        3.779451    -0.151085    -3.799396
H        4.020415    -1.329849    -2.534603
H        3.218130     1.898972    -4.142465
H        1.734367     3.552264    -5.063504
H       -0.216836     4.269198    -3.901416
H       -0.806958     4.129009    -0.498899
H       -2.457938     3.949235    -3.100355
H       -1.492434     5.387297    -2.546220
H       -2.920593     4.868400    -1.625115
H       -1.623401     1.849723    -0.020200
H       -2.470092     1.782596    -1.611564
H       -2.977306     2.921749    -0.299245
H        0.594000    -2.666045    -4.286823
H        0.116546    -4.324953    -3.763765
H        1.626529    -3.564930    -3.109571
H       -2.196861    -1.670357    -3.466193
H       -0.810246    -0.513369    -3.277511
H       -1.990392    -0.743663    -1.929177
H       -1.317321    -4.438434    -0.536701
H       -1.919620    -4.573700    -2.212811
H       -2.599737    -3.330248    -1.110996
H        4.088584    -3.773432     0.017896
H        3.432535    -3.406985    -1.623352
H        3.912031    -2.059707    -0.474553
H        1.037148    -5.206671    -0.807639
H        1.986257    -5.424411     0.711401
H        0.280874    -4.926778     0.827172
H        2.834970    -3.052452     2.373296
H        1.122383    -2.582017     2.508108
H        2.338213    -1.377814     1.899551
H       -0.858097    -1.928057     3.520328
H       -2.189468    -1.927959     0.769466
H       -0.861300    -3.001259     1.353274
H       -2.466819    -3.106900     2.113909
H       -2.423977    -1.567276     5.184244
H       -4.461575    -0.506104     6.053662
H       -5.801478     0.995451     4.609967
H       -5.090607     1.431623     2.274441
H       -3.050344     0.365422     1.372896
88
ex_0286 frame4 Isomer 2
C       -1.250413     4.451379     0.115658
C       -0.763189     3.079705    -0.239652
C       -0.270956     2.950941    -1.629520
C        0.479572     2.010470    -2.257284
C        1.094025     2.449342    -3.584859
N        0.707268     0.689483    -1.750658
C        1.257931    -0.261876    -2.660007
C        0.359373    -1.034866    -3.457187
C       -1.157096    -0.870989    -3.335797
C       -1.920583    -2.194886    -3.170481
C       -1.680802    -0.146019    -4.579865
C        0.881041    -1.963796    -4.370514
C        2.250425    -2.131848    -4.513281
C        3.131451    -1.401021    -3.730174
C        2.679558    -0.453983    -2.790938
C        3.802906     0.267412    -2.009727
C        4.619492    -0.744752    -1.189299
C        3.386325     1.399981    -1.072726
Zn      -0.247183     0.214435    -0.003177
N        0.961365    -0.841479     1.274187
Si       1.965250    -0.054211     2.555617
C        3.733787    -0.594803     2.340591
C        1.882496     1.809906     2.425233
C        1.385118    -0.429320     4.291087
Si       0.562196    -2.603765     1.438340
C       -0.204688    -3.117677     3.064643
C        2.023692    -3.709027     1.091747
C       -0.653501    -3.015626     0.113963
N       -0.805256     2.038718     0.741890
C       -1.828583     1.833304     1.812749
C       -2.930758     2.898499     1.968632
C       -2.548648     0.518122     1.691648
C       -3.155387     0.127236     0.487615
C       -3.855091    -1.080932     0.417449
C       -3.942615    -1.908569     1.541158
C       -3.327882    -1.532214     2.735276
C       -2.614667    -0.335145     2.806155
H       -0.650225     4.623504     1.033437
H       -0.916367     5.201073    -0.631505
H       -2.312206     4.725209     0.265123
H       -0.338729     3.879013    -2.192596
H        0.281644     2.747868    -4.281422
H        1.687006     1.666744    -4.091762
H        1.760914     3.324682    -3.432756
H       -1.394325    -0.235891    -2.458496
H       -1.859254    -2.816683    -4.087217
H       -2.990302    -1.990934    -2.956003
H       -1.523990    -2.795172    -2.346583
H       -1.138252     0.809717    -4.726337
H       -2.761106     0.082079    -4.456415
H       -1.550128    -0.771103    -5.489067
H        0.228429    -2.539116    -5.012213
H        2.637715    -2.826322    -5.247639
H        4.191901    -1.551055    -3.895724
H        4.478492     0.739537    -2.759527
H        5.103281    -1.502919    -1.835442
H        3.952613    -1.266851    -0.473728
H        5.430516    -0.234077    -0.625884
H        2.708108     1.008263    -0.298310
H        4.277271     1.838824    -0.572780
H        2.931587     2.234052    -1.631620
H        4.268366     0.133951     1.699957
H        3.769776    -1.588778     1.860848
H        4.225321    -0.657361     3.331418
H        2.695741     2.252165     3.033445
H        1.987446     2.152932     1.381406
H        0.916737     2.172858     2.815733
H        1.989400     0.169674     5.001222
H        1.535024    -1.488722     4.542988
H        0.317097    -0.146347     4.394851
H        0.569906    -3.234574     3.839798
H       -0.954724    -2.383102     3.393264
H       -0.687805    -4.108627     2.939273
H        2.452830    -3.439119     0.104183
H        2.785507    -3.596392     1.885179
H        1.685341    -4.765445     1.066205
H       -1.465026    -2.266578     0.090993
H       -1.078093    -4.028777     0.278374
H       -0.076568    -3.004300    -0.828148
H       -1.295633     1.846820     2.786354
H       -3.544773     2.979069     1.045252
H       -3.616628     2.610180     2.794635
H       -2.512799     3.876268     2.275080
H       -3.106324     0.767550    -0.383257
H       -4.334095    -1.372799    -0.506406
H       -4.489895    -2.839630     1.490421
H       -3.403290    -2.165220     3.610394
H       -2.156132    -0.052830     3.747354
88
ex_0286 frame5 T-shaped N0-N1-ax/N2-eq
C        0.414082     3.608578     2.040576
C        0.785337     2.445409     1.194463
C        1.917032     1.670566     1.713636
C        2.550280     0.546713     1.291113
C        3.938613     0.320426     1.865940
N        1.976990    -0.390018     0.362638
C        2.880744    -1.335278    -0.215656
C        3.819831    -0.941026    -1.245074
C        3.881150     0.467809    -1.851382
C        3.779659     0.447222    -3.394213
C        5.188877     1.182382    -1.467465
C        4.735609    -1.894254    -1.727544
C        4.725460    -3.194771    -1.255016
C        3.785749    -3.589276    -0.313125
C        2.854261    -2.683191     0.233589
C        1.886111    -3.258473     1.280783
C        0.999975    -4.335783     0.644814
C        0.976349    -2.273001     2.035673
Zn       0.000000     0.000000     0.000000
N       -1.961554    -0.530435     0.266516
Si      -3.016349     0.263072     1.548539
C       -3.974856    -1.056923     2.433435
C       -2.018655     1.128524     2.849792
C       -4.283255     1.601747     1.085622
Si      -2.908575    -0.869650    -1.269719
C       -4.205184     0.378520    -1.834771
C       -3.961709    -2.390922    -1.059383
C       -1.736801    -1.133180    -2.698861
N        0.166501     2.040880    -0.015566
C       -0.939813     2.759975    -0.723322
C       -1.129860     4.262524    -0.419548
C       -0.685939     2.753896    -2.219553
C        0.615263     2.904501    -2.730177
C        0.834403     2.926589    -4.111196
C       -0.235552     2.772752    -4.996560
C       -1.528139     2.613875    -4.503011
C       -1.747904     2.597331    -3.127968
H       -0.617717     3.925735     2.233398
H        0.834907     3.608234     3.068844
H        0.977299     4.357155     1.444765
H        2.500243     2.286814     2.397324
H        4.599220     1.189699     1.680436
H        4.435928    -0.594313     1.491045
H        3.837252     0.200978     2.965573
H        3.033256     1.062555    -1.458007
H        4.680814    -0.018607    -3.854781
H        3.718098     1.482160    -3.793762
H        2.888685    -0.119474    -3.731912
H        5.335058     1.180647    -0.376299
H        5.159499     2.240647    -1.807708
H        6.074839     0.694652    -1.928400
H        5.488417    -1.628461    -2.460247
H        5.459456    -3.904201    -1.618041
H        3.829485    -4.610239     0.041097
H        2.524936    -3.716453     2.067482
H        1.611423    -5.163507     0.233154
H        0.401300    -3.890574    -0.180556
H        0.310751    -4.767012     1.399199
H        0.240291    -1.800458     1.357970
H        0.397650    -2.806034     2.816127
H        1.579184    -1.510167     2.569494
H       -3.415211    -1.366673     3.335942
H       -4.121450    -1.928031     1.774315
H       -4.961345    -0.641555     2.728966
H       -2.598049     1.170180     3.793261
H       -1.058526     0.602265     3.014773
H       -1.866771     2.167206     2.517203
H       -4.737213     1.991446     2.019885
H       -5.124010     1.209339     0.494125
H       -3.824340     2.469070     0.570142
H       -5.178107     0.152969    -1.358283
H       -3.940816     1.409621    -1.579196
H       -4.374239     0.282734    -2.928694
H       -3.338521    -3.232967    -0.704608
H       -4.762512    -2.169875    -0.325095
H       -4.448046    -2.642178    -2.023656
H       -1.050569    -0.269366    -2.801066
H       -2.331264    -1.236026    -3.632961
H       -1.159412    -2.063709    -2.533718
H       -1.899487     2.263353    -0.502106
H       -0.186838     4.832527    -0.560384
H       -1.888229     4.692956    -1.110642
H       -1.585621     4.458528     0.558402
H        1.453439     3.044607    -2.060271
H        1.833307     3.073226    -4.495527
H       -0.068271     2.794813    -6.064519
H       -2.366271     2.519317    -5.182676
H       -2.756452     2.525890    -2.790690
88
ex_0286 frame6 Isomer 1_mirror
C       -0.109286     0.873577    -4.291462
C        0.063179     0.768045    -2.801583
C        0.589699     1.999821    -2.152335
C        0.986026     2.294910    -0.882330
C        1.788704     3.577118    -0.724337
N        0.691038     1.482392     0.263204
C        0.948904     2.023245     1.562514
C        2.085816     1.583314     2.310083
C        3.045818     0.509819     1.812248
C        4.367709     1.163479     1.393460
C        3.305422    -0.568694     2.888877
C        2.342186     2.160595     3.566669
C        1.500340     3.110403     4.102631
C        0.370388     3.510270     3.412963
C        0.069179     3.011889     2.120285
C       -1.179274     3.543125     1.366309
C       -2.058131     4.492314     2.213736
C       -2.107074     2.450804     0.806580
Zn      -0.261269    -0.296090    -0.086564
N        0.675654    -1.896309     0.783979
Si      -0.404487    -2.628174     2.039556
C        0.587038    -3.377047     3.433774
C       -1.452975    -1.252591     2.757727
C       -1.670731    -3.861708     1.399604
Si       1.760918    -3.031495    -0.153079
C        3.467891    -3.067904     0.570591
C        1.198575    -4.819529    -0.219509
C        2.034635    -2.444944    -1.905666
N       -0.271488    -0.447809    -2.127982
C       -1.318392    -1.361591    -2.681119
C       -1.732271    -2.406043    -1.657670
C       -2.581336    -0.681752    -3.204897
C       -2.992186    -0.911877    -4.534604
C       -4.149827    -0.312729    -5.034462
C       -4.904746     0.531893    -4.219690
C       -4.503624     0.775364    -2.902430
C       -3.348492     0.170779    -2.393829
H       -0.758939     1.658306    -4.732885
H       -0.383791    -0.088251    -4.761243
H        0.943600     1.070874    -4.585978
H        0.910869     2.724167    -2.900660
H        2.100736     3.783835     0.317053
H        2.708824     3.533197    -1.343228
H        1.170466     4.437266    -1.062756
H        2.632631     0.016150     0.908884
H        5.066653     0.392956     1.001814
H        4.181269     1.901221     0.583903
H        4.853316     1.681234     2.247253
H        2.356801    -1.061459     3.180765
H        3.779451    -0.151085     3.799396
H        4.020415    -1.329849     2.534603
H        3.218130     1.898972     4.142465
H        1.734367     3.552264     5.063504
H       -0.216836     4.269198     3.901416
H       -0.806958     4.129009     0.498899
H       -2.457938     3.949235     3.100355
H       -1.492434     5.387297     2.546220
H       -2.920593     4.868400     1.625115
H       -1.623401     1.849723     0.020200
H       -2.470092     1.782596     1.611564
H       -2.977306     2.921749     0.299245
H        0.594000    -2.666045     4.286823
H        0.116546    -4.324953     3.763765
H        1.626529    -3.564930     3.109571
H       -2.196861    -1.670357     3.466193
H       -0.810246    -0.513369     3.277511
H       -1.990392    -0.743663     1.929177
H       -1.317321    -4.438434     0.536701
H       -1.919620    -4.573700     2.212811
H       -2.599737    -3.330248     1.110996
H        4.088584    -3.773432    -0.017896
H        3.432535    -3.406985     1.623352
H        3.912031    -2.059707     0.474553
H        1.037148    -5.206671     0.807639
H        1.986257    -5.424411    -0.711401
H        0.280874    -4.926778    -0.827172
H        2.834970    -3.052452    -2.373296
H        1.122383    -2.582017    -2.508108
H        2.338213    -1.377814    -1.899551
H       -0.858097    -1.928057    -3.520328
H       -2.189468    -1.927959    -0.769466
H       -0.861300    -3.001259    -1.353274
H       -2.466819    -3.106900    -2.113909
H       -2.423977    -1.567276    -5.184244
H       -4.461575    -0.506104    -6.053662
H       -5.801478     0.995451    -4.609967
H       -5.090607     1.431623    -2.274441
H       -3.050344     0.365422    -1.372896
