67
ex_0167 frame0 trans-OC-6-1
Cd       0.000000     0.000000     0.000000
O        2.100000     0.000000     0.000000
S        3.600023    -0.000000    -0.000000
C        4.144040    -1.661813     0.464051
C        4.144040     0.802259     1.527530
H        3.873044    -2.353210    -0.337315
H        3.653090    -1.970213     1.390153
H        5.228680    -1.667197     0.594504
H        5.228680     0.711031     1.620931
H        3.873043     1.859636     1.480924
H        3.653091     0.339931     2.387198
O       -2.100000     0.000000     0.000000
S       -3.600023    -0.000000     0.000000
C       -4.144040     1.203786     1.236069
C       -4.144040    -1.461046     0.917776
H       -3.873044     2.204181     0.890486
H       -3.653090     1.005214     2.191760
H       -5.228680     1.142907     1.351570
H       -5.228680    -1.429086     1.044365
H       -3.873043    -2.351905     0.346298
H       -3.653091    -1.493148     1.893350
C       -0.883034     7.114259    -0.934559
N       -0.022619     6.405209     0.011788
C        0.260189     7.114260     1.259147
C       -0.027874     5.004028     0.014526
C       -0.557454     4.255859    -1.046033
C       -0.526244     2.865869    -1.009793
N        0.000000     2.150000     0.000000
C        0.526244     2.865869     1.009794
C        0.538070     4.255859     1.056136
H       -0.605403     6.888038    -1.969583
H       -0.780981     8.200093    -0.827335
H       -1.937082     6.863204    -0.772377
H       -0.476542     6.863195     2.030211
H        1.267606     6.888048     1.624482
H        0.230752     8.200093     1.114079
H       -0.997995     4.724117    -1.917185
H       -0.937856     2.280574    -1.826925
H        0.960236     2.280574     1.815262
H        0.999764     4.724119     1.916263
C        0.578454    -7.114259    -1.148277
N        0.025048    -6.405209     0.004818
C        0.111255    -7.114260     1.280926
C        0.030866    -5.004028     0.005936
C        0.234587    -4.255859    -1.161856
C        0.215060    -2.865869    -1.118197
N        0.000000    -2.150000     0.000000
C       -0.215060    -2.865869     1.118197
C       -0.213121    -4.255859     1.165985
H        0.016074    -6.888038    -2.060464
H        0.511376    -8.200093    -1.016322
H        1.634805    -6.863204    -1.294707
H        1.037927    -6.863195     1.808745
H       -0.749366    -6.888048     1.919431
H        0.097920    -8.200093     1.133504
H        0.407231    -4.724117    -2.122676
H        0.375456    -2.280574    -2.018975
H       -0.400239    -2.280574     2.014209
H       -0.409190    -4.724119     2.122300
N        0.000000     0.000000     2.150000
C       -0.000000     0.000000     3.531231
Se      -0.011215    -0.004717     5.299185
H       -0.031125    -0.013267     6.809030
N        0.000000     0.000000    -2.150000
C       -0.000000     0.000000    -3.531231
Se       0.011973    -0.002161    -5.299185
H        0.033268    -0.006170    -6.809030
67
ex_0167 frame1 trans-OC-6-1-conf2
Cd       0.000000     0.000000     0.000000
O        2.100000     0.000000     0.000000
S        3.600023    -0.000000    -0.000000
C        4.144040    -1.661813     0.464051
C        4.144040     0.802259     1.527530
H        3.873044    -2.353210    -0.337315
H        3.653090    -1.970213     1.390153
H        5.228680    -1.667197     0.594504
H        5.228680     0.711031     1.620931
H        3.873043     1.859636     1.480924
H        3.653091     0.339931     2.387198
O       -2.100000     0.000000     0.000000
S       -3.600023    -0.000000    -0.000000
C       -4.144039    -1.432799     0.961279
C       -4.144039     1.240396     1.199327
H       -3.873041    -2.340434     0.416838
H       -5.228680    -1.397047     1.086851
H       -3.653090    -1.435561     1.937378
H       -3.873043     2.229952     0.823831
H       -3.653090     1.070640     2.160556
H       -5.228680     1.183017     1.316606
C       -0.883034     7.114259    -0.934559
N       -0.022619     6.405209     0.011788
C        0.260189     7.114260     1.259147
C       -0.027874     5.004028     0.014526
C       -0.557454     4.255859    -1.046033
C       -0.526244     2.865869    -1.009793
N        0.000000     2.150000     0.000000
C        0.526244     2.865869     1.009794
C        0.538070     4.255859     1.056136
H       -0.605403     6.888038    -1.969583
H       -0.780981     8.200093    -0.827335
H       -1.937082     6.863204    -0.772377
H       -0.476542     6.863195     2.030211
H        1.267606     6.888048     1.624482
H        0.230752     8.200093     1.114079
H       -0.997995     4.724117    -1.917185
H       -0.937856     2.280574    -1.826925
H        0.960236     2.280574     1.815262
H        0.999764     4.724119     1.916263
C        0.578454    -7.114259    -1.148277
N        0.025048    -6.405209     0.004818
C        0.111255    -7.114260     1.280926
C        0.030866    -5.004028     0.005936
C        0.234587    -4.255859    -1.161856
C        0.215060    -2.865869    -1.118197
N        0.000000    -2.150000     0.000000
C       -0.215060    -2.865869     1.118197
C       -0.213121    -4.255859     1.165985
H        0.016074    -6.888038    -2.060464
H        0.511376    -8.200093    -1.016322
H        1.634805    -6.863204    -1.294707
H        1.037927    -6.863195     1.808745
H       -0.749366    -6.888048     1.919431
H        0.097920    -8.200093     1.133504
H        0.407231    -4.724117    -2.122676
H        0.375456    -2.280574    -2.018975
H       -0.400239    -2.280574     2.014209
H       -0.409190    -4.724119     2.122300
N        0.000000     0.000000     2.150000
C       -0.000000     0.000000     3.531231
Se      -0.011215    -0.004717     5.299185
H       -0.031125    -0.013267     6.809030
N        0.000000     0.000000    -2.150000
C       -0.000000     0.000000    -3.531231
Se       0.011973    -0.002161    -5.299185
H        0.033268    -0.006170    -6.809030
67
ex_0167 frame2 trans-OC-6-1-conf3
Cd       0.000000     0.000000     0.000000
O        2.100000     0.000000     0.000000
S        3.600023     0.000000     0.000000
C        4.144039     1.338574     1.088664
C        4.144039    -1.345187     1.080482
H        3.873041     2.292326     0.629782
H        5.228680     1.291453     1.210428
H        3.653090     1.251781     2.060901
H        3.873043    -2.296124     0.615791
H        3.653090    -1.264326     2.053229
H        5.228680    -1.298809     1.202529
O       -2.100000     0.000000     0.000000
S       -3.600023    -0.000000     0.000000
C       -4.144040     1.203786     1.236069
C       -4.144040    -1.461046     0.917776
H       -3.873044     2.204181     0.890486
H       -3.653090     1.005214     2.191760
H       -5.228680     1.142907     1.351570
H       -5.228680    -1.429086     1.044365
H       -3.873043    -2.351905     0.346298
H       -3.653091    -1.493148     1.893350
C       -0.883034     7.114259    -0.934559
N       -0.022619     6.405209     0.011788
C        0.260189     7.114260     1.259147
C       -0.027874     5.004028     0.014526
C       -0.557454     4.255859    -1.046033
C       -0.526244     2.865869    -1.009793
N        0.000000     2.150000     0.000000
C        0.526244     2.865869     1.009794
C        0.538070     4.255859     1.056136
H       -0.605403     6.888038    -1.969583
H       -0.780981     8.200093    -0.827335
H       -1.937082     6.863204    -0.772377
H       -0.476542     6.863195     2.030211
H        1.267606     6.888048     1.624482
H        0.230752     8.200093     1.114079
H       -0.997995     4.724117    -1.917185
H       -0.937856     2.280574    -1.826925
H        0.960236     2.280574     1.815262
H        0.999764     4.724119     1.916263
C        0.578454    -7.114259    -1.148277
N        0.025048    -6.405209     0.004818
C        0.111255    -7.114260     1.280926
C        0.030866    -5.004028     0.005936
C        0.234587    -4.255859    -1.161856
C        0.215060    -2.865869    -1.118197
N        0.000000    -2.150000     0.000000
C       -0.215060    -2.865869     1.118197
C       -0.213121    -4.255859     1.165985
H        0.016074    -6.888038    -2.060464
H        0.511376    -8.200093    -1.016322
H        1.634805    -6.863204    -1.294707
H        1.037927    -6.863195     1.808745
H       -0.749366    -6.888048     1.919431
H        0.097920    -8.200093     1.133504
H        0.407231    -4.724117    -2.122676
H        0.375456    -2.280574    -2.018975
H       -0.400239    -2.280574     2.014209
H       -0.409190    -4.724119     2.122300
N        0.000000     0.000000     2.150000
C       -0.000000     0.000000     3.531231
Se      -0.011215    -0.004717     5.299185
H       -0.031125    -0.013267     6.809030
N        0.000000     0.000000    -2.150000
C       -0.000000     0.000000    -3.531231
Se       0.011973    -0.002161    -5.299185
H        0.033268    -0.006170    -6.809030
67
ex_0167 frame3 trans-OC-6-1-conf4
Cd       0.000000     0.000000     0.000000
O        2.100000     0.000000     0.000000
S        3.600023    -0.000000    -0.000000
C        4.144040    -1.661813     0.464051
C        4.144040     0.802259     1.527530
H        3.873044    -2.353210    -0.337315
H        3.653090    -1.970213     1.390153
H        5.228680    -1.667197     0.594504
H        5.228680     0.711031     1.620931
H        3.873043     1.859636     1.480924
H        3.653091     0.339931     2.387198
O       -2.100000     0.000000     0.000000
S       -3.600023    -0.000000     0.000000
C       -4.144040     1.203786     1.236069
C       -4.144040    -1.461046     0.917776
H       -3.873044     2.204181     0.890486
H       -3.653090     1.005214     2.191760
H       -5.228680     1.142907     1.351570
H       -5.228680    -1.429086     1.044365
H       -3.873043    -2.351905     0.346298
H       -3.653091    -1.493148     1.893350
C       -0.883034     7.114259    -0.934559
N       -0.022619     6.405209     0.011788
C        0.260189     7.114260     1.259147
C       -0.027874     5.004028     0.014526
C       -0.557454     4.255859    -1.046033
C       -0.526244     2.865869    -1.009793
N        0.000000     2.150000     0.000000
C        0.526244     2.865869     1.009794
C        0.538070     4.255859     1.056136
H       -0.605403     6.888038    -1.969583
H       -0.780981     8.200093    -0.827335
H       -1.937082     6.863204    -0.772377
H       -0.476542     6.863195     2.030211
H        1.267606     6.888048     1.624482
H        0.230752     8.200093     1.114079
H       -0.997995     4.724117    -1.917185
H       -0.937856     2.280574    -1.826925
H        0.960236     2.280574     1.815262
H        0.999764     4.724119     1.916263
C       -1.274581    -7.114256     0.169138
N       -0.010138    -6.405208    -0.023411
C        0.995528    -7.114263    -0.813672
C       -0.012490    -5.004028    -0.028848
C       -1.092025    -4.255858     0.460892
C       -1.044954    -2.865869     0.452424
N        0.000000    -2.150000     0.000000
C        1.044954    -2.865869    -0.452424
C        1.083337    -4.255859    -0.480960
H       -1.127777    -8.200089     0.150181
H       -1.711279    -6.888048     1.147736
H       -1.990776    -6.863187    -0.621036
H        0.909417    -6.863219    -1.876643
H        0.881258    -8.200095    -0.719567
H        2.007956    -6.888037    -0.462471
H       -1.983068    -4.724118     0.859669
H       -1.879492    -2.280573     0.827492
H        1.889515    -2.280574    -0.804341
H        1.983851    -4.724117    -0.857863
N        0.000000     0.000000     2.150000
C       -0.000000     0.000000     3.531231
Se      -0.011215    -0.004717     5.299185
H       -0.031125    -0.013267     6.809030
N        0.000000     0.000000    -2.150000
C       -0.000000     0.000000    -3.531231
Se       0.011973    -0.002161    -5.299185
H        0.033268    -0.006170    -6.809030
67
ex_0167 frame4 trans-OC-6-1-conf5
Cd       0.000000     0.000000     0.000000
O        2.100000     0.000000     0.000000
S        3.600023    -0.000000    -0.000000
C        4.144040    -1.661813     0.464051
C        4.144040     0.802259     1.527530
H        3.873044    -2.353210    -0.337315
H        3.653090    -1.970213     1.390153
H        5.228680    -1.667197     0.594504
H        5.228680     0.711031     1.620931
H        3.873043     1.859636     1.480924
H        3.653091     0.339931     2.387198
O       -2.100000     0.000000     0.000000
S       -3.600023    -0.000000     0.000000
C       -4.144040     1.203786     1.236069
C       -4.144040    -1.461046     0.917776
H       -3.873044     2.204181     0.890486
H       -3.653090     1.005214     2.191760
H       -5.228680     1.142907     1.351570
H       -5.228680    -1.429086     1.044365
H       -3.873043    -2.351905     0.346298
H       -3.653091    -1.493148     1.893350
C        1.034220     7.114256    -0.763906
N       -0.008974     6.405208    -0.023882
C       -1.281329     7.114263     0.106464
C       -0.011060     5.004028    -0.029426
C        1.105627     4.255858    -0.427235
C        1.065889     2.865869    -0.400621
N        0.000000     2.150000     0.000000
C       -1.065889     2.865869     0.400621
C       -1.113321     4.255859     0.406765
H        0.915464     8.200089    -0.675544
H        2.028214     6.888048    -0.363487
H        1.000326     6.863187    -1.829815
H       -1.957928     6.863219    -0.717877
H       -1.133762     8.200095     0.094753
H       -1.765481     6.888037     1.062470
H        2.023547     4.724118    -0.759505
H        1.926696     2.280573    -0.710685
H       -1.917821     2.280574     0.734299
H       -2.022856     4.724117     0.761348
C        0.578454    -7.114259    -1.148277
N        0.025048    -6.405209     0.004818
C        0.111255    -7.114260     1.280926
C        0.030866    -5.004028     0.005936
C        0.234587    -4.255859    -1.161856
C        0.215060    -2.865869    -1.118197
N        0.000000    -2.150000     0.000000
C       -0.215060    -2.865869     1.118197
C       -0.213121    -4.255859     1.165985
H        0.016074    -6.888038    -2.060464
H        0.511376    -8.200093    -1.016322
H        1.634805    -6.863204    -1.294707
H        1.037927    -6.863195     1.808745
H       -0.749366    -6.888048     1.919431
H        0.097920    -8.200093     1.133504
H        0.407231    -4.724117    -2.122676
H        0.375456    -2.280574    -2.018975
H       -0.400239    -2.280574     2.014209
H       -0.409190    -4.724119     2.122300
N        0.000000     0.000000     2.150000
C       -0.000000     0.000000     3.531231
Se      -0.011215    -0.004717     5.299185
H       -0.031125    -0.013267     6.809030
N        0.000000     0.000000    -2.150000
C       -0.000000     0.000000    -3.531231
Se       0.011973    -0.002161    -5.299185
H        0.033268    -0.006170    -6.809030
67
ex_0167 frame5 trans-OC-6-1-conf6
Cd       0.000000     0.000000     0.000000
O        2.100000     0.000000     0.000000
S        3.600023    -0.000000    -0.000000
C        4.144040    -1.661813     0.464051
C        4.144040     0.802259     1.527530
H        3.873044    -2.353210    -0.337315
H        3.653090    -1.970213     1.390153
H        5.228680    -1.667197     0.594504
H        5.228680     0.711031     1.620931
H        3.873043     1.859636     1.480924
H        3.653091     0.339931     2.387198
O       -2.100000     0.000000     0.000000
S       -3.600023    -0.000000     0.000000
C       -4.144039    -0.021356    -1.725257
C       -4.144040    -1.682408     0.382714
H       -3.653090    -0.837088    -2.261316
H       -3.873041     0.930788    -2.187468
H       -5.228679    -0.146040    -1.763989
H       -3.653089    -2.394373    -0.285029
H       -3.873043    -1.909128     1.416550
H       -5.228680    -1.749226     0.270543
C       -0.883034     7.114259    -0.934559
N       -0.022619     6.405209     0.011788
C        0.260189     7.114260     1.259147
C       -0.027874     5.004028     0.014526
C       -0.557454     4.255859    -1.046033
C       -0.526244     2.865869    -1.009793
N        0.000000     2.150000     0.000000
C        0.526244     2.865869     1.009794
C        0.538070     4.255859     1.056136
H       -0.605403     6.888038    -1.969583
H       -0.780981     8.200093    -0.827335
H       -1.937082     6.863204    -0.772377
H       -0.476542     6.863195     2.030211
H        1.267606     6.888048     1.624482
H        0.230752     8.200093     1.114079
H       -0.997995     4.724117    -1.917185
H       -0.937856     2.280574    -1.826925
H        0.960236     2.280574     1.815262
H        0.999764     4.724119     1.916263
C        0.578454    -7.114259    -1.148277
N        0.025048    -6.405209     0.004818
C        0.111255    -7.114260     1.280926
C        0.030866    -5.004028     0.005936
C        0.234587    -4.255859    -1.161856
C        0.215060    -2.865869    -1.118197
N        0.000000    -2.150000     0.000000
C       -0.215060    -2.865869     1.118197
C       -0.213121    -4.255859     1.165985
H        0.016074    -6.888038    -2.060464
H        0.511376    -8.200093    -1.016322
H        1.634805    -6.863204    -1.294707
H        1.037927    -6.863195     1.808745
H       -0.749366    -6.888048     1.919431
H        0.097920    -8.200093     1.133504
H        0.407231    -4.724117    -2.122676
H        0.375456    -2.280574    -2.018975
H       -0.400239    -2.280574     2.014209
H       -0.409190    -4.724119     2.122300
N        0.000000     0.000000     2.150000
C       -0.000000     0.000000     3.531231
Se      -0.011215    -0.004717     5.299185
H       -0.031125    -0.013267     6.809030
N        0.000000     0.000000    -2.150000
C       -0.000000     0.000000    -3.531231
Se       0.011973    -0.002161    -5.299185
H        0.033268    -0.006170    -6.809030
67
ex_0167 frame6 trans-OC-6-1-conf7
Cd       0.000000     0.000000     0.000000
O        2.100000     0.000000     0.000000
S        3.600023     0.000000     0.000000
C        4.144039     1.338574     1.088664
C        4.144039    -1.345187     1.080482
H        3.873041     2.292326     0.629782
H        5.228680     1.291453     1.210428
H        3.653090     1.251781     2.060901
H        3.873043    -2.296124     0.615791
H        3.653090    -1.264326     2.053229
H        5.228680    -1.298809     1.202529
O       -2.100000     0.000000     0.000000
S       -3.600023    -0.000000    -0.000000
C       -4.144039    -1.432799     0.961279
C       -4.144039     1.240396     1.199327
H       -3.873041    -2.340434     0.416838
H       -5.228680    -1.397047     1.086851
H       -3.653090    -1.435561     1.937378
H       -3.873043     2.229952     0.823831
H       -3.653090     1.070640     2.160556
H       -5.228680     1.183017     1.316606
C       -0.883034     7.114259    -0.934559
N       -0.022619     6.405209     0.011788
C        0.260189     7.114260     1.259147
C       -0.027874     5.004028     0.014526
C       -0.557454     4.255859    -1.046033
C       -0.526244     2.865869    -1.009793
N        0.000000     2.150000     0.000000
C        0.526244     2.865869     1.009794
C        0.538070     4.255859     1.056136
H       -0.605403     6.888038    -1.969583
H       -0.780981     8.200093    -0.827335
H       -1.937082     6.863204    -0.772377
H       -0.476542     6.863195     2.030211
H        1.267606     6.888048     1.624482
H        0.230752     8.200093     1.114079
H       -0.997995     4.724117    -1.917185
H       -0.937856     2.280574    -1.826925
H        0.960236     2.280574     1.815262
H        0.999764     4.724119     1.916263
C        0.578454    -7.114259    -1.148277
N        0.025048    -6.405209     0.004818
C        0.111255    -7.114260     1.280926
C        0.030866    -5.004028     0.005936
C        0.234587    -4.255859    -1.161856
C        0.215060    -2.865869    -1.118197
N        0.000000    -2.150000     0.000000
C       -0.215060    -2.865869     1.118197
C       -0.213121    -4.255859     1.165985
H        0.016074    -6.888038    -2.060464
H        0.511376    -8.200093    -1.016322
H        1.634805    -6.863204    -1.294707
H        1.037927    -6.863195     1.808745
H       -0.749366    -6.888048     1.919431
H        0.097920    -8.200093     1.133504
H        0.407231    -4.724117    -2.122676
H        0.375456    -2.280574    -2.018975
H       -0.400239    -2.280574     2.014209
H       -0.409190    -4.724119     2.122300
N        0.000000     0.000000     2.150000
C       -0.000000     0.000000     3.531231
Se      -0.011215    -0.004717     5.299185
H       -0.031125    -0.013267     6.809030
N        0.000000     0.000000    -2.150000
C       -0.000000     0.000000    -3.531231
Se       0.011973    -0.002161    -5.299185
H        0.033268    -0.006170    -6.809030
67
ex_0167 frame7 trans-OC-6-1-conf8
Cd       0.000000     0.000000     0.000000
O        2.100000     0.000000     0.000000
S        3.600023    -0.000000     0.000000
C        4.144039    -1.637268     0.544355
C        4.144040    -0.188869    -1.715021
H        3.653090    -2.410738    -0.051062
H        3.873041    -1.762475     1.595326
H        5.228679    -1.714667     0.439208
H        3.653089    -1.052820    -2.169293
H        3.873043     0.713867    -2.267549
H        5.228680    -0.316729    -1.741456
O       -2.100000     0.000000     0.000000
S       -3.600023    -0.000000     0.000000
C       -4.144040     1.203786     1.236069
C       -4.144040    -1.461046     0.917776
H       -3.873044     2.204181     0.890486
H       -3.653090     1.005214     2.191760
H       -5.228680     1.142907     1.351570
H       -5.228680    -1.429086     1.044365
H       -3.873043    -2.351905     0.346298
H       -3.653091    -1.493148     1.893350
C       -0.883034     7.114259    -0.934559
N       -0.022619     6.405209     0.011788
C        0.260189     7.114260     1.259147
C       -0.027874     5.004028     0.014526
C       -0.557454     4.255859    -1.046033
C       -0.526244     2.865869    -1.009793
N        0.000000     2.150000     0.000000
C        0.526244     2.865869     1.009794
C        0.538070     4.255859     1.056136
H       -0.605403     6.888038    -1.969583
H       -0.780981     8.200093    -0.827335
H       -1.937082     6.863204    -0.772377
H       -0.476542     6.863195     2.030211
H        1.267606     6.888048     1.624482
H        0.230752     8.200093     1.114079
H       -0.997995     4.724117    -1.917185
H       -0.937856     2.280574    -1.826925
H        0.960236     2.280574     1.815262
H        0.999764     4.724119     1.916263
C        0.578454    -7.114259    -1.148277
N        0.025048    -6.405209     0.004818
C        0.111255    -7.114260     1.280926
C        0.030866    -5.004028     0.005936
C        0.234587    -4.255859    -1.161856
C        0.215060    -2.865869    -1.118197
N        0.000000    -2.150000     0.000000
C       -0.215060    -2.865869     1.118197
C       -0.213121    -4.255859     1.165985
H        0.016074    -6.888038    -2.060464
H        0.511376    -8.200093    -1.016322
H        1.634805    -6.863204    -1.294707
H        1.037927    -6.863195     1.808745
H       -0.749366    -6.888048     1.919431
H        0.097920    -8.200093     1.133504
H        0.407231    -4.724117    -2.122676
H        0.375456    -2.280574    -2.018975
H       -0.400239    -2.280574     2.014209
H       -0.409190    -4.724119     2.122300
N        0.000000     0.000000     2.150000
C       -0.000000     0.000000     3.531231
Se      -0.011215    -0.004717     5.299185
H       -0.031125    -0.013267     6.809030
N        0.000000     0.000000    -2.150000
C       -0.000000     0.000000    -3.531231
Se       0.011973    -0.002161    -5.299185
H        0.033268    -0.006170    -6.809030
67
ex_0167 frame8 trans-OC-6-1-conf9
Cd       0.000000     0.000000     0.000000
O        2.100000     0.000000     0.000000
S        3.600023    -0.000000    -0.000000
C        4.144040    -1.661813     0.464051
C        4.144040     0.802259     1.527530
H        3.873044    -2.353210    -0.337315
H        3.653090    -1.970213     1.390153
H        5.228680    -1.667197     0.594504
H        5.228680     0.711031     1.620931
H        3.873043     1.859636     1.480924
H        3.653091     0.339931     2.387198
O       -2.100000     0.000000     0.000000
S       -3.600023    -0.000000     0.000000
C       -4.144040     1.203786     1.236069
C       -4.144040    -1.461046     0.917776
H       -3.873044     2.204181     0.890486
H       -3.653090     1.005214     2.191760
H       -5.228680     1.142907     1.351570
H       -5.228680    -1.429086     1.044365
H       -3.873043    -2.351905     0.346298
H       -3.653091    -1.493148     1.893350
C       -0.883034     7.114259    -0.934559
N       -0.022619     6.405209     0.011788
C        0.260189     7.114260     1.259147
C       -0.027874     5.004028     0.014526
C       -0.557454     4.255859    -1.046033
C       -0.526244     2.865869    -1.009793
N        0.000000     2.150000     0.000000
C        0.526244     2.865869     1.009794
C        0.538070     4.255859     1.056136
H       -0.605403     6.888038    -1.969583
H       -0.780981     8.200093    -0.827335
H       -1.937082     6.863204    -0.772377
H       -0.476542     6.863195     2.030211
H        1.267606     6.888048     1.624482
H        0.230752     8.200093     1.114079
H       -0.997995     4.724117    -1.917185
H       -0.937856     2.280574    -1.826925
H        0.960236     2.280574     1.815262
H        0.999764     4.724119     1.916263
C        1.083115    -7.114260     0.692827
N        0.019088    -6.405209    -0.016914
C       -0.557453    -7.114261    -1.158616
C        0.023526    -5.004028    -0.020846
C       -0.777867    -4.255859    -0.894351
C       -0.755170    -2.865869    -0.852253
N        0.000000    -2.150000     0.000000
C        0.755170    -2.865869     0.852253
C        0.794231    -4.255859     0.879851
H        0.958127    -8.200092     0.613516
H        1.064473    -6.888042     1.764278
H        2.066483    -6.863205     0.280146
H       -1.623360    -6.888038    -1.269049
H       -0.029430    -6.863213    -2.085177
H       -0.493765    -8.200094    -1.024987
H       -1.434154    -4.724118    -1.617033
H       -1.371340    -2.280573    -1.528612
H        1.352456    -2.280574     1.545346
H        1.432672    -4.724118     1.618346
N        0.000000     0.000000     2.150000
C       -0.000000     0.000000     3.531231
Se      -0.011215    -0.004717     5.299185
H       -0.031125    -0.013267     6.809030
N        0.000000     0.000000    -2.150000
C       -0.000000     0.000000    -3.531231
Se       0.011973    -0.002161    -5.299185
H        0.033268    -0.006170    -6.809030
67
ex_0167 frame9 trans-OC-6-1-conf10
Cd       0.000000     0.000000     0.000000
O        2.100000     0.000000     0.000000
S        3.600023    -0.000000    -0.000000
C        4.144040    -1.661813     0.464051
C        4.144040     0.802259     1.527530
H        3.873044    -2.353210    -0.337315
H        3.653090    -1.970213     1.390153
H        5.228680    -1.667197     0.594504
H        5.228680     0.711031     1.620931
H        3.873043     1.859636     1.480924
H        3.653091     0.339931     2.387198
O       -2.100000     0.000000     0.000000
S       -3.600023    -0.000000     0.000000
C       -4.144040     1.203786     1.236069
C       -4.144040    -1.461046     0.917776
H       -3.873044     2.204181     0.890486
H       -3.653090     1.005214     2.191760
H       -5.228680     1.142907     1.351570
H       -5.228680    -1.429086     1.044365
H       -3.873043    -2.351905     0.346298
H       -3.653091    -1.493148     1.893350
C       -0.961378     7.114260     0.853756
N       -0.021499     6.405209    -0.013719
C        0.369313     7.114261    -1.231565
C       -0.026498     5.004028    -0.016909
C        0.628360     4.255859    -1.005040
C        0.612528     2.865869    -0.959909
N        0.000000     2.150000     0.000000
C       -0.612528     2.865869     0.959909
C       -0.646791     4.255859     0.993279
H       -0.850339     8.200092     0.755866
H       -0.775329     6.888042     1.909095
H       -1.997203     6.863205     0.600012
H        1.404816     6.888038    -1.507407
H       -0.297174     6.863213    -2.064102
H        0.327317     8.200094    -1.089618
H        1.163496     4.724118    -1.821503
H        1.115289     2.280573    -1.724343
H       -1.094020     2.280574     1.737916
H       -1.161826     4.724118     1.822567
C        0.578454    -7.114259    -1.148277
N        0.025048    -6.405209     0.004818
C        0.111255    -7.114260     1.280926
C        0.030866    -5.004028     0.005936
C        0.234587    -4.255859    -1.161856
C        0.215060    -2.865869    -1.118197
N        0.000000    -2.150000     0.000000
C       -0.215060    -2.865869     1.118197
C       -0.213121    -4.255859     1.165985
H        0.016074    -6.888038    -2.060464
H        0.511376    -8.200093    -1.016322
H        1.634805    -6.863204    -1.294707
H        1.037927    -6.863195     1.808745
H       -0.749366    -6.888048     1.919431
H        0.097920    -8.200093     1.133504
H        0.407231    -4.724117    -2.122676
H        0.375456    -2.280574    -2.018975
H       -0.400239    -2.280574     2.014209
H       -0.409190    -4.724119     2.122300
N        0.000000     0.000000     2.150000
C       -0.000000     0.000000     3.531231
Se      -0.011215    -0.004717     5.299185
H       -0.031125    -0.013267     6.809030
N        0.000000     0.000000    -2.150000
C       -0.000000     0.000000    -3.531231
Se       0.011973    -0.002161    -5.299185
H        0.033268    -0.006170    -6.809030
67
ex_0167 frame10 trans-OC-6-2
Cd       0.000000     0.000000     0.000000
O        2.100000     0.000000     0.000000
S        3.600023    -0.000000    -0.000000
C        4.144040    -1.661813     0.464051
C        4.144040     0.802259     1.527530
H        3.873044    -2.353210    -0.337315
H        3.653090    -1.970213     1.390153
H        5.228680    -1.667197     0.594504
H        5.228680     0.711031     1.620931
H        3.873043     1.859636     1.480924
H        3.653091     0.339931     2.387198
O       -2.100000     0.000000     0.000000
S       -3.600023    -0.000000     0.000000
C       -4.144040     1.203786     1.236069
C       -4.144040    -1.461046     0.917776
H       -3.873044     2.204181     0.890486
H       -3.653090     1.005214     2.191760
H       -5.228680     1.142907     1.351570
H       -5.228680    -1.429086     1.044365
H       -3.873043    -2.351905     0.346298
H       -3.653091    -1.493148     1.893350
C       -0.883034     7.114259    -0.934559
N       -0.022619     6.405209     0.011788
C        0.260189     7.114260     1.259147
C       -0.027874     5.004028     0.014526
C       -0.557454     4.255859    -1.046033
C       -0.526244     2.865869    -1.009793
N        0.000000     2.150000     0.000000
C        0.526244     2.865869     1.009794
C        0.538070     4.255859     1.056136
H       -0.605403     6.888038    -1.969583
H       -0.780981     8.200093    -0.827335
H       -1.937082     6.863204    -0.772377
H       -0.476542     6.863195     2.030211
H        1.267606     6.888048     1.624482
H        0.230752     8.200093     1.114079
H       -0.997995     4.724117    -1.917185
H       -0.937856     2.280574    -1.826925
H        0.960236     2.280574     1.815262
H        0.999764     4.724119     1.916263
N        0.000000    -2.150000     0.000000
C        0.000000    -3.531231     0.000000
Se       0.003050    -5.299185    -0.011778
H        0.008638    -6.809030    -0.032713
C        0.649012    -1.109919     7.114261
N       -0.017655    -0.018388     6.405209
C       -1.135412     0.603303     7.114262
C       -0.021764    -0.022668     5.004028
C        0.847415    -0.828751     4.255859
C        0.821397    -0.788621     2.865869
N        0.000000     0.000000     2.150000
C       -0.821397     0.788621     2.865869
C       -0.862551     0.812987     4.255859
H        0.574758    -0.981863     8.200094
H        1.720352    -1.134099     6.888041
H        0.197373    -2.076015     6.863207
H       -2.082327     0.112714     6.863216
H       -1.004433     0.534333     8.200095
H       -1.203178     1.672770     6.888035
H        1.559807    -1.496193     4.724118
H        1.490068    -1.413127     2.280573
H       -1.472600     1.431321     2.280573
H       -1.558432     1.497627     4.724117
N        0.000000     0.000000    -2.150000
C       -0.000000     0.000000    -3.531231
Se       0.011973    -0.002161    -5.299185
H        0.033268    -0.006170    -6.809030
67
ex_0167 frame11 trans-OC-6-2-conf1
Cd       0.000000     0.000000     0.000000
O        2.100000     0.000000     0.000000
S        3.600023    -0.000000    -0.000000
C        4.144040    -1.661813     0.464051
C        4.144040     0.802259     1.527530
H        3.873044    -2.353210    -0.337315
H        3.653090    -1.970213     1.390153
H        5.228680    -1.667197     0.594504
H        5.228680     0.711031     1.620931
H        3.873043     1.859636     1.480924
H        3.653091     0.339931     2.387198
O       -2.100000     0.000000     0.000000
S       -3.600023    -0.000000     0.000000
C       -4.144040     1.203786     1.236069
C       -4.144040    -1.461046     0.917776
H       -3.873044     2.204181     0.890486
H       -3.653090     1.005214     2.191760
H       -5.228680     1.142907     1.351570
H       -5.228680    -1.429086     1.044365
H       -3.873043    -2.351905     0.346298
H       -3.653091    -1.493148     1.893350
C       -0.883034     7.114259    -0.934559
N       -0.022619     6.405209     0.011788
C        0.260189     7.114260     1.259147
C       -0.027874     5.004028     0.014526
C       -0.557454     4.255859    -1.046033
C       -0.526244     2.865869    -1.009793
N        0.000000     2.150000     0.000000
C        0.526244     2.865869     1.009794
C        0.538070     4.255859     1.056136
H       -0.605403     6.888038    -1.969583
H       -0.780981     8.200093    -0.827335
H       -1.937082     6.863204    -0.772377
H       -0.476542     6.863195     2.030211
H        1.267606     6.888048     1.624482
H        0.230752     8.200093     1.114079
H       -0.997995     4.724117    -1.917185
H       -0.937856     2.280574    -1.826925
H        0.960236     2.280574     1.815262
H        0.999764     4.724119     1.916263
N        0.000000    -2.150000     0.000000
C        0.000000    -3.531231     0.000000
Se       0.003050    -5.299185    -0.011778
H        0.008638    -6.809030    -0.032713
C        1.227762    -0.381773     7.114259
N        0.013938     0.021362     6.405209
C       -0.843965     0.969985     7.114260
C        0.017176     0.026324     5.004028
C        0.998614    -0.638523     4.255859
C        0.953647    -0.622232     2.865869
N        0.000000     0.000000     2.150000
C       -0.953647     0.622233     2.865869
C       -0.986669     0.656830     4.255859
H        1.493089    -1.420020     6.888038
H        1.086253    -0.338335     8.200093
H        2.067014     0.276236     6.863204
H       -0.579743     2.003184     6.863195
H       -1.901136     0.794636     6.888048
H       -0.747201     0.857968     8.200093
H        1.809603    -1.181917     4.724117
H        1.712942    -1.132721     2.280574
H       -1.726733     1.111585     2.280574
H       -1.810693     1.180247     4.724119
N        0.000000     0.000000    -2.150000
C       -0.000000     0.000000    -3.531231
Se       0.011973    -0.002161    -5.299185
H        0.033268    -0.006170    -6.809030
67
ex_0167 frame12 trans-OC-6-2-conf2
Cd       0.000000     0.000000     0.000000
O        2.100000     0.000000     0.000000
S        3.600023    -0.000000    -0.000000
C        4.144040    -1.661813     0.464051
C        4.144040     0.802259     1.527530
H        3.873044    -2.353210    -0.337315
H        3.653090    -1.970213     1.390153
H        5.228680    -1.667197     0.594504
H        5.228680     0.711031     1.620931
H        3.873043     1.859636     1.480924
H        3.653091     0.339931     2.387198
O       -2.100000     0.000000     0.000000
S       -3.600023    -0.000000    -0.000000
C       -4.144039    -1.432799     0.961279
C       -4.144039     1.240396     1.199327
H       -3.873041    -2.340434     0.416838
H       -5.228680    -1.397047     1.086851
H       -3.653090    -1.435561     1.937378
H       -3.873043     2.229952     0.823831
H       -3.653090     1.070640     2.160556
H       -5.228680     1.183017     1.316606
C       -0.883034     7.114259    -0.934559
N       -0.022619     6.405209     0.011788
C        0.260189     7.114260     1.259147
C       -0.027874     5.004028     0.014526
C       -0.557454     4.255859    -1.046033
C       -0.526244     2.865869    -1.009793
N        0.000000     2.150000     0.000000
C        0.526244     2.865869     1.009794
C        0.538070     4.255859     1.056136
H       -0.605403     6.888038    -1.969583
H       -0.780981     8.200093    -0.827335
H       -1.937082     6.863204    -0.772377
H       -0.476542     6.863195     2.030211
H        1.267606     6.888048     1.624482
H        0.230752     8.200093     1.114079
H       -0.997995     4.724117    -1.917185
H       -0.937856     2.280574    -1.826925
H        0.960236     2.280574     1.815262
H        0.999764     4.724119     1.916263
N        0.000000    -2.150000     0.000000
C        0.000000    -3.531231     0.000000
Se       0.003050    -5.299185    -0.011778
H        0.008638    -6.809030    -0.032713
C        1.227762    -0.381773     7.114259
N        0.013938     0.021362     6.405209
C       -0.843965     0.969985     7.114260
C        0.017176     0.026324     5.004028
C        0.998614    -0.638523     4.255859
C        0.953647    -0.622232     2.865869
N        0.000000     0.000000     2.150000
C       -0.953647     0.622233     2.865869
C       -0.986669     0.656830     4.255859
H        1.493089    -1.420020     6.888038
H        1.086253    -0.338335     8.200093
H        2.067014     0.276236     6.863204
H       -0.579743     2.003184     6.863195
H       -1.901136     0.794636     6.888048
H       -0.747201     0.857968     8.200093
H        1.809603    -1.181917     4.724117
H        1.712942    -1.132721     2.280574
H       -1.726733     1.111585     2.280574
H       -1.810693     1.180247     4.724119
N        0.000000     0.000000    -2.150000
C       -0.000000     0.000000    -3.531231
Se       0.011973    -0.002161    -5.299185
H        0.033268    -0.006170    -6.809030
67
ex_0167 frame13 trans-OC-6-2-conf3
Cd       0.000000     0.000000     0.000000
O        2.100000     0.000000     0.000000
S        3.600023     0.000000     0.000000
C        4.144039     1.338574     1.088664
C        4.144039    -1.345187     1.080482
H        3.873041     2.292326     0.629782
H        5.228680     1.291453     1.210428
H        3.653090     1.251781     2.060901
H        3.873043    -2.296124     0.615791
H        3.653090    -1.264326     2.053229
H        5.228680    -1.298809     1.202529
O       -2.100000     0.000000     0.000000
S       -3.600023    -0.000000     0.000000
C       -4.144040     1.203786     1.236069
C       -4.144040    -1.461046     0.917776
H       -3.873044     2.204181     0.890486
H       -3.653090     1.005214     2.191760
H       -5.228680     1.142907     1.351570
H       -5.228680    -1.429086     1.044365
H       -3.873043    -2.351905     0.346298
H       -3.653091    -1.493148     1.893350
C       -0.883034     7.114259    -0.934559
N       -0.022619     6.405209     0.011788
C        0.260189     7.114260     1.259147
C       -0.027874     5.004028     0.014526
C       -0.557454     4.255859    -1.046033
C       -0.526244     2.865869    -1.009793
N        0.000000     2.150000     0.000000
C        0.526244     2.865869     1.009794
C        0.538070     4.255859     1.056136
H       -0.605403     6.888038    -1.969583
H       -0.780981     8.200093    -0.827335
H       -1.937082     6.863204    -0.772377
H       -0.476542     6.863195     2.030211
H        1.267606     6.888048     1.624482
H        0.230752     8.200093     1.114079
H       -0.997995     4.724117    -1.917185
H       -0.937856     2.280574    -1.826925
H        0.960236     2.280574     1.815262
H        0.999764     4.724119     1.916263
N        0.000000    -2.150000     0.000000
C        0.000000    -3.531231     0.000000
Se       0.003050    -5.299185    -0.011778
H        0.008638    -6.809030    -0.032713
C       -1.138113    -0.598204     7.114259
N        0.005250    -0.024961     6.405209
C        1.282657    -0.089110     7.114260
C        0.006469    -0.030759     5.004028
C       -1.157631    -0.254623     4.255859
C       -1.114315    -0.234345     2.865869
N        0.000000     0.000000     2.150000
C        1.114315     0.234345     2.865869
C        1.162129     0.233232     4.255859
H       -2.059879    -0.051667     6.888038
H       -1.007336    -0.528857     8.200093
H       -1.266272    -1.656928     6.863204
H        1.826406    -1.006525     6.863195
H        1.906199     0.782414     6.888048
H        1.135026    -0.078324     8.200093
H       -2.115324    -0.443841     4.724117
H       -2.012188    -0.410278     2.280574
H        2.006994     0.434975     2.280574
H        2.114914     0.445793     4.724119
N        0.000000     0.000000    -2.150000
C       -0.000000     0.000000    -3.531231
Se       0.011973    -0.002161    -5.299185
H        0.033268    -0.006170    -6.809030
67
ex_0167 frame14 trans-OC-6-2-conf4
Cd       0.000000     0.000000     0.000000
O        2.100000     0.000000     0.000000
S        3.600023    -0.000000    -0.000000
C        4.144040    -1.661813     0.464051
C        4.144040     0.802259     1.527530
H        3.873044    -2.353210    -0.337315
H        3.653090    -1.970213     1.390153
H        5.228680    -1.667197     0.594504
H        5.228680     0.711031     1.620931
H        3.873043     1.859636     1.480924
H        3.653091     0.339931     2.387198
O       -2.100000     0.000000     0.000000
S       -3.600023    -0.000000     0.000000
C       -4.144040     1.203786     1.236069
C       -4.144040    -1.461046     0.917776
H       -3.873044     2.204181     0.890486
H       -3.653090     1.005214     2.191760
H       -5.228680     1.142907     1.351570
H       -5.228680    -1.429086     1.044365
H       -3.873043    -2.351905     0.346298
H       -3.653091    -1.493148     1.893350
C       -1.285232     7.114259    -0.036433
N       -0.007659     6.405209     0.024330
C        1.074333     7.114260     0.706370
C       -0.009438     5.004028     0.029981
C       -1.133837     4.255859    -0.345477
C       -1.086142     2.865869    -0.341921
N        0.000000     2.150000     0.000000
C        1.086143     2.865869     0.341921
C        1.127274     4.255859     0.366328
H       -1.820790     6.888038    -0.964621
H       -1.137251     8.200093    -0.032778
H       -1.915877     6.863204     0.823571
H        1.098610     6.863195     1.772542
H        2.045015     6.888048     0.252350
H        0.950939     8.200093     0.624606
H       -2.061343     4.724117    -0.649965
H       -1.954995     2.280574    -0.628667
H        1.962573     2.280574     0.604594
H        2.061943     4.724119     0.648063
N        0.000000    -2.150000     0.000000
C        0.000000    -3.531231     0.000000
Se       0.003050    -5.299185    -0.011778
H        0.008638    -6.809030    -0.032713
C       -0.429474     1.211906     7.114256
N       -0.025460    -0.001628     6.405208
C       -0.271441    -1.256765     7.114263
C       -0.031372    -0.002008     5.004028
C       -0.086603     1.182134     4.255858
C       -0.072720     1.136366     2.865869
N        0.000000     0.000000     2.150000
C        0.072720    -1.136366     2.865869
C        0.064780    -1.183531     4.255859
H       -0.379541     1.072559     8.200089
H        0.243154     2.046131     6.888048
H       -1.459022     1.490010     6.863187
H       -1.257136    -1.663862     6.863219
H       -0.239653    -1.112187     8.200095
H        0.502050    -1.998427     6.888037
H       -0.137045     2.157037     4.724118
H       -0.118558     2.050165     2.280573
H        0.143734    -2.048553     2.280574
H        0.139009    -2.156912     4.724117
N        0.000000     0.000000    -2.150000
C       -0.000000     0.000000    -3.531231
Se       0.011973    -0.002161    -5.299185
H        0.033268    -0.006170    -6.809030
67
ex_0167 frame15 trans-OC-6-2-conf5
Cd       0.000000     0.000000     0.000000
O        2.100000     0.000000     0.000000
S        3.600023    -0.000000    -0.000000
C        4.144040    -1.661813     0.464051
C        4.144040     0.802259     1.527530
H        3.873044    -2.353210    -0.337315
H        3.653090    -1.970213     1.390153
H        5.228680    -1.667197     0.594504
H        5.228680     0.711031     1.620931
H        3.873043     1.859636     1.480924
H        3.653091     0.339931     2.387198
O       -2.100000     0.000000     0.000000
S       -3.600023    -0.000000     0.000000
C       -4.144040     1.203786     1.236069
C       -4.144040    -1.461046     0.917776
H       -3.873044     2.204181     0.890486
H       -3.653090     1.005214     2.191760
H       -5.228680     1.142907     1.351570
H       -5.228680    -1.429086     1.044365
H       -3.873043    -2.351905     0.346298
H       -3.653091    -1.493148     1.893350
C        1.034220     7.114256    -0.763906
N       -0.008974     6.405208    -0.023882
C       -1.281329     7.114263     0.106464
C       -0.011060     5.004028    -0.029426
C        1.105627     4.255858    -0.427235
C        1.065889     2.865869    -0.400621
N        0.000000     2.150000     0.000000
C       -1.065889     2.865869     0.400621
C       -1.113321     4.255859     0.406765
H        0.915464     8.200089    -0.675544
H        2.028214     6.888048    -0.363487
H        1.000326     6.863187    -1.829815
H       -1.957928     6.863219    -0.717877
H       -1.133762     8.200095     0.094753
H       -1.765481     6.888037     1.062470
H        2.023547     4.724118    -0.759505
H        1.926696     2.280573    -0.710685
H       -1.917821     2.280574     0.734299
H       -2.022856     4.724117     0.761348
N        0.000000    -2.150000     0.000000
C        0.000000    -3.531231     0.000000
Se       0.003050    -5.299185    -0.011778
H        0.008638    -6.809030    -0.032713
C       -0.944506    -0.872386     7.114259
N        0.011531    -0.022752     6.405209
C        1.262015     0.245903     7.114260
C        0.014209    -0.028037     5.004028
C       -1.052284    -0.545564     4.255859
C       -1.015693    -0.514766     2.865869
N        0.000000     0.000000     2.150000
C        1.015693     0.514766     2.865869
C        1.062166     0.526066     4.255859
H       -1.976318    -0.583042     6.888038
H       -0.836133    -0.771555     8.200093
H       -0.794280    -1.928205     6.863204
H        2.024680    -0.499520     6.863195
H        1.638744     1.249114     6.888048
H        1.116623     0.218111     8.200093
H       -1.928372    -0.976203     4.724117
H       -1.837436    -0.917091     2.280574
H        1.826028     0.939602     2.280574
H        1.927470     0.977983     4.724119
N        0.000000     0.000000    -2.150000
C       -0.000000     0.000000    -3.531231
Se       0.011973    -0.002161    -5.299185
H        0.033268    -0.006170    -6.809030
67
ex_0167 frame16 trans-OC-6-2-conf6
Cd       0.000000     0.000000     0.000000
O        2.100000     0.000000     0.000000
S        3.600023    -0.000000    -0.000000
C        4.144040    -1.661813     0.464051
C        4.144040     0.802259     1.527530
H        3.873044    -2.353210    -0.337315
H        3.653090    -1.970213     1.390153
H        5.228680    -1.667197     0.594504
H        5.228680     0.711031     1.620931
H        3.873043     1.859636     1.480924
H        3.653091     0.339931     2.387198
O       -2.100000     0.000000     0.000000
S       -3.600023    -0.000000     0.000000
C       -4.144039    -0.021356    -1.725257
C       -4.144040    -1.682408     0.382714
H       -3.653090    -0.837088    -2.261316
H       -3.873041     0.930788    -2.187468
H       -5.228679    -0.146040    -1.763989
H       -3.653089    -2.394373    -0.285029
H       -3.873043    -1.909128     1.416550
H       -5.228680    -1.749226     0.270543
C       -0.883034     7.114259    -0.934559
N       -0.022619     6.405209     0.011788
C        0.260189     7.114260     1.259147
C       -0.027874     5.004028     0.014526
C       -0.557454     4.255859    -1.046033
C       -0.526244     2.865869    -1.009793
N        0.000000     2.150000     0.000000
C        0.526244     2.865869     1.009794
C        0.538070     4.255859     1.056136
H       -0.605403     6.888038    -1.969583
H       -0.780981     8.200093    -0.827335
H       -1.937082     6.863204    -0.772377
H       -0.476542     6.863195     2.030211
H        1.267606     6.888048     1.624482
H        0.230752     8.200093     1.114079
H       -0.997995     4.724117    -1.917185
H       -0.937856     2.280574    -1.826925
H        0.960236     2.280574     1.815262
H        0.999764     4.724119     1.916263
N        0.000000    -2.150000     0.000000
C        0.000000    -3.531231     0.000000
Se       0.003050    -5.299185    -0.011778
H        0.008638    -6.809030    -0.032713
C        1.227762    -0.381773     7.114259
N        0.013938     0.021362     6.405209
C       -0.843965     0.969985     7.114260
C        0.017176     0.026324     5.004028
C        0.998614    -0.638523     4.255859
C        0.953647    -0.622232     2.865869
N        0.000000     0.000000     2.150000
C       -0.953647     0.622233     2.865869
C       -0.986669     0.656830     4.255859
H        1.493089    -1.420020     6.888038
H        1.086253    -0.338335     8.200093
H        2.067014     0.276236     6.863204
H       -0.579743     2.003184     6.863195
H       -1.901136     0.794636     6.888048
H       -0.747201     0.857968     8.200093
H        1.809603    -1.181917     4.724117
H        1.712942    -1.132721     2.280574
H       -1.726733     1.111585     2.280574
H       -1.810693     1.180247     4.724119
N        0.000000     0.000000    -2.150000
C       -0.000000     0.000000    -3.531231
Se       0.011973    -0.002161    -5.299185
H        0.033268    -0.006170    -6.809030
67
ex_0167 frame17 trans-OC-6-2-conf7
Cd       0.000000     0.000000     0.000000
O        2.100000     0.000000     0.000000
S        3.600023     0.000000     0.000000
C        4.144039     1.338574     1.088664
C        4.144039    -1.345187     1.080482
H        3.873041     2.292326     0.629782
H        5.228680     1.291453     1.210428
H        3.653090     1.251781     2.060901
H        3.873043    -2.296124     0.615791
H        3.653090    -1.264326     2.053229
H        5.228680    -1.298809     1.202529
O       -2.100000     0.000000     0.000000
S       -3.600023    -0.000000    -0.000000
C       -4.144039    -1.432799     0.961279
C       -4.144039     1.240396     1.199327
H       -3.873041    -2.340434     0.416838
H       -5.228680    -1.397047     1.086851
H       -3.653090    -1.435561     1.937378
H       -3.873043     2.229952     0.823831
H       -3.653090     1.070640     2.160556
H       -5.228680     1.183017     1.316606
C       -0.883034     7.114259    -0.934559
N       -0.022619     6.405209     0.011788
C        0.260189     7.114260     1.259147
C       -0.027874     5.004028     0.014526
C       -0.557454     4.255859    -1.046033
C       -0.526244     2.865869    -1.009793
N        0.000000     2.150000     0.000000
C        0.526244     2.865869     1.009794
C        0.538070     4.255859     1.056136
H       -0.605403     6.888038    -1.969583
H       -0.780981     8.200093    -0.827335
H       -1.937082     6.863204    -0.772377
H       -0.476542     6.863195     2.030211
H        1.267606     6.888048     1.624482
H        0.230752     8.200093     1.114079
H       -0.997995     4.724117    -1.917185
H       -0.937856     2.280574    -1.826925
H        0.960236     2.280574     1.815262
H        0.999764     4.724119     1.916263
N        0.000000    -2.150000     0.000000
C        0.000000    -3.531231     0.000000
Se       0.003050    -5.299185    -0.011778
H        0.008638    -6.809030    -0.032713
C       -1.138113    -0.598204     7.114259
N        0.005250    -0.024961     6.405209
C        1.282657    -0.089110     7.114260
C        0.006469    -0.030759     5.004028
C       -1.157631    -0.254623     4.255859
C       -1.114315    -0.234345     2.865869
N        0.000000     0.000000     2.150000
C        1.114315     0.234345     2.865869
C        1.162129     0.233232     4.255859
H       -2.059879    -0.051667     6.888038
H       -1.007336    -0.528857     8.200093
H       -1.266272    -1.656928     6.863204
H        1.826406    -1.006525     6.863195
H        1.906199     0.782414     6.888048
H        1.135026    -0.078324     8.200093
H       -2.115324    -0.443841     4.724117
H       -2.012188    -0.410278     2.280574
H        2.006994     0.434975     2.280574
H        2.114914     0.445793     4.724119
N        0.000000     0.000000    -2.150000
C       -0.000000     0.000000    -3.531231
Se       0.011973    -0.002161    -5.299185
H        0.033268    -0.006170    -6.809030
67
ex_0167 frame18 trans-OC-6-2-conf8
Cd       0.000000     0.000000     0.000000
O        2.100000     0.000000     0.000000
S        3.600023    -0.000000     0.000000
C        4.144039    -1.637268     0.544355
C        4.144040    -0.188869    -1.715021
H        3.653090    -2.410738    -0.051062
H        3.873041    -1.762475     1.595326
H        5.228679    -1.714667     0.439208
H        3.653089    -1.052820    -2.169293
H        3.873043     0.713867    -2.267549
H        5.228680    -0.316729    -1.741456
O       -2.100000     0.000000     0.000000
S       -3.600023    -0.000000     0.000000
C       -4.144040     1.203786     1.236069
C       -4.144040    -1.461046     0.917776
H       -3.873044     2.204181     0.890486
H       -3.653090     1.005214     2.191760
H       -5.228680     1.142907     1.351570
H       -5.228680    -1.429086     1.044365
H       -3.873043    -2.351905     0.346298
H       -3.653091    -1.493148     1.893350
C       -0.883034     7.114259    -0.934559
N       -0.022619     6.405209     0.011788
C        0.260189     7.114260     1.259147
C       -0.027874     5.004028     0.014526
C       -0.557454     4.255859    -1.046033
C       -0.526244     2.865869    -1.009793
N        0.000000     2.150000     0.000000
C        0.526244     2.865869     1.009794
C        0.538070     4.255859     1.056136
H       -0.605403     6.888038    -1.969583
H       -0.780981     8.200093    -0.827335
H       -1.937082     6.863204    -0.772377
H       -0.476542     6.863195     2.030211
H        1.267606     6.888048     1.624482
H        0.230752     8.200093     1.114079
H       -0.997995     4.724117    -1.917185
H       -0.937856     2.280574    -1.826925
H        0.960236     2.280574     1.815262
H        0.999764     4.724119     1.916263
N        0.000000    -2.150000     0.000000
C        0.000000    -3.531231     0.000000
Se       0.003050    -5.299185    -0.011778
H        0.008638    -6.809030    -0.032713
C       -1.138113    -0.598204     7.114259
N        0.005250    -0.024961     6.405209
C        1.282657    -0.089110     7.114260
C        0.006469    -0.030759     5.004028
C       -1.157631    -0.254623     4.255859
C       -1.114315    -0.234345     2.865869
N        0.000000     0.000000     2.150000
C        1.114315     0.234345     2.865869
C        1.162129     0.233232     4.255859
H       -2.059879    -0.051667     6.888038
H       -1.007336    -0.528857     8.200093
H       -1.266272    -1.656928     6.863204
H        1.826406    -1.006525     6.863195
H        1.906199     0.782414     6.888048
H        1.135026    -0.078324     8.200093
H       -2.115324    -0.443841     4.724117
H       -2.012188    -0.410278     2.280574
H        2.006994     0.434975     2.280574
H        2.114914     0.445793     4.724119
N        0.000000     0.000000    -2.150000
C       -0.000000     0.000000    -3.531231
Se       0.011973    -0.002161    -5.299185
H        0.033268    -0.006170    -6.809030
67
ex_0167 frame19 trans-OC-6-2-conf9
Cd       0.000000     0.000000     0.000000
O        2.100000     0.000000     0.000000
S        3.600023    -0.000000    -0.000000
C        4.144040    -1.661813     0.464051
C        4.144040     0.802259     1.527530
H        3.873044    -2.353210    -0.337315
H        3.653090    -1.970213     1.390153
H        5.228680    -1.667197     0.594504
H        5.228680     0.711031     1.620931
H        3.873043     1.859636     1.480924
H        3.653091     0.339931     2.387198
O       -2.100000     0.000000     0.000000
S       -3.600023    -0.000000     0.000000
C       -4.144040     1.203786     1.236069
C       -4.144040    -1.461046     0.917776
H       -3.873044     2.204181     0.890486
H       -3.653090     1.005214     2.191760
H       -5.228680     1.142907     1.351570
H       -5.228680    -1.429086     1.044365
H       -3.873043    -2.351905     0.346298
H       -3.653091    -1.493148     1.893350
C       -0.883034     7.114259    -0.934559
N       -0.022619     6.405209     0.011788
C        0.260189     7.114260     1.259147
C       -0.027874     5.004028     0.014526
C       -0.557454     4.255859    -1.046033
C       -0.526244     2.865869    -1.009793
N        0.000000     2.150000     0.000000
C        0.526244     2.865869     1.009794
C        0.538070     4.255859     1.056136
H       -0.605403     6.888038    -1.969583
H       -0.780981     8.200093    -0.827335
H       -1.937082     6.863204    -0.772377
H       -0.476542     6.863195     2.030211
H        1.267606     6.888048     1.624482
H        0.230752     8.200093     1.114079
H       -0.997995     4.724117    -1.917185
H       -0.937856     2.280574    -1.826925
H        0.960236     2.280574     1.815262
H        0.999764     4.724119     1.916263
N        0.000000    -2.150000     0.000000
C        0.000000    -3.531231     0.000000
Se       0.003050    -5.299185    -0.011778
H        0.008638    -6.809030    -0.032713
C       -0.593236     1.140709     7.114260
N        0.018552     0.017500     6.405209
C        1.104149    -0.658787     7.114261
C        0.022866     0.021568     5.004028
C        0.821239    -0.854697     4.255859
C        0.781338    -0.828328     2.865869
N        0.000000     0.000000     2.150000
C       -0.781338     0.828327     2.865869
C       -0.805334     0.869699     4.255859
H       -0.525415     1.009133     8.200092
H       -1.662065     1.217916     6.888042
H       -0.094306     2.083252     6.863205
H        1.118861    -1.730299     6.888038
H        2.074199    -0.215701     6.863213
H        0.976748    -0.583409     8.200094
H        1.482364    -1.572956     4.724118
H        1.399912    -1.502489     2.280573
H       -1.418267     1.485177     2.280574
H       -1.483804     1.571597     4.724118
N        0.000000     0.000000    -2.150000
C       -0.000000     0.000000    -3.531231
Se       0.011973    -0.002161    -5.299185
H        0.033268    -0.006170    -6.809030
67
ex_0167 frame20 trans-OC-6-2-conf10
Cd       0.000000     0.000000     0.000000
O        2.100000     0.000000     0.000000
S        3.600023    -0.000000    -0.000000
C        4.144040    -1.661813     0.464051
C        4.144040     0.802259     1.527530
H        3.873044    -2.353210    -0.337315
H        3.653090    -1.970213     1.390153
H        5.228680    -1.667197     0.594504
H        5.228680     0.711031     1.620931
H        3.873043     1.859636     1.480924
H        3.653091     0.339931     2.387198
O       -2.100000     0.000000     0.000000
S       -3.600023    -0.000000     0.000000
C       -4.144040     1.203786     1.236069
C       -4.144040    -1.461046     0.917776
H       -3.873044     2.204181     0.890486
H       -3.653090     1.005214     2.191760
H       -5.228680     1.142907     1.351570
H       -5.228680    -1.429086     1.044365
H       -3.873043    -2.351905     0.346298
H       -3.653091    -1.493148     1.893350
C       -0.961378     7.114260     0.853756
N       -0.021499     6.405209    -0.013719
C        0.369313     7.114261    -1.231565
C       -0.026498     5.004028    -0.016909
C        0.628360     4.255859    -1.005040
C        0.612528     2.865869    -0.959909
N        0.000000     2.150000     0.000000
C       -0.612528     2.865869     0.959909
C       -0.646791     4.255859     0.993279
H       -0.850339     8.200092     0.755866
H       -0.775329     6.888042     1.909095
H       -1.997203     6.863205     0.600012
H        1.404816     6.888038    -1.507407
H       -0.297174     6.863213    -2.064102
H        0.327317     8.200094    -1.089618
H        1.163496     4.724118    -1.821503
H        1.115289     2.280573    -1.724343
H       -1.094020     2.280574     1.737916
H       -1.161826     4.724118     1.822567
N        0.000000    -2.150000     0.000000
C        0.000000    -3.531231     0.000000
Se       0.003050    -5.299185    -0.011778
H        0.008638    -6.809030    -0.032713
C       -0.944506    -0.872386     7.114259
N        0.011531    -0.022752     6.405209
C        1.262015     0.245903     7.114260
C        0.014209    -0.028037     5.004028
C       -1.052284    -0.545564     4.255859
C       -1.015693    -0.514766     2.865869
N        0.000000     0.000000     2.150000
C        1.015693     0.514766     2.865869
C        1.062166     0.526066     4.255859
H       -1.976318    -0.583042     6.888038
H       -0.836133    -0.771555     8.200093
H       -0.794280    -1.928205     6.863204
H        2.024680    -0.499520     6.863195
H        1.638744     1.249114     6.888048
H        1.116623     0.218111     8.200093
H       -1.928372    -0.976203     4.724117
H       -1.837436    -0.917091     2.280574
H        1.826028     0.939602     2.280574
H        1.927470     0.977983     4.724119
N        0.000000     0.000000    -2.150000
C       -0.000000     0.000000    -3.531231
Se       0.011973    -0.002161    -5.299185
H        0.033268    -0.006170    -6.809030
67
ex_0167 frame21 cis-OC-6-3
Cd       0.000000     0.000000     0.000000
O        2.100000     0.000000     0.000000
S        3.600023    -0.000000    -0.000000
C        4.144040    -1.661813     0.464051
C        4.144040     0.802259     1.527530
H        3.873044    -2.353210    -0.337315
H        3.653090    -1.970213     1.390153
H        5.228680    -1.667197     0.594504
H        5.228680     0.711031     1.620931
H        3.873043     1.859636     1.480924
H        3.653091     0.339931     2.387198
C       -7.114259    -0.749817    -1.044473
N       -6.405209    -0.023995     0.008650
C       -7.114260     0.089089     1.282658
C       -5.004028    -0.029569     0.010659
C       -4.255859    -0.412234    -1.111307
C       -2.865869    -0.386162    -1.071212
N       -2.150000     0.000000     0.000000
C       -2.865869     0.386162     1.071212
C       -4.255859     0.391670     1.118721
H       -6.888038    -0.335974    -2.032952
H       -8.200093    -0.663054    -0.924540
H       -6.863204    -1.816092    -1.025019
H       -6.863195    -0.744335     1.948029
H       -6.888048     1.038454     1.779713
H       -8.200093     0.079360     1.134954
H       -4.724117    -0.732047    -2.033642
H       -2.280574    -0.684547    -1.936136
H       -2.280574     0.708289     1.927578
H       -4.724119     0.733924     2.032965
O        0.000000     2.100000     0.000000
S        0.000000     3.600023    -0.000000
C        0.447760     4.144040    -1.666276
C        1.535311     4.144040     0.787266
H       -0.360337     3.873044    -2.349795
H        1.370798     3.653090    -1.983728
H        0.578153     5.228680    -1.672937
H        1.627814     5.228680     0.695128
H        1.499059     3.873043     1.845048
H        2.390412     3.653091     0.316543
C        0.578454    -7.114259    -1.148277
N        0.025048    -6.405209     0.004818
C        0.111255    -7.114260     1.280926
C        0.030866    -5.004028     0.005936
C        0.234587    -4.255859    -1.161856
C        0.215060    -2.865869    -1.118197
N        0.000000    -2.150000     0.000000
C       -0.215060    -2.865869     1.118197
C       -0.213121    -4.255859     1.165985
H        0.016074    -6.888038    -2.060464
H        0.511376    -8.200093    -1.016322
H        1.634805    -6.863204    -1.294707
H        1.037927    -6.863195     1.808745
H       -0.749366    -6.888048     1.919431
H        0.097920    -8.200093     1.133504
H        0.407231    -4.724117    -2.122676
H        0.375456    -2.280574    -2.018975
H       -0.400239    -2.280574     2.014209
H       -0.409190    -4.724119     2.122300
N        0.000000     0.000000     2.150000
C       -0.000000     0.000000     3.531231
Se      -0.011215    -0.004717     5.299185
H       -0.031125    -0.013267     6.809030
N        0.000000     0.000000    -2.150000
C       -0.000000     0.000000    -3.531231
Se       0.011973    -0.002161    -5.299185
H        0.033268    -0.006170    -6.809030
67
ex_0167 frame22 cis-OC-6-3-conf2
Cd       0.000000     0.000000     0.000000
O        2.100000     0.000000     0.000000
S        3.600023     0.000000     0.000000
C        4.144039     1.338574     1.088664
C        4.144039    -1.345187     1.080482
H        3.873041     2.292326     0.629782
H        5.228680     1.291453     1.210428
H        3.653090     1.251781     2.060901
H        3.873043    -2.296124     0.615791
H        3.653090    -1.264326     2.053229
H        5.228680    -1.298809     1.202529
C       -7.114259    -0.749817    -1.044473
N       -6.405209    -0.023995     0.008650
C       -7.114260     0.089089     1.282658
C       -5.004028    -0.029569     0.010659
C       -4.255859    -0.412234    -1.111307
C       -2.865869    -0.386162    -1.071212
N       -2.150000     0.000000     0.000000
C       -2.865869     0.386162     1.071212
C       -4.255859     0.391670     1.118721
H       -6.888038    -0.335974    -2.032952
H       -8.200093    -0.663054    -0.924540
H       -6.863204    -1.816092    -1.025019
H       -6.863195    -0.744335     1.948029
H       -6.888048     1.038454     1.779713
H       -8.200093     0.079360     1.134954
H       -4.724117    -0.732047    -2.033642
H       -2.280574    -0.684547    -1.936136
H       -2.280574     0.708289     1.927578
H       -4.724119     0.733924     2.032965
O        0.000000     2.100000     0.000000
S        0.000000     3.600023    -0.000000
C        0.447760     4.144040    -1.666276
C        1.535311     4.144040     0.787266
H       -0.360337     3.873044    -2.349795
H        1.370798     3.653090    -1.983728
H        0.578153     5.228680    -1.672937
H        1.627814     5.228680     0.695128
H        1.499059     3.873043     1.845048
H        2.390412     3.653091     0.316543
C        0.578454    -7.114259    -1.148277
N        0.025048    -6.405209     0.004818
C        0.111255    -7.114260     1.280926
C        0.030866    -5.004028     0.005936
C        0.234587    -4.255859    -1.161856
C        0.215060    -2.865869    -1.118197
N        0.000000    -2.150000     0.000000
C       -0.215060    -2.865869     1.118197
C       -0.213121    -4.255859     1.165985
H        0.016074    -6.888038    -2.060464
H        0.511376    -8.200093    -1.016322
H        1.634805    -6.863204    -1.294707
H        1.037927    -6.863195     1.808745
H       -0.749366    -6.888048     1.919431
H        0.097920    -8.200093     1.133504
H        0.407231    -4.724117    -2.122676
H        0.375456    -2.280574    -2.018975
H       -0.400239    -2.280574     2.014209
H       -0.409190    -4.724119     2.122300
N        0.000000     0.000000     2.150000
C       -0.000000     0.000000     3.531231
Se      -0.011215    -0.004717     5.299185
H       -0.031125    -0.013267     6.809030
N        0.000000     0.000000    -2.150000
C       -0.000000     0.000000    -3.531231
Se       0.011973    -0.002161    -5.299185
H        0.033268    -0.006170    -6.809030
67
ex_0167 frame23 cis-OC-6-3-conf3
Cd       0.000000     0.000000     0.000000
O        2.100000     0.000000     0.000000
S        3.600023    -0.000000    -0.000000
C        4.144040    -1.661813     0.464051
C        4.144040     0.802259     1.527530
H        3.873044    -2.353210    -0.337315
H        3.653090    -1.970213     1.390153
H        5.228680    -1.667197     0.594504
H        5.228680     0.711031     1.620931
H        3.873043     1.859636     1.480924
H        3.653091     0.339931     2.387198
C       -7.114259    -0.749817    -1.044473
N       -6.405209    -0.023995     0.008650
C       -7.114260     0.089089     1.282658
C       -5.004028    -0.029569     0.010659
C       -4.255859    -0.412234    -1.111307
C       -2.865869    -0.386162    -1.071212
N       -2.150000     0.000000     0.000000
C       -2.865869     0.386162     1.071212
C       -4.255859     0.391670     1.118721
H       -6.888038    -0.335974    -2.032952
H       -8.200093    -0.663054    -0.924540
H       -6.863204    -1.816092    -1.025019
H       -6.863195    -0.744335     1.948029
H       -6.888048     1.038454     1.779713
H       -8.200093     0.079360     1.134954
H       -4.724117    -0.732047    -2.033642
H       -2.280574    -0.684547    -1.936136
H       -2.280574     0.708289     1.927578
H       -4.724119     0.733924     2.032965
O        0.000000     2.100000     0.000000
S        0.000000     3.600023    -0.000000
C        0.447760     4.144040    -1.666276
C        1.535311     4.144040     0.787266
H       -0.360337     3.873044    -2.349795
H        1.370798     3.653090    -1.983728
H        0.578153     5.228680    -1.672937
H        1.627814     5.228680     0.695128
H        1.499059     3.873043     1.845048
H        2.390412     3.653091     0.316543
C       -1.274581    -7.114256     0.169138
N       -0.010138    -6.405208    -0.023411
C        0.995528    -7.114263    -0.813672
C       -0.012490    -5.004028    -0.028848
C       -1.092025    -4.255858     0.460892
C       -1.044954    -2.865869     0.452424
N        0.000000    -2.150000     0.000000
C        1.044954    -2.865869    -0.452424
C        1.083337    -4.255859    -0.480960
H       -1.127777    -8.200089     0.150181
H       -1.711279    -6.888048     1.147736
H       -1.990776    -6.863187    -0.621036
H        0.909417    -6.863219    -1.876643
H        0.881258    -8.200095    -0.719567
H        2.007956    -6.888037    -0.462471
H       -1.983068    -4.724118     0.859669
H       -1.879492    -2.280573     0.827492
H        1.889515    -2.280574    -0.804341
H        1.983851    -4.724117    -0.857863
N        0.000000     0.000000     2.150000
C       -0.000000     0.000000     3.531231
Se      -0.011215    -0.004717     5.299185
H       -0.031125    -0.013267     6.809030
N        0.000000     0.000000    -2.150000
C       -0.000000     0.000000    -3.531231
Se       0.011973    -0.002161    -5.299185
H        0.033268    -0.006170    -6.809030
67
ex_0167 frame24 cis-OC-6-3-conf4
Cd       0.000000     0.000000     0.000000
O        2.100000     0.000000     0.000000
S        3.600023    -0.000000    -0.000000
C        4.144040    -1.661813     0.464051
C        4.144040     0.802259     1.527530
H        3.873044    -2.353210    -0.337315
H        3.653090    -1.970213     1.390153
H        5.228680    -1.667197     0.594504
H        5.228680     0.711031     1.620931
H        3.873043     1.859636     1.480924
H        3.653091     0.339931     2.387198
C       -7.114259    -0.749817    -1.044473
N       -6.405209    -0.023995     0.008650
C       -7.114260     0.089089     1.282658
C       -5.004028    -0.029569     0.010659
C       -4.255859    -0.412234    -1.111307
C       -2.865869    -0.386162    -1.071212
N       -2.150000     0.000000     0.000000
C       -2.865869     0.386162     1.071212
C       -4.255859     0.391670     1.118721
H       -6.888038    -0.335974    -2.032952
H       -8.200093    -0.663054    -0.924540
H       -6.863204    -1.816092    -1.025019
H       -6.863195    -0.744335     1.948029
H       -6.888048     1.038454     1.779713
H       -8.200093     0.079360     1.134954
H       -4.724117    -0.732047    -2.033642
H       -2.280574    -0.684547    -1.936136
H       -2.280574     0.708289     1.927578
H       -4.724119     0.733924     2.032965
O        0.000000     2.100000     0.000000
S       -0.000000     3.600023    -0.000000
C       -1.714833     4.144039    -0.190572
C        0.173313     4.144039     1.716663
H       -2.056678     3.873041    -1.192250
H       -1.768576     5.228680    -0.071584
H       -2.346965     3.653090     0.553192
H        1.171502     3.873043     2.068566
H       -0.576772     3.653090     2.341283
H        0.053789     5.228680     1.769205
C       -0.328163    -7.114261    -1.243160
N       -0.025487    -6.405209    -0.000473
C       -0.374031    -7.114262     1.230137
C       -0.031419    -5.004028    -0.000582
C        0.011051    -4.255859    -1.185250
C        0.021114    -2.865869    -1.138495
N        0.000000    -2.150000     0.000000
C       -0.021114    -2.865869     1.138495
C       -0.032902    -4.255859     1.184846
H       -0.289859    -8.200094    -1.100175
H        0.410888    -6.888041    -2.019149
H       -1.331310    -6.863207    -1.605120
H       -1.389913    -6.863216     1.554648
H       -0.330440    -8.200095     1.088672
H        0.335734    -6.888035     2.032998
H        0.041068    -4.724118    -2.160996
H        0.050688    -2.280573    -2.052964
H       -0.025470    -2.280573     2.053432
H       -0.039082    -4.724117     2.161034
N        0.000000     0.000000     2.150000
C       -0.000000     0.000000     3.531231
Se      -0.011215    -0.004717     5.299185
H       -0.031125    -0.013267     6.809030
N        0.000000     0.000000    -2.150000
C       -0.000000     0.000000    -3.531231
Se       0.011973    -0.002161    -5.299185
H        0.033268    -0.006170    -6.809030
67
ex_0167 frame25 cis-OC-6-3-conf5
Cd       0.000000     0.000000     0.000000
O        2.100000     0.000000     0.000000
S        3.600023    -0.000000    -0.000000
C        4.144040    -1.661813     0.464051
C        4.144040     0.802259     1.527530
H        3.873044    -2.353210    -0.337315
H        3.653090    -1.970213     1.390153
H        5.228680    -1.667197     0.594504
H        5.228680     0.711031     1.620931
H        3.873043     1.859636     1.480924
H        3.653091     0.339931     2.387198
C       -7.114256     1.252880    -0.288885
N       -6.405208     0.001278    -0.025480
C       -7.114263    -1.217749    -0.412584
C       -5.004028     0.001573    -0.031397
C       -4.255858     1.184314     0.048377
C       -2.865869     1.137265     0.056965
N       -2.150000     0.000000     0.000000
C       -2.865869    -1.137265    -0.056965
C       -4.255859    -1.183221    -0.070217
H       -8.200089     1.108760    -0.255121
H       -6.888048     2.005211     0.474238
H       -6.863187     1.646249    -1.280133
H       -6.863219    -1.510125    -1.438176
H       -8.200095    -1.077723    -0.364563
H       -6.888037    -2.042553     0.271558
H       -4.724118     2.158630     0.109115
H       -2.280573     2.050349     0.115331
H       -2.280574    -2.051611    -0.090135
H       -4.724117    -2.158730    -0.107150
O        0.000000     2.100000     0.000000
S        0.000000     3.600023    -0.000000
C        0.447760     4.144040    -1.666276
C        1.535311     4.144040     0.787266
H       -0.360337     3.873044    -2.349795
H        1.370798     3.653090    -1.983728
H        0.578153     5.228680    -1.672937
H        1.627814     5.228680     0.695128
H        1.499059     3.873043     1.845048
H        2.390412     3.653091     0.316543
C        0.578454    -7.114259    -1.148277
N        0.025048    -6.405209     0.004818
C        0.111255    -7.114260     1.280926
C        0.030866    -5.004028     0.005936
C        0.234587    -4.255859    -1.161856
C        0.215060    -2.865869    -1.118197
N        0.000000    -2.150000     0.000000
C       -0.215060    -2.865869     1.118197
C       -0.213121    -4.255859     1.165985
H        0.016074    -6.888038    -2.060464
H        0.511376    -8.200093    -1.016322
H        1.634805    -6.863204    -1.294707
H        1.037927    -6.863195     1.808745
H       -0.749366    -6.888048     1.919431
H        0.097920    -8.200093     1.133504
H        0.407231    -4.724117    -2.122676
H        0.375456    -2.280574    -2.018975
H       -0.400239    -2.280574     2.014209
H       -0.409190    -4.724119     2.122300
N        0.000000     0.000000     2.150000
C       -0.000000     0.000000     3.531231
Se      -0.011215    -0.004717     5.299185
H       -0.031125    -0.013267     6.809030
N        0.000000     0.000000    -2.150000
C       -0.000000     0.000000    -3.531231
Se       0.011973    -0.002161    -5.299185
H        0.033268    -0.006170    -6.809030
67
ex_0167 frame26 cis-OC-6-3-conf6
Cd       0.000000     0.000000     0.000000
O        2.100000     0.000000     0.000000
S        3.600023    -0.000000     0.000000
C        4.144039    -1.637268     0.544355
C        4.144040    -0.188869    -1.715021
H        3.653090    -2.410738    -0.051062
H        3.873041    -1.762475     1.595326
H        5.228679    -1.714667     0.439208
H        3.653089    -1.052820    -2.169293
H        3.873043     0.713867    -2.267549
H        5.228680    -0.316729    -1.741456
C       -7.114259    -0.749817    -1.044473
N       -6.405209    -0.023995     0.008650
C       -7.114260     0.089089     1.282658
C       -5.004028    -0.029569     0.010659
C       -4.255859    -0.412234    -1.111307
C       -2.865869    -0.386162    -1.071212
N       -2.150000     0.000000     0.000000
C       -2.865869     0.386162     1.071212
C       -4.255859     0.391670     1.118721
H       -6.888038    -0.335974    -2.032952
H       -8.200093    -0.663054    -0.924540
H       -6.863204    -1.816092    -1.025019
H       -6.863195    -0.744335     1.948029
H       -6.888048     1.038454     1.779713
H       -8.200093     0.079360     1.134954
H       -4.724117    -0.732047    -2.033642
H       -2.280574    -0.684547    -1.936136
H       -2.280574     0.708289     1.927578
H       -4.724119     0.733924     2.032965
O        0.000000     2.100000     0.000000
S        0.000000     3.600023    -0.000000
C        0.447760     4.144040    -1.666276
C        1.535311     4.144040     0.787266
H       -0.360337     3.873044    -2.349795
H        1.370798     3.653090    -1.983728
H        0.578153     5.228680    -1.672937
H        1.627814     5.228680     0.695128
H        1.499059     3.873043     1.845048
H        2.390412     3.653091     0.316543
C        0.578454    -7.114259    -1.148277
N        0.025048    -6.405209     0.004818
C        0.111255    -7.114260     1.280926
C        0.030866    -5.004028     0.005936
C        0.234587    -4.255859    -1.161856
C        0.215060    -2.865869    -1.118197
N        0.000000    -2.150000     0.000000
C       -0.215060    -2.865869     1.118197
C       -0.213121    -4.255859     1.165985
H        0.016074    -6.888038    -2.060464
H        0.511376    -8.200093    -1.016322
H        1.634805    -6.863204    -1.294707
H        1.037927    -6.863195     1.808745
H       -0.749366    -6.888048     1.919431
H        0.097920    -8.200093     1.133504
H        0.407231    -4.724117    -2.122676
H        0.375456    -2.280574    -2.018975
H       -0.400239    -2.280574     2.014209
H       -0.409190    -4.724119     2.122300
N        0.000000     0.000000     2.150000
C       -0.000000     0.000000     3.531231
Se      -0.011215    -0.004717     5.299185
H       -0.031125    -0.013267     6.809030
N        0.000000     0.000000    -2.150000
C       -0.000000     0.000000    -3.531231
Se       0.011973    -0.002161    -5.299185
H        0.033268    -0.006170    -6.809030
67
ex_0167 frame27 cis-OC-6-3-conf7
Cd       0.000000     0.000000     0.000000
O        2.100000     0.000000     0.000000
S        3.600023    -0.000000    -0.000000
C        4.144040    -1.661813     0.464051
C        4.144040     0.802259     1.527530
H        3.873044    -2.353210    -0.337315
H        3.653090    -1.970213     1.390153
H        5.228680    -1.667197     0.594504
H        5.228680     0.711031     1.620931
H        3.873043     1.859636     1.480924
H        3.653091     0.339931     2.387198
C       -7.114259    -0.749817    -1.044473
N       -6.405209    -0.023995     0.008650
C       -7.114260     0.089089     1.282658
C       -5.004028    -0.029569     0.010659
C       -4.255859    -0.412234    -1.111307
C       -2.865869    -0.386162    -1.071212
N       -2.150000     0.000000     0.000000
C       -2.865869     0.386162     1.071212
C       -4.255859     0.391670     1.118721
H       -6.888038    -0.335974    -2.032952
H       -8.200093    -0.663054    -0.924540
H       -6.863204    -1.816092    -1.025019
H       -6.863195    -0.744335     1.948029
H       -6.888048     1.038454     1.779713
H       -8.200093     0.079360     1.134954
H       -4.724117    -0.732047    -2.033642
H       -2.280574    -0.684547    -1.936136
H       -2.280574     0.708289     1.927578
H       -4.724119     0.733924     2.032965
O        0.000000     2.100000     0.000000
S        0.000000     3.600023    -0.000000
C        0.447760     4.144040    -1.666276
C        1.535311     4.144040     0.787266
H       -0.360337     3.873044    -2.349795
H        1.370798     3.653090    -1.983728
H        0.578153     5.228680    -1.672937
H        1.627814     5.228680     0.695128
H        1.499059     3.873043     1.845048
H        2.390412     3.653091     0.316543
C        1.083115    -7.114260     0.692827
N        0.019088    -6.405209    -0.016914
C       -0.557453    -7.114261    -1.158616
C        0.023526    -5.004028    -0.020846
C       -0.777867    -4.255859    -0.894351
C       -0.755170    -2.865869    -0.852253
N        0.000000    -2.150000     0.000000
C        0.755170    -2.865869     0.852253
C        0.794231    -4.255859     0.879851
H        0.958127    -8.200092     0.613516
H        1.064473    -6.888042     1.764278
H        2.066483    -6.863205     0.280146
H       -1.623360    -6.888038    -1.269049
H       -0.029430    -6.863213    -2.085177
H       -0.493765    -8.200094    -1.024987
H       -1.434154    -4.724118    -1.617033
H       -1.371340    -2.280573    -1.528612
H        1.352456    -2.280574     1.545346
H        1.432672    -4.724118     1.618346
N        0.000000     0.000000     2.150000
C       -0.000000     0.000000     3.531231
Se      -0.011215    -0.004717     5.299185
H       -0.031125    -0.013267     6.809030
N        0.000000     0.000000    -2.150000
C       -0.000000     0.000000    -3.531231
Se       0.011973    -0.002161    -5.299185
H        0.033268    -0.006170    -6.809030
67
ex_0167 frame28 cis-OC-6-3-conf8
Cd       0.000000     0.000000     0.000000
O        2.100000     0.000000     0.000000
S        3.600023    -0.000000    -0.000000
C        4.144040    -1.661813     0.464051
C        4.144040     0.802259     1.527530
H        3.873044    -2.353210    -0.337315
H        3.653090    -1.970213     1.390153
H        5.228680    -1.667197     0.594504
H        5.228680     0.711031     1.620931
H        3.873043     1.859636     1.480924
H        3.653091     0.339931     2.387198
C       -7.114259    -0.749817    -1.044473
N       -6.405209    -0.023995     0.008650
C       -7.114260     0.089089     1.282658
C       -5.004028    -0.029569     0.010659
C       -4.255859    -0.412234    -1.111307
C       -2.865869    -0.386162    -1.071212
N       -2.150000     0.000000     0.000000
C       -2.865869     0.386162     1.071212
C       -4.255859     0.391670     1.118721
H       -6.888038    -0.335974    -2.032952
H       -8.200093    -0.663054    -0.924540
H       -6.863204    -1.816092    -1.025019
H       -6.863195    -0.744335     1.948029
H       -6.888048     1.038454     1.779713
H       -8.200093     0.079360     1.134954
H       -4.724117    -0.732047    -2.033642
H       -2.280574    -0.684547    -1.936136
H       -2.280574     0.708289     1.927578
H       -4.724119     0.733924     2.032965
O        0.000000     2.100000     0.000000
S       -0.000000     3.600023    -0.000000
C        1.586196     4.144040     0.678933
C       -0.996502     4.144042     1.408527
H        1.574349     5.228681     0.808954
H        2.377138     3.873041    -0.024364
H        1.769902     3.653093     1.637594
H       -0.918373     5.228683     1.513131
H       -0.651455     3.653094     2.321611
H       -2.038524     3.873044     1.223030
C        0.578454    -7.114259    -1.148277
N        0.025048    -6.405209     0.004818
C        0.111255    -7.114260     1.280926
C        0.030866    -5.004028     0.005936
C        0.234587    -4.255859    -1.161856
C        0.215060    -2.865869    -1.118197
N        0.000000    -2.150000     0.000000
C       -0.215060    -2.865869     1.118197
C       -0.213121    -4.255859     1.165985
H        0.016074    -6.888038    -2.060464
H        0.511376    -8.200093    -1.016322
H        1.634805    -6.863204    -1.294707
H        1.037927    -6.863195     1.808745
H       -0.749366    -6.888048     1.919431
H        0.097920    -8.200093     1.133504
H        0.407231    -4.724117    -2.122676
H        0.375456    -2.280574    -2.018975
H       -0.400239    -2.280574     2.014209
H       -0.409190    -4.724119     2.122300
N        0.000000     0.000000     2.150000
C       -0.000000     0.000000     3.531231
Se      -0.011215    -0.004717     5.299185
H       -0.031125    -0.013267     6.809030
N        0.000000     0.000000    -2.150000
C       -0.000000     0.000000    -3.531231
Se       0.011973    -0.002161    -5.299185
H        0.033268    -0.006170    -6.809030
67
ex_0167 frame29 cis-OC-6-3-conf9
Cd       0.000000     0.000000     0.000000
O        2.100000     0.000000     0.000000
S        3.600023    -0.000000    -0.000000
C        4.144040    -1.661813     0.464051
C        4.144040     0.802259     1.527530
H        3.873044    -2.353210    -0.337315
H        3.653090    -1.970213     1.390153
H        5.228680    -1.667197     0.594504
H        5.228680     0.711031     1.620931
H        3.873043     1.859636     1.480924
H        3.653091     0.339931     2.387198
C       -7.114256     1.135420    -0.603311
N       -6.405208    -0.005360    -0.024943
C       -7.114263    -1.283040    -0.083349
C       -5.004028    -0.006607    -0.030734
C       -4.255858     1.156480    -0.259795
C       -2.865869     1.113257    -0.239322
N       -2.150000     0.000000     0.000000
C       -2.865869    -1.113257     0.239322
C       -4.255859    -1.161077     0.238416
H       -8.200089     1.004949    -0.533396
H       -6.888048     2.059627    -0.060908
H       -6.863187     1.258831    -1.662594
H       -6.863219    -1.830896    -0.998323
H       -8.200095    -1.135356    -0.073206
H       -6.888037    -1.902670     0.790956
H       -4.724118     2.113318    -0.453297
H       -2.280573     2.010334    -0.419268
H       -2.280574    -2.005032     0.443932
H       -4.724117    -2.112905     0.455221
O        0.000000     2.100000     0.000000
S       -0.000000     3.600023    -0.000000
C       -1.714833     4.144039    -0.190572
C        0.173313     4.144039     1.716663
H       -2.056678     3.873041    -1.192250
H       -1.768576     5.228680    -0.071584
H       -2.346965     3.653090     0.553192
H        1.171502     3.873043     2.068566
H       -0.576772     3.653090     2.341283
H        0.053789     5.228680     1.769205
C        0.578454    -7.114259    -1.148277
N        0.025048    -6.405209     0.004818
C        0.111255    -7.114260     1.280926
C        0.030866    -5.004028     0.005936
C        0.234587    -4.255859    -1.161856
C        0.215060    -2.865869    -1.118197
N        0.000000    -2.150000     0.000000
C       -0.215060    -2.865869     1.118197
C       -0.213121    -4.255859     1.165985
H        0.016074    -6.888038    -2.060464
H        0.511376    -8.200093    -1.016322
H        1.634805    -6.863204    -1.294707
H        1.037927    -6.863195     1.808745
H       -0.749366    -6.888048     1.919431
H        0.097920    -8.200093     1.133504
H        0.407231    -4.724117    -2.122676
H        0.375456    -2.280574    -2.018975
H       -0.400239    -2.280574     2.014209
H       -0.409190    -4.724119     2.122300
N        0.000000     0.000000     2.150000
C       -0.000000     0.000000     3.531231
Se      -0.011215    -0.004717     5.299185
H       -0.031125    -0.013267     6.809030
N        0.000000     0.000000    -2.150000
C       -0.000000     0.000000    -3.531231
Se       0.011973    -0.002161    -5.299185
H        0.033268    -0.006170    -6.809030
67
ex_0167 frame30 cis-OC-6-3-conf10
Cd       0.000000     0.000000     0.000000
O        2.100000     0.000000     0.000000
S        3.600023    -0.000000    -0.000000
C        4.144040    -1.661813     0.464051
C        4.144040     0.802259     1.527530
H        3.873044    -2.353210    -0.337315
H        3.653090    -1.970213     1.390153
H        5.228680    -1.667197     0.594504
H        5.228680     0.711031     1.620931
H        3.873043     1.859636     1.480924
H        3.653091     0.339931     2.387198
C       -7.114260    -1.233087    -0.364204
N       -6.405209     0.000269    -0.025502
C       -7.114261     1.240498    -0.338096
C       -5.004028     0.000332    -0.031431
C       -4.255859     1.185301     0.001568
C       -2.865869     1.138627     0.012008
N       -2.150000     0.000000     0.000000
C       -2.865869    -1.138627    -0.012008
C       -4.255859    -1.185070    -0.023431
H       -8.200092    -1.091275    -0.321758
H       -6.888042    -2.030248     0.351960
H       -6.863205    -1.565710    -1.377456
H       -6.888038     2.022368     0.394729
H       -6.863213     1.594430    -1.344105
H       -8.200094     1.097823    -0.298644
H       -4.724118     2.161256     0.023783
H       -2.280573     2.053303     0.034272
H       -2.280574    -2.053570    -0.009042
H       -4.724118    -2.161277    -0.021803
O        0.000000     2.100000     0.000000
S        0.000000     3.600023    -0.000000
C        0.447760     4.144040    -1.666276
C        1.535311     4.144040     0.787266
H       -0.360337     3.873044    -2.349795
H        1.370798     3.653090    -1.983728
H        0.578153     5.228680    -1.672937
H        1.627814     5.228680     0.695128
H        1.499059     3.873043     1.845048
H        2.390412     3.653091     0.316543
C        0.578454    -7.114259    -1.148277
N        0.025048    -6.405209     0.004818
C        0.111255    -7.114260     1.280926
C        0.030866    -5.004028     0.005936
C        0.234587    -4.255859    -1.161856
C        0.215060    -2.865869    -1.118197
N        0.000000    -2.150000     0.000000
C       -0.215060    -2.865869     1.118197
C       -0.213121    -4.255859     1.165985
H        0.016074    -6.888038    -2.060464
H        0.511376    -8.200093    -1.016322
H        1.634805    -6.863204    -1.294707
H        1.037927    -6.863195     1.808745
H       -0.749366    -6.888048     1.919431
H        0.097920    -8.200093     1.133504
H        0.407231    -4.724117    -2.122676
H        0.375456    -2.280574    -2.018975
H       -0.400239    -2.280574     2.014209
H       -0.409190    -4.724119     2.122300
N        0.000000     0.000000     2.150000
C       -0.000000     0.000000     3.531231
Se      -0.011215    -0.004717     5.299185
H       -0.031125    -0.013267     6.809030
N        0.000000     0.000000    -2.150000
C       -0.000000     0.000000    -3.531231
Se       0.011973    -0.002161    -5.299185
H        0.033268    -0.006170    -6.809030
67
ex_0167 frame31 cis-OC-6-4
Cd       0.000000     0.000000     0.000000
O        2.100000     0.000000     0.000000
S        3.600023    -0.000000    -0.000000
C        4.144040    -1.661813     0.464051
C        4.144040     0.802259     1.527530
H        3.873044    -2.353210    -0.337315
H        3.653090    -1.970213     1.390153
H        5.228680    -1.667197     0.594504
H        5.228680     0.711031     1.620931
H        3.873043     1.859636     1.480924
H        3.653091     0.339931     2.387198
C       -7.114259    -0.749817    -1.044473
N       -6.405209    -0.023995     0.008650
C       -7.114260     0.089089     1.282658
C       -5.004028    -0.029569     0.010659
C       -4.255859    -0.412234    -1.111307
C       -2.865869    -0.386162    -1.071212
N       -2.150000     0.000000     0.000000
C       -2.865869     0.386162     1.071212
C       -4.255859     0.391670     1.118721
H       -6.888038    -0.335974    -2.032952
H       -8.200093    -0.663054    -0.924540
H       -6.863204    -1.816092    -1.025019
H       -6.863195    -0.744335     1.948029
H       -6.888048     1.038454     1.779713
H       -8.200093     0.079360     1.134954
H       -4.724117    -0.732047    -2.033642
H       -2.280574    -0.684547    -1.936136
H       -2.280574     0.708289     1.927578
H       -4.724119     0.733924     2.032965
O        0.000000     2.100000     0.000000
S        0.000000     3.600023    -0.000000
C        0.447760     4.144040    -1.666276
C        1.535311     4.144040     0.787266
H       -0.360337     3.873044    -2.349795
H        1.370798     3.653090    -1.983728
H        0.578153     5.228680    -1.672937
H        1.627814     5.228680     0.695128
H        1.499059     3.873043     1.845048
H        2.390412     3.653091     0.316543
N        0.000000    -2.150000     0.000000
C        0.000000    -3.531231     0.000000
Se       0.003050    -5.299185    -0.011778
H        0.008638    -6.809030    -0.032713
C       -0.429474     1.211906     7.114256
N       -0.025460    -0.001628     6.405208
C       -0.271441    -1.256765     7.114263
C       -0.031372    -0.002008     5.004028
C       -0.086603     1.182134     4.255858
C       -0.072720     1.136366     2.865869
N        0.000000     0.000000     2.150000
C        0.072720    -1.136366     2.865869
C        0.064780    -1.183531     4.255859
H       -0.379541     1.072559     8.200089
H        0.243154     2.046131     6.888048
H       -1.459022     1.490010     6.863187
H       -1.257136    -1.663862     6.863219
H       -0.239653    -1.112187     8.200095
H        0.502050    -1.998427     6.888037
H       -0.137045     2.157037     4.724118
H       -0.118558     2.050165     2.280573
H        0.143734    -2.048553     2.280574
H        0.139009    -2.156912     4.724117
N        0.000000     0.000000    -2.150000
C       -0.000000     0.000000    -3.531231
Se       0.011973    -0.002161    -5.299185
H        0.033268    -0.006170    -6.809030
67
ex_0167 frame32 cis-OC-6-4-conf1
Cd       0.000000     0.000000     0.000000
O        2.100000     0.000000     0.000000
S        3.600023    -0.000000    -0.000000
C        4.144040    -1.661813     0.464051
C        4.144040     0.802259     1.527530
H        3.873044    -2.353210    -0.337315
H        3.653090    -1.970213     1.390153
H        5.228680    -1.667197     0.594504
H        5.228680     0.711031     1.620931
H        3.873043     1.859636     1.480924
H        3.653091     0.339931     2.387198
C       -7.114259    -1.171597    -0.529632
N       -6.405209    -0.016455     0.019489
C       -7.114260     0.718482     1.066270
C       -5.004028    -0.020278     0.024016
C       -4.255859    -0.912659    -0.756303
C       -2.865869    -0.870032    -0.734615
N       -2.150000     0.000000     0.000000
C       -2.865869     0.870032     0.734615
C       -4.255859     0.898557     0.773005
H       -6.888038    -1.307438    -1.592601
H       -8.200093    -1.036492    -0.469148
H       -6.863204    -2.085291     0.020353
H       -6.863195     0.329401     2.059210
H       -6.888048     1.789184     1.022050
H       -8.200093     0.636205     0.943219
H       -4.724117    -1.650792    -1.395162
H       -2.280574    -1.560903    -1.334469
H       -2.280574     1.577185     1.315187
H       -4.724119     1.652079     1.393638
O        0.000000     2.100000     0.000000
S        0.000000     3.600023    -0.000000
C        0.447760     4.144040    -1.666276
C        1.535311     4.144040     0.787266
H       -0.360337     3.873044    -2.349795
H        1.370798     3.653090    -1.983728
H        0.578153     5.228680    -1.672937
H        1.627814     5.228680     0.695128
H        1.499059     3.873043     1.845048
H        2.390412     3.653091     0.316543
N        0.000000    -2.150000     0.000000
C        0.000000    -3.531231     0.000000
Se       0.003050    -5.299185    -0.011778
H        0.008638    -6.809030    -0.032713
C       -0.944506    -0.872386     7.114259
N        0.011531    -0.022752     6.405209
C        1.262015     0.245903     7.114260
C        0.014209    -0.028037     5.004028
C       -1.052284    -0.545564     4.255859
C       -1.015693    -0.514766     2.865869
N        0.000000     0.000000     2.150000
C        1.015693     0.514766     2.865869
C        1.062166     0.526066     4.255859
H       -1.976318    -0.583042     6.888038
H       -0.836133    -0.771555     8.200093
H       -0.794280    -1.928205     6.863204
H        2.024680    -0.499520     6.863195
H        1.638744     1.249114     6.888048
H        1.116623     0.218111     8.200093
H       -1.928372    -0.976203     4.724117
H       -1.837436    -0.917091     2.280574
H        1.826028     0.939602     2.280574
H        1.927470     0.977983     4.724119
N        0.000000     0.000000    -2.150000
C       -0.000000     0.000000    -3.531231
Se       0.011973    -0.002161    -5.299185
H        0.033268    -0.006170    -6.809030
67
ex_0167 frame33 cis-OC-6-4-conf2
Cd       0.000000     0.000000     0.000000
O        2.100000     0.000000     0.000000
S        3.600023     0.000000     0.000000
C        4.144039     1.338574     1.088664
C        4.144039    -1.345187     1.080482
H        3.873041     2.292326     0.629782
H        5.228680     1.291453     1.210428
H        3.653090     1.251781     2.060901
H        3.873043    -2.296124     0.615791
H        3.653090    -1.264326     2.053229
H        5.228680    -1.298809     1.202529
C       -7.114259    -1.171597    -0.529632
N       -6.405209    -0.016455     0.019489
C       -7.114260     0.718482     1.066270
C       -5.004028    -0.020278     0.024016
C       -4.255859    -0.912659    -0.756303
C       -2.865869    -0.870032    -0.734615
N       -2.150000     0.000000     0.000000
C       -2.865869     0.870032     0.734615
C       -4.255859     0.898557     0.773005
H       -6.888038    -1.307438    -1.592601
H       -8.200093    -1.036492    -0.469148
H       -6.863204    -2.085291     0.020353
H       -6.863195     0.329401     2.059210
H       -6.888048     1.789184     1.022050
H       -8.200093     0.636205     0.943219
H       -4.724117    -1.650792    -1.395162
H       -2.280574    -1.560903    -1.334469
H       -2.280574     1.577185     1.315187
H       -4.724119     1.652079     1.393638
O        0.000000     2.100000     0.000000
S        0.000000     3.600023    -0.000000
C        0.447760     4.144040    -1.666276
C        1.535311     4.144040     0.787266
H       -0.360337     3.873044    -2.349795
H        1.370798     3.653090    -1.983728
H        0.578153     5.228680    -1.672937
H        1.627814     5.228680     0.695128
H        1.499059     3.873043     1.845048
H        2.390412     3.653091     0.316543
N        0.000000    -2.150000     0.000000
C        0.000000    -3.531231     0.000000
Se       0.003050    -5.299185    -0.011778
H        0.008638    -6.809030    -0.032713
C       -1.138113    -0.598204     7.114259
N        0.005250    -0.024961     6.405209
C        1.282657    -0.089110     7.114260
C        0.006469    -0.030759     5.004028
C       -1.157631    -0.254623     4.255859
C       -1.114315    -0.234345     2.865869
N        0.000000     0.000000     2.150000
C        1.114315     0.234345     2.865869
C        1.162129     0.233232     4.255859
H       -2.059879    -0.051667     6.888038
H       -1.007336    -0.528857     8.200093
H       -1.266272    -1.656928     6.863204
H        1.826406    -1.006525     6.863195
H        1.906199     0.782414     6.888048
H        1.135026    -0.078324     8.200093
H       -2.115324    -0.443841     4.724117
H       -2.012188    -0.410278     2.280574
H        2.006994     0.434975     2.280574
H        2.114914     0.445793     4.724119
N        0.000000     0.000000    -2.150000
C       -0.000000     0.000000    -3.531231
Se       0.011973    -0.002161    -5.299185
H        0.033268    -0.006170    -6.809030
67
ex_0167 frame34 cis-OC-6-4-conf4
Cd       0.000000     0.000000     0.000000
O        2.100000     0.000000     0.000000
S        3.600023    -0.000000    -0.000000
C        4.144040    -1.661813     0.464051
C        4.144040     0.802259     1.527530
H        3.873044    -2.353210    -0.337315
H        3.653090    -1.970213     1.390153
H        5.228680    -1.667197     0.594504
H        5.228680     0.711031     1.620931
H        3.873043     1.859636     1.480924
H        3.653091     0.339931     2.387198
C       -7.114259    -1.171597    -0.529632
N       -6.405209    -0.016455     0.019489
C       -7.114260     0.718482     1.066270
C       -5.004028    -0.020278     0.024016
C       -4.255859    -0.912659    -0.756303
C       -2.865869    -0.870032    -0.734615
N       -2.150000     0.000000     0.000000
C       -2.865869     0.870032     0.734615
C       -4.255859     0.898557     0.773005
H       -6.888038    -1.307438    -1.592601
H       -8.200093    -1.036492    -0.469148
H       -6.863204    -2.085291     0.020353
H       -6.863195     0.329401     2.059210
H       -6.888048     1.789184     1.022050
H       -8.200093     0.636205     0.943219
H       -4.724117    -1.650792    -1.395162
H       -2.280574    -1.560903    -1.334469
H       -2.280574     1.577185     1.315187
H       -4.724119     1.652079     1.393638
O        0.000000     2.100000     0.000000
S       -0.000000     3.600023    -0.000000
C       -1.714833     4.144039    -0.190572
C        0.173313     4.144039     1.716663
H       -2.056678     3.873041    -1.192250
H       -1.768576     5.228680    -0.071584
H       -2.346965     3.653090     0.553192
H        1.171502     3.873043     2.068566
H       -0.576772     3.653090     2.341283
H        0.053789     5.228680     1.769205
N        0.000000    -2.150000     0.000000
C        0.000000    -3.531231     0.000000
Se       0.003050    -5.299185    -0.011778
H        0.008638    -6.809030    -0.032713
C       -1.240076    -0.339629     7.114261
N       -0.013193     0.021812     6.405209
C        0.876612     0.940578     7.114262
C       -0.016263     0.026889     5.004028
C       -1.019839    -0.604044     4.255859
C       -0.974343    -0.589298     2.865869
N        0.000000     0.000000     2.150000
C        0.974343     0.589298     2.865869
C        1.008529     0.622744     4.255859
H       -1.097166    -0.301049     8.200094
H       -1.540715    -1.368206     6.888041
H       -2.056361     0.346665     6.863207
H        0.647819     1.982201     6.863216
H        0.776092     0.831912     8.200095
H        1.927177     0.729236     6.888035
H       -1.848919    -1.119414     4.724118
H       -1.750634    -1.073551     2.280573
H        1.763687     1.051969     2.280573
H        1.849948     1.117715     4.724117
N        0.000000     0.000000    -2.150000
C       -0.000000     0.000000    -3.531231
Se       0.011973    -0.002161    -5.299185
H        0.033268    -0.006170    -6.809030
67
ex_0167 frame35 cis-OC-6-4-conf5
Cd       0.000000     0.000000     0.000000
O        2.100000     0.000000     0.000000
S        3.600023    -0.000000    -0.000000
C        4.144040    -1.661813     0.464051
C        4.144040     0.802259     1.527530
H        3.873044    -2.353210    -0.337315
H        3.653090    -1.970213     1.390153
H        5.228680    -1.667197     0.594504
H        5.228680     0.711031     1.620931
H        3.873043     1.859636     1.480924
H        3.653091     0.339931     2.387198
C       -7.114256     1.252880    -0.288885
N       -6.405208     0.001278    -0.025480
C       -7.114263    -1.217749    -0.412584
C       -5.004028     0.001573    -0.031397
C       -4.255858     1.184314     0.048377
C       -2.865869     1.137265     0.056965
N       -2.150000     0.000000     0.000000
C       -2.865869    -1.137265    -0.056965
C       -4.255859    -1.183221    -0.070217
H       -8.200089     1.108760    -0.255121
H       -6.888048     2.005211     0.474238
H       -6.863187     1.646249    -1.280133
H       -6.863219    -1.510125    -1.438176
H       -8.200095    -1.077723    -0.364563
H       -6.888037    -2.042553     0.271558
H       -4.724118     2.158630     0.109115
H       -2.280573     2.050349     0.115331
H       -2.280574    -2.051611    -0.090135
H       -4.724117    -2.158730    -0.107150
O        0.000000     2.100000     0.000000
S        0.000000     3.600023    -0.000000
C        0.447760     4.144040    -1.666276
C        1.535311     4.144040     0.787266
H       -0.360337     3.873044    -2.349795
H        1.370798     3.653090    -1.983728
H        0.578153     5.228680    -1.672937
H        1.627814     5.228680     0.695128
H        1.499059     3.873043     1.845048
H        2.390412     3.653091     0.316543
N        0.000000    -2.150000     0.000000
C        0.000000    -3.531231     0.000000
Se       0.003050    -5.299185    -0.011778
H        0.008638    -6.809030    -0.032713
C       -0.944506    -0.872386     7.114259
N        0.011531    -0.022752     6.405209
C        1.262015     0.245903     7.114260
C        0.014209    -0.028037     5.004028
C       -1.052284    -0.545564     4.255859
C       -1.015693    -0.514766     2.865869
N        0.000000     0.000000     2.150000
C        1.015693     0.514766     2.865869
C        1.062166     0.526066     4.255859
H       -1.976318    -0.583042     6.888038
H       -0.836133    -0.771555     8.200093
H       -0.794280    -1.928205     6.863204
H        2.024680    -0.499520     6.863195
H        1.638744     1.249114     6.888048
H        1.116623     0.218111     8.200093
H       -1.928372    -0.976203     4.724117
H       -1.837436    -0.917091     2.280574
H        1.826028     0.939602     2.280574
H        1.927470     0.977983     4.724119
N        0.000000     0.000000    -2.150000
C       -0.000000     0.000000    -3.531231
Se       0.011973    -0.002161    -5.299185
H        0.033268    -0.006170    -6.809030
67
ex_0167 frame36 cis-OC-6-4-conf6
Cd       0.000000     0.000000     0.000000
O        2.100000     0.000000     0.000000
S        3.600023    -0.000000     0.000000
C        4.144039    -1.637268     0.544355
C        4.144040    -0.188869    -1.715021
H        3.653090    -2.410738    -0.051062
H        3.873041    -1.762475     1.595326
H        5.228679    -1.714667     0.439208
H        3.653089    -1.052820    -2.169293
H        3.873043     0.713867    -2.267549
H        5.228680    -0.316729    -1.741456
C       -7.114259    -1.171597    -0.529632
N       -6.405209    -0.016455     0.019489
C       -7.114260     0.718482     1.066270
C       -5.004028    -0.020278     0.024016
C       -4.255859    -0.912659    -0.756303
C       -2.865869    -0.870032    -0.734615
N       -2.150000     0.000000     0.000000
C       -2.865869     0.870032     0.734615
C       -4.255859     0.898557     0.773005
H       -6.888038    -1.307438    -1.592601
H       -8.200093    -1.036492    -0.469148
H       -6.863204    -2.085291     0.020353
H       -6.863195     0.329401     2.059210
H       -6.888048     1.789184     1.022050
H       -8.200093     0.636205     0.943219
H       -4.724117    -1.650792    -1.395162
H       -2.280574    -1.560903    -1.334469
H       -2.280574     1.577185     1.315187
H       -4.724119     1.652079     1.393638
O        0.000000     2.100000     0.000000
S        0.000000     3.600023    -0.000000
C        0.447760     4.144040    -1.666276
C        1.535311     4.144040     0.787266
H       -0.360337     3.873044    -2.349795
H        1.370798     3.653090    -1.983728
H        0.578153     5.228680    -1.672937
H        1.627814     5.228680     0.695128
H        1.499059     3.873043     1.845048
H        2.390412     3.653091     0.316543
N        0.000000    -2.150000     0.000000
C        0.000000    -3.531231     0.000000
Se       0.003050    -5.299185    -0.011778
H        0.008638    -6.809030    -0.032713
C       -1.138113    -0.598204     7.114259
N        0.005250    -0.024961     6.405209
C        1.282657    -0.089110     7.114260
C        0.006469    -0.030759     5.004028
C       -1.157631    -0.254623     4.255859
C       -1.114315    -0.234345     2.865869
N        0.000000     0.000000     2.150000
C        1.114315     0.234345     2.865869
C        1.162129     0.233232     4.255859
H       -2.059879    -0.051667     6.888038
H       -1.007336    -0.528857     8.200093
H       -1.266272    -1.656928     6.863204
H        1.826406    -1.006525     6.863195
H        1.906199     0.782414     6.888048
H        1.135026    -0.078324     8.200093
H       -2.115324    -0.443841     4.724117
H       -2.012188    -0.410278     2.280574
H        2.006994     0.434975     2.280574
H        2.114914     0.445793     4.724119
N        0.000000     0.000000    -2.150000
C       -0.000000     0.000000    -3.531231
Se       0.011973    -0.002161    -5.299185
H        0.033268    -0.006170    -6.809030
67
ex_0167 frame37 cis-OC-6-4-conf7
Cd       0.000000     0.000000     0.000000
O        2.100000     0.000000     0.000000
S        3.600023    -0.000000    -0.000000
C        4.144040    -1.661813     0.464051
C        4.144040     0.802259     1.527530
H        3.873044    -2.353210    -0.337315
H        3.653090    -1.970213     1.390153
H        5.228680    -1.667197     0.594504
H        5.228680     0.711031     1.620931
H        3.873043     1.859636     1.480924
H        3.653091     0.339931     2.387198
C       -7.114259    -1.279449     0.127124
N       -6.405209    -0.004506     0.025106
C       -7.114260     1.155359     0.564176
C       -5.004028    -0.005553     0.030938
C       -4.255859    -1.168538    -0.198648
C       -2.865869    -1.120778    -0.201179
N       -2.150000     0.000000     0.000000
C       -2.865869     1.120778     0.201179
C       -4.255859     1.164676     0.220164
H       -6.888038    -1.928575    -0.725513
H       -8.200093    -1.132202     0.111952
H       -6.863204    -1.795739     1.060272
H       -6.863195     1.314875     1.618627
H       -6.888048     2.060504    -0.009471
H       -8.200093     1.022579     0.498750
H       -4.724117    -2.127209    -0.382849
H       -2.280574    -2.019017    -0.375233
H       -2.280574     2.023476     0.350393
H       -4.724119     2.127562     0.380886
O        0.000000     2.100000     0.000000
S        0.000000     3.600023    -0.000000
C        0.447760     4.144040    -1.666276
C        1.535311     4.144040     0.787266
H       -0.360337     3.873044    -2.349795
H        1.370798     3.653090    -1.983728
H        0.578153     5.228680    -1.672937
H        1.627814     5.228680     0.695128
H        1.499059     3.873043     1.845048
H        2.390412     3.653091     0.316543
N        0.000000    -2.150000     0.000000
C        0.000000    -3.531231     0.000000
Se       0.003050    -5.299185    -0.011778
H        0.008638    -6.809030    -0.032713
C       -0.593236     1.140709     7.114260
N        0.018552     0.017500     6.405209
C        1.104149    -0.658787     7.114261
C        0.022866     0.021568     5.004028
C        0.821239    -0.854697     4.255859
C        0.781338    -0.828328     2.865869
N        0.000000     0.000000     2.150000
C       -0.781338     0.828327     2.865869
C       -0.805334     0.869699     4.255859
H       -0.525415     1.009133     8.200092
H       -1.662065     1.217916     6.888042
H       -0.094306     2.083252     6.863205
H        1.118861    -1.730299     6.888038
H        2.074199    -0.215701     6.863213
H        0.976748    -0.583409     8.200094
H        1.482364    -1.572956     4.724118
H        1.399912    -1.502489     2.280573
H       -1.418267     1.485177     2.280574
H       -1.483804     1.571597     4.724118
N        0.000000     0.000000    -2.150000
C       -0.000000     0.000000    -3.531231
Se       0.011973    -0.002161    -5.299185
H        0.033268    -0.006170    -6.809030
67
ex_0167 frame38 cis-OC-6-4-conf8
Cd       0.000000     0.000000     0.000000
O        2.100000     0.000000     0.000000
S        3.600023    -0.000000    -0.000000
C        4.144040    -1.661813     0.464051
C        4.144040     0.802259     1.527530
H        3.873044    -2.353210    -0.337315
H        3.653090    -1.970213     1.390153
H        5.228680    -1.667197     0.594504
H        5.228680     0.711031     1.620931
H        3.873043     1.859636     1.480924
H        3.653091     0.339931     2.387198
C       -7.114259    -1.171597    -0.529632
N       -6.405209    -0.016455     0.019489
C       -7.114260     0.718482     1.066270
C       -5.004028    -0.020278     0.024016
C       -4.255859    -0.912659    -0.756303
C       -2.865869    -0.870032    -0.734615
N       -2.150000     0.000000     0.000000
C       -2.865869     0.870032     0.734615
C       -4.255859     0.898557     0.773005
H       -6.888038    -1.307438    -1.592601
H       -8.200093    -1.036492    -0.469148
H       -6.863204    -2.085291     0.020353
H       -6.863195     0.329401     2.059210
H       -6.888048     1.789184     1.022050
H       -8.200093     0.636205     0.943219
H       -4.724117    -1.650792    -1.395162
H       -2.280574    -1.560903    -1.334469
H       -2.280574     1.577185     1.315187
H       -4.724119     1.652079     1.393638
O        0.000000     2.100000     0.000000
S       -0.000000     3.600023    -0.000000
C        1.586196     4.144040     0.678933
C       -0.996502     4.144042     1.408527
H        1.574349     5.228681     0.808954
H        2.377138     3.873041    -0.024364
H        1.769902     3.653093     1.637594
H       -0.918373     5.228683     1.513131
H       -0.651455     3.653094     2.321611
H       -2.038524     3.873044     1.223030
N        0.000000    -2.150000     0.000000
C        0.000000    -3.531231     0.000000
Se       0.003050    -5.299185    -0.011778
H        0.008638    -6.809030    -0.032713
C       -0.944506    -0.872386     7.114259
N        0.011531    -0.022752     6.405209
C        1.262015     0.245903     7.114260
C        0.014209    -0.028037     5.004028
C       -1.052284    -0.545564     4.255859
C       -1.015693    -0.514766     2.865869
N        0.000000     0.000000     2.150000
C        1.015693     0.514766     2.865869
C        1.062166     0.526066     4.255859
H       -1.976318    -0.583042     6.888038
H       -0.836133    -0.771555     8.200093
H       -0.794280    -1.928205     6.863204
H        2.024680    -0.499520     6.863195
H        1.638744     1.249114     6.888048
H        1.116623     0.218111     8.200093
H       -1.928372    -0.976203     4.724117
H       -1.837436    -0.917091     2.280574
H        1.826028     0.939602     2.280574
H        1.927470     0.977983     4.724119
N        0.000000     0.000000    -2.150000
C       -0.000000     0.000000    -3.531231
Se       0.011973    -0.002161    -5.299185
H        0.033268    -0.006170    -6.809030
67
ex_0167 frame39 cis-OC-6-4-conf9
Cd       0.000000     0.000000     0.000000
O        2.100000     0.000000     0.000000
S        3.600023    -0.000000    -0.000000
C        4.144040    -1.661813     0.464051
C        4.144040     0.802259     1.527530
H        3.873044    -2.353210    -0.337315
H        3.653090    -1.970213     1.390153
H        5.228680    -1.667197     0.594504
H        5.228680     0.711031     1.620931
H        3.873043     1.859636     1.480924
H        3.653091     0.339931     2.387198
C       -7.114256     1.135420    -0.603311
N       -6.405208    -0.005360    -0.024943
C       -7.114263    -1.283040    -0.083349
C       -5.004028    -0.006607    -0.030734
C       -4.255858     1.156480    -0.259795
C       -2.865869     1.113257    -0.239322
N       -2.150000     0.000000     0.000000
C       -2.865869    -1.113257     0.239322
C       -4.255859    -1.161077     0.238416
H       -8.200089     1.004949    -0.533396
H       -6.888048     2.059627    -0.060908
H       -6.863187     1.258831    -1.662594
H       -6.863219    -1.830896    -0.998323
H       -8.200095    -1.135356    -0.073206
H       -6.888037    -1.902670     0.790956
H       -4.724118     2.113318    -0.453297
H       -2.280573     2.010334    -0.419268
H       -2.280574    -2.005032     0.443932
H       -4.724117    -2.112905     0.455221
O        0.000000     2.100000     0.000000
S       -0.000000     3.600023    -0.000000
C       -1.714833     4.144039    -0.190572
C        0.173313     4.144039     1.716663
H       -2.056678     3.873041    -1.192250
H       -1.768576     5.228680    -0.071584
H       -2.346965     3.653090     0.553192
H        1.171502     3.873043     2.068566
H       -0.576772     3.653090     2.341283
H        0.053789     5.228680     1.769205
N        0.000000    -2.150000     0.000000
C        0.000000    -3.531231     0.000000
Se       0.003050    -5.299185    -0.011778
H        0.008638    -6.809030    -0.032713
C       -0.944506    -0.872386     7.114259
N        0.011531    -0.022752     6.405209
C        1.262015     0.245903     7.114260
C        0.014209    -0.028037     5.004028
C       -1.052284    -0.545564     4.255859
C       -1.015693    -0.514766     2.865869
N        0.000000     0.000000     2.150000
C        1.015693     0.514766     2.865869
C        1.062166     0.526066     4.255859
H       -1.976318    -0.583042     6.888038
H       -0.836133    -0.771555     8.200093
H       -0.794280    -1.928205     6.863204
H        2.024680    -0.499520     6.863195
H        1.638744     1.249114     6.888048
H        1.116623     0.218111     8.200093
H       -1.928372    -0.976203     4.724117
H       -1.837436    -0.917091     2.280574
H        1.826028     0.939602     2.280574
H        1.927470     0.977983     4.724119
N        0.000000     0.000000    -2.150000
C       -0.000000     0.000000    -3.531231
Se       0.011973    -0.002161    -5.299185
H        0.033268    -0.006170    -6.809030
67
ex_0167 frame40 cis-OC-6-4-conf10
Cd       0.000000     0.000000     0.000000
O        2.100000     0.000000     0.000000
S        3.600023    -0.000000    -0.000000
C        4.144040    -1.661813     0.464051
C        4.144040     0.802259     1.527530
H        3.873044    -2.353210    -0.337315
H        3.653090    -1.970213     1.390153
H        5.228680    -1.667197     0.594504
H        5.228680     0.711031     1.620931
H        3.873043     1.859636     1.480924
H        3.653091     0.339931     2.387198
C       -7.114260    -1.233087    -0.364204
N       -6.405209     0.000269    -0.025502
C       -7.114261     1.240498    -0.338096
C       -5.004028     0.000332    -0.031431
C       -4.255859     1.185301     0.001568
C       -2.865869     1.138627     0.012008
N       -2.150000     0.000000     0.000000
C       -2.865869    -1.138627    -0.012008
C       -4.255859    -1.185070    -0.023431
H       -8.200092    -1.091275    -0.321758
H       -6.888042    -2.030248     0.351960
H       -6.863205    -1.565710    -1.377456
H       -6.888038     2.022368     0.394729
H       -6.863213     1.594430    -1.344105
H       -8.200094     1.097823    -0.298644
H       -4.724118     2.161256     0.023783
H       -2.280573     2.053303     0.034272
H       -2.280574    -2.053570    -0.009042
H       -4.724118    -2.161277    -0.021803
O        0.000000     2.100000     0.000000
S        0.000000     3.600023    -0.000000
C        0.447760     4.144040    -1.666276
C        1.535311     4.144040     0.787266
H       -0.360337     3.873044    -2.349795
H        1.370798     3.653090    -1.983728
H        0.578153     5.228680    -1.672937
H        1.627814     5.228680     0.695128
H        1.499059     3.873043     1.845048
H        2.390412     3.653091     0.316543
N        0.000000    -2.150000     0.000000
C        0.000000    -3.531231     0.000000
Se       0.003050    -5.299185    -0.011778
H        0.008638    -6.809030    -0.032713
C       -0.944506    -0.872386     7.114259
N        0.011531    -0.022752     6.405209
C        1.262015     0.245903     7.114260
C        0.014209    -0.028037     5.004028
C       -1.052284    -0.545564     4.255859
C       -1.015693    -0.514766     2.865869
N        0.000000     0.000000     2.150000
C        1.015693     0.514766     2.865869
C        1.062166     0.526066     4.255859
H       -1.976318    -0.583042     6.888038
H       -0.836133    -0.771555     8.200093
H       -0.794280    -1.928205     6.863204
H        2.024680    -0.499520     6.863195
H        1.638744     1.249114     6.888048
H        1.116623     0.218111     8.200093
H       -1.928372    -0.976203     4.724117
H       -1.837436    -0.917091     2.280574
H        1.826028     0.939602     2.280574
H        1.927470     0.977983     4.724119
N        0.000000     0.000000    -2.150000
C       -0.000000     0.000000    -3.531231
Se       0.011973    -0.002161    -5.299185
H        0.033268    -0.006170    -6.809030
67
ex_0167 frame41 cis-OC-6-5
Cd       0.000000     0.000000     0.000000
O        2.100000     0.000000     0.000000
S        3.600023    -0.000000    -0.000000
C        4.144040    -1.661813     0.464051
C        4.144040     0.802259     1.527530
H        3.873044    -2.353210    -0.337315
H        3.653090    -1.970213     1.390153
H        5.228680    -1.667197     0.594504
H        5.228680     0.711031     1.620931
H        3.873043     1.859636     1.480924
H        3.653091     0.339931     2.387198
C       -7.114259    -0.749817    -1.044473
N       -6.405209    -0.023995     0.008650
C       -7.114260     0.089089     1.282658
C       -5.004028    -0.029569     0.010659
C       -4.255859    -0.412234    -1.111307
C       -2.865869    -0.386162    -1.071212
N       -2.150000     0.000000     0.000000
C       -2.865869     0.386162     1.071212
C       -4.255859     0.391670     1.118721
H       -6.888038    -0.335974    -2.032952
H       -8.200093    -0.663054    -0.924540
H       -6.863204    -1.816092    -1.025019
H       -6.863195    -0.744335     1.948029
H       -6.888048     1.038454     1.779713
H       -8.200093     0.079360     1.134954
H       -4.724117    -0.732047    -2.033642
H       -2.280574    -0.684547    -1.936136
H       -2.280574     0.708289     1.927578
H       -4.724119     0.733924     2.032965
O        0.000000     2.100000     0.000000
S        0.000000     3.600023    -0.000000
C        0.447760     4.144040    -1.666276
C        1.535311     4.144040     0.787266
H       -0.360337     3.873044    -2.349795
H        1.370798     3.653090    -1.983728
H        0.578153     5.228680    -1.672937
H        1.627814     5.228680     0.695128
H        1.499059     3.873043     1.845048
H        2.390412     3.653091     0.316543
N        0.000000    -2.150000     0.000000
C        0.000000    -3.531231     0.000000
Se       0.003050    -5.299185    -0.011778
H        0.008638    -6.809030    -0.032713
N        0.000000     0.000000     2.150000
C       -0.000000     0.000000     3.531231
Se      -0.011215    -0.004717     5.299185
H       -0.031125    -0.013267     6.809030
C        0.074761     1.283579    -7.114256
N        0.024905     0.005531    -6.405208
C        0.610892    -1.131348    -7.114263
C        0.030689     0.006814    -5.004028
C       -0.246234     1.159444    -4.255858
C       -0.246813     1.111620    -2.865869
N        0.000000     0.000000    -2.150000
C        0.246813    -1.111620    -2.865869
C        0.267582    -1.154704    -4.255859
H        0.065635     1.135838    -8.200089
H       -0.803686     1.897330    -6.888048
H        0.986034     1.837556    -6.863187
H        1.670985    -1.247653    -6.863219
H        0.540077    -1.001354    -8.200095
H        0.074705    -2.059171    -6.888037
H       -0.469450     2.109789    -4.724118
H       -0.457425     2.001997    -2.280573
H        0.432797    -2.007465    -2.280574
H        0.467529    -2.110216    -4.724117
67
ex_0167 frame42 cis-OC-6-5-conf1
Cd       0.000000     0.000000     0.000000
O        2.100000     0.000000     0.000000
S        3.600023    -0.000000    -0.000000
C        4.144040    -1.661813     0.464051
C        4.144040     0.802259     1.527530
H        3.873044    -2.353210    -0.337315
H        3.653090    -1.970213     1.390153
H        5.228680    -1.667197     0.594504
H        5.228680     0.711031     1.620931
H        3.873043     1.859636     1.480924
H        3.653091     0.339931     2.387198
C       -7.114259    -0.994597    -0.814817
N       -6.405209    -0.020939     0.014566
C       -7.114260     0.418030     1.215895
C       -5.004028    -0.025803     0.017949
C       -4.255859    -0.685815    -0.966746
C       -2.865869    -0.650254    -0.934765
N       -2.150000     0.000000     0.000000
C       -2.865869     0.650254     0.934765
C       -4.255859     0.667871     0.979230
H       -6.888038    -0.850693    -1.876724
H       -8.200093    -0.879750    -0.721426
H       -6.863204    -2.019504    -0.520054
H       -6.863195    -0.214785     2.074299
H       -6.888048     1.463694     1.450299
H       -8.200093     0.370403     1.075742
H       -4.724117    -1.233449    -1.774879
H       -2.280574    -1.162331    -1.692990
H       -2.280574     1.183048     1.678578
H       -4.724119     1.235086     1.773740
O        0.000000     2.100000     0.000000
S        0.000000     3.600023    -0.000000
C        0.447760     4.144040    -1.666276
C        1.535311     4.144040     0.787266
H       -0.360337     3.873044    -2.349795
H        1.370798     3.653090    -1.983728
H        0.578153     5.228680    -1.672937
H        1.627814     5.228680     0.695128
H        1.499059     3.873043     1.845048
H        2.390412     3.653091     0.316543
N        0.000000    -2.150000     0.000000
C        0.000000    -3.531231     0.000000
Se       0.003050    -5.299185    -0.011778
H        0.008638    -6.809030    -0.032713
N        0.000000     0.000000     2.150000
C       -0.000000     0.000000     3.531231
Se      -0.011215    -0.004717     5.299185
H       -0.031125    -0.013267     6.809030
C        0.911446    -0.906871    -7.114259
N       -0.012368    -0.022307    -6.405209
C       -1.252009     0.292615    -7.114260
C       -0.015241    -0.027490    -5.004028
C        1.031291    -0.584278    -4.255859
C        0.995869    -0.552142    -2.865869
N        0.000000     0.000000    -2.150000
C       -0.995869     0.552142    -2.865869
C       -1.041890     0.565160    -4.255859
H        1.953295    -0.656057    -6.888038
H        0.806894    -0.802083    -8.200093
H        0.722102    -1.956380    -6.863204
H       -2.041839    -0.423962    -6.863195
H       -1.591210     1.309128    -6.888048
H       -1.107749     0.259441    -8.200093
H        1.890777    -1.047165    -4.724117
H        1.802100    -0.984716    -2.280574
H       -1.789863     1.006787    -2.280574
H       -1.889810     1.048910    -4.724119
67
ex_0167 frame43 cis-OC-6-5-conf2
Cd       0.000000     0.000000     0.000000
O        2.100000     0.000000     0.000000
S        3.600023    -0.000000    -0.000000
C        4.144040    -1.661813     0.464051
C        4.144040     0.802259     1.527530
H        3.873044    -2.353210    -0.337315
H        3.653090    -1.970213     1.390153
H        5.228680    -1.667197     0.594504
H        5.228680     0.711031     1.620931
H        3.873043     1.859636     1.480924
H        3.653091     0.339931     2.387198
C       -7.114259    -1.279449     0.127124
N       -6.405209    -0.004506     0.025106
C       -7.114260     1.155359     0.564176
C       -5.004028    -0.005553     0.030938
C       -4.255859    -1.168538    -0.198648
C       -2.865869    -1.120778    -0.201179
N       -2.150000     0.000000     0.000000
C       -2.865869     1.120778     0.201179
C       -4.255859     1.164676     0.220164
H       -6.888038    -1.928575    -0.725513
H       -8.200093    -1.132202     0.111952
H       -6.863204    -1.795739     1.060272
H       -6.863195     1.314875     1.618627
H       -6.888048     2.060504    -0.009471
H       -8.200093     1.022579     0.498750
H       -4.724117    -2.127209    -0.382849
H       -2.280574    -2.019017    -0.375233
H       -2.280574     2.023476     0.350393
H       -4.724119     2.127562     0.380886
O        0.000000     2.100000     0.000000
S        0.000000     3.600023    -0.000000
C        0.447760     4.144040    -1.666276
C        1.535311     4.144040     0.787266
H       -0.360337     3.873044    -2.349795
H        1.370798     3.653090    -1.983728
H        0.578153     5.228680    -1.672937
H        1.627814     5.228680     0.695128
H        1.499059     3.873043     1.845048
H        2.390412     3.653091     0.316543
N        0.000000    -2.150000     0.000000
C        0.000000    -3.531231     0.000000
Se       0.003050    -5.299185    -0.011778
H        0.008638    -6.809030    -0.032713
N        0.000000     0.000000     2.150000
C       -0.000000     0.000000     3.531231
Se      -0.011215    -0.004717     5.299185
H       -0.031125    -0.013267     6.809030
C        1.180222     0.510112    -7.114261
N       -0.003338     0.025272    -6.405209
C       -1.272196     0.186154    -7.114262
C       -0.004116     0.031154    -5.004028
C        1.173613     0.166054    -4.255859
C        1.128884     0.149122    -2.865869
N        0.000000     0.000000    -2.150000
C       -1.128884    -0.149122    -2.865869
C       -1.176475    -0.144387    -4.255859
H        1.044559     0.450887    -8.200094
H        2.057866    -0.104783    -6.888041
H        1.388334     1.556060    -6.863207
H       -1.744760     1.142192    -6.863216
H       -1.125808     0.164175    -8.200095
H       -1.960074    -0.635536    -6.888035
H        2.142902     0.282071    -4.724118
H        2.037516     0.256428    -2.280573
H       -2.034214    -0.281433    -2.280573
H       -2.142643    -0.284041    -4.724117
67
ex_0167 frame44 cis-OC-6-5-conf3
Cd       0.000000     0.000000     0.000000
O        2.100000     0.000000     0.000000
S        3.600023     0.000000     0.000000
C        4.144039     1.338574     1.088664
C        4.144039    -1.345187     1.080482
H        3.873041     2.292326     0.629782
H        5.228680     1.291453     1.210428
H        3.653090     1.251781     2.060901
H        3.873043    -2.296124     0.615791
H        3.653090    -1.264326     2.053229
H        5.228680    -1.298809     1.202529
C       -7.114259    -0.994597    -0.814817
N       -6.405209    -0.020939     0.014566
C       -7.114260     0.418030     1.215895
C       -5.004028    -0.025803     0.017949
C       -4.255859    -0.685815    -0.966746
C       -2.865869    -0.650254    -0.934765
N       -2.150000     0.000000     0.000000
C       -2.865869     0.650254     0.934765
C       -4.255859     0.667871     0.979230
H       -6.888038    -0.850693    -1.876724
H       -8.200093    -0.879750    -0.721426
H       -6.863204    -2.019504    -0.520054
H       -6.863195    -0.214785     2.074299
H       -6.888048     1.463694     1.450299
H       -8.200093     0.370403     1.075742
H       -4.724117    -1.233449    -1.774879
H       -2.280574    -1.162331    -1.692990
H       -2.280574     1.183048     1.678578
H       -4.724119     1.235086     1.773740
O        0.000000     2.100000     0.000000
S        0.000000     3.600023    -0.000000
C        0.447760     4.144040    -1.666276
C        1.535311     4.144040     0.787266
H       -0.360337     3.873044    -2.349795
H        1.370798     3.653090    -1.983728
H        0.578153     5.228680    -1.672937
H        1.627814     5.228680     0.695128
H        1.499059     3.873043     1.845048
H        2.390412     3.653091     0.316543
N        0.000000    -2.150000     0.000000
C        0.000000    -3.531231     0.000000
Se       0.003050    -5.299185    -0.011778
H        0.008638    -6.809030    -0.032713
N        0.000000     0.000000     2.150000
C       -0.000000     0.000000     3.531231
Se      -0.011215    -0.004717     5.299185
H       -0.031125    -0.013267     6.809030
C        0.911446    -0.906871    -7.114259
N       -0.012368    -0.022307    -6.405209
C       -1.252009     0.292615    -7.114260
C       -0.015241    -0.027490    -5.004028
C        1.031291    -0.584278    -4.255859
C        0.995869    -0.552142    -2.865869
N        0.000000     0.000000    -2.150000
C       -0.995869     0.552142    -2.865869
C       -1.041890     0.565160    -4.255859
H        1.953295    -0.656057    -6.888038
H        0.806894    -0.802083    -8.200093
H        0.722102    -1.956380    -6.863204
H       -2.041839    -0.423962    -6.863195
H       -1.591210     1.309128    -6.888048
H       -1.107749     0.259441    -8.200093
H        1.890777    -1.047165    -4.724117
H        1.802100    -0.984716    -2.280574
H       -1.789863     1.006787    -2.280574
H       -1.889810     1.048910    -4.724119
67
ex_0167 frame45 cis-OC-6-5-conf5
Cd       0.000000     0.000000     0.000000
O        2.100000     0.000000     0.000000
S        3.600023    -0.000000    -0.000000
C        4.144040    -1.661813     0.464051
C        4.144040     0.802259     1.527530
H        3.873044    -2.353210    -0.337315
H        3.653090    -1.970213     1.390153
H        5.228680    -1.667197     0.594504
H        5.228680     0.711031     1.620931
H        3.873043     1.859636     1.480924
H        3.653091     0.339931     2.387198
C       -7.114259    -1.044473     0.749817
N       -6.405209     0.008650     0.023995
C       -7.114260     1.282658    -0.089089
C       -5.004028     0.010659     0.029569
C       -4.255859    -1.111307     0.412234
C       -2.865869    -1.071212     0.386162
N       -2.150000     0.000000     0.000000
C       -2.865869     1.071212    -0.386162
C       -4.255859     1.118721    -0.391670
H       -6.888038    -2.032952     0.335974
H       -8.200093    -0.924540     0.663054
H       -6.863204    -1.025019     1.816092
H       -6.863195     1.948029     0.744335
H       -6.888048     1.779713    -1.038454
H       -8.200093     1.134954    -0.079360
H       -4.724117    -2.033642     0.732047
H       -2.280574    -1.936136     0.684547
H       -2.280574     1.927578    -0.708289
H       -4.724119     2.032965    -0.733924
O        0.000000     2.100000     0.000000
S       -0.000000     3.600023    -0.000000
C       -1.714833     4.144039    -0.190572
C        0.173313     4.144039     1.716663
H       -2.056678     3.873041    -1.192250
H       -1.768576     5.228680    -0.071584
H       -2.346965     3.653090     0.553192
H        1.171502     3.873043     2.068566
H       -0.576772     3.653090     2.341283
H        0.053789     5.228680     1.769205
N        0.000000    -2.150000     0.000000
C        0.000000    -3.531231     0.000000
Se       0.003050    -5.299185    -0.011778
H        0.008638    -6.809030    -0.032713
N        0.000000     0.000000     2.150000
C       -0.000000     0.000000     3.531231
Se      -0.011215    -0.004717     5.299185
H       -0.031125    -0.013267     6.809030
C        1.180222     0.510112    -7.114261
N       -0.003338     0.025272    -6.405209
C       -1.272196     0.186154    -7.114262
C       -0.004116     0.031154    -5.004028
C        1.173613     0.166054    -4.255859
C        1.128884     0.149122    -2.865869
N        0.000000     0.000000    -2.150000
C       -1.128884    -0.149122    -2.865869
C       -1.176475    -0.144387    -4.255859
H        1.044559     0.450887    -8.200094
H        2.057866    -0.104783    -6.888041
H        1.388334     1.556060    -6.863207
H       -1.744760     1.142192    -6.863216
H       -1.125808     0.164175    -8.200095
H       -1.960074    -0.635536    -6.888035
H        2.142902     0.282071    -4.724118
H        2.037516     0.256428    -2.280573
H       -2.034214    -0.281433    -2.280573
H       -2.142643    -0.284041    -4.724117
67
ex_0167 frame46 cis-OC-6-5-conf6
Cd       0.000000     0.000000     0.000000
O        2.100000     0.000000     0.000000
S        3.600023    -0.000000    -0.000000
C        4.144040    -1.661813     0.464051
C        4.144040     0.802259     1.527530
H        3.873044    -2.353210    -0.337315
H        3.653090    -1.970213     1.390153
H        5.228680    -1.667197     0.594504
H        5.228680     0.711031     1.620931
H        3.873043     1.859636     1.480924
H        3.653091     0.339931     2.387198
C       -7.114259    -0.994597    -0.814817
N       -6.405209    -0.020939     0.014566
C       -7.114260     0.418030     1.215895
C       -5.004028    -0.025803     0.017949
C       -4.255859    -0.685815    -0.966746
C       -2.865869    -0.650254    -0.934765
N       -2.150000     0.000000     0.000000
C       -2.865869     0.650254     0.934765
C       -4.255859     0.667871     0.979230
H       -6.888038    -0.850693    -1.876724
H       -8.200093    -0.879750    -0.721426
H       -6.863204    -2.019504    -0.520054
H       -6.863195    -0.214785     2.074299
H       -6.888048     1.463694     1.450299
H       -8.200093     0.370403     1.075742
H       -4.724117    -1.233449    -1.774879
H       -2.280574    -1.162331    -1.692990
H       -2.280574     1.183048     1.678578
H       -4.724119     1.235086     1.773740
O        0.000000     2.100000     0.000000
S       -0.000000     3.600023    -0.000000
C       -1.058545     4.144039     1.362516
C        1.554219     4.144040     0.749246
H       -0.754709     3.653090     2.290126
H       -2.091220     3.873041     1.130567
H       -0.985178     5.228679     1.470514
H        1.694835     3.653089     1.715167
H        2.375848     3.873043     0.082054
H        1.536564     5.228680     0.878611
N        0.000000    -2.150000     0.000000
C        0.000000    -3.531231     0.000000
Se       0.003050    -5.299185    -0.011778
H        0.008638    -6.809030    -0.032713
N        0.000000     0.000000     2.150000
C       -0.000000     0.000000     3.531231
Se      -0.011215    -0.004717     5.299185
H       -0.031125    -0.013267     6.809030
C        0.911446    -0.906871    -7.114259
N       -0.012368    -0.022307    -6.405209
C       -1.252009     0.292615    -7.114260
C       -0.015241    -0.027490    -5.004028
C        1.031291    -0.584278    -4.255859
C        0.995869    -0.552142    -2.865869
N        0.000000     0.000000    -2.150000
C       -0.995869     0.552142    -2.865869
C       -1.041890     0.565160    -4.255859
H        1.953295    -0.656057    -6.888038
H        0.806894    -0.802083    -8.200093
H        0.722102    -1.956380    -6.863204
H       -2.041839    -0.423962    -6.863195
H       -1.591210     1.309128    -6.888048
H       -1.107749     0.259441    -8.200093
H        1.890777    -1.047165    -4.724117
H        1.802100    -0.984716    -2.280574
H       -1.789863     1.006787    -2.280574
H       -1.889810     1.048910    -4.724119
67
ex_0167 frame47 cis-OC-6-5-conf7
Cd       0.000000     0.000000     0.000000
O        2.100000     0.000000     0.000000
S        3.600023    -0.000000    -0.000000
C        4.144040    -1.661813     0.464051
C        4.144040     0.802259     1.527530
H        3.873044    -2.353210    -0.337315
H        3.653090    -1.970213     1.390153
H        5.228680    -1.667197     0.594504
H        5.228680     0.711031     1.620931
H        3.873043     1.859636     1.480924
H        3.653091     0.339931     2.387198
C       -7.114256     1.252880    -0.288885
N       -6.405208     0.001278    -0.025480
C       -7.114263    -1.217749    -0.412584
C       -5.004028     0.001573    -0.031397
C       -4.255858     1.184314     0.048377
C       -2.865869     1.137265     0.056965
N       -2.150000     0.000000     0.000000
C       -2.865869    -1.137265    -0.056965
C       -4.255859    -1.183221    -0.070217
H       -8.200089     1.108760    -0.255121
H       -6.888048     2.005211     0.474238
H       -6.863187     1.646249    -1.280133
H       -6.863219    -1.510125    -1.438176
H       -8.200095    -1.077723    -0.364563
H       -6.888037    -2.042553     0.271558
H       -4.724118     2.158630     0.109115
H       -2.280573     2.050349     0.115331
H       -2.280574    -2.051611    -0.090135
H       -4.724117    -2.158730    -0.107150
O        0.000000     2.100000     0.000000
S        0.000000     3.600023    -0.000000
C        0.447760     4.144040    -1.666276
C        1.535311     4.144040     0.787266
H       -0.360337     3.873044    -2.349795
H        1.370798     3.653090    -1.983728
H        0.578153     5.228680    -1.672937
H        1.627814     5.228680     0.695128
H        1.499059     3.873043     1.845048
H        2.390412     3.653091     0.316543
N        0.000000    -2.150000     0.000000
C        0.000000    -3.531231     0.000000
Se       0.003050    -5.299185    -0.011778
H        0.008638    -6.809030    -0.032713
N        0.000000     0.000000     2.150000
C       -0.000000     0.000000     3.531231
Se      -0.011215    -0.004717     5.299185
H       -0.031125    -0.013267     6.809030
C        0.911446    -0.906871    -7.114259
N       -0.012368    -0.022307    -6.405209
C       -1.252009     0.292615    -7.114260
C       -0.015241    -0.027490    -5.004028
C        1.031291    -0.584278    -4.255859
C        0.995869    -0.552142    -2.865869
N        0.000000     0.000000    -2.150000
C       -0.995869     0.552142    -2.865869
C       -1.041890     0.565160    -4.255859
H        1.953295    -0.656057    -6.888038
H        0.806894    -0.802083    -8.200093
H        0.722102    -1.956380    -6.863204
H       -2.041839    -0.423962    -6.863195
H       -1.591210     1.309128    -6.888048
H       -1.107749     0.259441    -8.200093
H        1.890777    -1.047165    -4.724117
H        1.802100    -0.984716    -2.280574
H       -1.789863     1.006787    -2.280574
H       -1.889810     1.048910    -4.724119
67
ex_0167 frame48 cis-OC-6-5-conf8
Cd       0.000000     0.000000     0.000000
O        2.100000     0.000000     0.000000
S        3.600023     0.000000     0.000000
C        4.144039     1.338574     1.088664
C        4.144039    -1.345187     1.080482
H        3.873041     2.292326     0.629782
H        5.228680     1.291453     1.210428
H        3.653090     1.251781     2.060901
H        3.873043    -2.296124     0.615791
H        3.653090    -1.264326     2.053229
H        5.228680    -1.298809     1.202529
C       -7.114259    -1.279449     0.127124
N       -6.405209    -0.004506     0.025106
C       -7.114260     1.155359     0.564176
C       -5.004028    -0.005553     0.030938
C       -4.255859    -1.168538    -0.198648
C       -2.865869    -1.120778    -0.201179
N       -2.150000     0.000000     0.000000
C       -2.865869     1.120778     0.201179
C       -4.255859     1.164676     0.220164
H       -6.888038    -1.928575    -0.725513
H       -8.200093    -1.132202     0.111952
H       -6.863204    -1.795739     1.060272
H       -6.863195     1.314875     1.618627
H       -6.888048     2.060504    -0.009471
H       -8.200093     1.022579     0.498750
H       -4.724117    -2.127209    -0.382849
H       -2.280574    -2.019017    -0.375233
H       -2.280574     2.023476     0.350393
H       -4.724119     2.127562     0.380886
O        0.000000     2.100000     0.000000
S        0.000000     3.600023    -0.000000
C        0.447760     4.144040    -1.666276
C        1.535311     4.144040     0.787266
H       -0.360337     3.873044    -2.349795
H        1.370798     3.653090    -1.983728
H        0.578153     5.228680    -1.672937
H        1.627814     5.228680     0.695128
H        1.499059     3.873043     1.845048
H        2.390412     3.653091     0.316543
N        0.000000    -2.150000     0.000000
C        0.000000    -3.531231     0.000000
Se       0.003050    -5.299185    -0.011778
H        0.008638    -6.809030    -0.032713
N        0.000000     0.000000     2.150000
C       -0.000000     0.000000     3.531231
Se      -0.011215    -0.004717     5.299185
H       -0.031125    -0.013267     6.809030
C        1.180222     0.510112    -7.114261
N       -0.003338     0.025272    -6.405209
C       -1.272196     0.186154    -7.114262
C       -0.004116     0.031154    -5.004028
C        1.173613     0.166054    -4.255859
C        1.128884     0.149122    -2.865869
N        0.000000     0.000000    -2.150000
C       -1.128884    -0.149122    -2.865869
C       -1.176475    -0.144387    -4.255859
H        1.044559     0.450887    -8.200094
H        2.057866    -0.104783    -6.888041
H        1.388334     1.556060    -6.863207
H       -1.744760     1.142192    -6.863216
H       -1.125808     0.164175    -8.200095
H       -1.960074    -0.635536    -6.888035
H        2.142902     0.282071    -4.724118
H        2.037516     0.256428    -2.280573
H       -2.034214    -0.281433    -2.280573
H       -2.142643    -0.284041    -4.724117
67
ex_0167 frame49 cis-OC-6-5-conf9
Cd       0.000000     0.000000     0.000000
O        2.100000     0.000000     0.000000
S        3.600023    -0.000000     0.000000
C        4.144039    -1.637268     0.544355
C        4.144040    -0.188869    -1.715021
H        3.653090    -2.410738    -0.051062
H        3.873041    -1.762475     1.595326
H        5.228679    -1.714667     0.439208
H        3.653089    -1.052820    -2.169293
H        3.873043     0.713867    -2.267549
H        5.228680    -0.316729    -1.741456
C       -7.114259    -0.994597    -0.814817
N       -6.405209    -0.020939     0.014566
C       -7.114260     0.418030     1.215895
C       -5.004028    -0.025803     0.017949
C       -4.255859    -0.685815    -0.966746
C       -2.865869    -0.650254    -0.934765
N       -2.150000     0.000000     0.000000
C       -2.865869     0.650254     0.934765
C       -4.255859     0.667871     0.979230
H       -6.888038    -0.850693    -1.876724
H       -8.200093    -0.879750    -0.721426
H       -6.863204    -2.019504    -0.520054
H       -6.863195    -0.214785     2.074299
H       -6.888048     1.463694     1.450299
H       -8.200093     0.370403     1.075742
H       -4.724117    -1.233449    -1.774879
H       -2.280574    -1.162331    -1.692990
H       -2.280574     1.183048     1.678578
H       -4.724119     1.235086     1.773740
O        0.000000     2.100000     0.000000
S        0.000000     3.600023    -0.000000
C        0.447760     4.144040    -1.666276
C        1.535311     4.144040     0.787266
H       -0.360337     3.873044    -2.349795
H        1.370798     3.653090    -1.983728
H        0.578153     5.228680    -1.672937
H        1.627814     5.228680     0.695128
H        1.499059     3.873043     1.845048
H        2.390412     3.653091     0.316543
N        0.000000    -2.150000     0.000000
C        0.000000    -3.531231     0.000000
Se       0.003050    -5.299185    -0.011778
H        0.008638    -6.809030    -0.032713
N        0.000000     0.000000     2.150000
C       -0.000000     0.000000     3.531231
Se      -0.011215    -0.004717     5.299185
H       -0.031125    -0.013267     6.809030
C        0.911446    -0.906871    -7.114259
N       -0.012368    -0.022307    -6.405209
C       -1.252009     0.292615    -7.114260
C       -0.015241    -0.027490    -5.004028
C        1.031291    -0.584278    -4.255859
C        0.995869    -0.552142    -2.865869
N        0.000000     0.000000    -2.150000
C       -0.995869     0.552142    -2.865869
C       -1.041890     0.565160    -4.255859
H        1.953295    -0.656057    -6.888038
H        0.806894    -0.802083    -8.200093
H        0.722102    -1.956380    -6.863204
H       -2.041839    -0.423962    -6.863195
H       -1.591210     1.309128    -6.888048
H       -1.107749     0.259441    -8.200093
H        1.890777    -1.047165    -4.724117
H        1.802100    -0.984716    -2.280574
H       -1.789863     1.006787    -2.280574
H       -1.889810     1.048910    -4.724119
67
ex_0167 frame50 cis-OC-6-5-conf10
Cd       0.000000     0.000000     0.000000
O        2.100000     0.000000     0.000000
S        3.600023    -0.000000    -0.000000
C        4.144040    -1.661813     0.464051
C        4.144040     0.802259     1.527530
H        3.873044    -2.353210    -0.337315
H        3.653090    -1.970213     1.390153
H        5.228680    -1.667197     0.594504
H        5.228680     0.711031     1.620931
H        3.873043     1.859636     1.480924
H        3.653091     0.339931     2.387198
C       -7.114259    -1.279449     0.127124
N       -6.405209    -0.004506     0.025106
C       -7.114260     1.155359     0.564176
C       -5.004028    -0.005553     0.030938
C       -4.255859    -1.168538    -0.198648
C       -2.865869    -1.120778    -0.201179
N       -2.150000     0.000000     0.000000
C       -2.865869     1.120778     0.201179
C       -4.255859     1.164676     0.220164
H       -6.888038    -1.928575    -0.725513
H       -8.200093    -1.132202     0.111952
H       -6.863204    -1.795739     1.060272
H       -6.863195     1.314875     1.618627
H       -6.888048     2.060504    -0.009471
H       -8.200093     1.022579     0.498750
H       -4.724117    -2.127209    -0.382849
H       -2.280574    -2.019017    -0.375233
H       -2.280574     2.023476     0.350393
H       -4.724119     2.127562     0.380886
O        0.000000     2.100000     0.000000
S        0.000000     3.600023    -0.000000
C        0.447760     4.144040    -1.666276
C        1.535311     4.144040     0.787266
H       -0.360337     3.873044    -2.349795
H        1.370798     3.653090    -1.983728
H        0.578153     5.228680    -1.672937
H        1.627814     5.228680     0.695128
H        1.499059     3.873043     1.845048
H        2.390412     3.653091     0.316543
N        0.000000    -2.150000     0.000000
C        0.000000    -3.531231     0.000000
Se       0.003050    -5.299185    -0.011778
H        0.008638    -6.809030    -0.032713
N        0.000000     0.000000     2.150000
C       -0.000000     0.000000     3.531231
Se      -0.011215    -0.004717     5.299185
H       -0.031125    -0.013267     6.809030
C        0.914527     0.903763    -7.114260
N       -0.012290     0.022347    -6.405209
C       -1.252994    -0.288360    -7.114261
C       -0.015148     0.027542    -5.004028
C       -1.043812    -0.561603    -4.255859
C       -0.997746    -0.548743    -2.865869
N        0.000000     0.000000    -2.150000
C        0.997746     0.548743    -2.865869
C        1.033275     0.580760    -4.255859
H        0.809616     0.799331    -8.200092
H        1.955517     0.649410    -6.888042
H        0.728749     1.953908    -6.863205
H       -1.595658    -1.303710    -6.888038
H       -2.040379     0.430908    -6.863213
H       -1.108614    -0.255693    -8.200094
H       -1.893378    -1.042455    -4.724118
H       -1.793287    -1.000676    -2.280573
H        1.805446     0.978568    -2.280574
H        1.894332     1.040720    -4.724118
67
ex_0167 frame51 cis-OC-6-6
Cd       0.000000     0.000000     0.000000
O        2.100000     0.000000     0.000000
S        3.600023    -0.000000    -0.000000
C        4.144040    -1.661813     0.464051
C        4.144040     0.802259     1.527530
H        3.873044    -2.353210    -0.337315
H        3.653090    -1.970213     1.390153
H        5.228680    -1.667197     0.594504
H        5.228680     0.711031     1.620931
H        3.873043     1.859636     1.480924
H        3.653091     0.339931     2.387198
N       -2.150000     0.000000     0.000000
C       -3.531231    -0.000000     0.000000
Se      -5.299185    -0.003485    -0.011656
H       -6.809030    -0.009848    -0.032370
O        0.000000     2.100000     0.000000
S        0.000000     3.600023    -0.000000
C        0.447760     4.144040    -1.666276
C        1.535311     4.144040     0.787266
H       -0.360337     3.873044    -2.349795
H        1.370798     3.653090    -1.983728
H        0.578153     5.228680    -1.672937
H        1.627814     5.228680     0.695128
H        1.499059     3.873043     1.845048
H        2.390412     3.653091     0.316543
N        0.000000    -2.150000     0.000000
C        0.000000    -3.531231     0.000000
Se       0.003050    -5.299185    -0.011778
H        0.008638    -6.809030    -0.032713
C       -1.240076    -0.339629     7.114261
N       -0.013193     0.021812     6.405209
C        0.876612     0.940578     7.114262
C       -0.016263     0.026889     5.004028
C       -1.019839    -0.604044     4.255859
C       -0.974343    -0.589298     2.865869
N        0.000000     0.000000     2.150000
C        0.974343     0.589298     2.865869
C        1.008529     0.622744     4.255859
H       -1.097166    -0.301049     8.200094
H       -1.540715    -1.368206     6.888041
H       -2.056361     0.346665     6.863207
H        0.647819     1.982201     6.863216
H        0.776092     0.831912     8.200095
H        1.927177     0.729236     6.888035
H       -1.848919    -1.119414     4.724118
H       -1.750634    -1.073551     2.280573
H        1.763687     1.051969     2.280573
H        1.849948     1.117715     4.724117
C        0.911446    -0.906871    -7.114259
N       -0.012368    -0.022307    -6.405209
C       -1.252009     0.292615    -7.114260
C       -0.015241    -0.027490    -5.004028
C        1.031291    -0.584278    -4.255859
C        0.995869    -0.552142    -2.865869
N        0.000000     0.000000    -2.150000
C       -0.995869     0.552142    -2.865869
C       -1.041890     0.565160    -4.255859
H        1.953295    -0.656057    -6.888038
H        0.806894    -0.802083    -8.200093
H        0.722102    -1.956380    -6.863204
H       -2.041839    -0.423962    -6.863195
H       -1.591210     1.309128    -6.888048
H       -1.107749     0.259441    -8.200093
H        1.890777    -1.047165    -4.724117
H        1.802100    -0.984716    -2.280574
H       -1.789863     1.006787    -2.280574
H       -1.889810     1.048910    -4.724119
67
ex_0167 frame52 cis-OC-6-6-conf1
Cd       0.000000     0.000000     0.000000
O        2.100000     0.000000     0.000000
S        3.600023    -0.000000    -0.000000
C        4.144040    -1.661813     0.464051
C        4.144040     0.802259     1.527530
H        3.873044    -2.353210    -0.337315
H        3.653090    -1.970213     1.390153
H        5.228680    -1.667197     0.594504
H        5.228680     0.711031     1.620931
H        3.873043     1.859636     1.480924
H        3.653091     0.339931     2.387198
N       -2.150000     0.000000     0.000000
C       -3.531231    -0.000000     0.000000
Se      -5.299185    -0.003485    -0.011656
H       -6.809030    -0.009848    -0.032370
O        0.000000     2.100000     0.000000
S        0.000000     3.600023    -0.000000
C        0.447760     4.144040    -1.666276
C        1.535311     4.144040     0.787266
H       -0.360337     3.873044    -2.349795
H        1.370798     3.653090    -1.983728
H        0.578153     5.228680    -1.672937
H        1.627814     5.228680     0.695128
H        1.499059     3.873043     1.845048
H        2.390412     3.653091     0.316543
N        0.000000    -2.150000     0.000000
C        0.000000    -3.531231     0.000000
Se       0.003050    -5.299185    -0.011778
H        0.008638    -6.809030    -0.032713
C       -0.944506    -0.872386     7.114259
N        0.011531    -0.022752     6.405209
C        1.262015     0.245903     7.114260
C        0.014209    -0.028037     5.004028
C       -1.052284    -0.545564     4.255859
C       -1.015693    -0.514766     2.865869
N        0.000000     0.000000     2.150000
C        1.015693     0.514766     2.865869
C        1.062166     0.526066     4.255859
H       -1.976318    -0.583042     6.888038
H       -0.836133    -0.771555     8.200093
H       -0.794280    -1.928205     6.863204
H        2.024680    -0.499520     6.863195
H        1.638744     1.249114     6.888048
H        1.116623     0.218111     8.200093
H       -1.928372    -0.976203     4.724117
H       -1.837436    -0.917091     2.280574
H        1.826028     0.939602     2.280574
H        1.927470     0.977983     4.724119
C        0.911446    -0.906871    -7.114259
N       -0.012368    -0.022307    -6.405209
C       -1.252009     0.292615    -7.114260
C       -0.015241    -0.027490    -5.004028
C        1.031291    -0.584278    -4.255859
C        0.995869    -0.552142    -2.865869
N        0.000000     0.000000    -2.150000
C       -0.995869     0.552142    -2.865869
C       -1.041890     0.565160    -4.255859
H        1.953295    -0.656057    -6.888038
H        0.806894    -0.802083    -8.200093
H        0.722102    -1.956380    -6.863204
H       -2.041839    -0.423962    -6.863195
H       -1.591210     1.309128    -6.888048
H       -1.107749     0.259441    -8.200093
H        1.890777    -1.047165    -4.724117
H        1.802100    -0.984716    -2.280574
H       -1.789863     1.006787    -2.280574
H       -1.889810     1.048910    -4.724119
67
ex_0167 frame53 cis-OC-6-6-conf2
Cd       0.000000     0.000000     0.000000
O        2.100000     0.000000     0.000000
S        3.600023     0.000000     0.000000
C        4.144039     1.338574     1.088664
C        4.144039    -1.345187     1.080482
H        3.873041     2.292326     0.629782
H        5.228680     1.291453     1.210428
H        3.653090     1.251781     2.060901
H        3.873043    -2.296124     0.615791
H        3.653090    -1.264326     2.053229
H        5.228680    -1.298809     1.202529
N       -2.150000     0.000000     0.000000
C       -3.531231    -0.000000     0.000000
Se      -5.299185    -0.003485    -0.011656
H       -6.809030    -0.009848    -0.032370
O        0.000000     2.100000     0.000000
S        0.000000     3.600023    -0.000000
C        0.447760     4.144040    -1.666276
C        1.535311     4.144040     0.787266
H       -0.360337     3.873044    -2.349795
H        1.370798     3.653090    -1.983728
H        0.578153     5.228680    -1.672937
H        1.627814     5.228680     0.695128
H        1.499059     3.873043     1.845048
H        2.390412     3.653091     0.316543
N        0.000000    -2.150000     0.000000
C        0.000000    -3.531231     0.000000
Se       0.003050    -5.299185    -0.011778
H        0.008638    -6.809030    -0.032713
C       -1.138113    -0.598204     7.114259
N        0.005250    -0.024961     6.405209
C        1.282657    -0.089110     7.114260
C        0.006469    -0.030759     5.004028
C       -1.157631    -0.254623     4.255859
C       -1.114315    -0.234345     2.865869
N        0.000000     0.000000     2.150000
C        1.114315     0.234345     2.865869
C        1.162129     0.233232     4.255859
H       -2.059879    -0.051667     6.888038
H       -1.007336    -0.528857     8.200093
H       -1.266272    -1.656928     6.863204
H        1.826406    -1.006525     6.863195
H        1.906199     0.782414     6.888048
H        1.135026    -0.078324     8.200093
H       -2.115324    -0.443841     4.724117
H       -2.012188    -0.410278     2.280574
H        2.006994     0.434975     2.280574
H        2.114914     0.445793     4.724119
C        0.911446    -0.906871    -7.114259
N       -0.012368    -0.022307    -6.405209
C       -1.252009     0.292615    -7.114260
C       -0.015241    -0.027490    -5.004028
C        1.031291    -0.584278    -4.255859
C        0.995869    -0.552142    -2.865869
N        0.000000     0.000000    -2.150000
C       -0.995869     0.552142    -2.865869
C       -1.041890     0.565160    -4.255859
H        1.953295    -0.656057    -6.888038
H        0.806894    -0.802083    -8.200093
H        0.722102    -1.956380    -6.863204
H       -2.041839    -0.423962    -6.863195
H       -1.591210     1.309128    -6.888048
H       -1.107749     0.259441    -8.200093
H        1.890777    -1.047165    -4.724117
H        1.802100    -0.984716    -2.280574
H       -1.789863     1.006787    -2.280574
H       -1.889810     1.048910    -4.724119
67
ex_0167 frame54 cis-OC-6-6-conf3
Cd       0.000000     0.000000     0.000000
O        2.100000     0.000000     0.000000
S        3.600023    -0.000000    -0.000000
C        4.144040    -1.661813     0.464051
C        4.144040     0.802259     1.527530
H        3.873044    -2.353210    -0.337315
H        3.653090    -1.970213     1.390153
H        5.228680    -1.667197     0.594504
H        5.228680     0.711031     1.620931
H        3.873043     1.859636     1.480924
H        3.653091     0.339931     2.387198
N       -2.150000     0.000000     0.000000
C       -3.531231    -0.000000     0.000000
Se      -5.299185    -0.003485    -0.011656
H       -6.809030    -0.009848    -0.032370
O        0.000000     2.100000     0.000000
S        0.000000     3.600023    -0.000000
C        0.447760     4.144040    -1.666276
C        1.535311     4.144040     0.787266
H       -0.360337     3.873044    -2.349795
H        1.370798     3.653090    -1.983728
H        0.578153     5.228680    -1.672937
H        1.627814     5.228680     0.695128
H        1.499059     3.873043     1.845048
H        2.390412     3.653091     0.316543
N        0.000000    -2.150000     0.000000
C        0.000000    -3.531231     0.000000
Se       0.003050    -5.299185    -0.011778
H        0.008638    -6.809030    -0.032713
C       -0.944506    -0.872386     7.114259
N        0.011531    -0.022752     6.405209
C        1.262015     0.245903     7.114260
C        0.014209    -0.028037     5.004028
C       -1.052284    -0.545564     4.255859
C       -1.015693    -0.514766     2.865869
N        0.000000     0.000000     2.150000
C        1.015693     0.514766     2.865869
C        1.062166     0.526066     4.255859
H       -1.976318    -0.583042     6.888038
H       -0.836133    -0.771555     8.200093
H       -0.794280    -1.928205     6.863204
H        2.024680    -0.499520     6.863195
H        1.638744     1.249114     6.888048
H        1.116623     0.218111     8.200093
H       -1.928372    -0.976203     4.724117
H       -1.837436    -0.917091     2.280574
H        1.826028     0.939602     2.280574
H        1.927470     0.977983     4.724119
C        0.074761     1.283579    -7.114256
N        0.024905     0.005531    -6.405208
C        0.610892    -1.131348    -7.114263
C        0.030689     0.006814    -5.004028
C       -0.246234     1.159444    -4.255858
C       -0.246813     1.111620    -2.865869
N        0.000000     0.000000    -2.150000
C        0.246813    -1.111620    -2.865869
C        0.267582    -1.154704    -4.255859
H        0.065635     1.135838    -8.200089
H       -0.803686     1.897330    -6.888048
H        0.986034     1.837556    -6.863187
H        1.670985    -1.247653    -6.863219
H        0.540077    -1.001354    -8.200095
H        0.074705    -2.059171    -6.888037
H       -0.469450     2.109789    -4.724118
H       -0.457425     2.001997    -2.280573
H        0.432797    -2.007465    -2.280574
H        0.467529    -2.110216    -4.724117
67
ex_0167 frame55 cis-OC-6-6-conf4
Cd       0.000000     0.000000     0.000000
O        2.100000     0.000000     0.000000
S        3.600023    -0.000000    -0.000000
C        4.144040    -1.661813     0.464051
C        4.144040     0.802259     1.527530
H        3.873044    -2.353210    -0.337315
H        3.653090    -1.970213     1.390153
H        5.228680    -1.667197     0.594504
H        5.228680     0.711031     1.620931
H        3.873043     1.859636     1.480924
H        3.653091     0.339931     2.387198
N       -2.150000     0.000000     0.000000
C       -3.531231    -0.000000     0.000000
Se      -5.299185    -0.003485    -0.011656
H       -6.809030    -0.009848    -0.032370
O        0.000000     2.100000     0.000000
S        0.000000     3.600023    -0.000000
C        0.447760     4.144040    -1.666276
C        1.535311     4.144040     0.787266
H       -0.360337     3.873044    -2.349795
H        1.370798     3.653090    -1.983728
H        0.578153     5.228680    -1.672937
H        1.627814     5.228680     0.695128
H        1.499059     3.873043     1.845048
H        2.390412     3.653091     0.316543
N        0.000000    -2.150000     0.000000
C        0.000000    -3.531231     0.000000
Se       0.003050    -5.299185    -0.011778
H        0.008638    -6.809030    -0.032713
C       -0.429474     1.211906     7.114256
N       -0.025460    -0.001628     6.405208
C       -0.271441    -1.256765     7.114263
C       -0.031372    -0.002008     5.004028
C       -0.086603     1.182134     4.255858
C       -0.072720     1.136366     2.865869
N        0.000000     0.000000     2.150000
C        0.072720    -1.136366     2.865869
C        0.064780    -1.183531     4.255859
H       -0.379541     1.072559     8.200089
H        0.243154     2.046131     6.888048
H       -1.459022     1.490010     6.863187
H       -1.257136    -1.663862     6.863219
H       -0.239653    -1.112187     8.200095
H        0.502050    -1.998427     6.888037
H       -0.137045     2.157037     4.724118
H       -0.118558     2.050165     2.280573
H        0.143734    -2.048553     2.280574
H        0.139009    -2.156912     4.724117
C        0.911446    -0.906871    -7.114259
N       -0.012368    -0.022307    -6.405209
C       -1.252009     0.292615    -7.114260
C       -0.015241    -0.027490    -5.004028
C        1.031291    -0.584278    -4.255859
C        0.995869    -0.552142    -2.865869
N        0.000000     0.000000    -2.150000
C       -0.995869     0.552142    -2.865869
C       -1.041890     0.565160    -4.255859
H        1.953295    -0.656057    -6.888038
H        0.806894    -0.802083    -8.200093
H        0.722102    -1.956380    -6.863204
H       -2.041839    -0.423962    -6.863195
H       -1.591210     1.309128    -6.888048
H       -1.107749     0.259441    -8.200093
H        1.890777    -1.047165    -4.724117
H        1.802100    -0.984716    -2.280574
H       -1.789863     1.006787    -2.280574
H       -1.889810     1.048910    -4.724119
67
ex_0167 frame56 cis-OC-6-6-conf5
Cd       0.000000     0.000000     0.000000
O        2.100000     0.000000     0.000000
S        3.600023    -0.000000    -0.000000
C        4.144040    -1.661813     0.464051
C        4.144040     0.802259     1.527530
H        3.873044    -2.353210    -0.337315
H        3.653090    -1.970213     1.390153
H        5.228680    -1.667197     0.594504
H        5.228680     0.711031     1.620931
H        3.873043     1.859636     1.480924
H        3.653091     0.339931     2.387198
N       -2.150000     0.000000     0.000000
C       -3.531231    -0.000000     0.000000
Se      -5.299185    -0.003485    -0.011656
H       -6.809030    -0.009848    -0.032370
O        0.000000     2.100000     0.000000
S       -0.000000     3.600023    -0.000000
C       -1.714833     4.144039    -0.190572
C        0.173313     4.144039     1.716663
H       -2.056678     3.873041    -1.192250
H       -1.768576     5.228680    -0.071584
H       -2.346965     3.653090     0.553192
H        1.171502     3.873043     2.068566
H       -0.576772     3.653090     2.341283
H        0.053789     5.228680     1.769205
N        0.000000    -2.150000     0.000000
C        0.000000    -3.531231     0.000000
Se       0.003050    -5.299185    -0.011778
H        0.008638    -6.809030    -0.032713
C       -0.944506    -0.872386     7.114259
N        0.011531    -0.022752     6.405209
C        1.262015     0.245903     7.114260
C        0.014209    -0.028037     5.004028
C       -1.052284    -0.545564     4.255859
C       -1.015693    -0.514766     2.865869
N        0.000000     0.000000     2.150000
C        1.015693     0.514766     2.865869
C        1.062166     0.526066     4.255859
H       -1.976318    -0.583042     6.888038
H       -0.836133    -0.771555     8.200093
H       -0.794280    -1.928205     6.863204
H        2.024680    -0.499520     6.863195
H        1.638744     1.249114     6.888048
H        1.116623     0.218111     8.200093
H       -1.928372    -0.976203     4.724117
H       -1.837436    -0.917091     2.280574
H        1.826028     0.939602     2.280574
H        1.927470     0.977983     4.724119
C        1.180222     0.510112    -7.114261
N       -0.003338     0.025272    -6.405209
C       -1.272196     0.186154    -7.114262
C       -0.004116     0.031154    -5.004028
C        1.173613     0.166054    -4.255859
C        1.128884     0.149122    -2.865869
N        0.000000     0.000000    -2.150000
C       -1.128884    -0.149122    -2.865869
C       -1.176475    -0.144387    -4.255859
H        1.044559     0.450887    -8.200094
H        2.057866    -0.104783    -6.888041
H        1.388334     1.556060    -6.863207
H       -1.744760     1.142192    -6.863216
H       -1.125808     0.164175    -8.200095
H       -1.960074    -0.635536    -6.888035
H        2.142902     0.282071    -4.724118
H        2.037516     0.256428    -2.280573
H       -2.034214    -0.281433    -2.280573
H       -2.142643    -0.284041    -4.724117
67
ex_0167 frame57 cis-OC-6-6-conf6
Cd       0.000000     0.000000     0.000000
O        2.100000     0.000000     0.000000
S        3.600023    -0.000000    -0.000000
C        4.144040    -1.661813     0.464051
C        4.144040     0.802259     1.527530
H        3.873044    -2.353210    -0.337315
H        3.653090    -1.970213     1.390153
H        5.228680    -1.667197     0.594504
H        5.228680     0.711031     1.620931
H        3.873043     1.859636     1.480924
H        3.653091     0.339931     2.387198
N       -2.150000     0.000000     0.000000
C       -3.531231    -0.000000     0.000000
Se      -5.299185    -0.003485    -0.011656
H       -6.809030    -0.009848    -0.032370
O        0.000000     2.100000     0.000000
S       -0.000000     3.600023    -0.000000
C       -1.058545     4.144039     1.362516
C        1.554219     4.144040     0.749246
H       -0.754709     3.653090     2.290126
H       -2.091220     3.873041     1.130567
H       -0.985178     5.228679     1.470514
H        1.694835     3.653089     1.715167
H        2.375848     3.873043     0.082054
H        1.536564     5.228680     0.878611
N        0.000000    -2.150000     0.000000
C        0.000000    -3.531231     0.000000
Se       0.003050    -5.299185    -0.011778
H        0.008638    -6.809030    -0.032713
C       -0.944506    -0.872386     7.114259
N        0.011531    -0.022752     6.405209
C        1.262015     0.245903     7.114260
C        0.014209    -0.028037     5.004028
C       -1.052284    -0.545564     4.255859
C       -1.015693    -0.514766     2.865869
N        0.000000     0.000000     2.150000
C        1.015693     0.514766     2.865869
C        1.062166     0.526066     4.255859
H       -1.976318    -0.583042     6.888038
H       -0.836133    -0.771555     8.200093
H       -0.794280    -1.928205     6.863204
H        2.024680    -0.499520     6.863195
H        1.638744     1.249114     6.888048
H        1.116623     0.218111     8.200093
H       -1.928372    -0.976203     4.724117
H       -1.837436    -0.917091     2.280574
H        1.826028     0.939602     2.280574
H        1.927470     0.977983     4.724119
C        0.911446    -0.906871    -7.114259
N       -0.012368    -0.022307    -6.405209
C       -1.252009     0.292615    -7.114260
C       -0.015241    -0.027490    -5.004028
C        1.031291    -0.584278    -4.255859
C        0.995869    -0.552142    -2.865869
N        0.000000     0.000000    -2.150000
C       -0.995869     0.552142    -2.865869
C       -1.041890     0.565160    -4.255859
H        1.953295    -0.656057    -6.888038
H        0.806894    -0.802083    -8.200093
H        0.722102    -1.956380    -6.863204
H       -2.041839    -0.423962    -6.863195
H       -1.591210     1.309128    -6.888048
H       -1.107749     0.259441    -8.200093
H        1.890777    -1.047165    -4.724117
H        1.802100    -0.984716    -2.280574
H       -1.789863     1.006787    -2.280574
H       -1.889810     1.048910    -4.724119
67
ex_0167 frame58 cis-OC-6-6-conf7
Cd       0.000000     0.000000     0.000000
O        2.100000     0.000000     0.000000
S        3.600023    -0.000000     0.000000
C        4.144039    -1.637268     0.544355
C        4.144040    -0.188869    -1.715021
H        3.653090    -2.410738    -0.051062
H        3.873041    -1.762475     1.595326
H        5.228679    -1.714667     0.439208
H        3.653089    -1.052820    -2.169293
H        3.873043     0.713867    -2.267549
H        5.228680    -0.316729    -1.741456
N       -2.150000     0.000000     0.000000
C       -3.531231    -0.000000     0.000000
Se      -5.299185    -0.003485    -0.011656
H       -6.809030    -0.009848    -0.032370
O        0.000000     2.100000     0.000000
S        0.000000     3.600023    -0.000000
C        0.447760     4.144040    -1.666276
C        1.535311     4.144040     0.787266
H       -0.360337     3.873044    -2.349795
H        1.370798     3.653090    -1.983728
H        0.578153     5.228680    -1.672937
H        1.627814     5.228680     0.695128
H        1.499059     3.873043     1.845048
H        2.390412     3.653091     0.316543
N        0.000000    -2.150000     0.000000
C        0.000000    -3.531231     0.000000
Se       0.003050    -5.299185    -0.011778
H        0.008638    -6.809030    -0.032713
C       -1.138113    -0.598204     7.114259
N        0.005250    -0.024961     6.405209
C        1.282657    -0.089110     7.114260
C        0.006469    -0.030759     5.004028
C       -1.157631    -0.254623     4.255859
C       -1.114315    -0.234345     2.865869
N        0.000000     0.000000     2.150000
C        1.114315     0.234345     2.865869
C        1.162129     0.233232     4.255859
H       -2.059879    -0.051667     6.888038
H       -1.007336    -0.528857     8.200093
H       -1.266272    -1.656928     6.863204
H        1.826406    -1.006525     6.863195
H        1.906199     0.782414     6.888048
H        1.135026    -0.078324     8.200093
H       -2.115324    -0.443841     4.724117
H       -2.012188    -0.410278     2.280574
H        2.006994     0.434975     2.280574
H        2.114914     0.445793     4.724119
C        0.911446    -0.906871    -7.114259
N       -0.012368    -0.022307    -6.405209
C       -1.252009     0.292615    -7.114260
C       -0.015241    -0.027490    -5.004028
C        1.031291    -0.584278    -4.255859
C        0.995869    -0.552142    -2.865869
N        0.000000     0.000000    -2.150000
C       -0.995869     0.552142    -2.865869
C       -1.041890     0.565160    -4.255859
H        1.953295    -0.656057    -6.888038
H        0.806894    -0.802083    -8.200093
H        0.722102    -1.956380    -6.863204
H       -2.041839    -0.423962    -6.863195
H       -1.591210     1.309128    -6.888048
H       -1.107749     0.259441    -8.200093
H        1.890777    -1.047165    -4.724117
H        1.802100    -0.984716    -2.280574
H       -1.789863     1.006787    -2.280574
H       -1.889810     1.048910    -4.724119
67
ex_0167 frame59 cis-OC-6-6-conf8
Cd       0.000000     0.000000     0.000000
O        2.100000     0.000000     0.000000
S        3.600023    -0.000000    -0.000000
C        4.144040    -1.661813     0.464051
C        4.144040     0.802259     1.527530
H        3.873044    -2.353210    -0.337315
H        3.653090    -1.970213     1.390153
H        5.228680    -1.667197     0.594504
H        5.228680     0.711031     1.620931
H        3.873043     1.859636     1.480924
H        3.653091     0.339931     2.387198
N       -2.150000     0.000000     0.000000
C       -3.531231    -0.000000     0.000000
Se      -5.299185    -0.003485    -0.011656
H       -6.809030    -0.009848    -0.032370
O        0.000000     2.100000     0.000000
S        0.000000     3.600023    -0.000000
C        0.447760     4.144040    -1.666276
C        1.535311     4.144040     0.787266
H       -0.360337     3.873044    -2.349795
H        1.370798     3.653090    -1.983728
H        0.578153     5.228680    -1.672937
H        1.627814     5.228680     0.695128
H        1.499059     3.873043     1.845048
H        2.390412     3.653091     0.316543
N        0.000000    -2.150000     0.000000
C        0.000000    -3.531231     0.000000
Se       0.003050    -5.299185    -0.011778
H        0.008638    -6.809030    -0.032713
C       -0.944506    -0.872386     7.114259
N        0.011531    -0.022752     6.405209
C        1.262015     0.245903     7.114260
C        0.014209    -0.028037     5.004028
C       -1.052284    -0.545564     4.255859
C       -1.015693    -0.514766     2.865869
N        0.000000     0.000000     2.150000
C        1.015693     0.514766     2.865869
C        1.062166     0.526066     4.255859
H       -1.976318    -0.583042     6.888038
H       -0.836133    -0.771555     8.200093
H       -0.794280    -1.928205     6.863204
H        2.024680    -0.499520     6.863195
H        1.638744     1.249114     6.888048
H        1.116623     0.218111     8.200093
H       -1.928372    -0.976203     4.724117
H       -1.837436    -0.917091     2.280574
H        1.826028     0.939602     2.280574
H        1.927470     0.977983     4.724119
C        0.914527     0.903763    -7.114260
N       -0.012290     0.022347    -6.405209
C       -1.252994    -0.288360    -7.114261
C       -0.015148     0.027542    -5.004028
C       -1.043812    -0.561603    -4.255859
C       -0.997746    -0.548743    -2.865869
N        0.000000     0.000000    -2.150000
C        0.997746     0.548743    -2.865869
C        1.033275     0.580760    -4.255859
H        0.809616     0.799331    -8.200092
H        1.955517     0.649410    -6.888042
H        0.728749     1.953908    -6.863205
H       -1.595658    -1.303710    -6.888038
H       -2.040379     0.430908    -6.863213
H       -1.108614    -0.255693    -8.200094
H       -1.893378    -1.042455    -4.724118
H       -1.793287    -1.000676    -2.280573
H        1.805446     0.978568    -2.280574
H        1.894332     1.040720    -4.724118
67
ex_0167 frame60 cis-OC-6-6-conf9
Cd       0.000000     0.000000     0.000000
O        2.100000     0.000000     0.000000
S        3.600023    -0.000000    -0.000000
C        4.144040    -1.661813     0.464051
C        4.144040     0.802259     1.527530
H        3.873044    -2.353210    -0.337315
H        3.653090    -1.970213     1.390153
H        5.228680    -1.667197     0.594504
H        5.228680     0.711031     1.620931
H        3.873043     1.859636     1.480924
H        3.653091     0.339931     2.387198
N       -2.150000     0.000000     0.000000
C       -3.531231    -0.000000     0.000000
Se      -5.299185    -0.003485    -0.011656
H       -6.809030    -0.009848    -0.032370
O        0.000000     2.100000     0.000000
S        0.000000     3.600023    -0.000000
C        0.447760     4.144040    -1.666276
C        1.535311     4.144040     0.787266
H       -0.360337     3.873044    -2.349795
H        1.370798     3.653090    -1.983728
H        0.578153     5.228680    -1.672937
H        1.627814     5.228680     0.695128
H        1.499059     3.873043     1.845048
H        2.390412     3.653091     0.316543
N        0.000000    -2.150000     0.000000
C        0.000000    -3.531231     0.000000
Se       0.003050    -5.299185    -0.011778
H        0.008638    -6.809030    -0.032713
C       -0.593236     1.140709     7.114260
N        0.018552     0.017500     6.405209
C        1.104149    -0.658787     7.114261
C        0.022866     0.021568     5.004028
C        0.821239    -0.854697     4.255859
C        0.781338    -0.828328     2.865869
N        0.000000     0.000000     2.150000
C       -0.781338     0.828327     2.865869
C       -0.805334     0.869699     4.255859
H       -0.525415     1.009133     8.200092
H       -1.662065     1.217916     6.888042
H       -0.094306     2.083252     6.863205
H        1.118861    -1.730299     6.888038
H        2.074199    -0.215701     6.863213
H        0.976748    -0.583409     8.200094
H        1.482364    -1.572956     4.724118
H        1.399912    -1.502489     2.280573
H       -1.418267     1.485177     2.280574
H       -1.483804     1.571597     4.724118
C        0.911446    -0.906871    -7.114259
N       -0.012368    -0.022307    -6.405209
C       -1.252009     0.292615    -7.114260
C       -0.015241    -0.027490    -5.004028
C        1.031291    -0.584278    -4.255859
C        0.995869    -0.552142    -2.865869
N        0.000000     0.000000    -2.150000
C       -0.995869     0.552142    -2.865869
C       -1.041890     0.565160    -4.255859
H        1.953295    -0.656057    -6.888038
H        0.806894    -0.802083    -8.200093
H        0.722102    -1.956380    -6.863204
H       -2.041839    -0.423962    -6.863195
H       -1.591210     1.309128    -6.888048
H       -1.107749     0.259441    -8.200093
H        1.890777    -1.047165    -4.724117
H        1.802100    -0.984716    -2.280574
H       -1.789863     1.006787    -2.280574
H       -1.889810     1.048910    -4.724119
67
ex_0167 frame61 cis-OC-6-6-conf10
Cd       0.000000     0.000000     0.000000
O        2.100000     0.000000     0.000000
S        3.600023    -0.000000    -0.000000
C        4.144040    -1.661813     0.464051
C        4.144040     0.802259     1.527530
H        3.873044    -2.353210    -0.337315
H        3.653090    -1.970213     1.390153
H        5.228680    -1.667197     0.594504
H        5.228680     0.711031     1.620931
H        3.873043     1.859636     1.480924
H        3.653091     0.339931     2.387198
N       -2.150000     0.000000     0.000000
C       -3.531231    -0.000000     0.000000
Se      -5.299185    -0.003485    -0.011656
H       -6.809030    -0.009848    -0.032370
O        0.000000     2.100000     0.000000
S       -0.000000     3.600023    -0.000000
C       -1.714833     4.144039    -0.190572
C        0.173313     4.144039     1.716663
H       -2.056678     3.873041    -1.192250
H       -1.768576     5.228680    -0.071584
H       -2.346965     3.653090     0.553192
H        1.171502     3.873043     2.068566
H       -0.576772     3.653090     2.341283
H        0.053789     5.228680     1.769205
N        0.000000    -2.150000     0.000000
C        0.000000    -3.531231     0.000000
Se       0.003050    -5.299185    -0.011778
H        0.008638    -6.809030    -0.032713
C       -0.977888     0.834804     7.114256
N       -0.021235    -0.014140     6.405208
C        0.393308    -1.224111     7.114263
C       -0.026165    -0.017425     5.004028
C       -0.666067     0.980456     4.255858
C       -0.631161     0.947762     2.865869
N        0.000000     0.000000     2.150000
C        0.631161    -0.947762     2.865869
C        0.647866    -0.992578     4.255859
H       -0.864972     0.739093     8.200089
H       -0.812488     1.893578     6.888048
H       -2.008555     0.560876     6.863187
H       -0.256781    -2.069515     6.863219
H        0.348548    -1.083009     8.200095
H        1.434002    -1.479664     6.888037
H       -1.197203     1.799526     4.724118
H       -1.127757     1.716216     2.280573
H        1.148754    -1.702232     2.280574
H        1.198842    -1.798436     4.724117
C        0.911446    -0.906871    -7.114259
N       -0.012368    -0.022307    -6.405209
C       -1.252009     0.292615    -7.114260
C       -0.015241    -0.027490    -5.004028
C        1.031291    -0.584278    -4.255859
C        0.995869    -0.552142    -2.865869
N        0.000000     0.000000    -2.150000
C       -0.995869     0.552142    -2.865869
C       -1.041890     0.565160    -4.255859
H        1.953295    -0.656057    -6.888038
H        0.806894    -0.802083    -8.200093
H        0.722102    -1.956380    -6.863204
H       -2.041839    -0.423962    -6.863195
H       -1.591210     1.309128    -6.888048
H       -1.107749     0.259441    -8.200093
H        1.890777    -1.047165    -4.724117
H        1.802100    -0.984716    -2.280574
H       -1.789863     1.006787    -2.280574
H       -1.889810     1.048910    -4.724119
