53
ex_0017 frame0 Isomer 1
C       -0.294354     4.041848    -1.877895
C       -1.036738     3.839780    -0.790082
C       -0.964069     2.625970    -0.106819
N       -0.074408     1.785073    -0.661115
C        0.636575     1.910800    -1.772523
C        0.644669     3.019112    -2.413487
C        1.406723     0.732958    -2.230519
N        0.748537    -0.434475    -1.708839
C       -0.048086    -1.231771    -2.613870
C       -1.457020    -0.920746    -2.115854
C       -2.550004    -1.077603    -2.892583
N       -3.511121    -0.618113    -1.906081
C       -2.912939    -0.263073    -0.743080
N       -1.737237    -0.513825    -1.008779
Ni      -0.116672    -0.069128     0.048174
N        1.475190     0.476873     1.099641
C        2.651403     0.056748     0.614275
C        3.698997     0.286358     1.511156
C        3.460424     0.827544     2.696890
C        2.100992     1.231071     3.140487
C        1.180970     0.952309     2.294540
C       -0.250304     1.152961     2.624944
N       -0.944716     0.198536     1.834832
C       -1.565773    -0.935329     2.410914
C       -0.679865    -2.047334     1.797062
C       -0.524100    -3.235367     2.362018
N        0.389078    -3.757449     1.369232
C        0.651308    -2.857259     0.392492
N       -0.057762    -1.922748     0.752136
H       -0.365912     4.945991    -2.383313
H       -1.718961     4.575029    -0.383348
H       -1.561492     2.419748     0.708172
H        1.222961     3.159212    -3.283586
H        1.345225     0.574934    -3.288482
H        2.463451     0.793895    -1.986031
H        1.436595    -0.974107    -1.480989
H        0.204276    -2.284902    -2.458831
H        0.179348    -0.902654    -3.575534
H       -2.698090    -1.403707    -3.894786
H       -4.514292    -0.543962    -1.995590
H       -3.275692     0.119723     0.175810
H        2.794293    -0.414483    -0.292833
H        4.675389    -0.006703     1.169989
H        4.248228     0.979142     3.352097
H        1.892772     1.644865     4.087593
H       -0.400901     0.791064     3.620062
H       -0.622599     2.180330     2.602687
H       -1.744892     0.740528     1.556251
H       -2.614124    -1.032207     2.104191
H       -1.470284    -0.799319     3.437658
H       -0.905485    -3.675229     3.252703
H        0.818941    -4.669374     1.337047
H        1.260241    -2.875780    -0.470861
53
ex_0017 frame1 Isomer 2
C        1.836027     2.223534     3.224947
C        1.189099     1.099043     3.539531
C        0.649530     0.293881     2.517121
N        0.884101     0.741049     1.242291
C        1.611802     1.845753     0.881502
C        2.056949     2.646538     1.813825
C        1.837251     2.046422    -0.536029
N        1.732941     0.726726    -1.211027
C        3.055321     0.056388    -1.478796
C        3.193873    -1.092230    -0.519170
C        4.241032    -1.760733    -0.146977
N        3.704761    -2.710301     0.811044
C        2.330036    -2.546107     0.882801
N        2.108174    -1.536529     0.071646
Ni       0.469305    -0.488815    -0.259713
N        0.100628    -1.640963    -1.848684
C        0.468486    -1.281777    -3.126254
C       -0.066021    -2.156353    -4.092286
C       -0.791563    -3.235035    -3.756200
C       -1.108178    -3.565637    -2.362880
C       -0.682631    -2.718269    -1.460266
C       -1.026359    -2.891441    -0.016677
N       -0.859403    -1.628667     0.697873
C       -2.081403    -0.885125     1.051787
C       -2.208835     0.211817     0.013900
C       -3.253916     0.853076    -0.379724
N       -2.745103     1.720717    -1.425603
C       -1.381385     1.525296    -1.552974
N       -1.118384     0.639563    -0.641161
H        2.224917     2.811438     4.007992
H        1.018446     0.718171     4.524457
H        0.100341    -0.604858     2.755995
H        2.617791     3.513675     1.553367
H        1.026964     2.700810    -0.917435
H        2.830717     2.439942    -0.690902
H        1.375003     1.017315    -2.076831
H        3.858347     0.778739    -1.381683
H        3.041272    -0.334657    -2.534625
H        5.256319    -1.634816    -0.454862
H        4.142241    -3.398532     1.392751
H        1.551543    -2.936137     1.511866
H        0.967578    -0.384515    -3.277319
H        0.187626    -1.841647    -5.057912
H       -1.165579    -3.845065    -4.527041
H       -1.698942    -4.433254    -2.073030
H       -2.076382    -3.203065     0.056733
H       -0.410366    -3.700798     0.451093
H       -0.412163    -1.975330     1.504593
H       -1.929960    -0.448530     2.061361
H       -2.912366    -1.587053     1.052533
H       -4.261996     0.715265    -0.044290
H       -3.201112     2.378236    -2.022844
H       -0.621566     1.883782    -2.218207
53
ex_0017 frame2 pucker-global-chair
C       -0.230857     4.248851    -2.012446
C       -0.870279     4.134790    -0.839175
C       -0.786513     2.876234    -0.002278
N       -0.074408     1.785073    -0.661115
C        0.594467     1.959606    -1.882557
C        0.565495     3.124996    -2.542348
C        1.311808     0.777981    -2.360804
N        0.748537    -0.434475    -1.708839
C       -0.148245    -1.163869    -2.672662
C       -1.552104    -0.966024    -2.281162
C       -2.706665    -1.135472    -2.910788
N       -3.760216    -0.771194    -2.010129
C       -3.117503    -0.380321    -0.825086
N       -1.737237    -0.513825    -1.008779
Ni      -0.116672    -0.069128     0.048174
N        1.470202     0.444470     1.115322
C        2.651270     0.054226     0.613460
C        3.698906     0.287473     1.512707
C        3.461225     0.831277     2.693287
C        2.100043     1.226187     3.144422
C        1.183382     0.941698     2.296263
C       -0.213523     1.161934     2.616676
N       -0.944716     0.198536     1.834832
C       -1.332975    -1.040179     2.580366
C       -0.643211    -2.168187     1.963126
C       -0.459410    -3.429355     2.347359
N        0.317475    -4.076699     1.353883
C        0.565884    -3.113578     0.358887
N       -0.057762    -1.922748     0.752136
H       -0.294780     5.168580    -2.580619
H       -1.452608     4.973103    -0.475566
H       -1.260900     2.770854     0.962218
H        1.097502     3.244442    -3.479192
H        1.322715     0.724340    -3.474162
H        2.375389     0.940926    -2.109134
H        1.522793    -1.123815    -1.585845
H        0.016343    -2.262456    -2.635818
H       -0.003682    -0.871949    -3.737596
H       -2.855287    -1.486706    -3.918273
H       -4.764288    -0.761054    -2.204955
H       -3.601855     0.005048     0.071299
H        2.820597    -0.388866    -0.356796
H        4.699190     0.011207     1.213526
H        4.305852     0.988878     3.347631
H        1.850801     1.672837     4.095623
H       -0.482106     1.123778     3.696985
H       -0.372782     2.202745     2.289235
H       -1.859007     0.672174     1.650750
H       -2.418068    -1.253142     2.463899
H       -1.115361    -0.972554     3.670930
H       -0.820067    -3.885017     3.257540
H        0.677255    -5.046247     1.386764
H        1.187284    -3.252702    -0.515346
53
ex_0017 frame3 pucker-global-chair_mirror
C       -0.230857     4.248851     2.012446
C       -0.870279     4.134790     0.839175
C       -0.786513     2.876234     0.002278
N       -0.074408     1.785073     0.661115
C        0.594467     1.959606     1.882557
C        0.565495     3.124996     2.542348
C        1.311808     0.777981     2.360804
N        0.748537    -0.434475     1.708839
C       -0.148245    -1.163869     2.672662
C       -1.552104    -0.966024     2.281162
C       -2.706665    -1.135472     2.910788
N       -3.760216    -0.771194     2.010129
C       -3.117503    -0.380321     0.825086
N       -1.737237    -0.513825     1.008779
Ni      -0.116672    -0.069128    -0.048174
N        1.470202     0.444470    -1.115322
C        2.651270     0.054226    -0.613460
C        3.698906     0.287473    -1.512707
C        3.461225     0.831277    -2.693287
C        2.100043     1.226187    -3.144422
C        1.183382     0.941698    -2.296263
C       -0.213523     1.161934    -2.616676
N       -0.944716     0.198536    -1.834832
C       -1.332975    -1.040179    -2.580366
C       -0.643211    -2.168187    -1.963126
C       -0.459410    -3.429355    -2.347359
N        0.317475    -4.076699    -1.353883
C        0.565884    -3.113578    -0.358887
N       -0.057762    -1.922748    -0.752136
H       -0.294780     5.168580     2.580619
H       -1.452608     4.973103     0.475566
H       -1.260900     2.770854    -0.962218
H        1.097502     3.244442     3.479192
H        1.322715     0.724340     3.474162
H        2.375389     0.940926     2.109134
H        1.522793    -1.123815     1.585845
H        0.016343    -2.262456     2.635818
H       -0.003682    -0.871949     3.737596
H       -2.855287    -1.486706     3.918273
H       -4.764288    -0.761054     2.204955
H       -3.601855     0.005048    -0.071299
H        2.820597    -0.388866     0.356796
H        4.699190     0.011207    -1.213526
H        4.305852     0.988878    -3.347631
H        1.850801     1.672837    -4.095623
H       -0.482106     1.123778    -3.696985
H       -0.372782     2.202745    -2.289235
H       -1.859007     0.672174    -1.650750
H       -2.418068    -1.253142    -2.463899
H       -1.115361    -0.972554    -3.670930
H       -0.820067    -3.885017    -3.257540
H        0.677255    -5.046247    -1.386764
H        1.187284    -3.252702     0.515346
53
ex_0017 frame4 pucker-global-chair
C       -0.230857     4.248851    -2.012446
C       -0.870279     4.134790    -0.839175
C       -0.786513     2.876234    -0.002278
N       -0.074408     1.785073    -0.661115
C        0.594467     1.959606    -1.882557
C        0.565495     3.124996    -2.542348
C        1.311808     0.777981    -2.360804
N        0.748537    -0.434475    -1.708839
C       -0.148245    -1.163869    -2.672662
C       -1.552104    -0.966024    -2.281162
C       -2.706665    -1.135472    -2.910788
N       -3.760216    -0.771194    -2.010129
C       -3.117503    -0.380321    -0.825086
N       -1.737237    -0.513825    -1.008779
Ni      -0.116672    -0.069128     0.048174
N        1.501021     0.653712     1.025144
C        2.707479     0.204769     0.579585
C        3.676174     0.278866     1.496864
C        3.463030     0.754478     2.738334
C        2.081122     1.227118     3.126661
C        1.242974     1.133593     2.246698
C       -0.118019     1.549777     2.484489
N       -0.944716     0.198536     1.834832
C       -1.332975    -1.040179     2.580366
C       -0.643211    -2.168187     1.963126
C       -0.459410    -3.429355     2.347359
N        0.317475    -4.076699     1.353883
C        0.565884    -3.113578     0.358887
N       -0.057762    -1.922748     0.752136
H       -0.294780     5.168580    -2.580619
H       -1.452608     4.973103    -0.475566
H       -1.260900     2.770854     0.962218
H        1.097502     3.244442    -3.479192
H        1.322715     0.724340    -3.474162
H        2.375389     0.940926    -2.109134
H        1.522793    -1.123815    -1.585845
H        0.016343    -2.262456    -2.635818
H       -0.003682    -0.871949    -3.737596
H       -2.855287    -1.486706    -3.918273
H       -4.764288    -0.761054    -2.204955
H       -3.601855     0.005048     0.071299
H        2.883284    -0.149702    -0.333430
H        4.672191    -0.044598     1.267424
H        4.202937     0.803479     3.416680
H        1.969683     1.583978     4.093186
H       -0.482106     1.123778     3.696985
H       -0.372782     2.202745     2.289235
H       -1.859007     0.672174     1.650750
H       -2.418068    -1.253142     2.463899
H       -1.115361    -0.972554     3.670930
H       -0.820067    -3.885017     3.257540
H        0.677255    -5.046247     1.386764
H        1.187284    -3.252702    -0.515346
