118
ex_0477 frame0 tetrahedral-conf4
O        2.902753     0.358811     1.879001
C        2.226566     1.373210     1.920418
O        1.086820     1.425552     1.272577
Ag       0.000000     0.000000     0.000000
As      -1.524205    -1.524205     1.524205
C       -2.541799    -2.974523     0.662948
C       -2.137783    -4.312449     0.811017
C       -2.845765    -5.336671     0.174087
C       -3.975813    -5.036621    -0.591224
C       -4.387750    -3.708797    -0.734701
C       -3.677813    -2.678930    -0.104565
C       -2.800236    -0.398608     2.446005
C       -4.025187    -0.912314     2.843455
C       -4.954648    -0.090186     3.476062
C       -4.650972     1.249617     3.736848
C       -3.410179     1.769069     3.359812
C       -2.480165     0.947604     2.712725
C       -0.640027    -2.536980     2.924608
C       -1.270621    -2.844819     4.115350
C       -0.597828    -3.612708     5.075696
C        0.702024    -4.062785     4.844129
C        1.332768    -3.728324     3.669049
C        0.655251    -2.956477     2.714315
As      -1.524205     1.524205    -1.524205
C       -0.581216     2.620262    -2.893493
C       -0.911038     2.525720    -4.257201
C       -0.236379     3.283361    -5.208650
C        0.754373     4.176758    -4.814126
C        1.091249     4.291184    -3.464123
C        0.435348     3.509420    -2.504021
C       -2.977688     0.597544    -2.610670
C       -2.619396    -0.152291    -3.703615
C       -3.486251    -0.917663    -4.453361
C       -4.816379    -0.878380    -4.154534
C       -5.255981    -0.069021    -3.100024
C       -4.341283     0.672173    -2.316864
C       -2.553035     2.817361    -0.461085
C       -3.630200     2.401952     0.345029
C       -4.360950     3.346144     1.079021
C       -4.000728     4.691200     1.038431
C       -2.923845     5.095357     0.253616
C       -2.217091     4.165898    -0.501018
As       1.524205    -1.524205    -1.524205
C        0.946246    -2.306270    -3.224706
C        0.137982    -1.530458    -3.962910
C       -0.442446    -1.955799    -5.164392
C       -0.162941    -3.227340    -5.632257
C        0.735324    -4.027266    -4.915303
C        1.303088    -3.568139    -3.705243
C        3.115638    -0.608954    -2.244028
C        4.382786    -0.743190    -1.656133
C        5.480446    -0.060187    -2.190741
C        5.326820     0.736065    -3.329036
C        4.070434     0.867642    -3.919870
C        2.973764     0.200702    -3.378921
C        2.035873    -3.053623    -0.444101
C        1.422933    -4.294154    -0.659222
C        1.719525    -5.377367     0.160679
C        2.670556    -5.241776     1.170040
C        3.320312    -4.016232     1.359144
C        3.013937    -2.927264     0.549779
C        2.695629     2.573998     2.714027
C        1.883020     3.725042     2.804165
C        2.305185     4.842047     3.541601
C        3.537779     4.827418     4.197297
C        4.356716     3.698235     4.113912
C        3.947443     2.572272     3.377573
O        4.749101     1.494884     3.306276
H       -1.254658    -4.569892     1.376346
H       -2.514057    -6.362760     0.271189
H       -4.528570    -5.830025    -1.079814
H       -5.256401    -3.479968    -1.337989
H       -3.998935    -1.655213    -0.237415
H       -4.262303    -1.941974     2.633299
H       -5.911793    -0.499687     3.754394
H       -5.381927     1.889026     4.213778
H       -3.189858     2.818075     3.533725
H       -1.540727     1.381095     2.380965
H       -2.269073    -2.500267     4.286173
H       -1.083015    -3.863269     5.996644
H        1.238482    -4.667917     5.562050
H        2.332653    -4.096447     3.559872
H        1.063125    -2.661944     1.790558
H       -1.670605     1.884507    -4.632250
H       -0.495031     3.178690    -6.254256
H        1.257618     4.780459    -5.556154
H        1.860763     4.989468    -3.167288
H        0.721242     3.604020    -1.464556
H       -1.569913    -0.174696    -3.957552
H       -3.146846    -1.524540    -5.279904
H       -5.478522    -1.460191    -4.775638
H       -6.306276    -0.023197    -2.898768
H       -4.725804     1.258298    -1.523729
H       -3.907487     1.356242     0.429997
H       -5.192994     3.036048     1.699646
H       -4.545761     5.421407     1.619154
H       -2.630332     6.131491     0.223517
H       -1.393546     4.504833    -1.090042
H        0.042894    -0.578873    -3.485213
H       -1.093201    -1.315211    -5.741393
H       -0.618085    -3.569753    -6.556000
H        0.990959    -4.994821    -5.307528
H        1.998823    -4.184152    -3.175376
H        4.549815    -1.332281    -0.784510
H        6.451131    -0.149729    -1.720242
H        6.176476     1.255340    -3.751970
H        3.939720     1.487216    -4.796758
H        2.012890     0.333093    -3.843932
H        0.641822    -4.407656    -1.393767
H        1.189681    -6.310217     0.026735
H        2.867251    -6.069067     1.837264
H        4.007079    -3.885541     2.185085
H        3.515496    -1.982543     0.699245
H        0.922907     3.768376     2.307756
H        1.676811     5.723387     3.608372
H        3.859801     5.691520     4.770067
H        5.312089     3.695683     4.624503
H        5.521579     1.504887     2.724963
118
ex_0477 frame1 tetrahedral-conf3
O        0.399917     1.797331     3.003525
C        1.388662     1.864929     2.288907
O        1.397158     1.265165     1.125361
Ag       0.000000     0.000000     0.000000
As      -1.524205    -1.524205     1.524205
C       -2.273027    -0.575412     3.101426
C       -3.444354     0.142992     2.945647
C       -4.002129     0.899768     3.947652
C       -3.431357     0.887575     5.193101
C       -2.278181     0.130440     5.412005
C       -1.679779    -0.593015     4.366368
C       -0.492308    -3.076392     2.098404
C       -0.683874    -4.303894     1.459337
C       -0.065688    -5.444171     1.944095
C        0.839349    -5.353879     3.009867
C        1.117818    -4.122680     3.577604
C        0.440133    -2.987191     3.141347
C       -3.239754    -2.402751     0.957026
C       -3.575117    -3.701410     1.291334
C       -4.759648    -4.263078     0.812982
C       -5.612619    -3.541623    -0.021272
C       -5.295311    -2.235989    -0.344986
C       -4.135355    -1.695655     0.200413
As      -1.524205     1.524205    -1.524205
C       -2.974995     2.545254    -0.649802
C       -3.310045     3.822017    -1.020936
C       -4.335111     4.495515    -0.352450
C       -5.050405     3.886636     0.677614
C       -4.727532     2.592117     1.042070
C       -3.674809     1.959885     0.365385
C       -2.533573     0.578799    -2.981548
C       -3.480993    -0.360382    -2.652351
C       -4.269703    -1.049832    -3.547755
C       -4.083854    -0.785908    -4.882492
C       -3.105160     0.136565    -5.267684
C       -2.326977     0.822291    -4.321077
C       -0.333520     2.845223    -2.378524
C       -0.249919     4.155541    -1.889777
C        0.574950     5.087651    -2.516000
C        1.321333     4.728342    -3.632101
C        1.264989     3.423070    -4.112301
C        0.442829     2.483150    -3.486918
As       1.524205    -1.524205    -1.524205
C        3.371925    -0.931039    -1.400276
C        3.752818     0.372759    -1.779103
C        5.106730     0.737790    -1.732018
C        6.061871    -0.183341    -1.292237
C        5.662142    -1.448192    -0.878396
C        4.328981    -1.814025    -0.928731
C        1.624578    -3.470435    -1.200777
C        1.859235    -3.926714     0.079473
C        1.992588    -5.297880     0.292588
C        1.734565    -6.228463    -0.676034
C        1.489778    -5.786719    -1.955604
C        1.465255    -4.414138    -2.230502
C        1.018445    -1.524824    -3.420084
C        1.741540    -0.783231    -4.350075
C        1.407204    -0.826626    -5.703069
C        0.347765    -1.622800    -6.136750
C       -0.401367    -2.347528    -5.206648
C       -0.086387    -2.281526    -3.849102
C        2.610422     2.641483     2.741408
C        3.745207     2.748513     1.905633
C        4.875538     3.460432     2.334613
C        4.887306     4.067650     3.590293
C        3.770017     3.964127     4.416307
C        2.637072     3.271508     4.004779
O        1.581094     3.217921     4.830462
H       -3.917855     0.138414     1.974989
H       -4.898734     1.464233     3.769065
H       -3.918310     1.442422     5.977037
H       -1.858974     0.100872     6.396815
H       -0.798993    -1.137400     4.588864
H       -1.363364    -4.373043     0.622729
H       -0.266379    -6.399580     1.482233
H        1.431805    -6.213923     3.298686
H        1.834436    -4.051408     4.382451
H        0.701246    -2.055233     3.590785
H       -2.973567    -4.281784     1.936340
H       -5.018670    -5.258270     1.101824
H       -6.527681    -3.986357    -0.373852
H       -5.947378    -1.645181    -0.985968
H       -3.893291    -0.667894    -0.026549
H       -2.794369     4.292422    -1.816671
H       -4.581162     5.487952    -0.648472
H       -5.849473     4.420140     1.171771
H       -5.296015     2.113299     1.824366
H       -3.316527     1.030819     0.556450
H       -3.598296    -0.547525    -1.723612
H       -5.016623    -1.764638    -3.203892
H       -4.690678    -1.287506    -5.613698
H       -2.962328     0.328716    -6.303642
H       -1.602263     1.518420    -4.649995
H       -0.787959     4.467326    -1.012723
H        0.636043     6.094334    -2.140056
H        1.948769     5.463131    -4.113436
H        1.855247     3.147059    -4.972239
H        0.427165     1.478055    -3.863482
H        3.028146     1.100424    -2.120983
H        5.422519     1.722539    -2.047133
H        7.113266     0.064580    -1.264432
H        6.384919    -2.161029    -0.529952
H        4.047286    -2.792947    -0.601279
H        1.986973    -3.208367     0.875752
H        2.230952    -5.652580     1.284440
H        1.739172    -7.278995    -0.399281
H        1.356601    -6.514387    -2.730753
H        1.285276    -4.068507    -3.237749
H        2.556095    -0.167426    -4.036368
H        1.981747    -0.251709    -6.414098
H        0.112526    -1.673836    -7.191199
H       -1.216710    -2.972486    -5.534032
H       -0.672746    -2.860818    -3.142762
H        3.771427     2.293307     0.927672
H        5.743946     3.544630     1.694275
H        5.757192     4.621463     3.921977
H        3.751803     4.429377     5.388970
H        0.824110     3.795018     4.665367
118
ex_0477 frame2 tetrahedral-conf4
O        2.902753     0.358811     1.879001
C        2.226821     1.373397     1.919985
O        1.086820     1.425552     1.272577
Ag       0.000000     0.000000     0.000000
As      -1.524205    -1.524205     1.524205
C       -2.541799    -2.974523     0.662948
C       -2.137783    -4.312449     0.811017
C       -2.845765    -5.336671     0.174087
C       -3.975813    -5.036621    -0.591224
C       -4.387750    -3.708797    -0.734701
C       -3.677813    -2.678930    -0.104565
C       -2.800236    -0.398608     2.446005
C       -4.025187    -0.912314     2.843455
C       -4.954648    -0.090186     3.476062
C       -4.650972     1.249617     3.736848
C       -3.410179     1.769069     3.359812
C       -2.480165     0.947604     2.712725
C       -0.640027    -2.536980     2.924608
C       -1.270621    -2.844819     4.115350
C       -0.597828    -3.612708     5.075696
C        0.702024    -4.062785     4.844129
C        1.332768    -3.728324     3.669049
C        0.655251    -2.956477     2.714315
As      -1.524205     1.524205    -1.524205
C       -0.581216     2.620262    -2.893493
C       -0.911038     2.525720    -4.257201
C       -0.236379     3.283361    -5.208650
C        0.754373     4.176758    -4.814126
C        1.091249     4.291184    -3.464123
C        0.435348     3.509420    -2.504021
C       -2.977688     0.597544    -2.610670
C       -2.619396    -0.152291    -3.703615
C       -3.486251    -0.917663    -4.453361
C       -4.816379    -0.878380    -4.154534
C       -5.255981    -0.069021    -3.100024
C       -4.341283     0.672173    -2.316864
C       -2.553035     2.817361    -0.461085
C       -3.630200     2.401952     0.345029
C       -4.360950     3.346144     1.079021
C       -4.000728     4.691200     1.038431
C       -2.923845     5.095357     0.253616
C       -2.217091     4.165898    -0.501018
As       1.524205    -1.524205    -1.524205
C        0.946246    -2.306270    -3.224706
C        0.137982    -1.530458    -3.962910
C       -0.442446    -1.955799    -5.164392
C       -0.162941    -3.227340    -5.632257
C        0.735324    -4.027266    -4.915303
C        1.303088    -3.568139    -3.705243
C        3.115638    -0.608954    -2.244028
C        4.382786    -0.743190    -1.656133
C        5.480446    -0.060187    -2.190741
C        5.326820     0.736065    -3.329036
C        4.070434     0.867642    -3.919870
C        2.973764     0.200702    -3.378921
C        2.035873    -3.053623    -0.444101
C        1.422933    -4.294154    -0.659222
C        1.719525    -5.377367     0.160679
C        2.670556    -5.241776     1.170040
C        3.320312    -4.016232     1.359144
C        3.013937    -2.927264     0.549779
C        2.695793     2.574138     2.713719
C        1.883020     3.725042     2.804165
C        2.305185     4.842047     3.541601
C        3.537779     4.827418     4.197297
C        4.356716     3.698235     4.113912
C        3.947496     2.572318     3.377473
O        4.749101     1.494884     3.306276
H       -1.254658    -4.569892     1.376346
H       -2.514057    -6.362760     0.271189
H       -4.528570    -5.830025    -1.079814
H       -5.256401    -3.479968    -1.337989
H       -3.998935    -1.655213    -0.237415
H       -4.262303    -1.941974     2.633299
H       -5.911793    -0.499687     3.754394
H       -5.381927     1.889026     4.213778
H       -3.189858     2.818075     3.533725
H       -1.540727     1.381095     2.380965
H       -2.269073    -2.500267     4.286173
H       -1.083015    -3.863269     5.996644
H        1.238482    -4.667917     5.562050
H        2.332653    -4.096447     3.559872
H        1.063125    -2.661944     1.790558
H       -1.670605     1.884507    -4.632250
H       -0.495031     3.178690    -6.254256
H        1.257618     4.780459    -5.556154
H        1.860763     4.989468    -3.167288
H        0.721242     3.604020    -1.464556
H       -1.569913    -0.174696    -3.957552
H       -3.146846    -1.524540    -5.279904
H       -5.478522    -1.460191    -4.775638
H       -6.306276    -0.023197    -2.898768
H       -4.725804     1.258298    -1.523729
H       -3.907487     1.356242     0.429997
H       -5.192994     3.036048     1.699646
H       -4.545761     5.421407     1.619154
H       -2.630332     6.131491     0.223517
H       -1.393546     4.504833    -1.090042
H        0.042894    -0.578873    -3.485213
H       -1.093201    -1.315211    -5.741393
H       -0.618085    -3.569753    -6.556000
H        0.990959    -4.994821    -5.307528
H        1.998823    -4.184152    -3.175376
H        4.549815    -1.332281    -0.784510
H        6.451131    -0.149729    -1.720242
H        6.176476     1.255340    -3.751970
H        3.939720     1.487216    -4.796758
H        2.012890     0.333093    -3.843932
H        0.641822    -4.407656    -1.393767
H        1.189681    -6.310217     0.026735
H        2.867251    -6.069067     1.837264
H        4.007079    -3.885541     2.185085
H        3.515496    -1.982543     0.699245
H        0.922907     3.768376     2.307756
H        1.676811     5.723387     3.608372
H        3.859801     5.691520     4.770067
H        5.312089     3.695683     4.624503
H        5.521579     1.504887     2.724963
118
ex_0477 frame3 tetrahedral-conf3
O        0.399917     1.797331     3.003525
C        1.388636     1.864987     2.288877
O        1.397158     1.265165     1.125361
Ag       0.000000     0.000000     0.000000
As      -1.524205    -1.524205     1.524205
C       -2.273027    -0.575412     3.101426
C       -3.444354     0.142992     2.945647
C       -4.002129     0.899768     3.947652
C       -3.431357     0.887575     5.193101
C       -2.278181     0.130440     5.412005
C       -1.679779    -0.593015     4.366368
C       -0.492308    -3.076392     2.098404
C       -0.683874    -4.303894     1.459337
C       -0.065688    -5.444171     1.944095
C        0.839349    -5.353879     3.009867
C        1.117818    -4.122680     3.577604
C        0.440133    -2.987191     3.141347
C       -3.239754    -2.402751     0.957026
C       -3.575117    -3.701410     1.291334
C       -4.759648    -4.263078     0.812982
C       -5.612619    -3.541623    -0.021272
C       -5.295311    -2.235989    -0.344986
C       -4.135355    -1.695655     0.200413
As      -1.524205     1.524205    -1.524205
C       -2.974995     2.545254    -0.649802
C       -3.310045     3.822017    -1.020936
C       -4.335111     4.495515    -0.352450
C       -5.050405     3.886636     0.677614
C       -4.727532     2.592117     1.042070
C       -3.674809     1.959885     0.365385
C       -2.533573     0.578799    -2.981548
C       -3.480993    -0.360382    -2.652351
C       -4.269703    -1.049832    -3.547755
C       -4.083854    -0.785908    -4.882492
C       -3.105160     0.136565    -5.267684
C       -2.326977     0.822291    -4.321077
C       -0.333520     2.845223    -2.378524
C       -0.249919     4.155541    -1.889777
C        0.574950     5.087651    -2.516000
C        1.321333     4.728342    -3.632101
C        1.264989     3.423070    -4.112301
C        0.442829     2.483150    -3.486918
As       1.524205    -1.524205    -1.524205
C        3.371925    -0.931039    -1.400276
C        3.752818     0.372759    -1.779103
C        5.106730     0.737790    -1.732018
C        6.061871    -0.183341    -1.292237
C        5.662142    -1.448192    -0.878396
C        4.328981    -1.814025    -0.928731
C        1.624578    -3.470435    -1.200777
C        1.859235    -3.926714     0.079473
C        1.992588    -5.297880     0.292588
C        1.734565    -6.228463    -0.676034
C        1.489778    -5.786719    -1.955604
C        1.465255    -4.414138    -2.230502
C        1.018445    -1.524824    -3.420084
C        1.741540    -0.783231    -4.350075
C        1.407204    -0.826626    -5.703069
C        0.347765    -1.622800    -6.136750
C       -0.401367    -2.347528    -5.206648
C       -0.086387    -2.281526    -3.849102
C        2.610403     2.641524     2.741388
C        3.745207     2.748513     1.905633
C        4.875538     3.460432     2.334613
C        4.887306     4.067650     3.590293
C        3.770017     3.964127     4.416307
C        2.637066     3.271522     4.004772
O        1.581094     3.217921     4.830462
H       -3.917855     0.138414     1.974989
H       -4.898734     1.464233     3.769065
H       -3.918310     1.442422     5.977037
H       -1.858974     0.100872     6.396815
H       -0.798993    -1.137400     4.588864
H       -1.363364    -4.373043     0.622729
H       -0.266379    -6.399580     1.482233
H        1.431805    -6.213923     3.298686
H        1.834436    -4.051408     4.382451
H        0.701246    -2.055233     3.590785
H       -2.973567    -4.281784     1.936340
H       -5.018670    -5.258270     1.101824
H       -6.527681    -3.986357    -0.373852
H       -5.947378    -1.645181    -0.985968
H       -3.893291    -0.667894    -0.026549
H       -2.794369     4.292422    -1.816671
H       -4.581162     5.487952    -0.648472
H       -5.849473     4.420140     1.171771
H       -5.296015     2.113299     1.824366
H       -3.316527     1.030819     0.556450
H       -3.598296    -0.547525    -1.723612
H       -5.016623    -1.764638    -3.203892
H       -4.690678    -1.287506    -5.613698
H       -2.962328     0.328716    -6.303642
H       -1.602263     1.518420    -4.649995
H       -0.787959     4.467326    -1.012723
H        0.636043     6.094334    -2.140056
H        1.948769     5.463131    -4.113436
H        1.855247     3.147059    -4.972239
H        0.427165     1.478055    -3.863482
H        3.028146     1.100424    -2.120983
H        5.422519     1.722539    -2.047133
H        7.113266     0.064580    -1.264432
H        6.384919    -2.161029    -0.529952
H        4.047286    -2.792947    -0.601279
H        1.986973    -3.208367     0.875752
H        2.230952    -5.652580     1.284440
H        1.739172    -7.278995    -0.399281
H        1.356601    -6.514387    -2.730753
H        1.285276    -4.068507    -3.237749
H        2.556095    -0.167426    -4.036368
H        1.981747    -0.251709    -6.414098
H        0.112526    -1.673836    -7.191199
H       -1.216710    -2.972486    -5.534032
H       -0.672746    -2.860818    -3.142762
H        3.771427     2.293307     0.927672
H        5.743946     3.544630     1.694275
H        5.757192     4.621463     3.921977
H        3.751803     4.429377     5.388970
H        0.824110     3.795018     4.665367
