64
ex_0280 frame0 pucker-6 twist
N       -5.586325     1.917710    -1.757788
C       -4.619651     1.561828    -1.211702
C       -3.407897     1.168763    -0.543413
C       -3.453476     0.860890     0.742781
C       -4.691406     0.919255     1.472568
N       -5.711094     0.983881     2.037253
Se      -2.120315     0.305868     1.956057
Ni      -0.653626     0.294618     0.258284
Se      -1.812019     1.117970    -1.559398
P        0.040068    -1.701652    -0.289250
C        0.664217    -1.633353    -2.118532
C        1.970278    -1.960630    -2.425102
C        2.440985    -1.964401    -3.739884
C        1.601501    -1.614333    -4.775714
C        0.309027    -1.268041    -4.456399
C       -0.161752    -1.263398    -3.145220
C       -1.311638    -2.745965    -0.249013
C       -1.947366    -2.894718     0.970763
C       -3.047482    -3.738142     1.102415
C       -3.505147    -4.426700    -0.018612
C       -2.890857    -4.287219    -1.253512
C       -1.801749    -3.443817    -1.353889
C        1.401546    -1.955182     0.852912
C        1.797803    -0.897204     1.748539
C        2.404296     0.402557     1.233213
P        1.271454     1.386201     0.160854
C        1.945998     1.834089    -1.251575
C        3.041324     1.174840    -1.744513
C        3.621931     1.523862    -2.949943
C        3.108352     2.568749    -3.688952
C        1.999125     3.258180    -3.201402
C        1.435340     2.887375    -1.990440
C        0.711469     2.941725     1.243571
C       -0.540406     3.508222     1.048020
C       -0.876775     4.647276     1.752319
C       -0.008447     5.213868     2.682260
C        1.224731     4.629972     2.918031
C        1.553750     3.482683     2.203819
H        2.691241    -2.246944    -1.677717
H        3.459903    -2.238370    -3.981163
H        1.914563    -1.601406    -5.807007
H       -0.364036    -0.989245    -5.268294
H       -1.174397    -0.984536    -3.002008
H       -1.606421    -2.366217     1.861595
H       -3.515305    -3.837010     2.068312
H       -4.357785    -5.068174     0.129342
H       -3.262713    -4.835219    -2.124833
H       -1.290102    -3.301874    -2.292598
H        1.094147    -2.845645     1.425666
H        2.367379    -2.335625     0.334449
H        2.532602    -1.350678     2.490575
H        0.874433    -0.717851     2.470225
H        3.270314     0.219007     0.796812
H        2.666688     0.988687     2.263958
H        3.471723     0.356622    -1.208182
H        4.491222     0.984369    -3.333550
H        3.554795     2.856425    -4.638898
H        1.566016     4.094658    -3.765468
H        0.569459     3.451111    -1.643535
H       -1.214435     3.056842     0.316348
H       -1.828091     5.097150     1.570003
H       -0.273055     6.104592     3.231247
H        1.924477     5.039863     3.630962
H        2.520974     3.046902     2.403949
64
ex_0280 frame1 cis
N       -5.587072     1.916099    -1.759938
C       -4.618841     1.564789    -1.207571
C       -3.407177     1.167866    -0.542759
C       -3.449586     0.853420     0.742603
C       -4.696535     0.917913     1.459756
N       -5.708204     0.984460     2.045082
Se      -1.943963     0.304979     1.750656
Ni      -0.469771     0.287977     0.021317
Se      -1.831941     1.132031    -1.589837
P        0.153783    -1.728954    -0.428825
C        0.662225    -1.635612    -2.124538
C        1.967993    -1.959363    -2.425489
C        2.440238    -1.964549    -3.739331
C        1.601846    -1.614280    -4.776280
C        0.310769    -1.269054    -4.454740
C       -0.160858    -1.263507    -3.143752
C       -1.298501    -2.756302    -0.247382
C       -1.947047    -2.893911     0.969396
C       -3.048174    -3.738797     1.103031
C       -3.503969    -4.426006    -0.019922
C       -2.890223    -4.286887    -1.253201
C       -1.804866    -3.444811    -1.352160
C        1.434169    -1.952554     0.809430
C        1.764305    -0.897805     1.789546
C        2.295651     0.405604     1.370873
P        1.277835     1.492214     0.376739
C        1.971105     1.864160    -1.218614
C        3.039380     1.175711    -1.745821
C        3.620972     1.524490    -2.948806
C        3.108714     2.567853    -3.688569
C        1.999342     3.257702    -3.200254
C        1.437644     2.885467    -1.992418
C        0.699992     2.932792     1.262171
C       -0.540632     3.509618     1.049523
C       -0.875317     4.646740     1.752029
C       -0.008740     5.213325     2.681795
C        1.225296     4.630826     2.918329
C        1.552208     3.482274     2.202705
H        2.691571    -2.246926    -1.677537
H        3.459824    -2.238394    -3.981545
H        1.914168    -1.601302    -5.806917
H       -0.364194    -0.989228    -5.268670
H       -1.173804    -0.984144    -3.002389
H       -1.606569    -2.365748     1.861911
H       -3.514944    -3.836822     2.068267
H       -4.357676    -5.067925     0.129914
H       -3.262882    -4.835541    -2.125180
H       -1.289360    -3.300866    -2.292464
H        1.094209    -2.845731     1.424940
H        2.369500    -2.336250     0.333500
H        2.532700    -1.351080     2.491655
H        0.872466    -0.718334     2.472483
H        3.266606     0.220030     0.798131
H        2.667373     0.990556     2.267657
H        3.471253     0.356953    -1.207469
H        4.491651     0.984374    -3.333822
H        3.554831     2.856562    -4.639123
H        1.565749     4.095225    -3.765650
H        0.569165     3.451317    -1.643520
H       -1.214723     3.055938     0.316090
H       -1.827635     5.096880     1.569957
H       -0.272770     6.104498     3.231336
H        1.924556     5.039687     3.630782
H        2.520876     3.046329     2.404447
64
ex_0280 frame2 pucker-6 boat
N       -5.608746     1.922306    -1.772318
C       -4.658451     1.580419    -1.220341
C       -3.415375     1.196027    -0.602633
C       -3.374535     0.857838     0.706344
C       -4.649594     0.897228     1.496014
N       -5.665240     0.967938     2.051218
Se      -1.648006     0.327712     1.525199
Ni      -0.224631     0.279122    -0.294639
Se      -1.837138     1.176151    -1.669607
P        0.226792    -1.847014    -0.454243
C        0.743915    -1.701723    -2.158964
C        2.041926    -2.002053    -2.478339
C        2.472514    -1.963875    -3.782346
C        1.594901    -1.605484    -4.795488
C        0.286683    -1.251136    -4.490649
C       -0.153300    -1.286880    -3.172173
C       -1.270867    -2.797868    -0.286548
C       -1.923966    -2.884918     0.960528
C       -3.034675    -3.718499     1.099415
C       -3.518728    -4.424163    -0.003416
C       -2.903247    -4.286217    -1.250790
C       -1.796466    -3.454479    -1.384844
C        1.535591    -1.969355     0.768509
C        1.683859    -0.919652     1.890961
C        2.318550     0.379282     1.460315
P        1.337755     1.529929     0.559638
C        1.984386     1.904919    -1.146128
C        3.063535     1.174998    -1.688165
C        3.617401     1.513451    -2.939387
C        3.093466     2.570479    -3.681665
C        1.980628     3.259067    -3.192712
C        1.418061     2.923557    -1.942134
C        0.725491     2.966644     1.311758
C       -0.527833     3.518830     1.036199
C       -0.897793     4.666142     1.744383
C       -0.020679     5.236156     2.683828
C        1.218143     4.661471     2.923555
C        1.575753     3.548884     2.225771
H        2.721313    -2.269078    -1.709684
H        3.485723    -2.235250    -3.987377
H        1.927251    -1.601394    -5.814456
H       -0.382858    -0.973403    -5.280543
H       -1.183262    -1.013237    -2.984826
H       -1.570722    -2.380665     1.854344
H       -3.516804    -3.835188     2.063240
H       -4.369146    -5.078184     0.116912
H       -3.265162    -4.829413    -2.114514
H       -1.305307    -3.356607    -2.325101
H        1.152502    -2.820313     1.334111
H        2.472115    -2.346345     0.333232
H        2.476513    -1.361848     2.538959
H        0.772964    -0.741744     2.519148
H        3.180908     0.196165     0.884112
H        2.674309     0.955842     2.341841
H        3.499535     0.342992    -1.179940
H        4.475816     0.973692    -3.329824
H        3.547659     2.851126    -4.633072
H        1.565167     4.077524    -3.770331
H        0.561611     3.475928    -1.616939
H       -1.212912     3.068511     0.327775
H       -1.857077     5.111910     1.570276
H       -0.288907     6.115734     3.234870
H        1.917912     5.055451     3.640973
H        2.531149     3.086858     2.420289
64
ex_0280 frame3 pucker-6 chair
N       -5.600968     1.912321    -1.779464
C       -4.648975     1.583650    -1.217675
C       -3.465144     1.226627    -0.563047
C       -3.416689     0.942706     0.684188
C       -4.667954     0.951442     1.472184
N       -5.673169     0.952064     2.056647
Se      -1.705822     0.521351     1.451454
Ni      -0.224631     0.279122    -0.294639
Se      -1.862029     1.176927    -1.633121
P        0.132011    -1.866058    -0.326972
C        0.702151    -1.702299    -2.089712
C        2.001150    -1.995471    -2.412840
C        2.448507    -1.959447    -3.736266
C        1.588585    -1.607189    -4.769890
C        0.280572    -1.248776    -4.460022
C       -0.179860    -1.277405    -3.122060
C       -1.313823    -2.811388    -0.252215
C       -1.976708    -2.905574     0.990266
C       -3.066276    -3.742333     1.108159
C       -3.527085    -4.434824    -0.009445
C       -2.903421    -4.288605    -1.254765
C       -1.809997    -3.454503    -1.361654
C        1.529017    -1.980384     0.800271
C        1.744375    -0.894139     1.824672
C        2.408737     0.346929     1.339002
P        1.346077     1.534983     0.531981
C        1.988748     1.898938    -1.167434
C        3.049991     1.176428    -1.702790
C        3.616652     1.514558    -2.946740
C        3.098339     2.573289    -3.689469
C        1.979646     3.259931    -3.198444
C        1.410358     2.918068    -1.948647
C        0.735599     2.957030     1.302056
C       -0.524220     3.519682     1.035456
C       -0.895784     4.661112     1.743910
C       -0.016457     5.228109     2.682576
C        1.221051     4.654051     2.924664
C        1.575281     3.540471     2.229620
H        2.703281    -2.264867    -1.682304
H        3.467403    -2.234067    -3.973532
H        1.924380    -1.604381    -5.803251
H       -0.371061    -0.980231    -5.271451
H       -1.206404    -0.999105    -2.987601
H       -1.605233    -2.386185     1.860603
H       -3.526350    -3.841889     2.067431
H       -4.369841    -5.081469     0.115853
H       -3.261164    -4.829543    -2.120303
H       -1.295825    -3.336652    -2.305162
H        1.166369    -2.803525     1.354724
H        2.441034    -2.362597     0.309626
H        2.501483    -1.347463     2.520999
H        0.821283    -0.702361     2.486229
H        3.334891     0.198732     0.772604
H        2.694276     0.933039     2.192835
H        3.494996     0.344936    -1.209917
H        4.482592     0.977084    -3.332395
H        3.552842     2.854797    -4.635918
H        1.568524     4.082259    -3.769722
H        0.562269     3.470524    -1.625801
H       -1.212527     3.070091     0.323161
H       -1.850295     5.108504     1.570745
H       -0.282882     6.110817     3.233410
H        1.918750     5.046091     3.635755
H        2.527097     3.070475     2.415332
64
ex_0280 frame4 pucker-6 chair
N       -5.600968     1.912321    -1.779464
C       -4.648975     1.583650    -1.217675
C       -3.465060     1.227094    -0.562944
C       -3.416663     0.942886     0.684228
C       -4.667954     0.951442     1.472184
N       -5.673169     0.952064     2.056647
Se      -1.705822     0.521351     1.451454
Ni      -0.224631     0.279122    -0.294639
Se      -1.862029     1.176927    -1.633121
P        0.132011    -1.866058    -0.326972
C        0.702151    -1.702299    -2.089712
C        2.001150    -1.995471    -2.412840
C        2.448507    -1.959447    -3.736266
C        1.588585    -1.607189    -4.769890
C        0.280572    -1.248776    -4.460022
C       -0.179860    -1.277405    -3.122060
C       -1.313823    -2.811388    -0.252215
C       -1.976708    -2.905574     0.990266
C       -3.066276    -3.742333     1.108159
C       -3.527085    -4.434824    -0.009445
C       -2.903421    -4.288605    -1.254765
C       -1.809997    -3.454503    -1.361654
C        1.529017    -1.980384     0.800271
C        1.744375    -0.894139     1.824672
C        2.408737     0.346929     1.339002
P        1.346077     1.534983     0.531981
C        1.988748     1.898938    -1.167434
C        3.049991     1.176428    -1.702790
C        3.616652     1.514558    -2.946740
C        3.098339     2.573289    -3.689469
C        1.979646     3.259931    -3.198444
C        1.410358     2.918068    -1.948647
C        0.735599     2.957030     1.302056
C       -0.524220     3.519682     1.035456
C       -0.895784     4.661112     1.743910
C       -0.016457     5.228109     2.682576
C        1.221051     4.654051     2.924664
C        1.575281     3.540471     2.229620
H        2.703281    -2.264867    -1.682304
H        3.467403    -2.234067    -3.973532
H        1.924380    -1.604381    -5.803251
H       -0.371061    -0.980231    -5.271451
H       -1.206404    -0.999105    -2.987601
H       -1.605233    -2.386185     1.860603
H       -3.526350    -3.841889     2.067431
H       -4.369841    -5.081469     0.115853
H       -3.261164    -4.829543    -2.120303
H       -1.295825    -3.336652    -2.305162
H        1.166369    -2.803525     1.354724
H        2.441034    -2.362597     0.309626
H        2.501483    -1.347463     2.520999
H        0.821283    -0.702361     2.486229
H        3.334891     0.198732     0.772604
H        2.694276     0.933039     2.192835
H        3.494996     0.344936    -1.209917
H        4.482592     0.977084    -3.332395
H        3.552842     2.854797    -4.635918
H        1.568524     4.082259    -3.769722
H        0.562269     3.470524    -1.625801
H       -1.212527     3.070091     0.323161
H       -1.850295     5.108504     1.570745
H       -0.282882     6.110817     3.233410
H        1.918750     5.046091     3.635755
H        2.527097     3.070475     2.415332
