55
ex_0132 frame0 TBP-5-chelate-1
Co       0.000000     0.000000     0.000000
N       -1.029686    -0.163620    -1.811374
C       -1.248109    -1.112352    -2.561526
C       -0.954131    -2.455219    -2.606490
C       -1.417101    -3.171195    -3.675659
C       -2.165585    -2.560866    -4.692051
C       -2.457282    -1.191897    -4.632510
C       -1.999067    -0.462893    -3.566156
N       -2.104441     0.946531    -3.176011
C       -1.499483     1.126210    -2.085458
C       -1.233181     2.284389    -1.172956
N       -0.477620     2.034335     0.038220
C        0.794570     2.714668     0.039555
C        2.025273     1.872871     0.038569
N        2.000791     0.603537     0.026052
C        3.048617    -0.120578     0.024895
C        3.343419    -1.461414     0.013231
C        4.666817    -1.828692     0.017517
C        5.685247    -0.867577     0.033141
C        5.387200     0.492332     0.044832
C        4.061811     0.868126     0.040651
N        3.393262     2.160445     0.049397
C       -1.240042     2.220413     1.240681
C       -1.462581     1.026063     2.102309
N       -1.022744    -0.130521     1.817982
C       -1.210072    -1.151301     2.548995
C       -0.879196    -2.487417     2.522410
C       -1.301506    -3.274997     3.561285
C       -2.047950    -2.746586     4.623017
C       -2.385343    -1.394555     4.653983
C       -1.963946    -0.597541     3.612949
N       -2.126790     0.821182     3.318797
H       -0.372696    -2.845766    -1.783215
H       -1.184286    -4.239402    -3.713339
H       -2.525772    -3.136999    -5.531575
H       -3.030468    -0.690090    -5.396986
H       -2.206309     2.677146    -0.859756
H       -0.644486     3.017453    -1.778807
H        0.803319     3.486080    -0.741174
H        0.832990     3.268454     1.017938
H        2.509573    -2.147247     0.001424
H        4.908070    -2.892063     0.008436
H        6.711400    -1.194901     0.036031
H        6.142869     1.260660     0.056972
H        3.809832     3.104669     0.061210
H       -0.861099     3.095666     1.786284
H       -2.275642     2.511063     0.897720
H       -0.303468    -2.827396     1.676211
H       -1.050906    -4.329669     3.558621
H       -2.369711    -3.393439     5.433423
H       -2.957703    -0.950628     5.452457
H       -2.613866     1.540201     3.860586
N       -2.504996    -4.338790     0.000000
N       -1.775000    -3.074391     0.000000
N       -1.045000    -1.809993     0.000000
55
ex_0132 frame1 TBP-5-chelate-1-beta
Co       0.000000     0.000000     0.000000
N        0.365466    -0.913763    -1.843793
C       -0.359688    -1.524073    -2.628910
C       -1.681711    -1.887337    -2.714906
C       -2.087952    -2.589473    -3.803374
C       -1.185419    -2.939584    -4.819438
C        0.163494    -2.565957    -4.725372
C        0.582624    -1.857054    -3.630423
N        1.870847    -1.310073    -3.198208
C        1.727504    -0.729657    -2.094900
C        2.619110     0.015081    -1.138534
N        1.999690     0.607331     0.022163
C        2.538149     0.028598     1.226510
C        1.604668    -0.732996     2.104867
N        0.388353    -0.915017     1.838484
C       -0.418441    -1.568538     2.587994
C       -1.744351    -1.921700     2.565066
C       -2.221500    -2.660230     3.622914
C       -1.392461    -3.038983     4.681772
C       -0.046881    -2.681594     4.705878
C        0.437031    -1.943238     3.651790
N        1.745758    -1.395985     3.326871
C        1.957359     2.047793     0.018510
C        0.608004     2.699545     0.011508
N       -0.473942     2.035553    -0.001448
C       -1.623480     2.584128    -0.007061
C       -2.931534     2.165543    -0.019878
C       -3.912587     3.128255    -0.021977
C       -3.589611     4.491542    -0.011222
C       -2.257599     4.907614     0.001948
C       -1.273098     3.952319     0.004071
N        0.182273     4.031166     0.016265
H       -2.313661    -1.574721    -1.881884
H       -3.143583    -2.878493    -3.870895
H       -1.515655    -3.499500    -5.684770
H        0.884677    -2.815803    -5.483486
H        3.485936    -0.566840    -0.822011
H        3.007186     0.876887    -1.737590
H        3.019573     0.870019     1.785487
H        3.354999    -0.687877     0.956470
H       -2.325285    -1.598297     1.721820
H       -3.266119    -2.951797     3.628806
H       -1.795095    -3.626433     5.512119
H        0.622339    -2.956218     5.506374
H        2.623263    -1.466788     3.871925
H        2.608091     2.431000    -0.774651
H        2.423124     2.343799     0.995225
H       -3.107319     1.103708    -0.027627
H       -4.951039     2.816078    -0.032163
H       -4.347712     5.258567    -0.012711
H       -1.974302     5.950129     0.010481
H        0.786099     4.851143     0.026011
N       -2.504996    -4.338790     0.000000
N       -1.775000    -3.074391     0.000000
N       -1.045000    -1.809993     0.000000
55
ex_0132 frame2 TBP-5-chelate-1-conf2
Co       0.000000     0.000000     0.000000
N        0.365466    -0.913763    -1.843793
C       -0.359688    -1.524073    -2.628910
C       -1.681711    -1.887337    -2.714906
C       -2.087952    -2.589473    -3.803374
C       -1.185419    -2.939584    -4.819438
C        0.163494    -2.565957    -4.725372
C        0.582624    -1.857054    -3.630423
N        1.870847    -1.310073    -3.198208
C        1.727504    -0.729657    -2.094900
C        2.619110     0.015081    -1.138534
N        1.999690     0.607331     0.022163
C        2.538149     0.028598     1.226510
C        1.604668    -0.732996     2.104867
N        0.388353    -0.915017     1.838484
C       -0.418441    -1.568538     2.587994
C       -1.744351    -1.921700     2.565066
C       -2.221500    -2.660230     3.622914
C       -1.392461    -3.038983     4.681772
C       -0.046881    -2.681594     4.705878
C        0.437031    -1.943238     3.651790
N        1.745758    -1.395985     3.326871
C        1.957359     2.047793     0.018510
C        0.608004     2.699545     0.011508
N       -0.473942     2.035553    -0.001448
C       -1.623480     2.584128    -0.007061
C       -2.931534     2.165543    -0.019878
C       -3.912587     3.128255    -0.021977
C       -3.589611     4.491542    -0.011222
C       -2.257599     4.907614     0.001948
C       -1.273098     3.952319     0.004071
N        0.182273     4.031166     0.016265
H       -2.313661    -1.574721    -1.881884
H       -3.143583    -2.878493    -3.870895
H       -1.515655    -3.499500    -5.684770
H        0.884677    -2.815803    -5.483486
H        3.485936    -0.566840    -0.822011
H        3.007186     0.876887    -1.737590
H        3.019573     0.870019     1.785487
H        3.354999    -0.687877     0.956470
H       -2.325285    -1.598297     1.721820
H       -3.266119    -2.951797     3.628806
H       -1.795095    -3.626433     5.512119
H        0.622339    -2.956218     5.506374
H        2.623263    -1.466788     3.871925
H        2.608091     2.431000    -0.774651
H        2.423124     2.343799     0.995225
H       -3.107319     1.103708    -0.027627
H       -4.951039     2.816078    -0.032163
H       -4.347712     5.258567    -0.012711
H       -1.974302     5.950129     0.010481
H        0.786099     4.851143     0.026011
N       -2.504996    -4.338790     0.000000
N       -1.775000    -3.074391     0.000000
N       -1.045000    -1.809993     0.000000
55
ex_0132 frame3 TBP-5-chelate-1-conf3
Co       0.000000     0.000000     0.000000
N        2.010933     0.568663    -0.029528
C        3.058406    -0.075508    -0.036988
C        3.428963    -1.399785    -0.042257
C        4.766779    -1.686313    -0.051340
C        5.729293    -0.665893    -0.054765
C        5.335508     0.678333    -0.048890
C        3.997195     0.978402    -0.039835
N        3.237612     2.231980    -0.031694
C        2.009979     1.967316    -0.027185
C        0.730187     2.760325    -0.020697
N       -0.513098     2.026038    -0.000124
C       -1.265942     2.216375    -1.212285
C       -1.480550     1.026463    -2.091593
N       -1.024060    -0.125316    -1.817607
C       -1.202491    -1.146381    -2.561657
C       -0.853196    -2.472174    -2.543622
C       -1.270792    -3.256388    -3.591339
C       -2.027208    -2.722714    -4.642266
C       -2.381131    -1.377357    -4.659168
C       -1.966012    -0.583987    -3.611805
N       -2.143980     0.826777    -3.301922
C       -1.275049     2.216259     1.204807
C       -1.500707     1.020171     2.073164
N       -1.053526    -0.125423     1.800681
C       -1.241727    -1.156195     2.538734
C       -0.899368    -2.481476     2.514948
C       -1.328569    -3.271176     3.554697
C       -2.090760    -2.744253     4.606274
C       -2.438357    -1.392961     4.628139
C       -2.011017    -0.598929     3.589684
N       -2.172483     0.813039     3.276757
H        2.625134    -2.122730    -0.038953
H        5.064367    -2.734417    -0.055846
H        6.786149    -0.917258    -0.062029
H        6.049018     1.488893    -0.051282
H        0.719158     3.405376    -0.929013
H        0.722293     3.435258     0.851334
H       -0.862599     3.084853    -1.755234
H       -2.284922     2.545947    -0.867827
H       -0.270731    -2.816314    -1.705373
H       -0.995965    -4.317889    -3.585486
H       -2.353751    -3.344320    -5.465174
H       -2.963132    -0.931321    -5.452443
H       -2.645105     1.548959    -3.838273
H       -2.192731     2.770532     0.973150
H       -0.653168     2.904852     1.847036
H       -0.311349    -2.825317     1.677869
H       -1.064463    -4.332305     3.552301
H       -2.427469    -3.372564     5.425558
H       -3.019739    -0.948650     5.412816
H       -2.675967     1.537738     3.816269
N       -2.504996    -4.338790     0.000000
N       -1.775000    -3.074391     0.000000
N       -1.045000    -1.809993     0.000000
55
ex_0132 frame4 TBP-5-chelate-1-conf4
Co       0.000000     0.000000     0.000000
N       -1.020647    -0.149427     1.817705
C       -1.217198    -1.101877     2.577865
C       -0.899897    -2.436198     2.628191
C       -1.340424    -3.156961     3.703166
C       -2.092553    -2.551441     4.721538
C       -2.405470    -1.184999     4.649318
C       -1.970750    -0.455772     3.580547
N       -2.100765     0.948567     3.178273
C       -1.509743     1.127750     2.086193
C       -1.269466     2.285989     1.158507
N       -0.477313     2.034631    -0.023395
C        0.795669     2.714802    -0.030767
C        2.030271     1.873372    -0.027859
N        2.000774     0.603951    -0.015669
C        3.047738    -0.118482    -0.013058
C        3.340964    -1.460991    -0.001432
C        4.663841    -1.830941    -0.003380
C        5.682928    -0.874245    -0.016730
C        5.384793     0.490249    -0.028517
C        4.060247     0.867508    -0.026640
N        3.397619     2.165857    -0.036278
C       -1.235858     2.219865    -1.239834
C       -1.458811     1.022580    -2.111884
N       -1.016676    -0.129166    -1.821479
C       -1.200210    -1.155957    -2.555651
C       -0.866871    -2.485889    -2.524383
C       -1.285482    -3.274193    -3.566390
C       -2.028655    -2.746375    -4.629844
C       -2.367853    -1.393467    -4.661465
C       -1.950757    -0.596091    -3.618456
N       -2.113981     0.819183    -3.321701
H       -0.316775    -2.824356     1.802458
H       -1.090904    -4.221557     3.749644
H       -2.440591    -3.123084     5.571800
H       -2.980243    -0.687536     5.412088
H       -0.767484     3.111451     1.683395
H       -2.257158     2.628307     0.817588
H        0.797442     3.373757     0.853396
H        0.781386     3.349203    -0.954042
H        2.506721    -2.147347     0.008582
H        4.912601    -2.893025     0.005727
H        6.715952    -1.162928    -0.018253
H        6.136983     1.254109    -0.038925
H        3.808529     3.100166    -0.046884
H       -2.265730     2.547631    -0.931355
H       -0.731184     2.990552    -1.837255
H       -0.293573    -2.828413    -1.677589
H       -1.025912    -4.334133    -3.552239
H       -2.342475    -3.396142    -5.435015
H       -2.935392    -0.948689    -5.456578
H       -2.604703     1.543025    -3.870647
N       -2.504996    -4.338790     0.000000
N       -1.775000    -3.074391     0.000000
N       -1.045000    -1.809993     0.000000
55
ex_0132 frame5 TBP-5-chelate-1-conf5
Co       0.000000     0.000000     0.000000
N       -0.509326     2.026688    -0.034949
C       -1.592668     2.609939    -0.054838
C       -2.921970     2.267309    -0.074753
C       -3.842478     3.279553    -0.094636
C       -3.443224     4.625224    -0.094336
C       -2.081019     4.955910    -0.073437
C       -1.150811     3.950938    -0.053499
N        0.314358     3.921799    -0.029042
C        0.697461     2.729028    -0.018745
C        2.027246     2.015190     0.004526
N        2.010130     0.572254    -0.001661
C        2.554655     0.008301    -1.209769
C        1.630455    -0.765928    -2.090503
N        0.402357    -0.943264    -1.821116
C       -0.392232    -1.603655    -2.568247
C       -1.717541    -1.959152    -2.553505
C       -2.186478    -2.709307    -3.605016
C       -1.349359    -3.100688    -4.656102
C       -0.001287    -2.738327    -4.669119
C        0.476163    -1.985879    -3.617858
N        1.789026    -1.439805    -3.303432
C        2.556971     0.003909     1.203966
C        1.633866    -0.788750     2.073110
N        0.418170    -0.973530     1.801519
C       -0.380389    -1.651248     2.540285
C       -1.699819    -2.016764     2.517535
C       -2.168761    -2.782652     3.557817
C       -1.329204    -3.178511     4.608250
C        0.012617    -2.806057     4.630194
C        0.486626    -2.039235     3.590769
N        1.790168    -1.473910     3.276641
H       -3.146605     1.208760    -0.073420
H       -4.903423     3.011115    -0.110852
H       -4.172792     5.421098    -0.110066
H       -1.737515     5.979693    -0.072567
H        2.548882     2.319677    -0.930801
H        2.642127     2.370078     0.846391
H        2.956614     0.864474    -1.815012
H        3.418900    -0.645571    -0.934092
H       -2.306732    -1.626665    -1.717132
H       -3.231502    -3.002607    -3.615908
H       -1.703296    -3.687928    -5.485354
H        0.674383    -3.015624    -5.452173
H        2.665585    -1.514603    -3.836994
H        3.455592    -0.571578     0.932354
H        2.897093     0.863784     1.831553
H       -2.291769    -1.679148     1.680471
H       -3.217105    -3.080575     3.552102
H       -1.722560    -3.785362     5.422192
H        0.690132    -3.089054     5.417789
H        2.670008    -1.547870     3.815543
N       -2.504996    -4.338790     0.000000
N       -1.775000    -3.074391     0.000000
N       -1.045000    -1.809993     0.000000
55
ex_0132 frame6 TBP-5-chelate-2
Co       0.000000     0.000000     0.000000
N        2.088477    -0.002407     0.079749
C        2.954423     0.002477    -0.792399
C        3.006176     0.008463    -2.166815
C        4.240334     0.012391    -2.755819
C        5.413776     0.010503    -1.988480
C        5.345262     0.004500    -0.589202
C        4.114343     0.000496     0.013578
N        3.664205    -0.005888     1.408973
C        2.404691    -0.008510     1.443370
C        1.350563    -0.015810     2.508131
N       -0.036837     0.003197     2.089673
C       -0.733710    -1.207286     2.450808
C       -1.232356    -2.071181     1.342524
N       -1.062784    -1.795947     0.114739
C       -1.486202    -2.530106    -0.836055
C       -1.463950    -2.508629    -2.208618
C       -2.067020    -3.545472    -2.877614
C       -2.685690    -4.592838    -2.183743
C       -2.708598    -4.615490    -0.791879
C       -2.105639    -3.578667    -0.114138
N       -1.938483    -3.276890     1.299408
C       -0.730919     1.206554     2.453001
C       -1.231699     2.069014     1.346754
N       -1.064752     1.794541     0.118432
C       -1.489469     2.526555    -0.827738
C       -1.472324     2.509245    -2.204254
C       -2.076917     3.544717    -2.867695
C       -2.696365     4.594098    -2.175775
C       -2.715989     4.615810    -0.782245
C       -2.110172     3.578092    -0.109426
N       -1.940345     3.277002     1.307022
H        2.055725     0.009571    -2.681613
H        4.283661     0.017070    -3.848884
H        6.382842     0.013637    -2.465308
H        6.227872     0.002899     0.031904
H        1.505599     0.879127     3.120000
H        1.505409    -0.964288     3.080329
H       -0.150438    -1.762456     3.196643
H       -1.664502    -0.865626     2.982111
H       -0.969958    -1.671374    -2.678492
H       -2.053134    -3.534632    -3.967904
H       -3.148009    -5.388273    -2.743817
H       -3.174507    -5.403697    -0.223400
H       -2.259995    -3.815847     2.118789
H       -1.488908     0.979605     3.215427
H        0.035008     1.847922     2.978900
H       -0.978708     1.672367    -2.672314
H       -2.074134     3.549097    -3.951721
H       -3.167962     5.402061    -2.726683
H       -3.181894     5.404694    -0.214070
H       -2.256935     3.809550     2.121839
N       -0.000002    -0.000005    -5.010000
N        0.000000    -0.000000    -3.550001
N        0.000000     0.000000    -2.090000
55
ex_0132 frame7 TBP-5-chelate-2-beta
Co       0.000000     0.000000     0.000000
N        2.086812     0.070784     0.091139
C        2.956584     0.132445    -0.777441
C        3.017793     0.196699    -2.148289
C        4.239531     0.255353    -2.737103
C        5.415343     0.250432    -1.970962
C        5.345989     0.184190    -0.571386
C        4.117220     0.124776     0.031708
N        3.663283     0.048801     1.422278
C        2.409130     0.015973     1.449522
C        1.350191    -0.060075     2.515870
N       -0.026741     0.004754     2.089824
C       -0.717401    -1.208990     2.443568
C       -1.246390    -2.052084     1.333483
N       -1.100597    -1.773000     0.115135
C       -1.551692    -2.492943    -0.842969
C       -1.550525    -2.450806    -2.214651
C       -2.181516    -3.475895    -2.880371
C       -2.800635    -4.521863    -2.191472
C       -2.802063    -4.565886    -0.799727
C       -2.173290    -3.544472    -0.127566
N       -1.968284    -3.247491     1.282256
C       -0.718711     1.214554     2.456291
C       -1.215433     2.089983     1.346121
N       -1.039671     1.809042     0.120624
C       -1.459955     2.549119    -0.827031
C       -1.433723     2.527451    -2.200067
C       -2.031337     3.568882    -2.869068
C       -2.647167     4.617974    -2.173985
C       -2.669112     4.631515    -0.778679
C       -2.074580     3.595396    -0.104274
N       -1.916884     3.298876     1.314063
H        2.056849     0.195584    -2.665592
H        4.286913     0.306957    -3.831425
H        6.386418     0.297413    -2.446532
H        6.224612     0.178295     0.049300
H        1.476964    -0.913842     3.183117
H        1.511986     0.860397     3.131284
H       -1.536253    -0.906060     3.143518
H       -0.024983    -1.869757     3.024469
H       -1.056669    -1.619116    -2.681060
H       -2.194981    -3.465729    -3.964801
H       -3.296196    -5.326065    -2.743167
H       -3.269710    -5.357287    -0.234874
H       -2.282585    -3.792934     2.104338
H       -0.122550     1.769706     3.188276
H       -1.640874     0.859432     2.987357
H       -0.943885     1.691488    -2.668766
H       -2.020134     3.568425    -3.953419
H       -3.120134     5.441868    -2.684423
H       -3.135169     5.424726    -0.212309
H       -2.232160     3.828057     2.125008
N       -0.000002    -0.000005    -5.010000
N        0.000000    -0.000000    -3.550001
N        0.000000     0.000000    -2.090000
55
ex_0132 frame8 TBP-5-chelate-2-conf2
Co       0.000000     0.000000     0.000000
N        2.087922     0.030678     0.087989
C        2.957922     0.039645    -0.781051
C        3.012017     0.046503    -2.155124
C        4.247231     0.056991    -2.743401
C        5.419723     0.060245    -1.973368
C        5.347646     0.052742    -0.574513
C        4.115083     0.042268     0.027053
N        3.666162     0.032277     1.422352
C        2.410608     0.026986     1.448907
C        1.349028     0.018652     2.516499
N       -0.030402    -0.002262     2.089778
C       -0.719503     1.209078     2.450511
C       -1.204130     2.089351     1.343540
N       -1.026355     1.816862     0.117085
C       -1.436637     2.561745    -0.834146
C       -1.403564     2.545283    -2.204801
C       -1.991902     3.593402    -2.869926
C       -2.604944     4.643175    -2.174528
C       -2.637992     4.658481    -0.783770
C       -2.049946     3.610705    -0.109164
N       -1.896484     3.299311     1.304144
C       -0.726944    -1.208019     2.449767
C       -1.222703    -2.075413     1.337363
N       -1.052880    -1.801449     0.119697
C       -1.474026    -2.538666    -0.840395
C       -1.447607    -2.513313    -2.208900
C       -2.047255    -3.552662    -2.879043
C       -2.666218    -4.605390    -2.191260
C       -2.691716    -4.628852    -0.796236
C       -2.092875    -3.590802    -0.121449
N       -1.923454    -3.279373     1.289918
H        2.062732     0.043217    -2.672470
H        4.294237     0.062759    -3.831914
H        6.389737     0.068645    -2.462432
H        6.229337     0.054956     0.048966
H        1.487003     0.926336     3.147628
H        1.498033    -0.854035     3.173955
H       -0.126487     1.751530     3.202715
H       -1.634373     0.863442     3.006515
H       -0.916028     1.707858    -2.675319
H       -1.970134     3.588804    -3.966217
H       -3.066942     5.466405    -2.702780
H       -3.101474     5.450833    -0.214279
H       -2.217238     3.834543     2.123284
H       -1.491618    -0.977672     3.201589
H        0.037770    -1.850387     2.975059
H       -0.955602    -1.675407    -2.678514
H       -2.035836    -3.549020    -3.972483
H       -3.138675    -5.424353    -2.725544
H       -3.154050    -5.414448    -0.230355
H       -2.245276    -3.820009     2.110833
N       -0.000002    -0.000005    -5.010000
N        0.000000    -0.000000    -3.550001
N        0.000000     0.000000    -2.090000
55
ex_0132 frame9 TBP-5-chelate-1_mirror
Co       0.000000     0.000000     0.000000
N       -1.029686    -0.163620     1.811374
C       -1.248109    -1.112352     2.561526
C       -0.954131    -2.455219     2.606490
C       -1.417101    -3.171195     3.675659
C       -2.165585    -2.560866     4.692051
C       -2.457282    -1.191897     4.632510
C       -1.999067    -0.462893     3.566156
N       -2.104441     0.946531     3.176011
C       -1.499483     1.126210     2.085458
C       -1.233181     2.284389     1.172956
N       -0.477620     2.034335    -0.038220
C        0.794570     2.714668    -0.039555
C        2.025273     1.872871    -0.038569
N        2.000791     0.603537    -0.026052
C        3.048617    -0.120578    -0.024895
C        3.343419    -1.461414    -0.013231
C        4.666817    -1.828692    -0.017517
C        5.685247    -0.867577    -0.033141
C        5.387200     0.492332    -0.044832
C        4.061811     0.868126    -0.040651
N        3.393262     2.160445    -0.049397
C       -1.240042     2.220413    -1.240681
C       -1.462581     1.026063    -2.102309
N       -1.022744    -0.130521    -1.817982
C       -1.210072    -1.151301    -2.548995
C       -0.879196    -2.487417    -2.522410
C       -1.301506    -3.274997    -3.561285
C       -2.047950    -2.746586    -4.623017
C       -2.385343    -1.394555    -4.653983
C       -1.963946    -0.597541    -3.612949
N       -2.126790     0.821182    -3.318797
H       -0.372696    -2.845766     1.783215
H       -1.184286    -4.239402     3.713339
H       -2.525772    -3.136999     5.531575
H       -3.030468    -0.690090     5.396986
H       -2.206309     2.677146     0.859756
H       -0.644486     3.017453     1.778807
H        0.803319     3.486080     0.741174
H        0.832990     3.268454    -1.017938
H        2.509573    -2.147247    -0.001424
H        4.908070    -2.892063    -0.008436
H        6.711400    -1.194901    -0.036031
H        6.142869     1.260660    -0.056972
H        3.809832     3.104669    -0.061210
H       -0.861099     3.095666    -1.786284
H       -2.275642     2.511063    -0.897720
H       -0.303468    -2.827396    -1.676211
H       -1.050906    -4.329669    -3.558621
H       -2.369711    -3.393439    -5.433423
H       -2.957703    -0.950628    -5.452457
H       -2.613866     1.540201    -3.860586
N       -2.504996    -4.338790     0.000000
N       -1.775000    -3.074391     0.000000
N       -1.045000    -1.809993     0.000000
