67
ex_0348 frame0 trans
C        2.883052     0.647963     4.203422
C        1.827040     0.158539     3.218685
C        0.514987    -0.115228     3.950612
Sb       1.529978     1.529978     1.529978
C        3.562789     2.268685     1.327943
C        4.569123     1.397338     0.897741
C        5.872274     1.868395     0.700091
C        6.177912     3.209111     0.952252
C        5.185030     4.072241     1.417894
C        3.886662     3.598703     1.619342
C        0.334777     3.203441     2.377004
C       -1.132102     2.754419     2.426585
C        0.403089     4.471593     1.504470
Co       0.000000     0.000000     0.000000
I       -1.033727    -2.103621     1.032127
I       -0.816374     2.028426    -1.334620
Sb       1.529978    -1.529978    -1.529978
C        2.450445    -3.337556    -0.812449
C        3.484287    -3.248474     0.127414
C        4.089524    -4.407972     0.620359
C        3.670678    -5.661448     0.165539
C        2.642329    -5.754080    -0.777134
C        2.034045    -4.593954    -1.268141
C        3.273074    -0.457039    -2.326013
C        4.247169    -1.347331    -3.082342
C        2.868518     0.760943    -3.155621
C        0.211022    -2.048006    -3.249610
C       -0.325726    -0.770279    -3.900880
C        0.797157    -2.943833    -4.337589
H        2.554290     1.584080     4.699270
H        3.841736     0.825805     3.677302
H        3.060175    -0.133779     4.974363
H        2.195431    -0.786647     2.762763
H        0.657568    -0.901423     4.721832
H       -0.259705    -0.457080     3.243217
H        0.154882     0.806200     4.451290
H        4.336071     0.362665     0.696607
H        6.642768     1.197964     0.343900
H        7.181653     3.579863     0.790303
H        5.417414     5.110965     1.617700
H        3.156920     4.280427     1.982060
H        0.654993     3.446449     3.412205
H       -1.524204     2.563833     1.410180
H       -1.259031     1.832839     3.018972
H       -1.759969     3.547567     2.886712
H        1.312979     5.058566     1.679517
H       -0.424327     5.171610     1.744468
H        0.349736     4.212269     0.428351
H        3.807608    -2.279727     0.485883
H        4.879560    -4.334859     1.356452
H        4.137046    -6.559924     0.548398
H        2.311310    -6.725286    -1.121616
H        1.227351    -4.687815    -1.970961
H        3.793643    -0.080257    -1.426835
H        5.133256    -0.750968    -3.391566
H        3.767300    -1.780504    -3.980191
H        4.595707    -2.163623    -2.417547
H        2.124207     1.373491    -2.603908
H        3.755727     1.395364    -3.363600
H        2.452946     0.450553    -4.129743
H       -0.656627    -2.571406    -2.792605
H        0.466353    -0.226395    -4.442280
H       -1.125253    -1.003333    -4.634321
H       -0.758824    -0.110608    -3.136062
H        1.675800    -2.466746    -4.810424
H        1.082970    -3.930307    -3.944483
H        0.023197    -3.122492    -5.117773
67
ex_0348 frame1 square-planar trans-conf3
C        4.304868     2.494420     1.271069
C        3.138562     2.156264     0.345509
C        3.256134     2.787889    -1.046910
Sb       2.650000     0.000000     0.000000
C        4.338401    -0.621441    -1.182942
C        4.109814    -1.450106    -2.284666
C        5.174385    -1.853011    -3.098495
C        6.470943    -1.425801    -2.805923
C        6.706450    -0.608985    -1.698986
C        5.643875    -0.219982    -0.878352
C        2.815038    -1.090648     1.889952
C        3.264779    -2.523435     1.597096
C        3.715882    -0.431155     2.916401
Co       0.000000     0.000000     0.000000
I       -0.214593     2.538442     0.259227
I       -0.124962    -2.546438    -0.235578
Sb      -2.650000     0.000000     0.000000
C       -4.287143    -1.132617    -0.796501
C       -4.081397    -1.886586    -1.957431
C       -5.127704    -2.635495    -2.504381
C       -6.377612    -2.640013    -1.883279
C       -6.586319    -1.888410    -0.720953
C       -5.541367    -1.127717    -0.179027
C       -2.817504    -0.119106     2.176614
C       -3.462255     1.102496     2.817744
C       -3.469198    -1.420965     2.638777
C       -3.409912     2.008478    -0.587555
C       -4.904929     2.215188    -0.384997
C       -3.036573     2.224148    -2.059607
H        3.947188     2.504151     2.322038
H        5.132096     1.792583     1.223271
H        4.675474     3.521351     1.067539
H        2.323128     2.689711     0.843278
H        3.484559     3.872181    -0.975372
H        4.024328     2.280026    -1.658307
H        2.277454     2.698488    -1.574917
H        3.103635    -1.774177    -2.516864
H        4.988457    -2.489591    -3.950658
H        7.295628    -1.727234    -3.439144
H        7.708634    -0.269089    -1.475491
H        5.862355     0.402850    -0.045820
H        1.790994    -1.119833     2.325482
H        3.309881    -3.119659     2.532649
H        2.554113    -3.022254     0.908988
H        4.265330    -2.520323     1.117571
H        3.703603    -1.027298     3.854705
H        3.307985     0.568034     3.159262
H        4.753332    -0.351044     2.537924
H       -3.114180    -1.883341    -2.442325
H       -4.964859    -3.208929    -3.408221
H       -7.186106    -3.224543    -2.304119
H       -7.554644    -1.894992    -0.241048
H       -5.713099    -0.544829     0.712677
H       -1.752131    -0.136404     2.493493
H       -2.948053     2.022567     2.466749
H       -3.356470     1.046745     3.922161
H       -4.538515     1.154467     2.569939
H       -3.014430    -2.283662     2.109023
H       -3.317283    -1.552704     3.730648
H       -4.558360    -1.412146     2.442304
H       -2.920210     2.796312     0.009441
H       -5.173766     3.245112    -0.710611
H       -5.486595     1.489311    -0.978198
H       -5.156081     2.129976     0.685110
H       -3.384745     3.216500    -2.419452
H       -3.472032     1.429188    -2.697937
H       -1.931434     2.196518    -2.187774
67
ex_0348 frame2 cis-conf5
C        0.017734     0.616747     4.062561
C        1.447643     0.580203     3.501181
C        1.910849    -0.879551     3.422439
Sb       1.529978     1.529978     1.529978
C        1.622906     3.635541     1.989795
C        0.576284     4.230037     2.704356
C        0.600139     5.599982     2.979171
C        1.677678     6.379693     2.551309
C        2.733054     5.787536     1.853143
C        2.713476     4.416179     1.584665
C        3.525480     0.949072     0.853531
C        3.806412     1.501621    -0.549533
C        4.612024     1.316743     1.854271
Co       0.000000     0.000000     0.000000
I       -1.669799    -1.612853     1.079001
I       -0.990469     1.992982    -1.266275
Sb       1.529978    -1.529978    -1.529978
C        3.635778    -1.939888    -1.472061
C        4.133633    -2.767094    -0.457094
C        5.502121    -3.020586    -0.359520
C        6.379496    -2.464389    -1.292327
C        5.884727    -1.655015    -2.321760
C        4.510475    -1.400716    -2.420680
C        0.927671    -0.359587    -3.259518
C       -0.609518    -0.284098    -3.204192
C        1.385966    -0.841528    -4.637119
C        0.639326    -3.486958    -1.887812
C        1.216750    -4.214134    -3.097978
C        0.747191    -4.368686    -0.637910
H       -0.001912     0.234860     5.105167
H       -0.395331     1.640969     4.055688
H       -0.658106    -0.022279     3.454745
H        2.136591     1.155085     4.151524
H        1.188606    -1.500508     2.848510
H        2.008373    -1.301378     4.445349
H        2.896573    -0.953665     2.926461
H       -0.270576     3.641674     3.022419
H       -0.221035     6.057758     3.514886
H        1.691653     7.442280     2.754022
H        3.563056     6.392106     1.511236
H        3.529471     3.992369     1.032714
H        3.514828    -0.159177     0.787970
H        3.155923     1.002511    -1.293838
H        3.587377     2.582399    -0.613384
H        4.863567     1.330219    -0.841481
H        5.547984     0.784113     1.579677
H        4.315219     0.985563     2.869193
H        4.811217     2.401917     1.870717
H        3.463544    -3.182757     0.282847
H        5.880851    -3.638676     0.445050
H        7.441848    -2.654099    -1.210638
H        6.569087    -1.216587    -3.035384
H        4.145113    -0.756175    -3.203027
H        1.374140     0.635619    -3.047216
H       -1.004290    -0.394090    -2.182876
H       -1.004275     0.559300    -3.808184
H       -1.018412    -1.213767    -3.644171
H        2.478859    -1.001480    -4.663376
H        0.874628    -1.780382    -4.919740
H        1.116473    -0.088705    -5.405549
H       -0.426056    -3.233030    -2.073596
H        2.139050    -4.771299    -2.835333
H        1.486678    -3.505975    -3.889683
H        0.459035    -4.921620    -3.497411
H        1.807593    -4.631479    -0.440706
H        0.356756    -3.835922     0.253044
H        0.174604    -5.310096    -0.770203
67
ex_0348 frame3 square-planar trans-conf2
C        3.322983     2.817757     1.142576
C        3.720133     1.936458    -0.055463
C        3.437377     2.703553    -1.353425
Sb       2.650000     0.000000     0.000000
C        3.801516    -1.129008     1.400228
C        3.174214    -1.628185     2.544869
C        3.894887    -2.362424     3.486998
C        5.255674    -2.609148     3.278493
C        5.888058    -2.115882     2.131760
C        5.165511    -1.373703     1.188335
C        2.897759    -0.826354    -2.001888
C        4.356708    -1.003585    -2.392181
C        2.121233     0.049916    -3.007347
Co       0.000000     0.000000     0.000000
I       -0.161167     2.548586     0.180617
I        0.107013    -2.557116     0.095561
Sb      -2.650000     0.000000     0.000000
C       -3.821783    -0.048790     1.796929
C       -3.873852    -1.219724     2.561145
C       -4.594941    -1.241664     3.759763
C       -5.283026    -0.100291     4.184067
C       -5.251709     1.062629     3.408959
C       -4.534774     1.084580     2.209276
C       -3.232696    -1.711913    -1.232060
C       -4.716388    -2.042038    -1.243051
C       -2.647171    -1.569214    -2.646000
C       -3.345813     1.791439    -1.039309
C       -2.589050     2.000475    -2.363232
C       -4.853505     1.879154    -1.243231
H        3.975733     3.712524     1.203863
H        2.301889     3.215510     1.043189
H        3.372719     2.253114     2.093812
H        4.802490     1.712973     0.008550
H        3.792611     2.123894    -2.223508
H        3.968560     3.678801    -1.357673
H        2.351593     2.901053    -1.478268
H        2.119699    -1.433961     2.712055
H        3.402439    -2.735586     4.375695
H        5.814242    -3.179627     4.008929
H        6.941122    -2.309729     1.974933
H        5.660391    -0.990703     0.310379
H        2.398346    -1.818196    -1.976132
H        4.898487    -0.042036    -2.274281
H        4.435358    -1.343559    -3.445605
H        4.820744    -1.767103    -1.737589
H        2.795122     0.642145    -3.661041
H        1.433821     0.751482    -2.487687
H        1.485778    -0.585350    -3.659970
H       -3.328286    -2.099263     2.244723
H       -4.612229    -2.138573     4.365237
H       -5.832096    -0.113299     5.116626
H       -5.772073     1.950829     3.743591
H       -4.496602     1.998984     1.635852
H       -2.704043    -2.556593    -0.745606
H       -5.301291    -1.163883    -1.580156
H       -5.036678    -2.328094    -0.219038
H       -4.908520    -2.899602    -1.924209
H       -3.394789    -1.171587    -3.362557
H       -1.761872    -0.897744    -2.641959
H       -2.295336    -2.559132    -3.010619
H       -3.049194     2.569904    -0.308446
H       -1.503051     1.810773    -2.241961
H       -2.947256     1.295264    -3.140769
H       -2.719604     3.039160    -2.731332
H       -5.164341     1.380346    -2.182387
H       -5.383729     1.400102    -0.400365
H       -5.146156     2.951134    -1.283694
67
ex_0348 frame4 see-saw Sb-Sb-ax-conf6
C       -2.100180     0.404564     4.964222
C       -2.010852     0.361148     3.444399
C       -2.602958     1.621574     2.813708
Sb       0.000000     0.000000     2.650000
C        0.580309    -1.829505     3.599323
C       -0.375294    -2.816525     3.863411
C        0.016802    -4.034563     4.428516
C        1.358643    -4.255202     4.756013
C        2.308717    -3.257192     4.520202
C        1.917725    -2.039351     3.956710
C        1.411777     1.425032     3.533115
C        1.311017     2.770119     2.810609
C        1.255308     1.576651     5.037039
Co       0.000000     0.000000     0.000000
I        2.107066    -1.425877    -0.294033
I       -2.313601    -1.056719    -0.292739
Sb       0.000000     0.000000    -2.650000
C       -1.649030     1.106911    -3.600398
C       -2.978756     0.739807    -3.337393
C       -4.041498     1.472062    -3.867495
C       -3.789374     2.561035    -4.699195
C       -2.471710     2.910108    -5.007176
C       -1.401648     2.180333    -4.470687
C        1.800939     1.047557    -3.395553
C        2.408084     1.818051    -2.211415
C        2.858123     0.142484    -4.013323
C       -0.238843    -2.065921    -3.383447
C        1.007563    -2.652040    -4.028240
C       -1.468830    -2.222578    -4.266736
H       -1.580852     1.286649     5.367049
H       -3.163764     0.479864     5.274450
H       -1.663937    -0.517817     5.397750
H       -2.609677    -0.505443     3.090620
H       -2.540965     1.554950     1.706383
H       -3.673886     1.722406     3.092105
H       -2.054818     2.525761     3.147384
H       -1.410522    -2.659611     3.592636
H       -0.716325    -4.811475     4.601361
H        1.663793    -5.201508     5.183353
H        3.349307    -3.431330     4.762215
H        2.663604    -1.283348     3.757369
H        2.429309     1.019376     3.347634
H        1.947185     3.534916     3.304855
H        1.659453     2.656565     1.760756
H        0.261789     3.128144     2.795310
H        0.341719     2.142477     5.281110
H        2.117712     2.148178     5.440632
H        1.239870     0.575491     5.515901
H       -3.213515    -0.084245    -2.696865
H       -5.060611     1.199072    -3.621810
H       -4.615436     3.134451    -5.099903
H       -2.280705     3.756837    -5.652758
H       -0.405047     2.491726    -4.715410
H        1.501043     1.786779    -4.153816
H        1.628757     2.407453    -1.684038
H        3.199692     2.513682    -2.560684
H        2.871601     1.127784    -1.477646
H        3.181542    -0.634525    -3.290923
H        2.454999    -0.325170    -4.928779
H        3.746162     0.741559    -4.308331
H       -0.422845    -2.668527    -2.465053
H        1.232442    -2.137698    -4.978895
H        0.845310    -3.730345    -4.242792
H        1.863359    -2.577598    -3.326394
H       -2.375899    -1.970611    -3.682446
H       -1.575152    -3.278120    -4.595829
H       -1.397427    -1.558352    -5.150479
67
ex_0348 frame5 trans-SQ I0+I0|Sb1+Sb1
C        1.023555     4.394515     2.382335
C        0.691498     2.944617     2.054863
C       -0.307028     2.359503     3.053494
Sb       0.000000     2.650000     0.000000
C        1.200412     4.112853    -1.063209
C        2.580461     3.918064    -1.183178
C        3.357017     4.825270    -1.914114
C        2.758587     5.938952    -2.511502
C        1.387536     6.152640    -2.367225
C        0.615084     5.251073    -1.632419
C       -2.055593     3.518877    -0.092252
C       -3.096305     2.527030     0.442224
C       -2.464220     3.883325    -1.539976
Co       0.000000     0.000000     0.000000
I        2.525614     0.171644     0.383797
I       -2.478898    -0.420780     0.485155
Sb       0.000000    -2.650000     0.000000
C       -1.183194    -3.820665     1.358341
C       -0.853412    -3.815398     2.718945
C       -1.620187    -4.542431     3.632610
C       -2.711081    -5.291764     3.185280
C       -3.034952    -5.310981     1.824528
C       -2.267829    -4.581015     0.908887
C        2.016072    -3.493133     0.303282
C        2.008992    -4.984467     0.593185
C        2.987313    -3.181299    -0.840522
C       -0.581566    -3.011621    -2.090514
C        0.398092    -2.256433    -2.996940
C       -0.682438    -4.471235    -2.515697
H        0.105382     5.005571     2.489405
H        1.663889     4.823106     1.585354
H        1.602628     4.426237     3.331737
H        1.641339     2.377186     2.114183
H        0.088845     2.429668     4.088604
H       -0.503670     1.291566     2.819971
H       -1.264671     2.918829     3.004411
H        3.047495     3.051762    -0.738762
H        4.419761     4.660229    -2.026551
H        3.354601     6.635420    -3.086592
H        0.918773     7.012691    -2.829547
H       -0.427439     5.445151    -1.539007
H       -2.081773     4.417512     0.558584
H       -3.349039     1.818949    -0.361959
H       -2.803369     2.126904     1.432556
H       -4.055683     3.062941     0.597668
H       -2.466221     4.978523    -1.687410
H       -3.502972     3.574472    -1.794572
H       -1.792658     3.384512    -2.271215
H       -0.014615    -3.227905     3.069728
H       -1.371743    -4.518894     4.685956
H       -3.308721    -5.850815     3.893491
H       -3.885862    -5.884120     1.481003
H       -2.545673    -4.587013    -0.129391
H        2.379507    -2.967087     1.213753
H        3.047085    -5.329061     0.794575
H        1.597281    -5.539691    -0.272679
H        1.395286    -5.187744     1.492840
H        2.925115    -2.124443    -1.154323
H        4.031428    -3.377233    -0.515233
H        2.777991    -3.819327    -1.719374
H       -1.578203    -2.535085    -2.214157
H        1.396112    -2.724868    -2.985574
H        0.044920    -2.261230    -4.048609
H        0.500280    -1.201324    -2.663876
H        0.278356    -4.995746    -2.349607
H       -1.483391    -4.986207    -1.959999
H       -0.948789    -4.523407    -3.594399
67
ex_0348 frame6 square-planar trans-conf6
C        5.004845     1.453150    -1.551168
C        3.484832     1.424486    -1.458071
C        2.856169     1.192001    -2.833951
Sb       2.650000     0.000000     0.000000
C        3.598538     0.575180     1.829507
C        3.864095     1.924310     2.087470
C        4.430054     2.303407     3.309056
C        4.756798     1.332033     4.260962
C        4.519313    -0.019122     3.990784
C        3.954095    -0.398966     2.769880
C        3.603760    -1.964497    -0.399468
C        2.989142    -2.662840    -1.625757
C        5.117625    -1.899091    -0.516065
Co       0.000000     0.000000     0.000000
I        0.111587     2.497264    -0.554111
I        0.120644    -2.484142     0.608542
Sb      -2.650000     0.000000     0.000000
C       -3.573198    -1.421684     1.375913
C       -3.255114    -2.782472     1.269820
C       -3.760380    -3.704312     2.188391
C       -4.626086    -3.279329     3.194385
C       -4.992814    -1.932630     3.276156
C       -4.476409    -1.003339     2.362293
C       -3.418904     1.975084     0.650086
C       -2.267155     2.799161     1.269667
C       -4.098223     2.804829    -0.431320
C       -3.366613    -0.643451    -1.981658
C       -4.002589     0.466587    -2.804700
C       -4.260674    -1.873095    -1.896171
H        5.391333     0.525829    -1.994917
H        5.322744     2.280713    -2.219867
H        5.448314     1.609943    -0.547384
H        3.154816     2.420656    -1.096301
H        1.749360     1.189996    -2.754873
H        3.147521     2.005635    -3.531879
H        3.178069     0.220122    -3.257845
H        3.594257     2.681194     1.363540
H        4.604276     3.349852     3.522752
H        5.185156     1.626336     5.210266
H        4.761673    -0.770407     4.731374
H        3.753607    -1.443814     2.577502
H        3.400412    -2.597998     0.490819
H        3.661997    -3.447857    -2.031273
H        2.046890    -3.176858    -1.357635
H        2.764160    -1.932030    -2.426675
H        5.424488    -1.483366    -1.486451
H        5.526170    -2.931922    -0.468569
H        5.540601    -1.316098     0.326884
H       -2.585334    -3.131828     0.505823
H       -3.468011    -4.745013     2.122829
H       -5.009771    -3.993419     3.911720
H       -5.666057    -1.606388     4.056846
H       -4.763104     0.025369     2.467640
H       -4.145488     1.773779     1.452570
H       -1.537434     2.167714     1.823248
H       -2.713304     3.466160     2.035438
H       -1.886363     3.574968     0.589108
H       -3.390460     2.985188    -1.268683
H       -5.004135     2.290324    -0.791668
H       -4.407487     3.788871    -0.018845
H       -2.445590    -0.948615    -2.528216
H       -4.957491     0.786952    -2.352797
H       -4.213618     0.099146    -3.831825
H       -3.297365     1.319031    -2.891374
H       -3.685275    -2.717012    -1.466916
H       -4.588501    -2.183050    -2.911137
H       -5.146000    -1.664953    -1.263077
67
ex_0348 frame7 cis-conf4
C        0.495047     3.470980     3.760690
C        0.085074     2.947133     2.385875
C       -0.254305     4.089052     1.405963
Sb       1.529978     1.529978     1.529978
C        3.339078     2.658001     1.295438
C        3.400069     4.000224     1.683804
C        4.575346     4.733345     1.483256
C        5.692846     4.121623     0.910202
C        5.640052     2.773317     0.539984
C        4.468456     2.039173     0.747024
C        1.996675     0.203962     3.208931
C        2.803543    -0.995727     2.671783
C        0.678742    -0.258041     3.825988
Co       0.000000     0.000000     0.000000
I       -1.722544    -1.585157     1.036378
I       -1.241680     1.905826    -1.175831
Sb       1.529978    -1.529978    -1.529978
C        2.931693    -3.073014    -1.047584
C        2.602932    -4.422794    -1.206715
C        3.530069    -5.410449    -0.851147
C        4.786456    -5.049156    -0.354574
C        5.120022    -3.699265    -0.210761
C        4.195744    -2.714631    -0.565550
C       -0.290739    -2.356163    -2.456375
C       -1.144478    -1.155204    -2.838817
C       -0.072810    -3.246680    -3.664288
C        2.508096    -0.390115    -3.111785
C        3.322045     0.743416    -2.481248
C        3.402117    -1.277322    -3.965575
H        1.269961     2.824597     4.207684
H        0.855598     4.515556     3.719868
H       -0.400036     3.444196     4.422827
H       -0.826617     2.327735     2.541555
H        0.617815     4.318479     0.755567
H       -1.102929     3.815135     0.758890
H       -0.574260     5.014934     1.920846
H        2.543405     4.489778     2.112573
H        4.612830     5.776591     1.765972
H        6.597785     4.692465     0.746781
H        6.502836     2.302509     0.087266
H        4.426528     0.999994     0.447546
H        2.565981     0.694045     4.020293
H        3.878910    -0.854626     2.882859
H        2.677852    -1.107687     1.571032
H        2.483107    -1.956569     3.132512
H        0.015582    -0.692266     3.067461
H        0.858418    -1.013819     4.620539
H        0.159643     0.606678     4.297292
H        1.630295    -4.712089    -1.568567
H        3.270765    -6.456049    -0.952235
H        5.500917    -5.812222    -0.073850
H        6.087840    -3.415478     0.180982
H        4.452401    -1.670470    -0.440423
H       -0.865623    -2.941963    -1.705085
H       -1.456798    -0.673090    -1.903768
H       -2.074418    -1.440600    -3.368700
H       -0.570720    -0.439669    -3.466488
H        0.379216    -4.202290    -3.347220
H        0.559916    -2.738273    -4.411635
H       -1.061891    -3.482038    -4.118776
H        1.719204     0.082346    -3.733508
H        4.159131     0.343923    -1.874688
H        2.669806     1.363955    -1.827204
H        3.736490     1.404971    -3.272631
H        3.901077    -0.670640    -4.750326
H        4.181293    -1.745642    -3.328612
H        2.802879    -2.072508    -4.446885
67
ex_0348 frame8 square-planar trans-conf5
C        2.584201     0.653909     3.019238
C        3.131855    -0.441405     2.086054
C        2.548062    -1.793824     2.516557
Sb       2.650000     0.000000     0.000000
C        4.173860     1.384365    -0.622923
C        4.330876     2.593369     0.064219
C        5.292255     3.518494    -0.351348
C        6.109371     3.231988    -1.448247
C        5.966470     2.018632    -2.126933
C        5.009863     1.089942    -1.707211
C        3.134542    -1.891841    -1.008592
C        2.756246    -1.828792    -2.497765
C        4.552407    -2.365082    -0.757457
Co       0.000000     0.000000     0.000000
I        0.078108     2.489023    -0.595547
I       -0.165054    -2.547447    -0.196709
Sb      -2.650000     0.000000     0.000000
C       -4.053767    -0.338757    -1.579244
C       -4.235734    -1.645324    -2.050252
C       -5.114270    -1.900659    -3.103496
C       -5.831360    -0.849902    -3.679229
C       -5.665843     0.455507    -3.200176
C       -4.783923     0.712386    -2.141825
C       -2.626600     2.083070     0.669995
C       -1.637301     2.146530     1.857088
C       -3.967896     2.631942     1.138432
C       -3.491526    -1.145594     1.677262
C       -4.921601    -0.739366     2.009730
C       -3.437143    -2.667893     1.468503
H        2.968457     0.514760     4.051793
H        2.863517     1.664536     2.669972
H        1.470394     0.615775     3.060925
H        4.238170    -0.481528     2.113236
H        1.449223    -1.731149     2.683837
H        3.030201    -2.131923     3.457348
H        2.728423    -2.563645     1.744735
H        3.692333     2.831970     0.901159
H        5.396953     4.460234     0.171288
H        6.847035     3.952186    -1.776366
H        6.590317     1.801001    -2.984081
H        4.904521     0.171399    -2.255428
H        2.522535    -2.678255    -0.540578
H        1.655515    -1.925405    -2.621442
H        3.040756    -0.854107    -2.940219
H        3.237723    -2.644591    -3.075304
H        4.595389    -3.459079    -0.962328
H        4.799704    -2.214807     0.312739
H        5.284929    -1.850459    -1.399595
H       -3.668027    -2.460875    -1.622504
H       -5.230213    -2.910567    -3.477170
H       -6.507328    -1.047766    -4.500840
H       -6.214578     1.267976    -3.656693
H       -4.647287     1.724373    -1.793763
H       -2.419316     2.707986    -0.208366
H       -0.683477     1.599526     1.739760
H       -1.450151     3.193514     2.172581
H       -2.087871     1.607828     2.718903
H       -4.736926     2.493629     0.355082
H       -4.292661     2.153922     2.080715
H       -3.860412     3.718872     1.341447
H       -2.812135    -0.862009     2.510456
H       -5.658255    -1.406325     1.516821
H       -5.137480     0.271259     1.645690
H       -5.068512    -0.783422     3.109585
H       -4.093434    -2.968071     0.624331
H       -2.422513    -3.019353     1.247778
H       -3.764644    -3.203800     2.382114
67
ex_0348 frame9 trans-conf3
C        1.732804     4.493803     0.526039
C        1.792653     3.067942    -0.012268
C        3.096007     2.756077    -0.753435
Sb       1.529978     1.529978     1.529978
C        3.309926     1.474488     2.684642
C        3.875581     0.234685     2.981232
C        5.056300     0.142679     3.716662
C        5.676345     1.317706     4.167914
C        5.104107     2.560442     3.874588
C        3.915067     2.647303     3.145801
C       -0.131130     1.962566     2.875800
C        0.116980     1.187906     4.172417
C       -0.340876     3.438350     3.129680
Co       0.000000     0.000000     0.000000
I       -0.999279    -1.552120     1.773926
I       -1.077897     1.507831    -1.766377
Sb       1.529978    -1.529978    -1.529978
C        2.003652    -1.801210    -3.596751
C        1.074465    -1.426194    -4.573492
C        1.363867    -1.567792    -5.925745
C        2.600042    -2.096497    -6.319734
C        3.532957    -2.480284    -5.341788
C        3.229603    -2.348407    -3.986906
C        3.413361    -1.041682    -0.560029
C        4.056925    -2.176486     0.213632
C        4.399043    -0.318587    -1.473684
C        1.008223    -3.552443    -0.848066
C        1.993671    -4.564500    -1.400738
C       -0.417724    -3.872325    -1.321962
H        0.752042     4.936263     0.231203
H        1.807952     4.517415     1.623932
H        2.513182     5.142916     0.077882
H        0.988120     3.002384    -0.774326
H        3.550497     3.651130    -1.229357
H        3.843787     2.290540    -0.077245
H        2.857422     2.057129    -1.580301
H        3.399160    -0.681718     2.634347
H        5.489768    -0.824025     3.936580
H        6.592867     1.250895     4.731003
H        5.587984     3.465512     4.218261
H        3.483289     3.604091     2.912572
H       -1.072271     1.589413     2.410485
H       -0.625231     1.461463     4.952733
H        0.041896     0.093745     3.986386
H        1.135969     1.408620     4.555862
H       -1.210242     3.566448     3.811979
H       -0.593688     3.932431     2.167953
H        0.562408     3.889162     3.579563
H        0.112393    -1.004829    -4.274567
H        0.644197    -1.269011    -6.676138
H        2.837482    -2.202175    -7.364953
H        4.491514    -2.881382    -5.641897
H        3.951039    -2.642133    -3.238694
H        3.040966    -0.320173     0.176176
H        3.287052    -2.681559     0.836005
H        4.843821    -1.776170     0.886800
H        4.516218    -2.897917    -0.488140
H        3.855799     0.308408    -2.205366
H        5.077302     0.321853    -0.868105
H        5.011883    -1.036385    -2.049607
H        1.013136    -3.634467     0.263061
H        1.663378    -5.591650    -1.138152
H        2.061776    -4.466880    -2.500352
H        2.986099    -4.412814    -0.944499
H       -0.618867    -4.966261    -1.283492
H       -0.585851    -3.506302    -2.356650
H       -1.165547    -3.387276    -0.657672
67
ex_0348 frame10 square-planar cis-conf5
C        2.650351     0.780720     3.010879
C        3.234808    -0.298341     2.086080
C        2.720876    -1.646269     2.535700
Sb       2.650000     0.000000     0.000000
C        4.168497     1.406311    -0.624853
C        4.315369     2.620151     0.054977
C        5.285763     3.540879    -0.352621
C        6.114703     3.250425    -1.440019
C        5.975045     2.038444    -2.117970
C        5.011526     1.116632    -1.706942
C        3.304265    -1.756826    -1.070535
C        2.876317    -1.748530    -2.546190
C        4.717195    -2.248888    -0.814483
Co       0.000000     0.000000     0.000000
I       -2.439009     0.081635     0.776375
I        0.081518     2.555209    -0.141026
Sb       0.000000    -2.650000     0.000000
C        1.544535    -4.222057    -0.082374
C        2.227166    -4.575025     1.087042
C        3.283920    -5.482091     1.040375
C        3.626173    -6.084078    -0.167637
C        2.909528    -5.777180    -1.328969
C        1.844838    -4.864058    -1.284880
C       -1.161869    -2.672485    -1.862040
C       -2.234725    -1.577332    -1.732014
C       -1.796826    -4.006749    -2.242498
C       -1.387018    -3.471461     1.494936
C       -1.739362    -4.936511     1.255050
C       -0.846846    -3.298775     2.922872
H        2.994107     0.619992     4.055684
H        2.952750     1.794005     2.696769
H        1.536727     0.739574     3.005916
H        4.342609    -0.299855     2.115206
H        1.612629    -1.644164     2.618049
H        3.159550    -1.947773     3.508521
H        3.036405    -2.359180     1.768484
H        3.674149     2.861465     0.886828
H        5.391227     4.481442     0.170778
H        6.860478     3.964799    -1.761387
H        6.608325     1.812842    -2.966538
H        4.921588     0.202816    -2.257647
H        2.712998    -2.479214    -0.573218
H        1.769700    -1.791525    -2.613816
H        3.187641    -0.824828    -3.068012
H        3.280109    -2.630670    -3.085299
H        4.760094    -3.325698    -1.095479
H        4.932641    -2.180478     0.271414
H        5.480335    -1.706110    -1.391086
H        1.988854    -4.128643     2.033523
H        3.834382    -5.715087     1.942993
H        4.445218    -6.786132    -0.200038
H        3.181283    -6.248414    -2.262013
H        1.301998    -4.637582    -2.187748
H       -0.463740    -2.392428    -2.677257
H       -1.724737    -0.605438    -1.671446
H       -2.820389    -1.536321    -2.678816
H       -2.954761    -1.881727    -0.950193
H       -1.028159    -4.802689    -2.288068
H       -2.602051    -4.282225    -1.538259
H       -2.264744    -3.918420    -3.245844
H       -2.296277    -2.850908     1.375872
H       -0.970627    -5.614883     1.677665
H       -1.800109    -5.160446     0.185134
H       -2.723228    -5.156728     1.721871
H        0.062297    -3.911633     3.077945
H       -0.592254    -2.238241     3.122270
H       -1.595019    -3.629220     3.672620
67
ex_0348 frame11 see-saw Sb-Sb-ax-conf5
C       -1.873167    -2.522260     2.683541
C       -0.471304    -2.094204     3.157112
C        0.554928    -3.060690     2.548143
Sb       0.000000     0.000000     2.650000
C       -0.961232     1.161789     4.177159
C       -2.348745     1.052015     4.340456
C       -3.010556     1.823449     5.297372
C       -2.283895     2.696454     6.109621
C       -0.895522     2.795794     5.962699
C       -0.230321     2.019666     5.005067
C        2.210522     0.035648     2.701203
C        2.787279     1.448096     2.440395
C        2.516565    -0.368200     4.161994
Co       0.000000     0.000000     0.000000
I        2.537286     0.198707    -0.290537
I       -2.377619    -0.906871    -0.292513
Sb       0.000000     0.000000    -2.650000
C        1.619391    -0.079432    -4.048506
C        2.300820    -1.289604    -4.228267
C        3.379786    -1.368264    -5.109097
C        3.773246    -0.237562    -5.827885
C        3.086648     0.971153    -5.661542
C        2.002423     1.050050    -4.778122
C       -0.939496     2.005337    -2.702937
C       -2.057362     2.066121    -1.662777
C       -1.509489     2.434548    -4.044225
C       -1.439266    -1.406840    -3.534128
C       -1.808390    -1.096802    -4.973521
C       -0.948505    -2.852299    -3.364872
H       -2.189463    -3.475489     3.148426
H       -2.635693    -1.742744     2.877676
H       -1.861452    -2.737018     1.598942
H       -0.414557    -2.109999     4.261139
H        0.394590    -3.198714     1.454244
H        0.481638    -4.048644     3.046531
H        1.582269    -2.685678     2.681803
H       -2.922126     0.393508     3.703541
H       -4.086162     1.750501     5.401256
H       -2.798311     3.300760     6.845427
H       -0.337408     3.482569     6.584474
H        0.835509     2.123855     4.886578
H        2.701509    -0.777750     2.139880
H        3.269900     1.784320     1.519533
H        2.009938     2.198121     2.697728
H        3.608036     1.635953     3.162721
H        3.583359    -0.658324     4.266292
H        1.910535    -1.240800     4.482484
H        2.311408     0.453134     4.875767
H        2.015686    -2.163952    -3.660121
H        3.913822    -2.303022    -5.226018
H        4.614356    -0.297730    -6.505921
H        3.401300     1.847718    -6.211374
H        1.492244     1.990746    -4.642275
H       -0.146345     2.720848    -2.397376
H       -1.650745     1.825918    -0.658449
H       -2.518330     3.071882    -1.602382
H       -2.857584     1.347087    -1.943401
H       -0.736623     2.389352    -4.830693
H       -2.375014     1.798582    -4.316970
H       -1.873345     3.481882    -3.959239
H       -2.358514    -1.275522    -2.944539
H       -1.232652    -1.718885    -5.685071
H       -1.595728    -0.040586    -5.194943
H       -2.896452    -1.280186    -5.116509
H       -0.066212    -3.036258    -4.011365
H       -0.647653    -3.044943    -2.311215
H       -1.742220    -3.576006    -3.641843
67
ex_0348 frame12 see-saw I-I-ax-conf6
C        5.113785     1.740214    -0.212681
C        3.613202     1.705449    -0.436640
C        3.310099     1.793897    -1.932306
Sb       2.598539     0.000000     0.519708
C        3.136676     0.203760     2.577919
C        3.291017     1.475981     3.137817
C        3.588175     1.608981     4.497491
C        3.758272     0.470187     5.291557
C        3.631169    -0.802085     4.725757
C        3.334901    -0.935718     3.366494
C        3.633319    -1.861485    -0.047981
C        3.289876    -2.359940    -1.462838
C        5.131871    -1.789362     0.149437
Co       0.000000     0.000000     0.000000
I       -0.001598    -2.074277    -1.501788
I       -0.469857     1.439910    -2.064430
Sb      -2.598539     0.000000     0.519708
C       -3.239931    -1.721900     1.614278
C       -2.898503    -2.990419     1.132852
C       -3.252138    -4.134791     1.846175
C       -3.977954    -4.016014     3.033138
C       -4.348413    -2.750392     3.503459
C       -3.986985    -1.600370     2.790617
C       -2.968770     1.760271     1.760908
C       -1.584186     2.329515     2.120629
C       -3.805441     2.843960     1.093283
C       -3.682434    -0.106474    -1.399074
C       -4.396921     1.182925    -1.773389
C       -4.589163    -1.327039    -1.453311
H        5.590940     0.884683    -0.722024
H        5.531382     2.674242    -0.646578
H        5.338043     1.708916     0.870772
H        3.152397     2.593509     0.048276
H        2.231392     1.730546    -2.098964
H        3.640380     2.777375    -2.332419
H        3.797709     0.977121    -2.501322
H        3.139978     2.359550     2.532740
H        3.675271     2.593696     4.937365
H        3.979289     0.573236     6.345721
H        3.750567    -1.683993     5.341763
H        3.217011    -1.922929     2.942437
H        3.244519    -2.605714     0.681033
H        4.134657    -2.879148    -1.957179
H        2.498434    -3.132361    -1.405465
H        2.962604    -1.517776    -2.110855
H        5.614193    -1.299171    -0.716583
H        5.523210    -2.827268     0.226476
H        5.362066    -1.248473     1.087112
H       -2.323054    -3.087210     0.223464
H       -2.954167    -5.109685     1.481653
H       -4.247333    -4.904130     3.588843
H       -4.907671    -2.661570     4.424867
H       -4.267688    -0.630535     3.170310
H       -3.455880     1.418457     2.692687
H       -0.895456     1.520427     2.446406
H       -1.667448     3.064782     2.948258
H       -1.118135     2.835602     1.244807
H       -3.320333     3.180773     0.152594
H       -4.818831     2.457486     0.880510
H       -3.899262     3.722169     1.766787
H       -2.917959    -0.257901    -2.193396
H       -5.213050     1.402885    -1.063894
H       -4.822524     1.085862    -2.796031
H       -3.665718     2.017700    -1.805261
H       -3.959703    -2.240474    -1.534303
H       -5.243966    -1.288825    -2.349328
H       -5.208640    -1.387768    -0.538201
67
ex_0348 frame13 see-saw I-I-ax-conf4
C        3.943069     0.718490     3.259495
C        2.721385     1.089324     2.418128
C        2.601536     2.605263     2.177134
Sb       2.598539     0.000000     0.519708
C        4.401354     0.532275    -0.529010
C        5.342748     1.392857     0.046731
C        6.493093     1.748650    -0.662363
C        6.711583     1.237965    -1.944937
C        5.780824     0.366775    -2.517249
C        4.632542     0.007563    -1.806774
C        3.154539    -2.073631     1.068916
C        3.043860    -3.016732    -0.144104
C        2.340229    -2.630390     2.245609
Co       0.000000     0.000000     0.000000
I       -0.001807    -2.089902    -1.484563
I        0.977179     1.044461    -2.125278
Sb      -2.598539     0.000000     0.519708
C       -3.678338    -0.094510     2.367871
C       -4.260608     1.050789     2.921639
C       -4.939251     0.967056     4.142760
C       -5.046564    -0.261590     4.803379
C       -4.475088    -1.407493     4.243888
C       -3.798632    -1.324151     3.025056
C       -2.906779     2.036750    -0.323292
C       -2.198321     2.037310    -1.653305
C       -4.317341     2.528776    -0.537307
C       -3.819025    -1.333206    -0.777004
C       -3.433097    -2.816554    -0.647174
C       -5.302156    -1.223168    -0.462585
H        4.324291    -0.280168     2.978527
H        4.756189     1.466397     3.187463
H        3.633290     0.664918     4.326877
H        1.832372     0.747149     2.991776
H        3.233461     2.916558     1.318676
H        1.554770     2.878266     1.926850
H        2.915764     3.190168     3.067291
H        5.191238     1.803152     1.027054
H        7.211643     2.425171    -0.218818
H        7.598872     1.520083    -2.495759
H        5.944969    -0.024449    -3.512883
H        3.911053    -0.656186    -2.262655
H        4.220462    -1.998262     1.362597
H        3.933774    -3.673091    -0.219387
H        2.967545    -2.440931    -1.085503
H        2.147331    -3.675251    -0.081752
H        1.266881    -2.734430     1.970567
H        2.724055    -3.633305     2.536183
H        2.412892    -1.958982     3.123890
H       -4.167500     2.006247     2.432678
H       -5.375072     1.855033     4.581296
H       -5.565906    -0.325307     5.750525
H       -4.549945    -2.358263     4.755776
H       -3.348397    -2.211345     2.600596
H       -2.388892     2.781627     0.326962
H       -1.180743     2.007874    -1.332940
H       -2.292934     2.974495    -2.237210
H       -2.468119     1.158983    -2.282351
H       -4.805157     2.709860     0.433138
H       -4.883208     1.815597    -1.158226
H       -4.269653     3.506736    -1.072108
H       -3.625212    -1.026661    -1.828778
H       -3.589891    -3.194058     0.380913
H       -2.393080    -3.003726    -0.900826
H       -4.018330    -3.431037    -1.365093
H       -5.877549    -1.883908    -1.148005
H       -5.481782    -1.556899     0.580979
H       -5.659758    -0.188864    -0.583081
67
ex_0348 frame14 square-planar trans
C        4.520275    -1.523181    -2.068307
C        3.100244    -1.613079    -1.512110
C        2.780218    -3.093014    -1.172034
Sb       2.650000     0.000000     0.000000
C        4.092066     1.483377    -0.604076
C        3.903516     2.163862    -1.813065
C        4.809625     3.149903    -2.213754
C        5.913442     3.451398    -1.410966
C        6.112765     2.762710    -0.211212
C        5.207604     1.775574     0.188412
C        3.297884    -0.768638     1.982394
C        2.154743    -1.556663     2.645061
C        3.679680     0.387176     2.924115
Co       0.000000     0.000000     0.000000
I        0.024937     2.560028     0.012996
I        0.022091    -2.559660    -0.088564
Sb      -2.650000     0.000000     0.000000
C       -3.805107     1.305330    -1.250412
C       -3.789999     2.680745    -0.994417
C       -4.511449     3.555707    -1.809833
C       -5.264105     3.054902    -2.875722
C       -5.290945     1.679966    -3.125914
C       -4.567583     0.806185    -2.309981
C       -3.366465     0.492047     2.014533
C       -4.869012     0.705078     2.033454
C       -2.932030    -0.527120     3.074729
C       -3.211859    -2.131594    -0.331985
C       -2.797339    -2.975554     0.888693
C       -4.632854    -2.517599    -0.716977
H        5.211665    -2.225489    -1.560402
H        4.920437    -0.502154    -1.998260
H        4.482182    -1.788292    -3.150471
H        2.443512    -1.305805    -2.354432
H        3.419736    -3.757150    -1.793972
H        1.841193    -3.491670    -1.569917
H        3.051205    -3.345860    -0.122953
H        3.044931     1.938745    -2.432519
H        4.653449     3.682922    -3.142483
H        6.613277     4.217511    -1.717449
H        6.967107     2.994803     0.411254
H        5.382608     1.256534     1.109272
H        4.157095    -1.459564     1.861200
H        1.281560    -0.897450     2.856798
H        1.836201    -2.404909     2.021861
H        2.500608    -1.989227     3.609945
H        4.781040     0.432369     3.032651
H        3.279724     0.256509     3.953971
H        3.291854     1.354245     2.541922
H       -3.202104     3.072158    -0.174580
H       -4.481680     4.620147    -1.618371
H       -5.819056     3.731340    -3.511542
H       -5.863565     1.290865    -3.957568
H       -4.577233    -0.239194    -2.536517
H       -2.858247     1.446298     2.271956
H       -5.222872     0.868686     3.073187
H       -5.378896    -0.179620     1.601529
H       -5.114175     1.601839     1.428845
H       -1.859527    -0.790708     2.953956
H       -3.058152    -0.098351     4.090284
H       -3.557303    -1.436431     3.039929
H       -2.565895    -2.404217    -1.192244
H       -3.642788    -3.008166     1.603974
H       -2.607022    -4.031257     0.600999
H       -1.992598    -2.564593     1.509442
H       -5.342277    -2.187131     0.065504
H       -4.918168    -2.111045    -1.695962
H       -4.685252    -3.625414    -0.818311
67
ex_0348 frame15 
C       -3.960848     2.812592     2.180928
C       -3.899474     2.805092     0.641745
C       -5.287906     2.827498     0.002469
Sb      -2.720564     1.072923    -0.032612
C       -3.771221    -0.689976     0.584345
C       -4.562633    -1.404945    -0.314091
C       -5.196922    -2.580587     0.103788
C       -5.057527    -3.029182     1.421925
C       -4.282261    -2.302561     2.327462
C       -3.657813    -1.126519     1.911799
C       -2.636627     1.122732    -2.217347
C       -2.288569    -0.250249    -2.810463
C       -3.874768     1.703600    -2.864672
Co      -0.326104     1.233302     1.091371
I       -0.515881     1.221552     3.644569
I        0.581144     3.501346     0.324621
Sb       1.374827    -0.593601     0.201563
C        3.077392    -0.626060     1.546579
C        4.384339    -0.467287     1.079030
C        5.450254    -0.435205     1.990382
C        5.213549    -0.589003     3.361499
C        3.912787    -0.776499     3.825982
C        2.853933    -0.811494     2.919119
C        2.005199    -0.027653    -1.809149
C        3.089413     1.060748    -1.774410
C        2.385298    -1.162365    -2.738693
C        0.400395    -2.567804     0.372426
C        0.801268    -3.570682    -0.694757
C        0.688643    -3.110324     1.770430
H       -3.787944     1.804209     2.597385
H       -4.932767     3.173269     2.572822
H       -3.187132     3.506478     2.582806
H       -3.385184     3.748419     0.346003
H       -6.068198     3.189607     0.700709
H       -5.283306     3.553655    -0.839336
H       -5.570639     1.824486    -0.365378
H       -4.661259    -1.072661    -1.332690
H       -5.790448    -3.148619    -0.598317
H       -5.542145    -3.941678     1.742521
H       -4.157497    -2.653567     3.344658
H       -3.045229    -0.590237     2.616761
H       -1.778510     1.805075    -2.408618
H       -3.203206    -0.819210    -3.073070
H       -1.688290    -0.854139    -2.100804
H       -1.695924    -0.118828    -3.741990
H       -4.754860     1.087414    -2.590804
H       -4.013562     2.742554    -2.511201
H       -3.755006     1.718911    -3.967259
H        4.582553    -0.333828     0.032229
H        6.459929    -0.282329     1.636397
H        6.034523    -0.559237     4.066182
H        3.720234    -0.886503     4.886464
H        1.855534    -0.945172     3.297565
H        1.064613     0.434680    -2.170675
H        3.091664     1.590602    -0.801053
H        2.922553     1.805858    -2.579651
H        4.100191     0.626479    -1.917311
H        1.598828    -1.932314    -2.728345
H        3.348792    -1.609243    -2.419818
H        2.468085    -0.775179    -3.775558
H       -0.702774    -2.452719     0.283003
H        0.423463    -4.579134    -0.418946
H        0.295251    -3.308172    -1.646211
H        1.900288    -3.603294    -0.816844
H        0.134509    -2.515638     2.528661
H        1.775291    -3.068760     1.975304
H        0.367792    -4.167452     1.866199
67
ex_0348 frame16 see-saw Sb-Sb-ax-conf2
C       -2.479198     1.740899     3.087563
C       -1.041364     1.669422     3.627173
C       -0.370094     3.018410     3.358843
Sb       0.000000     0.000000     2.650000
C       -0.532874    -1.720865     3.801237
C       -1.215881    -2.771183     3.170959
C       -1.593456    -3.903943     3.891661
C       -1.278021    -3.996877     5.248117
C       -0.588504    -2.953472     5.879797
C       -0.214160    -1.812971     5.156529
C        2.182753     0.416066     2.663576
C        2.551909     0.451716     4.155477
C        2.493207     1.810527     2.066600
Co       0.000000     0.000000     0.000000
I        2.544931    -0.064269    -0.290069
I       -2.242727    -1.201868    -0.292216
Sb       0.000000     0.000000    -2.650000
C        1.011609    -1.492958    -3.817165
C        2.410735    -1.506405    -3.875435
C        3.072217    -2.507792    -4.594604
C        2.336150    -3.482785    -5.274936
C        0.938872    -3.456627    -5.236337
C        0.276707    -2.454316    -4.521105
C        0.808086     1.965089    -3.188702
C        1.090104     2.155996    -4.672210
C       -0.079228     3.082108    -2.615452
C       -2.066845     0.001904    -3.407296
C       -2.958260     1.062688    -2.721824
C       -2.229650     0.010652    -4.918212
H       -3.073031     2.471940     3.677744
H       -2.485055     2.079477     2.024617
H       -2.977351     0.752365     3.133243
H       -1.044970     1.463752     4.715720
H        0.658089     3.016819     3.754232
H       -0.922968     3.833321     3.872295
H       -0.347871     3.242717     2.268641
H       -1.466301    -2.707664     2.122731
H       -2.130589    -4.705622     3.398230
H       -1.570029    -4.876004     5.807307
H       -0.347447    -3.028886     6.930463
H        0.310456    -1.006894     5.647761
H        2.813559    -0.399215     2.267718
H        1.857323     1.123029     4.708823
H        3.585675     0.826041     4.308553
H        2.473749    -0.561305     4.600038
H        2.601512     2.591667     2.845166
H        1.689187     2.144338     1.380082
H        3.480837     1.822122     1.552539
H        2.986809    -0.764876    -3.338974
H        4.154179    -2.534540    -4.617276
H        2.847493    -4.262783    -5.824235
H        0.368889    -4.219410    -5.750588
H       -0.802704    -2.460086    -4.476239
H        1.773660     2.011537    -2.638515
H        0.190779     1.891182    -5.263814
H        1.937412     1.507362    -4.976910
H        1.365275     3.213667    -4.876689
H       -0.698414     3.565637    -3.400233
H       -0.745421     2.698307    -1.817872
H        0.556967     3.861956    -2.142254
H       -2.346087    -1.012043    -3.061635
H       -2.646203     1.244230    -1.673447
H       -2.887225     2.046065    -3.231268
H       -4.019368     0.735127    -2.706585
H       -2.481871     1.022274    -5.293784
H       -1.290440    -0.320014    -5.397266
H       -3.044608    -0.692947    -5.197572
67
ex_0348 frame17 square-planar trans-conf4
C        4.511317     0.915474     2.416577
C        3.240389     1.335957     1.688126
C        3.245625     2.850998     1.351412
Sb       2.650000     0.000000     0.000000
C        4.206407     0.350230    -1.433985
C        5.245209     1.245008    -1.152923
C        6.230730     1.497254    -2.111014
C        6.190709     0.843311    -3.345883
C        5.165460    -0.066785    -3.621678
C        4.180897    -0.323340    -2.661386
C        3.124187    -1.985600     0.780420
C        2.637189    -3.040661    -0.234805
C        2.457422    -2.133706     2.156254
Co       0.000000     0.000000     0.000000
I        0.077719     2.420423     0.831368
I       -0.306482    -2.536889     0.162698
Sb      -2.650000     0.000000     0.000000
C       -4.071688    -0.605369     1.478715
C       -4.756339     0.336951     2.251874
C       -5.655296    -0.093153     3.236015
C       -5.882933    -1.460514     3.432072
C       -5.210587    -2.400018     2.646626
C       -4.313059    -1.971635     1.667256
C       -2.684737     2.162377    -0.340027
C       -1.752901     2.368703    -1.559782
C       -4.019776     2.832430    -0.590964
C       -3.485130    -0.771984    -1.880277
C       -2.953190    -2.176490    -2.172418
C       -5.003649    -0.782322    -1.841607
H        4.817743    -0.094979     2.098748
H        5.351278     1.611471     2.223397
H        4.314112     0.909774     3.511784
H        2.397593     1.131332     2.388902
H        3.193035     3.004321     0.251578
H        2.408086     3.384619     1.840113
H        4.131983     3.388732     1.739476
H        5.283098     1.767121    -0.211473
H        7.020219     2.206017    -1.898157
H        6.950278     1.046247    -4.089542
H        5.129599    -0.565392    -4.581811
H        3.379734    -1.015853    -2.885770
H        4.209663    -2.141638     0.951828
H        3.524164    -3.422265    -0.778379
H        2.045122    -2.612685    -1.069067
H        2.193645    -3.942762     0.242438
H        1.396043    -1.837459     2.157669
H        2.542537    -3.179158     2.521164
H        2.956853    -1.469969     2.887437
H       -4.571989     1.391661     2.120758
H       -6.169598     0.631450     3.852903
H       -6.573902    -1.793194     4.195589
H       -5.377901    -3.458755     2.799896
H       -3.784101    -2.702695     1.069562
H       -2.395558     2.669981     0.583591
H       -0.794043     1.811012    -1.560109
H       -1.567518     3.441539    -1.767677
H       -2.250498     1.945745    -2.455734
H       -4.630116     2.807032     0.333475
H       -4.558648     2.364168    -1.430132
H       -3.826791     3.904833    -0.826883
H       -3.128947    -0.127863    -2.710044
H       -3.273221    -2.898596    -1.392768
H       -1.846640    -2.153567    -2.226794
H       -3.311515    -2.527062    -3.163594
H       -5.403323    -1.183788    -2.796909
H       -5.350629    -1.427458    -1.008310
H       -5.388013     0.242844    -1.692154
67
ex_0348 frame18 see-saw Sb-Sb-ax
C       -2.625172     0.035414     4.125184
C       -2.176182     0.069331     2.646678
C       -2.666952     1.375054     1.995629
Sb       0.000000     0.000000     2.650000
C        0.465077    -1.522449     4.098739
C       -0.031530    -2.817805     3.908729
C        0.294032    -3.834978     4.810615
C        1.103713    -3.555229     5.915012
C        1.581919    -2.257439     6.119242
C        1.251314    -1.238573     5.220396
C        0.974431     1.874193     3.258579
C        0.964237     2.841128     2.062462
C        2.444046     1.606868     3.653391
Co       0.000000     0.000000     0.000000
I        2.539510    -0.149930    -0.293963
I       -2.477248    -0.593645    -0.279377
Sb       0.000000     0.000000    -2.650000
C        1.392836    -1.146077    -3.813577
C        2.745239    -0.786345    -3.811134
C        3.675869    -1.541345    -4.526465
C        3.252842    -2.646760    -5.268660
C        1.899072    -2.996104    -5.291258
C        0.968946    -2.241726    -4.570097
C        0.350057     2.049844    -3.352825
C        0.559390     2.081324    -4.856230
C       -0.745237     3.035740    -2.924339
C       -2.089971    -0.429160    -3.372113
C       -3.036173     0.739290    -2.989418
C       -2.453393    -0.858232    -4.768106
H       -2.624560     1.037710     4.603269
H       -1.963006    -0.617319     4.729510
H       -3.643703    -0.400922     4.207635
H       -2.555784    -0.894841     2.274071
H       -3.760617     1.503163     2.139342
H       -2.372204     1.662463     0.975326
H       -2.190210     2.195849     2.578385
H       -0.645054    -3.041717     3.045336
H       -0.073226    -4.840219     4.648668
H        1.363536    -4.343422     6.609421
H        2.214857    -2.041865     6.970064
H        1.633820    -0.250486     5.390421
H        0.421345     2.338064     4.099239
H        1.633604     2.481901     1.248964
H       -0.053350     2.966805     1.646314
H        1.336720     3.837322     2.389519
H        2.559978     1.648614     4.754009
H        3.149661     2.357344     3.233241
H        2.782357     0.613543     3.285186
H        3.080265     0.064548    -3.234674
H        4.723520    -1.272030    -4.498586
H        3.974052    -3.235436    -5.819029
H        1.571562    -3.857799    -5.857520
H       -0.060022    -2.541921    -4.572058
H        1.279244     2.377546    -2.840233
H        0.620895     3.128851    -5.218643
H       -0.281465     1.563967    -5.361902
H        1.507802     1.561552    -5.099799
H       -1.020305     2.888391    -1.857958
H       -0.384775     4.078622    -3.037187
H       -1.637860     2.954108    -3.566702
H       -2.307507    -1.342784    -2.782924
H       -3.123805     1.476138    -3.800863
H       -4.052264     0.350552    -2.760271
H       -2.691605     1.309988    -2.105660
H       -2.196559    -0.051882    -5.473889
H       -1.981252    -1.814071    -5.034552
H       -3.554860    -1.043545    -4.778562
67
ex_0348 frame19 see-saw Sb-Sb-ax-conf3
C        2.420035     1.483734     3.885301
C        2.118442     0.631734     2.635242
C        2.962836    -0.672664     2.605348
Sb       0.000000     0.000000     2.650000
C       -0.449154    -1.238645     4.314698
C       -1.176338    -2.416877     4.088408
C       -1.498031    -3.262337     5.149113
C       -1.082923    -2.935664     6.441476
C       -0.353366    -1.760663     6.667907
C       -0.040885    -0.906215     5.604024
C       -1.313892     1.741565     2.735243
C       -2.695132     1.268054     3.191873
C       -0.788859     2.859902     3.608485
Co       0.000000     0.000000     0.000000
I        2.544654     0.051940    -0.289763
I       -2.518869    -0.355919    -0.294723
Sb       0.000000     0.000000    -2.650000
C       -1.281346    -0.546690    -4.273500
C       -2.249127    -1.542327    -4.075811
C       -3.104347    -1.908450    -5.118075
C       -2.996028    -1.276580    -6.359674
C       -2.027661    -0.285662    -6.558605
C       -1.164503     0.073227    -5.518409
C        0.351253     2.138505    -2.820473
C        1.696095     2.499573    -3.435635
C       -0.812169     2.871381    -3.486784
C        1.878809    -1.020168    -3.287238
C        2.152743    -0.875397    -4.761929
C        1.771888    -2.490003    -2.848718
H        2.710658     2.514243     3.565529
H        1.540360     1.607802     4.535117
H        3.279344     1.114157     4.478592
H        2.380706     1.356544     1.856954
H        3.908677    -0.537338     3.166924
H        2.413207    -1.424057     3.218329
H        3.245020    -1.283573     1.741914
H       -1.500926    -2.672383     3.085447
H       -2.066515    -4.167070     4.967491
H       -1.326871    -3.593041     7.264873
H       -0.029133    -1.512472     7.667807
H        0.521766    -0.004496     5.781569
H       -1.401689     2.159427     1.705312
H       -3.378274     2.127215     3.352485
H       -3.152428     0.606785     2.428639
H       -2.604474     0.693578     4.136304
H       -1.505853     3.709654     3.575494
H        0.176153     3.217989     3.192274
H       -0.664322     2.513440     4.650930
H       -2.338774    -2.034143    -3.114862
H       -3.850642    -2.678315    -4.962990
H       -3.661505    -1.554702    -7.166213
H       -1.946448     0.205659    -7.517997
H       -0.417838     0.836151    -5.676333
H        0.374789     2.419715    -1.745105
H        2.499260     1.908655    -2.948151
H        1.909765     3.576975    -3.276221
H        1.692505     2.289183    -4.523065
H       -1.778051     2.419457    -3.178171
H       -0.808005     3.940252    -3.187765
H       -0.732342     2.818846    -4.591324
H        2.801903    -0.624848    -2.829186
H        3.061270    -1.464260    -5.015491
H        1.291824    -1.226329    -5.353040
H        2.376208     0.186610    -4.977715
H        2.574610    -3.106978    -3.303856
H        0.782388    -2.913409    -3.112604
H        1.892254    -2.569732    -1.744026
67
ex_0348 frame20 see-saw I-I-ax-conf2
C        2.855393     2.715115     1.956383
C        3.589438     1.947252     0.846976
C        3.611594     2.827157    -0.408818
Sb       2.598539     0.000000     0.519708
C        3.472661    -1.252076     2.016523
C        2.638056    -1.856357     2.965978
C        3.178102    -2.675891     3.959328
C        4.556242    -2.901163     4.000868
C        5.392381    -2.301815     3.051045
C        4.852138    -1.473185     2.059463
C        3.361858    -0.690531    -1.448610
C        4.861785    -0.834987    -1.520471
C        2.851475     0.213403    -2.588909
Co       0.000000     0.000000     0.000000
I        0.001376     2.131548    -1.429464
I        0.259144    -1.272961    -2.206697
Sb      -2.598539     0.000000     0.519708
C       -3.402954     0.500530     2.447048
C       -3.243033    -0.383986     3.519833
C       -3.725954    -0.040799     4.787684
C       -4.386786     1.176939     4.979337
C       -4.565776     2.051334     3.903737
C       -4.087229     1.708192     2.636385
C       -3.307286    -2.018489     0.003499
C       -4.735071    -2.329639     0.417046
C       -3.071440    -2.321226    -1.483836
C       -3.592907     1.398966    -0.847414
C       -3.201651     1.196718    -2.322822
C       -5.109842     1.450328    -0.713797
H        3.432124     3.623060     2.238244
H        1.849617     3.046720     1.608046
H        2.719322     2.083836     2.856336
H        4.631758     1.732991     1.155031
H        4.147476     2.321355    -1.229559
H        4.127505     3.788995    -0.204089
H        2.587282     3.072400    -0.744710
H        1.569208    -1.683085     2.937574
H        2.528804    -3.134325     4.695129
H        4.974448    -3.538011     4.769548
H        6.458718    -2.478896     3.085506
H        5.503300    -1.009196     1.334059
H        2.915479    -1.691924    -1.604781
H        5.331556     0.115478    -1.195357
H        5.164029    -1.062323    -2.565776
H        5.173823    -1.668070    -0.865902
H        3.647352     0.912975    -2.919062
H        2.113143     0.910457    -2.238246
H        2.548988    -0.315549    -3.515470
H       -2.718214    -1.319960     3.379292
H       -3.580214    -0.712788     5.623438
H       -4.751982     1.447464     5.961608
H       -5.064614     3.000172     4.053585
H       -4.209007     2.406136     1.821379
H       -2.630630    -2.687451     0.583129
H       -5.422409    -1.575558    -0.014031
H       -4.812280    -2.325332     1.523153
H       -5.018062    -3.341327     0.049525
H       -4.016960    -2.441122    -2.050099
H       -2.522003    -1.499637    -1.964718
H       -2.465145    -3.247978    -1.598132
H       -3.153260     2.345834    -0.464322
H       -2.141736     0.946492    -2.439889
H       -3.734069     0.336427    -2.771491
H       -3.414115     2.112045    -2.914502
H       -5.597945     0.744717    -1.417832
H       -5.421684     1.174716     0.308787
H       -5.458453     2.481256    -0.937900
67
ex_0348 frame21 see-saw Sb-Sb-ax-conf4
C       -2.550080    -0.500588     4.019068
C       -2.242858    -0.004396     2.569559
C       -2.604503     1.513813     2.559360
Sb       0.000000     0.000000     2.650000
C        1.006156     1.051964     4.218804
C        0.299759     1.674524     5.249314
C        0.996109     2.385765     6.235872
C        2.394223     2.462479     6.198163
C        3.100777     1.824654     5.176428
C        2.408193     1.108738     4.197791
C        0.400336    -2.117202     3.090799
C        1.810821    -2.477549     2.597644
C       -0.650464    -2.971174     2.377707
Co       0.000000     0.000000     0.000000
I        2.535262     0.209043    -0.294310
I       -2.336880    -1.015313    -0.274713
Sb       0.000000     0.000000    -2.650000
C        0.849226    -1.354443    -4.069533
C        0.046004    -2.270378    -4.756243
C        0.630850    -3.171293    -5.654687
C        2.011884    -3.141352    -5.881098
C        2.810283    -2.213313    -5.207275
C        2.227853    -1.317285    -4.308676
C       -2.160601     0.181232    -3.046790
C       -2.601120     1.350817    -2.116742
C       -2.898071     0.217526    -4.361781
C        0.502650     1.976657    -3.486995
C        1.833472     2.497837    -2.955361
C        0.501898     1.940879    -5.006398
H       -1.753219    -1.133469     4.454575
H       -2.673757     0.321456     4.756948
H       -3.481609    -1.105610     4.060570
H       -3.055660    -0.519963     2.051301
H       -1.769793     2.131655     2.966545
H       -2.849419     1.896366     1.552203
H       -3.466696     1.750759     3.224371
H       -0.777447     1.632523     5.275563
H        0.452872     2.885379     7.025708
H        2.930277     3.020170     6.955417
H        4.181816     1.891758     5.137355
H        2.960665     0.629961     3.397692
H        0.311113    -2.357618     4.171118
H        2.524712    -2.478888     3.444694
H        2.169391    -1.749108     1.847455
H        1.840576    -3.479159     2.114845
H       -0.661424    -2.760711     1.294179
H       -0.441089    -4.051017     2.526714
H       -1.655721    -2.776601     2.803226
H       -1.017398    -2.310931    -4.572273
H        0.016655    -3.898012    -6.169609
H        2.464781    -3.840038    -6.572414
H        3.879696    -2.191867    -5.374585
H        2.850747    -0.608667    -3.778778
H       -2.508053    -0.807734    -2.744496
H       -2.076689     1.428054    -1.140184
H       -3.693925     1.366523    -1.936977
H       -2.327570     2.321275    -2.574305
H       -2.724715    -0.728961    -4.917285
H       -2.648820     1.101763    -4.959866
H       -3.988278     0.234163    -4.107908
H       -0.256346     2.703796    -3.138498
H        2.673456     1.847204    -3.269854
H        1.790976     2.554061    -1.848927
H        2.008648     3.532604    -3.321599
H        0.736564     2.948098    -5.410829
H        1.262870     1.218852    -5.364572
H       -0.492020     1.632640    -5.377685
