81
ex_0559 frame0 
C        1.376204     1.979435     0.546781
P       -0.161994     1.004291     0.450625
C       -0.638987     0.454875     2.084643
C       -2.000958     0.258101     2.366654
C       -2.427415    -0.160004     3.608256
C       -1.558744    -0.408727     4.630866
C       -0.209230    -0.224130     4.377282
C        0.213627     0.194147     3.134735
C       -1.498902     1.779792    -0.503089
C       -2.387478     2.671101     0.085315
C       -3.393376     3.232982    -0.679354
C       -3.493726     2.900662    -2.009044
C       -2.609410     2.012186    -2.610569
C       -1.612148     1.462521    -1.838157
P       -0.424282     0.296484    -2.597901
C       -1.198043    -0.941510    -3.708571
C        0.957992     1.161824    -3.359538
C        1.370717     2.441289    -3.051162
C        2.428157     3.042445    -3.685016
C        3.143989     2.401477    -4.660984
C        2.759801     1.113330    -4.989044
C        1.693247     0.512017    -4.347158
Pt       0.189225    -0.672772    -0.829282
As      -0.930337    -2.294413    -0.387130
C       -0.900231    -3.628506    -1.820389
C       -2.732976    -2.042967     0.124966
C       -3.670932    -1.265983    -0.508476
C       -4.977106    -1.131858    -0.075186
C       -5.421505    -1.797947     1.062350
C       -4.495194    -2.579124     1.709861
C       -3.195348    -2.710930     1.276415
C        0.165087    -3.105183     1.098247
C        1.485148    -3.293211     0.278629
As       1.900560    -1.524284    -0.589487
C        2.676665    -2.028439    -2.362642
C        3.313324    -0.645055     0.367625
C        4.196183     0.255529    -0.190434
C        5.184055     0.821157     0.588669
C        5.345482     0.539142     1.930425
C        4.459626    -0.356543     2.491412
C        3.477149    -0.917305     1.710739
H        1.159044     3.037159     0.826361
H        2.004443     1.550934     1.373551
H        1.985725     2.019953    -0.342657
H       -2.765861     0.432746     1.625940
H       -3.484031    -0.300772     3.798298
H       -1.928382    -0.733092     5.581569
H        0.511908    -0.415879     5.180361
H        1.259025     0.330520     2.979196
H       -2.299964     2.930076     1.146286
H       -4.115129     3.937708    -0.257055
H       -4.259886     3.312703    -2.645858
H       -2.705096     1.763706    -3.656328
H       -1.372000    -0.447064    -4.658834
H       -0.442070    -1.729952    -3.885630
H       -2.130748    -1.284842    -3.288425
H        0.808627     2.955626    -2.278542
H        2.733991     4.057511    -3.429462
H        3.985833     2.833737    -5.189142
H        3.295505     0.565469    -5.755440
H        1.438410    -0.475503    -4.640981
H       -1.723461    -3.553663    -2.538527
H       -1.066976    -4.621989    -1.310391
H        0.103132    -3.735960    -2.278408
H       -3.384808    -0.738435    -1.378371
H       -5.690345    -0.504802    -0.609001
H       -6.418803    -1.710869     1.413064
H       -4.817362    -3.115532     2.609358
H       -2.515952    -3.341102     1.834881
H        0.287627    -2.435979     1.926530
H       -0.198548    -4.108114     1.342996
H        1.378798    -4.081729    -0.462896
H        2.284468    -3.538698     0.980743
H        3.360575    -2.905214    -2.225781
H        1.891824    -2.225761    -3.105720
H        3.332026    -1.233327    -2.759862
H        4.087695     0.490739    -1.240252
H        5.899302     1.534854     0.168838
H        6.124656     0.989690     2.530571
H        4.578106    -0.583321     3.540611
H        2.806395    -1.611688     2.188485
81
ex_0559 frame1 
C        1.376204     1.979435     0.546781
P       -0.161994     1.004291     0.450625
C       -0.638987     0.454875     2.084643
C       -2.000958     0.258101     2.366654
C       -2.427415    -0.160004     3.608256
C       -1.558744    -0.408727     4.630866
C       -0.209230    -0.224130     4.377282
C        0.213627     0.194147     3.134735
C       -1.498448     1.780360    -0.503263
C       -2.387478     2.671101     0.085315
C       -3.393376     3.232982    -0.679354
C       -3.493726     2.900662    -2.009044
C       -2.609410     2.012186    -2.610569
C       -1.611984     1.462730    -1.838221
P       -0.424282     0.296484    -2.597901
C       -1.198043    -0.941510    -3.708571
C        0.957992     1.161824    -3.359538
C        1.370717     2.441289    -3.051162
C        2.428157     3.042445    -3.685016
C        3.143989     2.401477    -4.660984
C        2.759801     1.113330    -4.989044
C        1.693247     0.512017    -4.347158
Pt       0.189225    -0.672772    -0.829282
As      -0.930337    -2.294413    -0.387130
C       -0.900231    -3.628506    -1.820389
C       -2.732976    -2.042967     0.124966
C       -3.670932    -1.265983    -0.508476
C       -4.977106    -1.131858    -0.075186
C       -5.421505    -1.797947     1.062350
C       -4.495194    -2.579124     1.709861
C       -3.195348    -2.710930     1.276415
C        0.165087    -3.105183     1.098247
C        1.485148    -3.293211     0.278629
As       1.900560    -1.524284    -0.589487
C        2.676665    -2.028439    -2.362642
C        3.313324    -0.645055     0.367625
C        4.196183     0.255529    -0.190434
C        5.184055     0.821157     0.588669
C        5.345482     0.539142     1.930425
C        4.459626    -0.356543     2.491412
C        3.477149    -0.917305     1.710739
H        1.159044     3.037159     0.826361
H        2.004443     1.550934     1.373551
H        1.985725     2.019953    -0.342657
H       -2.765861     0.432746     1.625940
H       -3.484031    -0.300772     3.798298
H       -1.928382    -0.733092     5.581569
H        0.511908    -0.415879     5.180361
H        1.259025     0.330520     2.979196
H       -2.299964     2.930076     1.146286
H       -4.115129     3.937708    -0.257055
H       -4.259886     3.312703    -2.645858
H       -2.705096     1.763706    -3.656328
H       -1.372000    -0.447064    -4.658834
H       -0.442070    -1.729952    -3.885630
H       -2.130748    -1.284842    -3.288425
H        0.808627     2.955626    -2.278542
H        2.733991     4.057511    -3.429462
H        3.985833     2.833737    -5.189142
H        3.295505     0.565469    -5.755440
H        1.438410    -0.475503    -4.640981
H       -1.723461    -3.553663    -2.538527
H       -1.066976    -4.621989    -1.310391
H        0.103132    -3.735960    -2.278408
H       -3.384808    -0.738435    -1.378371
H       -5.690345    -0.504802    -0.609001
H       -6.418803    -1.710869     1.413064
H       -4.817362    -3.115532     2.609358
H       -2.515952    -3.341102     1.834881
H        0.287627    -2.435979     1.926530
H       -0.198548    -4.108114     1.342996
H        1.378798    -4.081729    -0.462896
H        2.284468    -3.538698     0.980743
H        3.360575    -2.905214    -2.225781
H        1.891824    -2.225761    -3.105720
H        3.332026    -1.233327    -2.759862
H        4.087695     0.490739    -1.240252
H        5.899302     1.534854     0.168838
H        6.124656     0.989690     2.530571
H        4.578106    -0.583321     3.540611
H        2.806395    -1.611688     2.188485
81
ex_0559 frame2 _mirror
C        1.376204     1.979435    -0.546781
P       -0.161994     1.004291    -0.450625
C       -0.638987     0.454875    -2.084643
C       -2.000958     0.258101    -2.366654
C       -2.427415    -0.160004    -3.608256
C       -1.558744    -0.408727    -4.630866
C       -0.209230    -0.224130    -4.377282
C        0.213627     0.194147    -3.134735
C       -1.498448     1.780360     0.503263
C       -2.387478     2.671101    -0.085315
C       -3.393376     3.232982     0.679354
C       -3.493726     2.900662     2.009044
C       -2.609410     2.012186     2.610569
C       -1.611984     1.462730     1.838221
P       -0.424282     0.296484     2.597901
C       -1.198043    -0.941510     3.708571
C        0.957992     1.161824     3.359538
C        1.370717     2.441289     3.051162
C        2.428157     3.042445     3.685016
C        3.143989     2.401477     4.660984
C        2.759801     1.113330     4.989044
C        1.693247     0.512017     4.347158
Pt       0.189225    -0.672772     0.829282
As      -0.930337    -2.294413     0.387130
C       -0.900231    -3.628506     1.820389
C       -2.732976    -2.042967    -0.124966
C       -3.670932    -1.265983     0.508476
C       -4.977106    -1.131858     0.075186
C       -5.421505    -1.797947    -1.062350
C       -4.495194    -2.579124    -1.709861
C       -3.195348    -2.710930    -1.276415
C        0.165087    -3.105183    -1.098247
C        1.485148    -3.293211    -0.278629
As       1.900560    -1.524284     0.589487
C        2.676665    -2.028439     2.362642
C        3.313324    -0.645055    -0.367625
C        4.196183     0.255529     0.190434
C        5.184055     0.821157    -0.588669
C        5.345482     0.539142    -1.930425
C        4.459626    -0.356543    -2.491412
C        3.477149    -0.917305    -1.710739
H        1.159044     3.037159    -0.826361
H        2.004443     1.550934    -1.373551
H        1.985725     2.019953     0.342657
H       -2.765861     0.432746    -1.625940
H       -3.484031    -0.300772    -3.798298
H       -1.928382    -0.733092    -5.581569
H        0.511908    -0.415879    -5.180361
H        1.259025     0.330520    -2.979196
H       -2.299964     2.930076    -1.146286
H       -4.115129     3.937708     0.257055
H       -4.259886     3.312703     2.645858
H       -2.705096     1.763706     3.656328
H       -1.372000    -0.447064     4.658834
H       -0.442070    -1.729952     3.885630
H       -2.130748    -1.284842     3.288425
H        0.808627     2.955626     2.278542
H        2.733991     4.057511     3.429462
H        3.985833     2.833737     5.189142
H        3.295505     0.565469     5.755440
H        1.438410    -0.475503     4.640981
H       -1.723461    -3.553663     2.538527
H       -1.066976    -4.621989     1.310391
H        0.103132    -3.735960     2.278408
H       -3.384808    -0.738435     1.378371
H       -5.690345    -0.504802     0.609001
H       -6.418803    -1.710869    -1.413064
H       -4.817362    -3.115532    -2.609358
H       -2.515952    -3.341102    -1.834881
H        0.287627    -2.435979    -1.926530
H       -0.198548    -4.108114    -1.342996
H        1.378798    -4.081729     0.462896
H        2.284468    -3.538698    -0.980743
H        3.360575    -2.905214     2.225781
H        1.891824    -2.225761     3.105720
H        3.332026    -1.233327     2.759862
H        4.087695     0.490739     1.240252
H        5.899302     1.534854    -0.168838
H        6.124656     0.989690    -2.530571
H        4.578106    -0.583321    -3.540611
H        2.806395    -1.611688    -2.188485
