46
ex_0315 frame0 cis
C        0.950350     0.042211    -1.809636
N        1.898088    -0.094078    -0.731810
C        2.795186    -1.156221    -0.535982
C        2.963845    -2.288493    -1.323085
C        3.944949    -3.212361    -0.898883
C        4.707347    -2.973480     0.276072
C        4.503897    -1.808220     1.048333
C        3.528978    -0.927470     0.593857
N        3.128442     0.293856     1.166472
C        3.654635     0.896958     2.364574
C        2.205204     0.824453     0.270436
Se       1.474705     2.555402     0.404598
Cu      -0.396546     2.661773     1.903633
Cl      -0.095781     3.988061     3.696770
Se      -1.739341     0.710860     2.292012
C       -2.221013    -0.269595     0.758105
N       -2.008268    -1.650630     0.598388
C       -1.316692    -2.542220     1.504330
C       -2.615292    -1.975690    -0.629960
C       -2.740010    -3.231303    -1.223368
C       -3.416336    -3.278971    -2.462388
C       -3.951781    -2.099623    -3.045546
C       -3.821559    -0.852824    -2.402001
C       -3.136151    -0.845231    -1.193283
N       -2.898769     0.251035    -0.351750
C       -3.273778     1.625517    -0.581102
H        1.685797     0.265030    -2.759145
H        0.381009    -0.773344    -2.068737
H        0.398373     1.006752    -1.756901
H        2.375798    -2.457516    -2.215888
H        4.115174    -4.109434    -1.476213
H        5.453663    -3.691466     0.585321
H        5.076168    -1.613766     1.943657
H        3.408756     2.017956     2.343542
H        4.846568     0.976845     2.113744
H        3.531111     0.472037     3.271777
H       -1.521495    -3.600279     1.243347
H       -0.218876    -2.393144     1.576153
H       -1.774266    -2.357368     2.504788
H       -2.314200    -4.125880    -0.792861
H       -3.505517    -4.222480    -2.984798
H       -4.444025    -2.153407    -4.007412
H       -4.206490     0.057695    -2.842727
H       -2.884192     2.070874    -1.522657
H       -4.390545     1.608188    -0.605717
H       -2.969499     2.265505     0.275371
46
ex_0315 frame1 trans
C        3.267483     0.902598    -2.049829
N        2.935517    -0.063023    -1.043183
C        2.647732    -1.427311    -1.187235
C        2.616803    -2.171581    -2.339389
C        2.295605    -3.537605    -2.206971
C        2.026027    -4.092632    -0.950000
C        2.071466    -3.291865     0.194195
C        2.388631    -1.961513     0.021668
N        2.498161    -0.974813     1.001062
C        2.302740    -1.136688     2.410783
C        2.841492     0.217562     0.326474
Se       3.118203     1.850351     1.093876
Cu       2.075924     3.632343    -0.130118
Cl       3.359425     5.360369    -0.780196
Se      -0.306976     3.881974     0.009427
C       -1.307701     2.523669     0.483555
N       -2.108266     1.754221    -0.365473
C       -2.244308     1.953436    -1.778418
C       -2.710176     0.795841     0.455400
C       -3.582792    -0.194758     0.108581
C       -4.033639    -1.023147     1.158959
C       -3.591224    -0.816609     2.482365
C       -2.702248     0.207873     2.773974
C       -2.295509     0.980430     1.729896
N       -1.425521     2.045437     1.781769
C       -0.762381     2.575131     2.923705
H        3.274604     0.447266    -3.041870
H        2.498847     1.699086    -2.042081
H        4.248553     1.389384    -1.810055
H        2.821908    -1.751471    -3.298498
H        2.251879    -4.177384    -3.062903
H        1.783106    -5.142453    -0.879860
H        1.864697    -3.733136     1.131574
H        1.227699    -1.278827     2.637523
H        2.803437    -2.071510     2.678463
H        2.758630    -0.307803     3.004531
H       -1.253404     1.809315    -2.257054
H       -2.955842     1.249640    -2.203468
H       -2.589325     2.995129    -1.980929
H       -3.916430    -0.351643    -0.887734
H       -4.719189    -1.824641     0.978984
H       -3.922100    -1.434620     3.293647
H       -2.356225     0.378156     3.774208
H       -1.526307     2.915648     3.632020
H       -0.112665     3.429059     2.628211
H       -0.140789     1.796865     3.392467
46
ex_0315 frame2 trans-conf6
C        4.712007     1.480255     2.062599
N        5.151774     0.673203     0.945716
C        6.480702     0.393829     0.568875
C        7.645415     0.821722     1.185675
C        8.856359     0.408804     0.592056
C        8.858820    -0.413175    -0.569587
C        7.650308    -0.836544    -1.161234
C        6.482931    -0.400279    -0.555537
N        5.155221    -0.665843    -0.947818
C        4.720087    -1.453509    -2.080032
C        4.312717     0.002049    -0.001448
Se       2.400000     0.000000     0.000000
Cu       0.000000     0.000000     0.000000
Cl      -1.125737     1.948258     0.001652
Se      -1.200026    -2.078446     0.000000
C       -2.130483    -3.689458     0.000689
N       -3.450506    -3.877094    -0.502083
C       -4.274650    -2.849353    -1.102411
C       -3.763383    -5.238071    -0.296613
C       -4.936093    -5.904169    -0.619014
C       -4.975449    -7.280461    -0.316747
C       -3.867554    -7.929031     0.296308
C       -2.696796    -7.214539     0.619779
C       -2.689475    -5.869117     0.295199
N       -1.646528    -4.942739     0.487841
C       -0.342726    -5.198650     1.062820
H        5.167121     2.489551     1.994077
H        3.607928     1.600331     2.046730
H        4.997619     0.998860     3.019800
H        7.624310     1.450802     2.066017
H        9.793329     0.725988     1.027129
H        9.797801    -0.716836    -1.009835
H        7.632800    -1.457877    -2.047066
H        3.611121    -1.479899    -2.135756
H        5.102420    -0.997437    -3.016122
H        5.088578    -2.495288    -1.987785
H       -5.257398    -3.236448    -1.427472
H       -3.739762    -2.441439    -1.987712
H       -4.433538    -2.018092    -0.382199
H       -5.773043    -5.405994    -1.087380
H       -5.862011    -7.847435    -0.558708
H       -3.918371    -8.984903     0.516515
H       -1.842348    -7.690193     1.083061
H        0.165845    -5.982761     0.465496
H        0.286833    -4.283798     1.031911
H       -0.431686    -5.523911     2.118928
46
ex_0315 frame3 trans-conf4
C        4.669327    -1.255884    -2.199947
N        5.118835    -0.560468    -1.012173
C        6.448186    -0.330526    -0.596801
C        7.614835    -0.723910    -1.230072
C        8.820164    -0.360119    -0.600470
C        8.817714     0.359442     0.625580
C        7.608603     0.735640     1.244759
C        6.443714     0.371149     0.589336
N        5.109411     0.601272     0.992390
C        4.643933     1.278271     2.185075
C        4.281254     0.013231    -0.008427
Se       2.400000     0.000000     0.000000
Cu       0.000000     0.000000     0.000000
Cl      -1.125415     1.948309    -0.000359
Se      -1.200026    -2.078446     0.000000
C       -2.167397    -3.662502     0.062610
N       -3.317231    -3.904436    -0.687499
C       -3.977077    -2.966654    -1.563954
C       -3.671814    -5.232647    -0.410001
C       -4.725089    -5.967536    -0.938338
C       -4.822823    -7.311244    -0.520572
C       -3.883621    -7.861617     0.393354
C       -2.829283    -7.078535     0.904343
C       -2.771059    -5.763169     0.469844
N       -1.810165    -4.799947     0.793151
C       -0.688708    -4.948315     1.689819
H        3.801684    -1.902971    -1.946045
H        5.465757    -1.907309    -2.608834
H        4.349273    -0.523900    -2.970337
H        7.606969    -1.263722    -2.166669
H        9.758173    -0.631149    -1.062110
H        9.754440     0.628814     1.090476
H        7.602279     1.287816     2.173195
H        3.941251     2.097538     1.923170
H        5.476701     1.701781     2.776011
H        4.099611     0.538165     2.811844
H       -4.421401    -2.076241    -1.078051
H       -3.165632    -2.625981    -2.248188
H       -4.742371    -3.470745    -2.184731
H       -5.447496    -5.539934    -1.619031
H       -5.635562    -7.922221    -0.886955
H       -3.987174    -8.887405     0.717871
H       -2.115393    -7.476282     1.613871
H       -0.007408    -5.640632     1.144247
H       -0.930618    -5.377647     2.680354
H       -0.146483    -3.990987     1.836654
46
ex_0315 frame4 T-shaped Cl-Se-ax/Se-eq-conf6
C        4.733249     1.473121     2.074070
N        5.160535     0.668825     0.951404
C        6.491992     0.388596     0.572668
C        7.661127     0.813103     1.192013
C        8.874084     0.398476     0.601487
C        8.877381    -0.417963    -0.562332
C        7.667783    -0.835373    -1.158073
C        6.494970    -0.401221    -0.552196
N        5.165342    -0.668537    -0.947558
C        4.744479    -1.458183    -2.082692
C        4.312718    -0.000561     0.000394
Se       2.400000     0.000000     0.000000
Cu       0.000000     0.000000     0.000000
Cl      -1.861532    -1.272810     0.002526
Se       0.000000     2.400000     0.000000
C        0.000604     4.268191     0.004832
N       -1.156265     5.107596     0.154567
C       -2.516115     4.650513     0.338588
C       -0.697013     6.445624     0.087966
C       -1.443558     7.617616     0.178378
C       -0.728028     8.830375     0.086880
C        0.680885     8.835613    -0.094804
C        1.403923     7.627326    -0.186513
C        0.668074     6.452647    -0.085038
N        1.148267     5.124818    -0.133742
C        2.524399     4.708998    -0.291965
H        5.157234     2.494351     1.978868
H        3.626984     1.554685     2.102433
H        5.079864     1.014054     3.022936
H        7.645853     1.436460     2.076403
H        9.813146     0.708337     1.040108
H        9.819074    -0.722299    -0.999231
H        7.657676    -1.454927    -2.045117
H        3.637576    -1.491588    -2.151155
H        5.141850    -1.006144    -3.015118
H        5.124317    -2.495964    -1.982605
H       -3.226280     5.494045     0.430099
H       -2.570943     4.039872     1.264399
H       -2.819978     4.021676    -0.524634
H       -2.515068     7.617615     0.317623
H       -1.261151     9.769269     0.156605
H        1.207943     9.777565    -0.160632
H        2.476813     7.619511    -0.322943
H        3.129061     5.123572     0.541473
H        2.608764     3.602689    -0.268275
H        2.926195     5.075032    -1.259056
46
ex_0315 frame5 trans-2
C        4.604701    -1.290511    -2.194836
N        5.041122    -0.591438    -0.990456
C        6.371479    -0.343324    -0.580828
C        7.533331    -0.709383    -1.229425
C        8.737076    -0.337148    -0.593611
C        8.727760     0.389796     0.643038
C        7.509849     0.755629     1.271127
C        6.353807     0.351799     0.615061
N        5.020367     0.580446     1.012100
C        4.548356     1.282390     2.201020
C        4.200780    -0.008597    -0.000855
Se       2.400000     0.000000     0.000000
Cu       0.000000     0.000000     0.000000
Cl      -1.124856     1.947632    -0.000036
Se      -1.200026    -2.078446     0.000000
C       -2.133753    -3.673473     0.013181
N       -1.807118    -4.828510     0.779589
C       -0.681886    -4.952674     1.700450
C       -2.784311    -5.791523     0.453755
C       -2.897222    -7.087633     0.951589
C       -3.974936    -7.835476     0.429247
C       -4.870567    -7.268960    -0.548184
C       -4.715953    -5.949566    -1.040402
C       -3.664819    -5.255269    -0.493127
N       -3.283764    -3.938020    -0.785217
C       -3.928673    -3.017040    -1.717038
H        4.704214    -0.611759    -3.080361
H        5.158881    -2.248735    -2.341401
H        3.525711    -1.558599    -2.115458
H        7.513902    -1.272311    -2.165401
H        9.673825    -0.624640    -1.060637
H        9.668490     0.656797     1.112909
H        7.455451     1.302121     2.215676
H        3.456444     1.509280     2.124322
H        5.063115     2.268219     2.303969
H        4.660976     0.647342     3.111080
H       -0.789660    -5.773697     2.434745
H        0.257062    -5.114524     1.107737
H       -0.535086    -4.023067     2.295697
H       -2.206071    -7.487066     1.714542
H       -4.124802    -8.847592     0.801370
H       -5.699367    -7.842980    -0.912185
H       -5.377804    -5.456589    -1.776666
H       -3.754643    -3.422714    -2.749401
H       -5.018634    -2.882429    -1.488486
H       -3.463182    -2.000431    -1.663017
46
ex_0315 frame6 trans-conf3
C        4.545089     1.474249    -2.014740
N        5.034885     0.673872    -0.928926
C        6.365745     0.406929    -0.561072
C        7.524247     0.850700    -1.155966
C        8.734412     0.424297    -0.578930
C        8.745312    -0.408137     0.553795
C        7.545821    -0.831638     1.128566
C        6.377323    -0.400554     0.533958
N        5.063303    -0.679629     0.919672
C        4.648254    -1.484628     2.030279
C        4.225660    -0.003566    -0.001027
Se       2.400000     0.000000     0.000000
Cu       0.000000     0.000000     0.000000
Cl      -1.125218     1.949681    -0.001064
Se      -1.200026    -2.078446     0.000000
C       -2.074361    -3.592343    -0.007938
N       -2.664848    -4.190999    -1.141268
C       -2.641482    -3.651458    -2.475511
C       -3.248143    -5.376928    -0.680052
C       -3.947501    -6.323802    -1.388192
C       -4.420013    -7.422747    -0.643217
C       -4.179009    -7.519548     0.747031
C       -3.468301    -6.531685     1.412925
C       -3.024452    -5.486810     0.661356
N       -2.302074    -4.394747     1.101720
C       -1.862097    -4.117840     2.427866
H        5.372169     1.898993    -2.592967
H        3.945989     0.825641    -2.680972
H        3.866967     2.270939    -1.622775
H        7.512669     1.480902    -2.016249
H        9.674396     0.728137    -0.993421
H        9.689090    -0.717318     0.973711
H        7.565974    -1.461190     1.984734
H        4.838220    -2.553012     1.814476
H        5.288321    -1.203006     2.871792
H        3.584946    -1.292647     2.312624
H       -1.587015    -3.583638    -2.815779
H       -3.205672    -4.287534    -3.164758
H       -3.082549    -2.628600    -2.473187
H       -4.122294    -6.243036    -2.436661
H       -4.973100    -8.206579    -1.118606
H       -4.535351    -8.351548     1.321896
H       -3.272522    -6.586133     2.464900
H       -2.751738    -4.029683     3.061975
H       -1.290702    -3.164351     2.442446
H       -1.214311    -4.933481     2.776619
46
ex_0315 frame7 cis-conf5
C        4.618253    -2.466863     0.601373
N        5.051625    -1.179029     0.145623
C        6.380206    -0.697994     0.123575
C        7.550178    -1.344365     0.528546
C        8.754718    -0.620809     0.394553
C        8.753865     0.697948    -0.128614
C        7.547906     1.313487    -0.525927
C        6.382555     0.564905    -0.377030
N        5.061978     0.941769    -0.694235
C        4.656796     2.203303    -1.246060
C        4.317094    -0.084260    -0.198464
Se       2.400000     0.000000     0.000000
Cu       0.000000     0.000000     0.000000
Cl      -1.049595     1.823421    -0.808391
Se      -1.200026    -2.078446     0.000000
C       -2.109017    -3.760539    -0.123468
N       -1.605701    -4.971229     0.360755
C       -0.306988    -5.236027     0.919152
C       -2.655795    -5.885598     0.199520
C       -2.689778    -7.216725     0.609200
C       -3.903470    -7.909226     0.411334
C       -5.010331    -7.269301    -0.204450
C       -4.921682    -5.927163    -0.633539
C       -3.717388    -5.268412    -0.384518
N       -3.403099    -3.920872    -0.615569
C       -4.226922    -2.914159    -1.225880
H        4.101325    -3.106721     0.036125
H        5.427348    -2.942130     1.252681
H        3.878604    -2.102226     1.525247
H        7.557270    -2.348329     0.927649
H        9.690177    -1.076687     0.694182
H        9.688398     1.236643    -0.223580
H        7.538433     2.318799    -0.925867
H        4.832256     2.916268    -0.274821
H        3.558102     2.266479    -1.365197
H        5.205462     2.622508    -2.019313
H        0.361123    -4.354404     0.850747
H       -0.548528    -5.403170     1.993732
H        0.220465    -6.127252     0.526479
H       -1.838114    -7.699689     1.069927
H       -3.988397    -8.942906     0.722540
H       -5.929689    -7.820775    -0.356999
H       -5.764334    -5.448660    -1.111572
H       -4.219702    -2.111072    -0.455845
H       -5.271527    -3.273501    -1.313337
H       -3.903928    -2.492009    -2.196401
46
ex_0315 frame8 T-shaped Cl-Se-ax/Se-eq
C        4.704025    -1.452832    -2.069356
N        5.113525    -0.739125    -0.887046
C        6.436961    -0.415543    -0.523106
C        7.609891    -0.708434    -1.211136
C        8.814548    -0.266495    -0.622891
C        8.805124     0.439865     0.609976
C        7.590881     0.715944     1.274948
C        6.428243     0.262826     0.660857
N        5.097888     0.403508     1.107343
C        4.670046     1.058544     2.314023
C        4.311194    -0.119872     0.075463
Se       2.400000     0.000000     0.000000
Cu       0.000000     0.000000     0.000000
Cl      -2.046784    -0.949567    -0.000816
Se       0.000000     2.400000     0.000000
C       -0.110850     4.310863     0.036295
N       -0.253683     5.127254    -1.092707
C       -0.417648     4.679335    -2.446766
C       -0.181702     6.445287    -0.622259
C       -0.237013     7.628476    -1.357935
C       -0.020470     8.825607    -0.640790
C        0.186607     8.805064     0.763468
C        0.186177     7.586801     1.474059
C        0.008740     6.427046     0.727241
N        0.045188     5.102676     1.183368
C        0.208729     4.662098     2.544011
H        4.970702    -0.679425    -2.943953
H        5.192128    -2.348545    -2.279720
H        3.597544    -1.515074    -2.138755
H        7.604520    -1.247192    -2.149575
H        9.755746    -0.468405    -1.117257
H        9.739311     0.770316     1.044770
H        7.570903     1.252943     2.214153
H        3.553567     1.187094     2.317085
H        5.005452     2.217144     2.092106
H        5.075457     0.789332     3.202922
H       -0.496538     5.525333    -3.158523
H        0.559341     4.175497    -2.620293
H       -1.235961     3.963610    -2.658438
H       -0.401525     7.650028    -2.425788
H       -0.022163     9.772100    -1.166121
H        0.339259     9.734594     1.296715
H        0.339503     7.559687     2.544867
H        1.259638     4.950321     2.771636
H       -0.467524     5.130510     3.285158
H        0.130019     3.559184     2.627676
46
ex_0315 frame9 trans-conf2
C        4.588409    -2.451093    -0.562114
N        5.014796    -1.112811    -0.266860
C        6.323443    -0.653647    -0.166409
C        7.483634    -1.368632    -0.334613
C        8.671179    -0.652293    -0.173104
C        8.659380     0.725405     0.149933
C        7.448358     1.414910     0.314789
C        6.305369     0.676817     0.140452
N        4.979958     1.110064     0.254712
C        4.498956     2.415454     0.580626
C        4.181479    -0.002264    -0.004476
Se       2.400000     0.000000     0.000000
Cu       0.000000     0.000000     0.000000
Cl      -1.123939     1.950750    -0.000290
Se      -1.200026    -2.078446     0.000000
C       -2.099747    -3.640540     0.002126
N       -1.903336    -4.722514     0.896145
C       -0.954548    -4.787027     1.969531
C       -2.817861    -5.704265     0.521165
C       -3.010569    -6.933196     1.094089
C       -3.997056    -7.739112     0.526320
C       -4.754019    -7.304704    -0.577606
C       -4.524996    -6.037263    -1.134860
C       -3.541726    -5.274406    -0.541489
N       -3.124340    -3.995548    -0.892870
C       -3.635824    -3.194627    -1.957099
H        5.028807    -2.790117    -1.522865
H        4.876778    -3.078036     0.298746
H        3.490031    -2.494123    -0.667157
H        7.482368    -2.411797    -0.582325
H        9.600100    -1.169532    -0.298202
H        9.597732     1.231512     0.265276
H        7.417193     2.459752     0.559506
H        4.548637     3.079744    -0.301644
H        5.116618     2.804698     1.381463
H        3.454794     2.351189     0.979649
H       -0.703016    -5.837409     2.165238
H       -0.019149    -4.289868     1.656401
H       -1.377112    -4.342929     2.892304
H       -2.450154    -7.276422     1.929607
H       -4.172706    -8.704074     0.946714
H       -5.505282    -7.968534    -0.978839
H       -5.097298    -5.704407    -1.968748
H       -4.710468    -3.111501    -1.766335
H       -3.165516    -2.188555    -1.943340
H       -3.411355    -3.698680    -2.909547
46
ex_0315 frame10 T-shaped Cl-Se-ax/Se-eq-conf3
C        4.563016     1.478030    -2.034282
N        5.054589     0.677838    -0.941183
C        6.389696     0.410394    -0.571989
C        7.548294     0.862623    -1.174172
C        8.759278     0.435170    -0.590524
C        8.767544    -0.407010     0.551966
C        7.567348    -0.844515     1.133588
C        6.401604    -0.404479     0.536402
N        5.085839    -0.680509     0.924602
C        4.668762    -1.489442     2.046350
C        4.241145    -0.003249    -0.002518
Se       2.400000     0.000000     0.000000
Cu       0.000000     0.000000     0.000000
Cl      -2.233169    -0.279487    -0.001007
Se       0.000000     2.400000     0.000000
C       -0.005407     4.171317     0.000035
N       -0.716921     4.987306    -0.909762
C       -1.561147     4.509199    -1.984972
C       -0.423583     6.309611    -0.537850
C       -0.868346     7.479245    -1.114586
C       -0.401016     8.668302    -0.515763
C        0.478046     8.635536     0.603751
C        0.906184     7.421474     1.148505
C        0.427379     6.290348     0.546547
N        0.704650     4.977138     0.899681
C        1.547165     4.512962     1.968750
H        5.386553     1.925937    -2.612837
H        3.950726     0.833011    -2.701332
H        3.900326     2.278916    -1.633418
H        7.531173     1.504120    -2.039845
H        9.696886     0.750242    -1.016140
H        9.705638    -0.719702     0.982144
H        7.558795    -1.483241     2.005841
H        4.848561    -2.561777     1.828000
H        5.264546    -1.189457     2.928557
H        3.593597    -1.322854     2.280266
H       -2.396281     3.907087    -1.562804
H       -1.972210     5.337570    -2.584188
H       -0.963576     3.841224    -2.648698
H       -1.540439     7.484729    -1.960567
H       -0.717194     9.617634    -0.908568
H        0.827419     9.544933     1.057239
H        1.567570     7.357671     2.001118
H        2.575833     4.867921     1.769986
H        1.558352     3.401111     2.003586
H        1.163067     4.889827     2.933614
46
ex_0315 frame11 T-shaped Cl-Se-ax/Se-eq-conf4
C        4.620568    -1.246701    -2.176820
N        5.029502    -0.561189    -0.996241
C        6.332929    -0.332137    -0.592635
C        7.484563    -0.708664    -1.232282
C        8.682112    -0.341081    -0.604291
C        8.687030     0.361600     0.615810
C        7.484996     0.715497     1.232418
C        6.337247     0.347467     0.578713
N        5.010802     0.577106     0.986250
C        4.569472     1.247883     2.173504
C        4.197067     0.008856     0.002491
Se       2.400000     0.000000     0.000000
Cu       0.000000     0.000000     0.000000
Cl      -2.247560    -0.070554     0.000130
Se       0.000000     2.400000     0.000000
C        0.004094     4.156785    -0.004156
N       -1.103348     4.954161     0.250717
C       -2.424029     4.463707     0.555640
C       -0.653456     6.282467     0.141492
C       -1.395429     7.429982     0.306183
C       -0.707524     8.635580     0.142288
C        0.672749     8.640820    -0.164689
C        1.385682     7.440665    -0.312924
C        0.659104     6.285385    -0.152832
N        1.118996     4.981407    -0.250070
C        2.454788     4.556614    -0.541098
H        3.708754    -1.831426    -1.974871
H        5.403777    -1.973095    -2.449428
H        4.482701    -0.486590    -2.962935
H        7.504625    -1.240160    -2.163645
H        9.609896    -0.603823    -1.062435
H        9.628241     0.621385     1.063569
H        7.493036     1.248053     2.155805
H        3.776381     1.984950     1.942337
H        5.420634     1.776225     2.600145
H        4.207100     0.482942     2.884617
H       -2.852849     3.913304    -0.320652
H       -2.324373     3.758848     1.399081
H       -3.092435     5.275684     0.860925
H       -2.448270     7.416457     0.530055
H       -1.218488     9.572554     0.251380
H        1.162804     9.577966    -0.280123
H        2.431081     7.421502    -0.556789
H        3.052895     4.802925     0.339201
H        2.832452     5.114893    -1.409995
H        2.523093     3.459890    -0.724408
46
ex_0315 frame12 T-shaped Cl-Se-ax/Se-eq-conf5
C        4.509174    -2.288401     0.938803
N        4.968524    -1.034070     0.414281
C        6.282720    -0.612227     0.238752
C        7.418867    -1.315262     0.520765
C        8.631027    -0.688160     0.264231
C        8.651205     0.619628    -0.261291
C        7.462836     1.323193    -0.539970
C        6.298265     0.645217    -0.274201
N        4.983318     1.075372    -0.442426
C        4.529357     2.328834    -0.936934
C        4.162192     0.014218    -0.009664
Se       2.400000     0.000000     0.000000
Cu       0.000000     0.000000     0.000000
Cl      -2.249200    -0.046437    -0.000170
Se       0.000000     2.400000     0.000000
C       -0.008559     4.188712    -0.007967
N        0.737000     5.024316     0.851921
C        1.634664     4.604386     1.887006
C        0.427683     6.332188     0.498661
C        0.912898     7.486004     1.058428
C        0.453731     8.701620     0.535848
C       -0.463752     8.704522    -0.524449
C       -0.937822     7.494860    -1.076693
C       -0.457734     6.328421    -0.523842
N       -0.752728     4.997872    -0.871647
C       -1.625430     4.507347    -1.889239
H        4.063443    -2.922995     0.136904
H        5.355179    -2.824380     1.363796
H        3.773581    -2.105081     1.755296
H        7.408926    -2.305273     0.915411
H        9.555861    -1.206411     0.470203
H        9.591139     1.077120    -0.447570
H        7.480654     2.315209    -0.940802
H        4.411014     2.989040    -0.056413
H        3.536624     2.173672    -1.422226
H        5.266806     2.710670    -1.667162
H        1.524778     3.524394     2.057185
H        2.671406     4.809952     1.572521
H        1.411216     5.129553     2.833498
H        1.607546     7.480464     1.867985
H        0.789197     9.651442     0.926497
H       -0.792641     9.657459    -0.902174
H       -1.634325     7.504029    -1.878654
H       -1.049947     3.802898    -2.518064
H       -1.995482     5.339364    -2.502674
H       -2.436459     3.914034    -1.411481
46
ex_0315 frame13 T-shaped Cl-Se-ax/Se-eq-conf2
C        4.590655    -2.449999    -0.563165
N        5.016088    -1.111409    -0.268839
C        6.328508    -0.652696    -0.166766
C        7.486229    -1.367712    -0.333785
C        8.674166    -0.652791    -0.172859
C        8.662212     0.724641     0.149842
C        7.452102     1.413372     0.314785
C        6.312692     0.673741     0.138600
N        4.986353     1.106681     0.256030
C        4.517109     2.401219     0.587029
C        4.178498    -0.001119    -0.004261
Se       2.400000     0.000000     0.000000
Cu       0.000000     0.000000     0.000000
Cl      -2.243113    -0.178166     0.000229
Se       0.000000     2.400000     0.000000
C       -0.013649     4.199013     0.000119
N        1.124422     5.056560    -0.227277
C        2.463632     4.650027    -0.500085
C        0.661543     6.360554    -0.132326
C        1.363458     7.516399    -0.274570
C        0.653724     8.705453    -0.136093
C       -0.728071     8.701378     0.139471
C       -1.421829     7.485987     0.293764
C       -0.665333     6.344709     0.135254
N       -1.119303     5.019130     0.221490
C       -2.444258     4.583608     0.482796
H        5.029324    -2.791616    -1.522683
H        4.878082    -3.080750     0.298714
H        3.489179    -2.495140    -0.666605
H        7.481930    -2.412305    -0.582393
H        9.602377    -1.170001    -0.298351
H        9.598620     1.232946     0.265627
H        7.417163     2.460538     0.559558
H        4.572947     3.065430    -0.301363
H        5.123399     2.804442     1.388012
H        3.488983     2.297729     1.016838
H        3.167901     5.411230    -0.149307
H        2.627186     3.784565     0.095753
H        2.618837     4.447424    -1.570021
H        2.407601     7.526023    -0.486562
H        1.177326     9.627793    -0.242227
H       -1.232711     9.652975     0.237126
H       -2.466507     7.485473     0.486382
H       -3.068729     5.049149    -0.291585
H       -2.516179     3.477325     0.411838
H       -2.729199     4.909113     1.497462
46
ex_0315 frame14 T-shaped Se-Se-ax/Cl-eq-conf6
C        4.746407     1.467479     2.079705
N        5.165528     0.668600     0.953231
C        6.498311     0.390537     0.568253
C        7.667929     0.817950     1.184092
C        8.881320     0.397013     0.595824
C        8.882699    -0.420090    -0.566570
C        7.672677    -0.833525    -1.162986
C        6.499004    -0.399286    -0.554252
N        5.168988    -0.670373    -0.948620
C        4.751906    -1.463840    -2.082368
C        4.312718    -0.001160     0.000817
Se       2.400000     0.000000     0.000000
Cu       0.000000     0.000000     0.000000
Cl       0.024165     2.242046     0.226069
Se      -2.400000     0.000000     0.000000
C       -4.268202    -0.001984     0.000310
N       -5.111811    -0.184130    -1.152856
C       -4.661150    -0.403004    -2.509943
C       -6.450620    -0.106792    -0.693524
C       -7.624654    -0.219344    -1.436230
C       -8.837568    -0.104630    -0.723772
C       -8.842037     0.115461     0.679150
C       -7.633118     0.225186     1.398148
C       -6.457433     0.105908     0.664808
N       -5.129125     0.174779     1.143303
C       -4.720718     0.382403     2.514147
H        5.145663     2.498247     1.972861
H        3.640763     1.520092     2.140135
H        5.133843     1.020700     3.019513
H        7.656350     1.439269     2.068624
H        9.821794     0.703360     1.036270
H        9.825071    -0.729721    -1.000182
H        7.662842    -1.456677    -2.047588
H        3.646510    -1.506190    -2.152080
H        5.151256    -1.015192    -3.015413
H        5.142644    -2.498142    -1.976406
H       -5.510173    -0.514763    -3.211266
H       -4.048952    -1.328196    -2.548763
H       -4.041612     0.456725    -2.839914
H       -7.627762    -0.386779    -2.503538
H       -9.777227    -0.185614    -1.254546
H       -9.784791     0.200090     1.203633
H       -7.626519     0.392788     2.467014
H       -5.122199    -0.437024     3.146438
H       -3.615295     0.389491     2.602289
H       -5.113891     1.353807     2.879777
46
ex_0315 frame15 T-shaped Se-Se-ax/Cl-eq-conf3
C        4.693422     1.672932    -1.913826
N        5.139775     0.836693    -0.829953
C        6.476910     0.488530    -0.517286
C        7.649157     0.867706    -1.174229
C        8.861407     0.372417    -0.646379
C        8.867018    -0.468562     0.497000
C        7.659855    -0.829331     1.133105
C        6.485273    -0.321087     0.583097
N        5.159793    -0.529122     1.025669
C        4.757630    -1.324987     2.156764
C        4.342540     0.107009     0.071342
Se       2.400000     0.000000     0.000000
Cu       0.000000     0.000000     0.000000
Cl       0.000042     2.222541    -0.360295
Se      -2.400000     0.000000     0.000000
C       -4.308189    -0.184806     0.013398
N       -5.083536    -0.180485    -1.135964
C       -4.637779    -0.203202    -2.500288
C       -6.400370    -0.127243    -0.657082
C       -7.576644    -0.002648    -1.400687
C       -8.773302     0.155995    -0.667946
C       -8.763433     0.131108     0.750279
C       -7.556340    -0.053331     1.457795
C       -6.392321    -0.150412     0.698435
N       -5.077758    -0.220508     1.165361
C       -4.651034    -0.308629     2.531056
H        5.526312     1.868742    -2.641491
H        4.009331     0.919851    -2.552964
H        4.134495     2.502874    -1.685308
H        7.652293     1.507434    -2.044882
H        9.798898     0.637090    -1.119294
H        9.808449    -0.837017     0.884908
H        7.655705    -1.469952     2.005096
H        5.058194    -2.428093     1.835086
H        5.233425    -1.113946     3.064912
H        3.650825    -1.378729     2.234210
H       -4.136654    -1.111279    -2.885024
H       -5.474702     0.065837    -3.175135
H       -3.923258     0.649025    -2.515703
H       -7.593892     0.010121    -2.480897
H       -9.710954     0.290594    -1.193292
H       -9.692964     0.246851     1.294116
H       -7.541516    -0.079860     2.539315
H       -4.902051     0.719465     2.879122
H       -3.554589    -0.442625     2.618102
H       -5.165819    -1.043066     3.180942
46
ex_0315 frame16 T-shaped Se-Se-ax/Cl-eq-conf2
C        4.747134    -2.404321    -0.791909
N        5.150412    -1.064005    -0.459593
C        6.477203    -0.617345    -0.270677
C        7.653130    -1.358316    -0.362683
C        8.859877    -0.664259    -0.125177
C        8.851146     0.720505     0.190271
C        7.635543     1.434407     0.273499
C        6.469144     0.712731     0.032335
N        5.136446     1.181031     0.051837
C        4.716394     2.527115     0.331492
C        4.338307     0.039602    -0.144441
Se       2.400000     0.000000     0.000000
Cu       0.000000     0.000000     0.000000
Cl       0.003694     2.243286     0.035163
Se      -2.400000     0.000000     0.000000
C       -4.311563    -0.195377     0.017312
N       -5.080750    -0.238891    -1.134415
C       -4.640843    -0.333327    -2.498227
C       -6.396579    -0.147951    -0.656055
C       -7.571741    -0.032208    -1.404125
C       -8.766706     0.169614    -0.679014
C       -8.757617     0.195068     0.738986
C       -7.553156     0.018280     1.453002
C       -6.389389    -0.121857     0.698607
N       -5.076961    -0.192700     1.170935
C       -4.655481    -0.248357     2.539729
H        5.205147    -2.857727    -1.602914
H        5.063111    -3.017354     0.192956
H        3.637981    -2.501873    -0.777162
H        7.650195    -2.413168    -0.603606
H        9.802742    -1.193392    -0.184119
H        9.787403     1.234280     0.368901
H        7.619179     2.489413     0.513192
H        5.153418     3.294258    -0.187690
H        5.040029     2.649331     1.498052
H        3.604240     2.587007     0.416632
H       -5.474177    -0.066083    -3.178427
H       -3.899942     0.493562    -2.556364
H       -4.174623    -1.274265    -2.845497
H       -7.590080    -0.058126    -2.484179
H       -9.702471     0.298996    -1.209455
H       -9.685916     0.343680     1.277339
H       -7.540208     0.029348     2.535020
H       -5.189685    -0.950640     3.209519
H       -3.562729    -0.402305     2.635794
H       -4.888014     0.795096     2.853178
46
ex_0315 frame17 T-shaped Se-Se-ax/Cl-eq-conf4
C        4.674697    -0.963311    -2.352902
N        5.093500    -0.305709    -1.145816
C        6.421925    -0.199464    -0.663496
C        7.596327    -0.695120    -1.233766
C        8.798477    -0.445808    -0.538371
C        8.792923     0.275866     0.680324
C        7.585025     0.760964     1.225113
C        6.417228     0.494597     0.508716
N        5.084495     0.860463     0.823499
C        4.654682     1.600106     1.975892
C        4.342540     0.198849    -0.119000
Se       2.400000     0.000000     0.000000
Cu       0.000000     0.000000     0.000000
Cl       0.000055     2.244617     0.238036
Se      -2.400000     0.000000     0.000000
C       -4.277351     0.261102    -0.018862
N       -5.016836     0.207783    -1.183035
C       -4.564129     0.193486    -2.540176
C       -6.331669     0.146203    -0.706227
C       -7.493229    -0.061870    -1.446356
C       -8.683483    -0.246583    -0.709235
C       -8.681011    -0.141202     0.705498
C       -7.498159     0.160276     1.397936
C       -6.342820     0.252403     0.648974
N       -5.028627     0.395730     1.120524
C       -4.624137     0.626147     2.477737
H        3.938683    -1.796299    -1.916117
H        5.502704    -1.613515    -2.756212
H        4.179292    -0.431474    -3.083626
H        7.612913    -1.246805    -2.162587
H        9.737761    -0.809851    -0.939730
H        9.728097     0.456499     1.198782
H        7.593058     1.310259     2.155505
H        4.137485     2.468016     1.881775
H        5.475816     1.629299     2.755185
H        3.928939     0.777481     2.500065
H       -4.093926     1.092173    -2.978714
H       -3.823572    -0.635428    -2.507343
H       -5.389522    -0.146933    -3.201058
H       -7.501056    -0.152205    -2.520166
H       -9.611552    -0.466259    -1.232424
H       -9.616511    -0.270507     1.248971
H       -7.492835     0.243649     2.482189
H       -4.835457    -0.385421     2.894484
H       -5.188557     1.379160     3.064934
H       -3.541147     0.819071     2.566092
46
ex_0315 frame18 T-shaped Se-Se-ax/Cl-eq-conf5
C        4.603856    -2.512637     0.505149
N        5.025720    -1.213878     0.061476
C        6.348348    -0.715178     0.082563
C        7.514753    -1.344045     0.523487
C        8.713007    -0.604488     0.428874
C        8.709060     0.714518    -0.093039
C        7.507207     1.310990    -0.527008
C        6.347612     0.546642    -0.416220
N        5.034560     0.905275    -0.774539
C        4.641552     2.167747    -1.338286
C        4.333761    -0.113431    -0.262140
Se       2.400000     0.000000     0.000000
Cu       0.000000     0.000000     0.000000
Cl      -0.005606     2.249389    -0.054936
Se      -2.400000     0.000000     0.000000
C       -4.306858    -0.051915     0.205512
N       -5.072854     1.067791     0.475746
C       -4.661006     2.392959     0.838091
C       -6.382035     0.611651     0.290637
C       -7.546999     1.378228     0.307614
C       -8.746588     0.714923    -0.029422
C       -8.748366    -0.674493    -0.312345
C       -7.551144    -1.422002    -0.261564
C       -6.378851    -0.711719     0.010537
N       -5.062830    -1.184319    -0.019531
C       -4.611335    -2.525342    -0.233325
H        4.110647    -3.160340    -0.107353
H        5.410799    -2.992901     1.136588
H        3.846491    -2.179220     1.392341
H        7.526605    -2.348775     0.922504
H        9.645860    -1.046256     0.757333
H        9.637780     1.267847    -0.158516
H        7.495732     2.316989    -0.926464
H        4.830330     2.881008    -0.414235
H        3.543978     2.219656    -1.485224
H        5.192187     2.552982    -2.154413
H       -3.569855     2.460517     1.017364
H       -4.891937     2.936843    -0.106380
H       -5.205359     2.878644     1.671914
H       -7.539522     2.436871     0.529673
H       -9.676339     1.269813    -0.065800
H       -9.680241    -1.167311    -0.562636
H       -7.563208    -2.481739    -0.470524
H       -3.891148    -2.366405    -1.065435
H       -5.441813    -3.134938    -0.641856
H       -4.116865    -3.083882     0.583839
46
ex_0315 frame19 T-shaped Se-Se-ax/Cl-eq
C        4.675722    -1.657626    -1.949291
N        5.058195    -0.913164    -0.780066
C        6.371872    -0.502793    -0.466938
C        7.539237    -0.723730    -1.198812
C        8.736613    -0.203107    -0.660557
C        8.726737     0.507249     0.567729
C        7.519896     0.706557     1.274157
C        6.359942     0.173825     0.703772
N        5.041670     0.232117     1.200439
C        4.640386     0.871190     2.423378
C        4.346295    -0.251481     0.151988
Se       2.400000     0.000000     0.000000
Cu       0.000000     0.000000     0.000000
Cl      -0.003527     2.236577     0.229833
Se      -2.400000     0.000000     0.000000
C       -4.308505     0.097818     0.288458
N       -5.035773    -0.995395     0.482946
C       -4.557936    -2.286327     0.751812
C       -6.304790    -0.564038     0.304333
C       -7.473233    -1.322561     0.359501
C       -8.665983    -0.655536     0.020024
C       -8.653791     0.724189    -0.301157
C       -7.448443     1.454337    -0.286882
C       -6.287765     0.753041     0.037632
N       -4.990400     1.253049     0.081199
C       -4.593171     2.623159    -0.063687
H        4.885109    -0.874524    -2.799108
H        5.224436    -2.536776    -2.178450
H        3.577400    -1.807402    -1.986523
H        7.540592    -1.266503    -2.135468
H        9.671810    -0.346330    -1.188618
H        9.654878     0.899581     0.965589
H        7.505965     1.247152     2.210836
H        3.540807     0.824207     2.557658
H        4.844479     2.002661     2.168580
H        5.181324     0.637828     3.303122
H       -5.340930    -3.026165     1.016894
H       -4.286434    -2.433671    -0.317082
H       -3.671691    -2.477341     1.388456
H       -7.473062    -2.374114     0.605742
H       -9.586755    -1.221967    -0.084487
H       -9.569676     1.233988    -0.561273
H       -7.427256     2.500951    -0.559730
H       -4.784113     2.757100    -1.151954
H       -5.166419     3.386464     0.499944
H       -3.509410     2.762140     0.122193
46
ex_0315 frame20 cis
C       -0.397193    -1.985843    -3.055389
N       -1.428958    -1.194488    -2.432449
C       -2.094928    -0.102211    -2.999771
C       -1.920940     0.446050    -4.259202
C       -2.787653     1.497763    -4.609796
C       -3.743240     1.992873    -3.681849
C       -3.854490     1.432622    -2.390624
C       -3.001969     0.364672    -2.100994
N       -2.939661    -0.378300    -0.916950
C       -3.700102    -0.176294     0.290415
C       -2.008527    -1.372529    -1.174447
Se      -1.545231    -2.797381    -0.021240
Cu      -0.879620    -2.512004     2.266886
Cl      -0.951599    -4.310985     3.616319
Se       0.498267    -0.675399     2.965677
C        1.289845     0.308705     1.558055
N        1.174973     1.691992     1.416817
C        0.408292     2.579778     2.256479
C        1.971371     2.021834     0.310497
C        2.230657     3.282691    -0.209543
C        3.117862     3.341157    -1.304320
C        3.673323     2.154541    -1.854610
C        3.359906     0.889619    -1.321596
C        2.510258     0.883109    -0.213209
N        2.089960    -0.220588     0.535504
C        2.413733    -1.606166     0.301084
H        0.476087    -1.456760    -3.484061
H       -0.970432    -2.473171    -3.878611
H       -0.049023    -2.794250    -2.386374
H       -1.182551     0.062651    -4.953031
H       -2.707144     1.949653    -5.590397
H       -4.379646     2.820646    -3.960664
H       -4.568001     1.807929    -1.670906
H       -4.682551    -0.630919     0.029848
H       -3.849059     0.880202     0.579055
H       -3.281505    -0.732452     1.156428
H        0.684244     2.263955     3.287411
H        0.774473     3.616524     2.128002
H       -0.694220     2.557347     2.155235
H        1.793055     4.183516     0.198191
H        3.362772     4.300224    -1.739863
H        4.336192     2.219797    -2.706062
H        3.759609    -0.021567    -1.732768
H        1.868424    -2.283665     0.988018
H        3.492926    -1.643327     0.564089
H        2.294291    -1.965957    -0.736848
46
ex_0315 frame21 trans
C        0.147053    -3.213003     1.696438
N       -0.888226    -2.229896     1.594949
C       -1.241158    -1.226140     2.546100
C       -0.666620    -0.976265     3.762171
C       -1.223246     0.091085     4.512059
C       -2.306524     0.835441     4.004733
C       -2.837022     0.518990     2.749771
C       -2.279720    -0.507847     2.066878
N       -2.649077    -0.998363     0.802566
C       -3.716679    -0.495344    -0.021362
C       -1.764658    -2.084674     0.502327
Se      -1.784102    -3.064328    -0.989083
Cu       0.359131    -3.498275    -1.978144
Cl       1.551746    -5.248911    -1.215931
Se       1.629762    -1.635928    -2.801042
C        1.347224    -0.021643    -2.136626
N        0.308220     0.844081    -2.500917
C       -0.682619     0.542876    -3.479937
C        0.453163     2.018339    -1.725640
C       -0.331103     3.136765    -1.739306
C        0.045962     4.165377    -0.857711
C        1.182971     4.004582    -0.021014
C        1.948289     2.833096    -0.050078
C        1.544507     1.877356    -0.916270
N        2.130422     0.614985    -1.150125
C        3.292654     0.043220    -0.533889
H        0.986233    -2.920258     1.022203
H       -0.251957    -4.196526     1.371293
H        0.442401    -3.311226     2.732158
H        0.139922    -1.519327     4.152772
H       -0.833215     0.348113     5.471590
H       -2.725812     1.647715     4.583695
H       -3.641532     1.069966     2.365747
H       -3.323296     0.009324    -0.933194
H       -4.291699     0.218259     0.550563
H       -4.404665    -1.309597    -0.316528
H       -0.823630    -0.578282    -3.528807
H       -0.337985     0.945305    -4.441919
H       -1.633548     0.981432    -3.213991
H       -1.174124     3.229340    -2.373946
H       -0.518529     5.086994    -0.804072
H        1.462701     4.785022     0.641805
H        2.799622     2.711444     0.575652
H        3.717788     0.686365     0.221937
H        4.051166    -0.137710    -1.317583
H        2.997515    -0.919594    -0.056612
46
ex_0315 frame22 trans-conf6
C        4.668460    -1.006640    -2.316613
N        5.061506    -0.447154    -1.042632
C        6.378050    -0.236521    -0.570800
C        7.570473    -0.515131    -1.221652
C        8.756135    -0.216050    -0.516182
C        8.709755     0.347537     0.788371
C        7.478472     0.622960     1.414862
C        6.334007     0.312945     0.692164
N        4.989457     0.485959     1.079781
C        4.484593     1.036983     2.320640
C        4.186160     0.006409    -0.002804
Se       2.400000     0.000000     0.000000
Cu       0.000000     0.000000     0.000000
Cl      -1.125558     1.948363     0.000092
Se      -1.200026    -2.078446     0.000000
C       -2.127026    -3.686776    -0.005201
N       -3.447764    -3.872142    -0.507917
C       -4.270391    -2.843766    -1.105547
C       -3.765175    -5.237584    -0.303711
C       -4.945230    -5.909293    -0.624586
C       -4.973060    -7.275948    -0.315201
C       -3.861703    -7.922209     0.297850
C       -2.694159    -7.210592     0.620714
C       -2.688095    -5.868224     0.290897
N       -1.643826    -4.940718     0.484019
C       -0.336962    -5.193583     1.061535
H        4.965874    -0.321669    -3.136700
H        3.567028    -1.145736    -2.357929
H        5.146618    -1.997607    -2.456016
H        7.590648    -0.947173    -2.212850
H        9.713076    -0.420820    -0.974391
H        9.629128     0.568140     1.312840
H        7.439409     1.049127     2.407508
H        3.886380     1.945991     2.094479
H        3.818734     0.296093     2.813451
H        5.295302     1.308576     3.020900
H       -5.253378    -3.230936    -1.426502
H       -3.737095    -2.437138    -1.989649
H       -4.425173    -2.015766    -0.382938
H       -5.763565    -5.398723    -1.085027
H       -5.856277    -7.837854    -0.557336
H       -3.916172    -8.979712     0.517011
H       -1.838056    -7.686499     1.083785
H        0.168601    -5.982454     0.468452
H        0.291277    -4.280731     1.025033
H       -0.428641    -5.513529     2.119695
46
ex_0315 frame23 trans-conf2
C        4.665475    -0.524862    -2.479419
N        5.103945    -0.231821    -1.129157
C        6.432161    -0.126963    -0.650786
C        7.602690    -0.278526    -1.368609
C        8.797094    -0.124893    -0.637861
C        8.773402     0.169994     0.754174
C        7.553967     0.323286     1.442134
C        6.407078     0.158203     0.693703
N        5.077891     0.243401     1.136633
C        4.617988     0.514872     2.481714
C        4.259280     0.003366    -0.000441
Se       2.400000     0.000000     0.000000
Cu       0.000000     0.000000     0.000000
Cl      -1.125371     1.947950    -0.000744
Se      -1.200026    -2.078446     0.000000
C       -2.122749    -3.691543    -0.010350
N       -3.312505    -3.965016    -0.743463
C       -4.017676    -3.046707    -1.612225
C       -3.657699    -5.294560    -0.445002
C       -4.743110    -6.013493    -0.912839
C       -4.864750    -7.335771    -0.439359
C       -3.906455    -7.883263     0.459718
C       -2.809544    -7.118366     0.905531
C       -2.732564    -5.823652     0.426918
N       -1.759400    -4.853833     0.722901
C       -0.612703    -4.991871     1.594890
H        3.806849    -1.230323    -2.441893
H        5.472803    -1.011721    -3.060523
H        4.339965     0.401049    -2.998538
H        7.607895    -0.497082    -2.427786
H        9.742862    -0.231360    -1.146583
H        9.698345     0.282895     1.297489
H        7.510063     0.549554     2.498298
H        5.113940    -0.191391     3.177672
H        3.521733     0.345786     2.559998
H        4.829505     1.562689     2.772550
H       -4.029532    -3.395518    -2.663365
H       -3.545792    -2.040495    -1.585205
H       -5.054541    -2.940937    -1.230492
H       -5.459131    -5.579424    -1.598606
H       -5.696166    -7.939842    -0.770664
H       -4.014053    -8.900576     0.804820
H       -2.067363    -7.515645     1.585414
H        0.022708    -5.855422     1.318698
H        0.020122    -4.078022     1.567794
H       -0.994510    -5.107591     2.630472
46
ex_0315 frame24 trans-conf5
C        4.589029     2.406702     0.775426
N        5.050755     1.095503     0.372263
C        6.378651     0.667495     0.238560
C        7.527445     1.393524     0.474057
C        8.744043     0.730079     0.228218
C        8.763739    -0.622165    -0.216837
C        7.565290    -1.334857    -0.430078
C        6.394517    -0.639944    -0.189539
N        5.073655    -1.101922    -0.331998
C        4.634416    -2.415928    -0.756155
C        4.241559    -0.006731     0.012481
Se       2.400000     0.000000     0.000000
Cu       0.000000     0.000000     0.000000
Cl      -1.124759     1.948939     0.000518
Se      -1.200026    -2.078446     0.000000
C       -2.137549    -3.700337     0.018179
N       -3.554531    -3.857178    -0.089622
C       -4.530513    -2.797746    -0.228006
C       -3.801256    -5.241327    -0.039033
C       -5.023607    -5.886240    -0.110080
C       -4.989562    -7.293893    -0.066044
C       -3.757474    -7.992574     0.070967
C       -2.534498    -7.296699     0.164523
C       -2.608399    -5.917026     0.092958
N       -1.547092    -4.994125     0.134158
C       -0.134878    -5.282977     0.267087
H        3.504472     2.508747     0.553335
H        4.743422     2.628104     1.848958
H        5.120548     3.146823     0.141518
H        7.486284     2.418110     0.819490
H        9.670314     1.259381     0.392386
H        9.708986    -1.114798    -0.386737
H        7.558072    -2.364964    -0.762535
H        3.534584    -2.532352    -0.639952
H        4.870185    -2.501885    -1.838684
H        5.125181    -3.234898    -0.195420
H       -5.303354    -3.107456    -0.960232
H       -5.004408    -2.552121     0.744581
H       -4.040423    -1.883350    -0.626555
H       -5.950590    -5.339479    -0.220625
H       -5.915471    -7.844731    -0.139724
H       -3.754791    -9.071802     0.101263
H       -1.586579    -7.809337     0.261828
H        0.173389    -5.930356    -0.578351
H        0.087668    -5.778011     1.233442
H        0.464614    -4.348034     0.214318
46
ex_0315 frame25 trans-2
C        4.657334    -2.379791    -0.834662
N        5.109984    -1.072504    -0.425459
C        6.441440    -0.647899    -0.252947
C        7.613869    -1.383323    -0.413640
C        8.826608    -0.726243    -0.102358
C        8.832488     0.634601     0.294848
C        7.622767     1.364770     0.395804
C        6.444793     0.661319     0.134720
N        5.119700     1.127594     0.225295
C        4.672831     2.448352     0.580134
C        4.321161     0.027168    -0.068551
Se       2.400000     0.000000     0.000000
Cu       0.000000     0.000000     0.000000
Cl      -1.130738     1.945354     0.003765
Se      -1.200026    -2.078446     0.000000
C       -2.074063    -3.782041    -0.012602
N       -2.557612    -4.402002    -1.155302
C       -2.441765    -3.974559    -2.523975
C       -3.218495    -5.540420    -0.682385
C       -3.947328    -6.468151    -1.426778
C       -4.587559    -7.499653    -0.703112
C       -4.437749    -7.594413     0.704610
C       -3.643631    -6.662303     1.411452
C       -3.081734    -5.625344     0.664198
N       -2.338277    -4.532312     1.123979
C       -1.932279    -4.239953     2.469232
H        4.136783    -2.459377    -1.808197
H        3.954660    -2.657982    -0.017551
H        5.493522    -3.108334    -0.808615
H        7.620755    -2.417907    -0.724767
H        9.764037    -1.262850    -0.183103
H        9.772769     1.123159     0.516667
H        7.637523     2.402256     0.689060
H        4.148473     3.039207    -0.195784
H        5.511307     3.045825     0.989907
H        3.971214     2.245010     1.421659
H       -1.779065    -3.089605    -2.636210
H       -3.491212    -3.647313    -2.719352
H       -2.159611    -4.742624    -3.270030
H       -4.048687    -6.394491    -2.501023
H       -5.186701    -8.234396    -1.228993
H       -4.925815    -8.401229     1.240042
H       -3.524880    -6.747715     2.481825
H       -2.497274    -4.881921     3.181651
H       -2.333456    -3.206030     2.578307
H       -0.857451    -4.251087     2.741434
46
ex_0315 frame26 trans-conf4
C        4.602454    -2.524632    -0.259168
N        5.065645    -1.159015    -0.109414
C        6.397422    -0.709946    -0.066545
C        7.543699    -1.470028    -0.155868
C        8.760632    -0.765374    -0.094332
C        8.783589     0.649935     0.056873
C        7.585275     1.388882     0.148712
C        6.418595     0.658510     0.079599
N        5.089826     1.140874     0.138734
C        4.652568     2.513833     0.289004
C        4.249797    -0.002520     0.010531
Se       2.400000     0.000000     0.000000
Cu       0.000000     0.000000     0.000000
Cl      -1.097560     1.963361    -0.031557
Se      -1.200026    -2.078446     0.000000
C       -2.140424    -3.685795     0.009205
N       -3.095155    -4.055749    -0.958776
C       -3.516534    -3.258630    -2.088706
C       -3.529295    -5.344302    -0.594190
C       -4.449833    -6.149731    -1.248689
C       -4.716072    -7.401743    -0.656498
C       -4.049439    -7.805284     0.533250
C       -3.105506    -6.962855     1.156317
C       -2.886379    -5.736435     0.550818
N       -2.007840    -4.720258     0.965241
C       -1.145289    -4.724912     2.126096
H        4.958623    -3.165107     0.570675
H        4.964144    -2.912269    -1.233122
H        3.491734    -2.565389    -0.271215
H        7.501400    -2.544771    -0.268635
H        9.689371    -1.315022    -0.161246
H        9.728571     1.169425     0.104829
H        7.586430     2.464113     0.270840
H        4.509354     2.935095    -0.728540
H        5.377199     3.121659     0.865009
H        3.679057     2.565254     0.823074
H       -2.611848    -2.754856    -2.499199
H       -3.924730    -3.904396    -2.891280
H       -4.247385    -2.474398    -1.808911
H       -4.970270    -5.821487    -2.137516
H       -5.451844    -8.052704    -1.106526
H       -4.280854    -8.761361     0.980366
H       -2.606811    -7.242747     2.074888
H       -0.602757    -3.761133     2.227961
H       -0.387353    -5.521557     1.953227
H       -1.686807    -4.925143     3.070314
46
ex_0315 frame27 trans-conf3
C        4.639002    -2.285163    -1.081766
N        5.052989    -0.998299    -0.605001
C        6.380899    -0.596423    -0.327297
C        7.564673    -1.333680    -0.447733
C        8.765976    -0.679263    -0.098804
C        8.754381     0.663508     0.351004
C        7.541781     1.373184     0.459077
C        6.374676     0.687714     0.103392
N        5.070066     1.176454     0.127362
C        4.604588     2.469432     0.511666
C        4.365481     0.076303    -0.172812
Se       2.400000     0.000000     0.000000
Cu       0.000000     0.000000     0.000000
Cl      -1.120514     1.951371     0.009053
Se      -1.200026    -2.078446     0.000000
C       -2.326663    -3.678014    -0.001584
N       -2.706062    -4.305055    -1.156373
C       -2.573224    -3.897440    -2.520335
C       -3.267236    -5.487537    -0.674148
C       -3.743527    -6.560045    -1.432942
C       -4.251238    -7.664499    -0.719508
C       -4.275812    -7.659041     0.697775
C       -3.793095    -6.549207     1.421797
C       -3.294726    -5.474668     0.675977
N       -2.731805    -4.288028     1.149624
C       -2.617644    -3.842077     2.500999
H        4.138760    -2.396546    -2.034530
H        3.921863    -2.562625    -0.241823
H        5.473022    -3.018643    -0.990819
H        7.586887    -2.357865    -0.789383
H        9.696623    -1.219981    -0.180423
H        9.685988     1.147831     0.613813
H        7.548706     2.396252     0.803483
H        3.884037     2.230758     1.251094
H        5.438220     3.040766     0.941989
H        4.126946     3.145924    -0.296710
H       -3.426739    -4.040796    -3.212863
H       -1.766573    -4.615292    -2.794368
H       -2.174781    -2.869542    -2.626500
H       -3.754374    -6.545857    -2.515282
H       -4.621353    -8.515342    -1.272212
H       -4.665327    -8.506497     1.242290
H       -3.868145    -6.534342     2.500981
H       -2.813023    -4.695444     3.180207
H       -3.146074    -2.946390     2.880164
H       -1.520739    -3.664111     2.516394
46
ex_0315 frame28 T-shaped Cl-Se-ax/Se-eq-conf2
C        4.643454    -0.522753    -2.488495
N        5.076185    -0.229698    -1.137308
C        6.393512    -0.126281    -0.662449
C        7.570261    -0.277581    -1.373954
C        8.761266    -0.118448    -0.638501
C        8.730986     0.177137     0.753059
C        7.511445     0.324701     1.434764
C        6.372390     0.159202     0.684507
N        5.047914     0.243370     1.124272
C        4.585838     0.512665     2.464539
C        4.235063     0.004097    -0.007436
Se       2.400000     0.000000     0.000000
Cu       0.000000     0.000000     0.000000
Cl      -2.227534    -0.319052    -0.001089
Se       0.000000     2.400000     0.000000
C       -0.004756     4.239849     0.005242
N       -1.023967     5.069623    -0.534781
C       -2.235983     4.621301    -1.184062
C       -0.609584     6.393055    -0.313151
C       -1.266057     7.556228    -0.666009
C       -0.618766     8.760979    -0.327468
C        0.636994     8.755187     0.343651
C        1.272058     7.544543     0.686801
C        0.607348     6.386548     0.333135
N        1.017522     5.061228     0.545142
C        2.229953     4.596595     1.181451
H        3.759301    -1.197782    -2.457537
H        5.442620    -1.054260    -3.039161
H        4.377198     0.407762    -3.032745
H        7.577504    -0.494635    -2.433895
H        9.709650    -0.217971    -1.140668
H        9.649723     0.298339     1.300804
H        7.455574     0.553216     2.490037
H        5.125796    -0.159090     3.160051
H        3.501847     0.277831     2.552843
H        4.744827     1.575209     2.729641
H       -3.129905     4.887423    -0.587507
H       -2.220431     3.516931    -1.314679
H       -2.284607     5.073988    -2.195371
H       -2.222187     7.538577    -1.173255
H       -1.090002     9.699106    -0.577740
H        1.110994     9.689806     0.600668
H        2.223103     7.513586     1.201897
H        2.359501     5.033251     2.189832
H        2.221002     3.488965     1.287393
H        3.079224     4.862375     0.520134
46
ex_0315 frame29 T-shaped Cl-Se-ax/Se-eq-conf3
C        4.597857    -2.411472    -0.776601
N        5.061361    -1.101271    -0.361349
C        6.388146    -0.653827    -0.204492
C        7.552545    -1.365588    -0.405713
C        8.749768    -0.667637    -0.191042
C        8.743577     0.695399     0.228408
C        7.530519     1.381997     0.436600
C        6.374278     0.654658     0.203982
N        5.041585     1.086158     0.333486
C        4.554833     2.379981     0.746017
C        4.238715    -0.005929    -0.009880
Se       2.400000     0.000000     0.000000
Cu       0.000000     0.000000     0.000000
Cl      -2.092935    -0.823584    -0.003594
Se       0.000000     2.400000     0.000000
C       -0.001537     4.245046     0.001047
N       -0.929413     5.066682    -0.689400
C       -2.035180     4.623672    -1.509326
C       -0.557248     6.388087    -0.408329
C       -1.167025     7.543953    -0.848513
C       -0.584561     8.752977    -0.423438
C        0.563877     8.757839     0.417970
C        1.147869     7.554006     0.853096
C        0.546210     6.392323     0.410200
N        0.917166     5.072045     0.696004
C        2.009595     4.624734     1.526869
H        4.301295    -2.421876    -1.843065
H        3.706047    -2.673765    -0.165283
H        5.374111    -3.177496    -0.577720
H        7.540605    -2.393364    -0.747798
H        9.692629    -1.165600    -0.363018
H        9.675170     1.218404     0.373545
H        7.511023     2.420648     0.734188
H        3.889622     2.191113     1.623640
H        5.360828     3.062571     1.055097
H        3.949836     2.837151    -0.060986
H       -1.985851     5.059209    -2.525609
H       -2.974828     4.936671    -1.006309
H       -2.049605     3.516168    -1.603223
H       -2.029003     7.510198    -1.501001
H       -1.013500     9.684202    -0.755383
H        1.006189     9.693098     0.721863
H        2.032360     7.536600     1.476241
H        2.237938     5.383897     2.298017
H        2.916621     4.451778     0.931761
H        1.707493     3.687595     2.047044
46
ex_0315 frame30 T-shaped Cl-Se-ax/Se-eq-conf4
C        4.674873    -2.541551    -0.157647
N        5.107957    -1.171269    -0.036276
C        6.436652    -0.713798    -0.034009
C        7.601335    -1.464122    -0.167843
C        8.818123    -0.748884    -0.175967
C        8.831244     0.662848    -0.020928
C        7.627172     1.382930     0.143533
C        6.448316     0.641469     0.108758
N        5.130949     1.115214     0.197518
C        4.700979     2.477092     0.364206
C        4.316824    -0.014609     0.057351
Se       2.400000     0.000000     0.000000
Cu       0.000000     0.000000     0.000000
Cl      -1.764570    -1.388434     0.011741
Se       0.000000     2.400000     0.000000
C       -0.087616     4.306732    -0.063902
N       -0.832596     5.071599     0.823321
C       -1.726049     4.607733     1.849208
C       -0.494111     6.395315     0.505203
C       -0.905715     7.562066     1.150668
C       -0.348722     8.771915     0.682923
C        0.533776     8.782258    -0.428111
C        0.872911     7.582331    -1.089289
C        0.353318     6.406090    -0.554797
N        0.608075     5.096748    -0.969930
C        1.411161     4.682490    -2.084972
H        5.132236    -3.258185     0.551529
H        4.981973    -2.809494    -1.194525
H        3.571057    -2.621385    -0.097799
H        7.581500    -2.541111    -0.270804
H        9.752620    -1.284617    -0.285576
H        9.776782     1.190294    -0.012393
H        7.631287     2.456219     0.279872
H        4.788727     2.861705    -0.677253
H        5.329359     3.099161     1.032311
H        3.642668     2.566574     0.682067
H       -1.102174     3.851161     2.374282
H       -1.914122     5.426222     2.572447
H       -2.688892     4.149403     1.554809
H       -1.586769     7.561720     1.989538
H       -0.607241     9.704085     1.169646
H        0.940709     9.722385    -0.779056
H        1.536407     7.582491    -1.944013
H        1.373426     3.586477    -2.244691
H        2.422985     4.937712    -1.694216
H        1.258474     5.200811    -3.051764
46
ex_0315 frame31 T-shaped Cl-Se-ax/Se-eq-conf6
C        4.605251    -0.995138    -2.286590
N        5.038264    -0.445918    -1.031986
C        6.352623    -0.243516    -0.570947
C        7.504288    -0.522219    -1.210438
C        8.673000    -0.218586    -0.501606
C        8.638576     0.358327     0.819879
C        7.405958     0.620888     1.427866
C        6.302924     0.315305     0.708396
N        4.949142     0.483381     1.070874
C        4.408432     1.030005     2.283393
C        4.186166     0.005846    -0.002564
Se       2.400000     0.000000     0.000000
Cu       0.000000     0.000000     0.000000
Cl      -2.247463    -0.110533     0.000122
Se       0.000000     2.400000     0.000000
C        0.001414     4.268104     0.011627
N       -1.130517     5.042386     0.161607
C       -2.471908     4.523409     0.348995
C       -0.709377     6.374214     0.099199
C       -1.492435     7.482193     0.194976
C       -0.740213     8.709413     0.095570
C        0.676355     8.719812    -0.085427
C        1.390673     7.537061    -0.178870
C        0.678243     6.417027    -0.078239
N        1.157398     5.092504    -0.125264
C        2.515825     4.609032    -0.277660
H        4.781615    -0.263914    -3.087498
H        3.499323    -1.212150    -2.259300
H        5.168761    -1.916266    -2.445765
H        7.510638    -0.937069    -2.152321
H        9.607213    -0.423424    -0.970974
H        9.534070     0.574777     1.317187
H        7.372991     1.046257     2.402116
H        3.868053     1.952223     2.059270
H        3.680682     0.291160     2.719203
H        5.235329     1.259893     2.973503
H       -3.165335     5.339598     0.435668
H       -2.496942     3.918847     1.265468
H       -2.753068     3.856159    -0.521786
H       -2.500530     7.476473     0.318857
H       -1.248195     9.654730     0.158870
H        1.190639     9.644948    -0.151115
H        2.452637     7.547377    -0.312113
H        3.099200     5.085607     0.483665
H        2.580891     3.499457    -0.131407
H        2.914198     4.862775    -1.288702
46
ex_0315 frame32 T-shaped Cl-Se-ax/Se-eq
C        4.549744    -2.410912    -0.704820
N        5.018734    -1.110998    -0.326952
C        6.353494    -0.668132    -0.201514
C        7.519804    -1.367443    -0.413566
C        8.726630    -0.666548    -0.212581
C        8.719667     0.681588     0.186025
C        7.508887     1.332733     0.384955
C        6.362619     0.609654     0.178047
N        5.041181     1.070638     0.322956
C        4.631367     2.390290     0.725172
C        4.204105    -0.005224     0.001197
Se       2.400000     0.000000     0.000000
Cu       0.000000     0.000000     0.000000
Cl      -2.160800    -0.624133    -0.002313
Se       0.000000     2.400000     0.000000
C       -0.002830     4.188302    -0.001713
N       -0.901739     4.992114    -0.699390
C       -1.962095     4.496878    -1.525709
C       -0.548773     6.317007    -0.423514
C       -1.136149     7.474625    -0.879664
C       -0.571307     8.683342    -0.437425
C        0.544080     8.667799     0.428646
C        1.113804     7.467079     0.867824
C        0.529256     6.318467     0.412809
N        0.895877     4.998787     0.693422
C        1.967284     4.522335     1.519549
H        4.156888    -2.371650    -1.744345
H        3.736050    -2.725687    -0.017668
H        5.364499    -3.132652    -0.584065
H        7.535597    -2.378440    -0.717012
H        9.671609    -1.152683    -0.359618
H        9.651424     1.210594     0.338987
H        7.485534     2.350363     0.679665
H        4.164937     2.944784    -0.128204
H        5.501972     2.956340     1.049115
H        3.935538     2.349782     1.581385
H       -2.276516     3.485419    -1.156912
H       -1.581970     4.450222    -2.559156
H       -2.825009     5.156865    -1.470308
H       -1.980016     7.447666    -1.530376
H       -0.985406     9.629131    -0.756217
H        0.968781     9.586647     0.759868
H        1.957025     7.453799     1.524456
H        2.528412     5.329031     1.987934
H        2.655414     3.955929     0.885796
H        1.551778     3.870794     2.314193
46
ex_0315 frame33 T-shaped Cl-Se-ax/Se-eq-conf5
C        4.529351     2.336415     0.744496
N        4.971099     1.057811     0.343407
C        6.283588     0.631160     0.213844
C        7.401768     1.368952     0.460111
C        8.624156     0.733195     0.256435
C        8.658339    -0.612039    -0.176919
C        7.460035    -1.334717    -0.425917
C        6.305554    -0.659377    -0.207173
N        4.988119    -1.122828    -0.361123
C        4.548368    -2.420156    -0.786548
C        4.158367    -0.019407    -0.005149
Se       2.400000     0.000000     0.000000
Cu       0.000000     0.000000     0.000000
Cl      -2.249271    -0.047198     0.000104
Se       0.000000     2.400000     0.000000
C        0.002015     4.205266    -0.004754
N       -1.075709     5.037579     0.316425
C       -2.388016     4.637263     0.704239
C       -0.613713     6.351771     0.183938
C       -1.320960     7.520561     0.399005
C       -0.655268     8.722719     0.191878
C        0.689740     8.713523    -0.207956
C        1.399462     7.502966    -0.402419
C        0.681863     6.343237    -0.200054
N        1.102295     5.019560    -0.335144
C        2.382040     4.572828    -0.726964
H        3.516570     2.430986     0.440356
H        4.583133     2.479894     1.835341
H        5.121491     3.079399     0.227314
H        7.341626     2.390875     0.785197
H        9.545309     1.265306     0.428802
H        9.610598    -1.069310    -0.318632
H        7.478437    -2.354106    -0.738513
H        3.466304    -2.542969    -0.527474
H        4.670281    -2.449259    -1.877591
H        5.117874    -3.205857    -0.265680
H       -2.744396     5.378168     1.438259
H       -3.062951     4.674932    -0.163904
H       -2.387710     3.658510     1.218303
H       -2.356998     7.535292     0.699255
H       -1.152736     9.670738     0.338406
H        1.170562     9.660568    -0.355193
H        2.398538     7.514823    -0.718519
H        3.125304     5.017603    -0.052549
H        2.508474     4.797098    -1.782995
H        2.374192     3.508447    -0.648858
46
ex_0315 frame34 T-shaped Se-Se-ax/Cl-eq-conf5
C        4.647241     2.352794     0.932767
N        5.082677     1.054467     0.490718
C        6.411431     0.644002     0.318125
C        7.576469     1.379367     0.515247
C        8.788170     0.750549     0.154795
C        8.799325    -0.593395    -0.303728
C        7.598757    -1.329113    -0.409715
C        6.423253    -0.644135    -0.114042
N        5.112403    -1.123909    -0.216983
C        4.695773    -2.444398    -0.600077
C        4.309305    -0.033221     0.094059
Se       2.400000     0.000000     0.000000
Cu       0.000000     0.000000     0.000000
Cl      -0.000812     2.250489    -0.080173
Se      -2.400000     0.000000     0.000000
C       -4.327766    -0.011548    -0.015332
N       -5.181760    -0.920755     0.699925
C       -4.763268    -1.999594     1.566309
C       -6.509387    -0.551113     0.390924
C       -7.683902    -1.137752     0.842908
C       -8.890113    -0.556810     0.395694
C       -8.880902     0.559472    -0.484836
C       -7.665684     1.116178    -0.935329
C       -6.501245     0.526622    -0.462442
N       -5.169926     0.896016    -0.746166
C       -4.737187     1.976501    -1.604471
H        3.541228     2.411836     0.966030
H        5.064457     2.764998     1.871910
H        4.994644     2.976897     0.077826
H        7.558014     2.401547     0.869695
H        9.719826     1.296318     0.235278
H        9.739563    -1.060454    -0.568675
H        7.597743    -2.354581    -0.755100
H        3.597808    -2.574590    -0.523758
H        4.969323    -2.445490    -1.679783
H        5.200805    -3.293844    -0.099863
H       -5.211757    -1.852230     2.570658
H       -5.090145    -2.976026     1.153285
H       -3.658708    -2.011363     1.674758
H       -7.677204    -1.984582     1.516258
H       -9.833698    -0.965056     0.730854
H       -9.816656     0.991436    -0.812579
H       -7.643901     1.968020    -1.602369
H       -5.132011     2.936435    -1.211829
H       -5.110138     1.817019    -2.637367
H       -3.629536     2.037911    -1.635941
46
ex_0315 frame35 T-shaped Se-Se-ax/Cl-eq-conf6
C        4.681217    -1.010846    -2.328003
N        5.065124    -0.452107    -1.051455
C        6.387026    -0.246256    -0.588274
C        7.576555    -0.532473    -1.250303
C        8.772465    -0.229548    -0.563943
C        8.742388     0.338242     0.737248
C        7.517146     0.614997     1.378419
C        6.357233     0.304297     0.671244
N        5.012946     0.480348     1.077735
C        4.540829     1.030135     2.330894
C        4.186170     0.004752    -0.002078
Se       2.400000     0.000000     0.000000
Cu       0.000000     0.000000     0.000000
Cl       0.003450     2.233986     0.269098
Se      -2.400000     0.000000     0.000000
C       -4.268200    -0.002988     0.000467
N       -5.111346    -0.184989    -1.153053
C       -4.660056    -0.403695    -2.509986
C       -6.450313    -0.107801    -0.694309
C       -7.624017    -0.219936    -1.437636
C       -8.837234    -0.105379    -0.725706
C       -8.842296     0.114831     0.677200
C       -7.633688     0.224769     1.396726
C       -6.457685     0.104915     0.664029
N       -5.129520     0.173738     1.143108
C       -4.721582     0.381281     2.514088
H        5.083386    -0.376347    -3.145339
H        3.577727    -1.059762    -2.424921
H        5.093715    -2.036878    -2.424818
H        7.590641    -0.965261    -2.241522
H        9.725439    -0.432501    -1.034457
H        9.671333     0.562224     1.245535
H        7.500350     1.046929     2.368782
H        3.919853     1.927562     2.127280
H        3.923123     0.274647     2.859918
H        5.377232     1.325615     2.992440
H       -5.508736    -0.515699    -3.211672
H       -4.047806    -1.328900    -2.548218
H       -4.040298     0.455865    -2.839980
H       -7.626703    -0.387475    -2.504947
H       -9.776656    -0.186584    -1.256889
H       -9.785274     0.199371     1.201273
H       -7.627553     0.392424     2.465568
H       -5.123569    -0.438405     3.145739
H       -3.616179     0.387793     2.602610
H       -5.114485     1.352620     2.880133
46
ex_0315 frame36 T-shaped Se-Se-ax/Cl-eq-conf4
C        4.683801    -2.539661    -0.197306
N        5.120159    -1.169367    -0.062646
C        6.449638    -0.709897    -0.045336
C        7.612610    -1.460592    -0.167031
C        8.829935    -0.747769    -0.142788
C        8.843065     0.664048     0.016430
C        7.638899     1.387877     0.156622
C        6.460257     0.649855     0.102557
N        5.139913     1.123737     0.175971
C        4.703624     2.487769     0.330579
C        4.313139    -0.012228     0.040098
Se       2.400000     0.000000     0.000000
Cu       0.000000     0.000000     0.000000
Cl      -0.000296     2.165388     0.609990
Se      -2.400000     0.000000     0.000000
C       -4.302019    -0.081256     0.049650
N       -5.070838     0.454458     1.076332
C       -4.603416     1.066178     2.291381
C       -6.395572     0.284645     0.648160
C       -7.561748     0.714782     1.281218
C       -8.774128     0.479775     0.598109
C       -8.786080    -0.206311    -0.644218
C       -7.584965    -0.669209    -1.222958
C       -6.408785    -0.368452    -0.542908
N       -5.098014    -0.645804    -0.941791
C       -4.682441    -1.357670    -2.118397
H        5.112604    -3.228623     0.555624
H        5.014705    -2.850761    -1.213596
H        3.577441    -2.610814    -0.161890
H        7.589586    -2.537076    -0.275285
H        9.764153    -1.285992    -0.233520
H        9.788545     1.189611     0.046259
H        7.642222     2.460734     0.296633
H        4.684913     2.860066    -0.718130
H        5.384633     3.121250     0.933972
H        3.683641     2.576262     0.756989
H       -3.833761     1.779460     1.921679
H       -5.417558     1.674303     2.734108
H       -4.158943     0.420871     3.072301
H       -7.558169     1.224980     2.233800
H       -9.707055     0.814039     1.034088
H       -9.728176    -0.389143    -1.145294
H       -7.585372    -1.204361    -2.163417
H       -3.584826    -1.509101    -2.149201
H       -4.947155    -0.613669    -2.904606
H       -5.191272    -2.314869    -2.344105
46
ex_0315 frame37 T-shaped Se-Se-ax/Cl-eq-conf2
C        4.674437    -0.261564    -2.497899
N        5.099554    -0.038445    -1.141161
C        6.423507    -0.015155    -0.660631
C        7.608414    -0.250973    -1.364078
C        8.802290    -0.268450    -0.609322
C        8.786449     0.023472     0.778376
C        7.576118     0.337341     1.433393
C        6.413218     0.264246     0.666976
N        5.097312     0.441705     1.110432
C        4.669459     0.806170     2.429674
C        4.325815     0.145837    -0.001880
Se       2.400000     0.000000     0.000000
Cu       0.000000     0.000000     0.000000
Cl       0.002481     2.238381    -0.180848
Se      -2.400000     0.000000     0.000000
C       -4.333147    -0.179508    -0.055098
N       -5.065295     0.162742    -1.162169
C       -4.655348     0.500067    -2.493989
C       -6.372168     0.110845    -0.666374
C       -7.539992     0.468960    -1.339182
C       -8.746088     0.342250    -0.620499
C       -8.745567    -0.134487     0.715955
C       -7.538626    -0.490839     1.351362
C       -6.370138    -0.347653     0.604337
N       -5.063512    -0.613393     1.018489
C       -4.651993    -1.193455     2.261176
H        3.959502    -1.101827    -2.361504
H        5.517567    -0.648773    -3.104533
H        4.180472     0.561553    -3.047619
H        7.632787    -0.467458    -2.422386
H        9.742776    -0.500806    -1.094992
H        9.714361     0.011579     1.337873
H        7.558800     0.566562     2.490733
H        4.921218    -0.128333     2.981059
H        3.574014     0.958730     2.487273
H        5.189164     1.657100     2.912979
H       -5.202977     0.044598    -3.342758
H       -3.565159     0.377245    -2.644640
H       -4.882340     1.590308    -2.464526
H       -7.537321     0.800360    -2.370214
H       -9.671042     0.615088    -1.106731
H       -9.670379    -0.231036     1.265319
H       -7.535943    -0.896672     2.355594
H       -5.195296    -2.082926     2.636317
H       -3.560679    -1.379542     2.298777
H       -4.880529    -0.327414     2.923658
46
ex_0315 frame38 T-shaped Se-Se-ax/Cl-eq
C        4.618342    -2.332200    -1.004887
N        5.055564    -1.033136    -0.562511
C        6.379119    -0.629145    -0.305972
C        7.552389    -1.380503    -0.413032
C        8.758435    -0.725022    -0.096332
C        8.760594     0.632283     0.311257
C        7.556605     1.356493     0.408855
C        6.383866     0.669989     0.085609
N        5.075648     1.172046     0.086828
C        4.631090     2.497891     0.407720
C        4.328272     0.058319    -0.169667
Se       2.400000     0.000000     0.000000
Cu       0.000000     0.000000     0.000000
Cl       0.003356     2.103628     0.793987
Se      -2.400000     0.000000     0.000000
C       -4.324384    -0.157578     0.094826
N       -5.045850    -0.798285    -0.871213
C       -4.632395    -1.621925    -1.970133
C       -6.350545    -0.441389    -0.523893
C       -7.513673    -0.730742    -1.237438
C       -8.722344    -0.254872    -0.693019
C       -8.731277     0.474316     0.522538
C       -7.531052     0.738913     1.212612
C       -6.355148     0.251485     0.638932
N       -5.048135     0.407611     1.102682
C       -4.607559     1.008511     2.323048
H        4.132945    -2.421246    -1.994800
H        3.891197    -2.599675    -0.207728
H        5.449609    -3.062136    -0.939981
H        7.565359    -2.407477    -0.749878
H        9.683636    -1.277262    -0.170047
H        9.686865     1.132073     0.553399
H        7.575633     2.405952     0.669995
H        4.150594     3.106156    -0.381316
H        5.465561     3.073802     0.854748
H        3.901144     2.301715     1.223123
H       -3.543631    -1.828283    -1.960549
H       -4.843074    -0.906592    -2.797709
H       -5.187000    -2.562144    -2.159913
H       -7.502359    -1.308932    -2.152065
H       -9.643148    -0.456498    -1.220150
H       -9.659609     0.838004     0.937665
H       -7.554359     1.246145     2.167322
H       -5.438540     1.599558     2.757858
H       -3.877392     1.739433     1.911069
H       -4.125279     0.414963     3.122115
46
ex_0315 frame39 T-shaped Se-Se-ax/Cl-eq-conf3
C        4.610748    -2.283897    -1.112748
N        5.024416    -0.994258    -0.628856
C        6.347814    -0.590329    -0.339098
C        7.527773    -1.330198    -0.452644
C        8.726000    -0.678946    -0.093760
C        8.713782     0.663442     0.358666
C        7.503289     1.376633     0.459658
C        6.339218     0.695438     0.094605
N        5.031006     1.188912     0.110003
C        4.570079     2.487043     0.495524
C        4.348159     0.077601    -0.190492
Se       2.400000     0.000000     0.000000
Cu       0.000000     0.000000     0.000000
Cl       0.004703     2.239578     0.228052
Se      -2.400000     0.000000     0.000000
C       -4.325402     0.186392    -0.043473
N       -5.043107    -0.037220    -1.183101
C       -4.632325    -0.220282    -2.544835
C       -6.346876    -0.051662    -0.682273
C       -7.509999    -0.353811    -1.391075
C       -8.718207    -0.314021    -0.667808
C       -8.726304     0.024059     0.709233
C       -7.526594     0.327283     1.383236
C       -6.351615     0.274602     0.630008
N       -5.043912     0.504180     1.068826
C       -4.608430     0.955334     2.357307
H        4.154831    -2.343575    -2.119657
H        3.861335    -2.578756    -0.347352
H        5.442314    -3.012793    -1.046177
H        7.548141    -2.353751    -0.796333
H        9.663125    -1.208635    -0.164358
H        9.643268     1.145728     0.629316
H        7.507781     2.399087     0.805854
H        3.840916     2.311910     1.194179
H        5.406745     3.094102     0.861044
H        4.109628     3.139226    -0.394677
H       -5.189885     0.316242    -3.337979
H       -4.841476    -1.310956    -2.633621
H       -3.544515    -0.064211    -2.684333
H       -7.500222    -0.583001    -2.448622
H       -9.638811    -0.546111    -1.182611
H       -9.653791     0.053939     1.261750
H       -7.549609     0.635039     2.419912
H       -5.438167     0.837587     3.082094
H       -4.145874     1.951205     2.490275
H       -3.863492     0.164123     2.591565
