65
ex_0516 frame0 T-4-1
Zn       0.000000     0.000000     0.000000
N        1.114286     1.114286     1.114286
C        0.592056     2.086179     1.893786
C        1.350295     2.910659     2.709731
C        2.729238     2.729241     2.729236
C        3.296828     1.736468     1.937389
C        2.455957     0.961835     1.154228
H       -0.488106     2.188484     1.843832
H        0.877284     3.675405     3.315094
H        3.356314     3.356318     3.356310
H        4.367906     1.569789     1.930092
H        2.850913     0.174321     0.518976
N        1.114286    -1.114286    -1.114286
C        0.956264    -1.160650    -2.455106
C        1.730647    -1.944099    -3.295939
C        2.729236    -2.729241    -2.729238
C        2.916474    -2.703028    -1.351184
C        2.091749    -1.887363    -0.592908
H        0.164343    -0.530479    -2.849387
H        1.559351    -1.942122    -4.366311
H        3.356310    -3.356318    -3.356314
H        3.685835    -3.303072    -0.878879
H        2.198465    -1.832325     0.486581
C       -5.156857     5.145779    -5.192544
C       -4.286964     4.270937    -4.338608
C       -3.611256     3.209886    -4.904885
C       -2.830471     2.449388    -4.058727
C       -2.089082     1.290271    -4.663708
C       -2.710796     2.710796    -2.710796
Te      -1.501111     1.501111    -1.501111
C       -3.395517     3.778953    -2.159665
C       -3.272042     4.071555    -0.695168
C       -4.180742     4.550129    -2.990169
H       -5.881979     5.705443    -4.565571
H       -5.659463     4.553945    -5.985032
H       -4.539192     5.913644    -5.694222
H       -3.698436     2.995375    -5.964397
H       -2.351852     0.344681    -4.164150
H       -1.006360     1.430116    -4.645075
H       -2.512808     1.192759    -5.702424
H       -2.234627     4.345886    -0.440393
H       -3.999631     4.878934    -0.457876
H       -3.592918     3.203598    -0.068243
H       -4.701939     5.380558    -2.514686
C       -5.190674    -5.162507     5.142000
C       -4.335903    -4.295140     4.265467
C       -4.837132    -3.816033     3.072862
C       -3.994398    -3.024899     2.319288
C       -4.528865    -2.496636     1.017561
C       -2.710796    -2.710796     2.710796
Te      -1.501111    -1.501111     1.501111
C       -2.224391    -3.199887     3.909857
C       -0.830130    -2.864132     4.344503
C       -3.052523    -3.992279     4.676237
H       -4.561924    -5.738076     5.852994
H       -5.843324    -5.821722     4.533394
H       -5.848765    -4.531027     5.767265
H       -5.845718    -4.057130     2.755359
H       -3.889926    -2.797996     0.172760
H       -4.647188    -1.411206     1.023156
H       -5.494366    -3.054135     0.859491
H       -0.727282    -1.779252     4.514370
H       -0.616121    -3.463187     5.257130
H       -0.068820    -3.198429     3.597508
H       -2.629241    -4.355706     5.612236
65
ex_0516 frame1 T-4-1-conf2
Zn       0.000000     0.000000     0.000000
N        1.114286     1.114286     1.114286
C        0.592056     2.086179     1.893786
C        1.350295     2.910659     2.709731
C        2.729238     2.729241     2.729236
C        3.296828     1.736468     1.937389
C        2.455957     0.961835     1.154228
H       -0.488106     2.188484     1.843832
H        0.877284     3.675405     3.315094
H        3.356314     3.356318     3.356310
H        4.367906     1.569789     1.930092
H        2.850913     0.174321     0.518976
N        1.114286    -1.114286    -1.114286
C        1.572206    -2.311640    -0.688174
C        2.373898    -3.146113    -1.450674
C        2.729241    -2.729237    -2.729237
C        2.273228    -1.501009    -3.196449
C        1.475808    -0.736373    -2.359840
H        1.267751    -2.592379     0.315920
H        2.712863    -4.097634    -1.057288
H        3.356320    -3.356311    -3.356311
H        2.532334    -1.147554    -4.187899
H        1.095058     0.229574    -2.678725
C       -5.156857     5.145779    -5.192544
C       -4.286964     4.270937    -4.338608
C       -3.611256     3.209886    -4.904885
C       -2.830471     2.449388    -4.058727
C       -2.089082     1.290271    -4.663708
C       -2.710796     2.710796    -2.710796
Te      -1.501111     1.501111    -1.501111
C       -3.395517     3.778953    -2.159665
C       -3.272042     4.071555    -0.695168
C       -4.180742     4.550129    -2.990169
H       -5.881979     5.705443    -4.565571
H       -5.659463     4.553945    -5.985032
H       -4.539192     5.913644    -5.694222
H       -3.698436     2.995375    -5.964397
H       -2.351852     0.344681    -4.164150
H       -1.006360     1.430116    -4.645075
H       -2.512808     1.192759    -5.702424
H       -2.234627     4.345886    -0.440393
H       -3.999631     4.878934    -0.457876
H       -3.592918     3.203598    -0.068243
H       -4.701939     5.380558    -2.514686
C       -5.190674    -5.162507     5.142000
C       -4.335903    -4.295140     4.265467
C       -4.837132    -3.816033     3.072862
C       -3.994398    -3.024899     2.319288
C       -4.528865    -2.496636     1.017561
C       -2.710796    -2.710796     2.710796
Te      -1.501111    -1.501111     1.501111
C       -2.224391    -3.199887     3.909857
C       -0.830130    -2.864132     4.344503
C       -3.052523    -3.992279     4.676237
H       -4.561924    -5.738076     5.852994
H       -5.843324    -5.821722     4.533394
H       -5.848765    -4.531027     5.767265
H       -5.845718    -4.057130     2.755359
H       -3.889926    -2.797996     0.172760
H       -4.647188    -1.411206     1.023156
H       -5.494366    -3.054135     0.859491
H       -0.727282    -1.779252     4.514370
H       -0.616121    -3.463187     5.257130
H       -0.068820    -3.198429     3.597508
H       -2.629241    -4.355706     5.612236
65
ex_0516 frame2 T-4-1-conf3
Zn       0.000000     0.000000     0.000000
N        1.114286     1.114286     1.114286
C        2.399800     0.793890     1.378330
C        3.238181     1.561077     2.171427
C        2.729237     2.729237     2.729241
C        1.408941     3.086046     2.475698
C        0.648214     2.254124     1.669683
H        2.750311    -0.126539     0.920439
H        4.262736     1.255267     2.349782
H        3.356312     3.356310     3.356319
H        0.982453     3.989919     2.895414
H       -0.387505     2.489344     1.442369
N        1.114286    -1.114286    -1.114286
C        0.956264    -1.160650    -2.455106
C        1.730647    -1.944099    -3.295939
C        2.729236    -2.729241    -2.729238
C        2.916474    -2.703028    -1.351184
C        2.091749    -1.887363    -0.592908
H        0.164343    -0.530479    -2.849387
H        1.559351    -1.942122    -4.366311
H        3.356310    -3.356318    -3.356314
H        3.685835    -3.303072    -0.878879
H        2.198465    -1.832325     0.486581
C       -5.156857     5.145779    -5.192544
C       -4.286964     4.270937    -4.338608
C       -3.611256     3.209886    -4.904885
C       -2.830471     2.449388    -4.058727
C       -2.089082     1.290271    -4.663708
C       -2.710796     2.710796    -2.710796
Te      -1.501111     1.501111    -1.501111
C       -3.395517     3.778953    -2.159665
C       -3.272042     4.071555    -0.695168
C       -4.180742     4.550129    -2.990169
H       -5.881979     5.705443    -4.565571
H       -5.659463     4.553945    -5.985032
H       -4.539192     5.913644    -5.694222
H       -3.698436     2.995375    -5.964397
H       -2.351852     0.344681    -4.164150
H       -1.006360     1.430116    -4.645075
H       -2.512808     1.192759    -5.702424
H       -2.234627     4.345886    -0.440393
H       -3.999631     4.878934    -0.457876
H       -3.592918     3.203598    -0.068243
H       -4.701939     5.380558    -2.514686
C       -5.190674    -5.162507     5.142000
C       -4.335903    -4.295140     4.265467
C       -4.837132    -3.816033     3.072862
C       -3.994398    -3.024899     2.319288
C       -4.528865    -2.496636     1.017561
C       -2.710796    -2.710796     2.710796
Te      -1.501111    -1.501111     1.501111
C       -2.224391    -3.199887     3.909857
C       -0.830130    -2.864132     4.344503
C       -3.052523    -3.992279     4.676237
H       -4.561924    -5.738076     5.852994
H       -5.843324    -5.821722     4.533394
H       -5.848765    -4.531027     5.767265
H       -5.845718    -4.057130     2.755359
H       -3.889926    -2.797996     0.172760
H       -4.647188    -1.411206     1.023156
H       -5.494366    -3.054135     0.859491
H       -0.727282    -1.779252     4.514370
H       -0.616121    -3.463187     5.257130
H       -0.068820    -3.198429     3.597508
H       -2.629241    -4.355706     5.612236
65
ex_0516 frame3 T-4-1-conf4
Zn       0.000000     0.000000     0.000000
N        1.114286     1.114286     1.114286
C        0.592056     2.086179     1.893786
C        1.350295     2.910659     2.709731
C        2.729238     2.729241     2.729236
C        3.296828     1.736468     1.937389
C        2.455957     0.961835     1.154228
H       -0.488106     2.188484     1.843832
H        0.877284     3.675405     3.315094
H        3.356314     3.356318     3.356310
H        4.367906     1.569789     1.930092
H        2.850913     0.174321     0.518976
N        1.114286    -1.114286    -1.114286
C        0.956264    -1.160650    -2.455106
C        1.730647    -1.944099    -3.295939
C        2.729236    -2.729241    -2.729238
C        2.916474    -2.703028    -1.351184
C        2.091749    -1.887363    -0.592908
H        0.164343    -0.530479    -2.849387
H        1.559351    -1.942122    -4.366311
H        3.356310    -3.356318    -3.356314
H        3.685835    -3.303072    -0.878879
H        2.198465    -1.832325     0.486581
C       -5.156857     5.145779    -5.192544
C       -4.286964     4.270937    -4.338608
C       -3.611256     3.209886    -4.904885
C       -2.830471     2.449388    -4.058727
C       -2.089082     1.290271    -4.663708
C       -2.710796     2.710796    -2.710796
Te      -1.501111     1.501111    -1.501111
C       -3.395517     3.778953    -2.159665
C       -3.272042     4.071555    -0.695168
C       -4.180742     4.550129    -2.990169
H       -5.881979     5.705443    -4.565571
H       -5.659463     4.553945    -5.985032
H       -4.539192     5.913644    -5.694222
H       -3.698436     2.995375    -5.964397
H       -2.351852     0.344681    -4.164150
H       -1.006360     1.430116    -4.645075
H       -2.512808     1.192759    -5.702424
H       -2.234627     4.345886    -0.440393
H       -3.999631     4.878934    -0.457876
H       -3.592918     3.203598    -0.068243
H       -4.701939     5.380558    -2.514686
C       -5.302253    -5.166548     5.111841
C       -4.389344    -4.315246     4.285358
C       -3.058836    -4.157350     4.599815
C       -2.212601    -3.371573     3.838413
C       -0.791617    -3.186966     4.151875
C       -2.716544    -2.716544     2.716544
Te      -1.501111    -1.501111     1.501111
C       -4.046916    -2.862574     2.385492
C       -4.586624    -2.164615     1.188974
C       -4.873050    -3.651167     3.158946
H       -5.692592    -4.516494     5.947330
H       -4.756820    -5.975489     5.617338
H       -6.145813    -5.525329     4.478313
H       -2.628824    -4.657541     5.474690
H       -0.092533    -3.744997     3.520311
H       -0.562102    -2.092535     4.041141
H       -0.657440    -3.406573     5.244998
H       -4.103128    -2.519172     0.248577
H       -4.496627    -1.064296     1.296393
H       -5.695426    -2.379424     1.182751
H       -5.903580    -3.764734     2.903154
65
ex_0516 frame4 T-4-1-conf5
Zn       0.000000     0.000000     0.000000
N        1.114286     1.114286     1.114286
C        0.592056     2.086179     1.893786
C        1.350295     2.910659     2.709731
C        2.729238     2.729241     2.729236
C        3.296828     1.736468     1.937389
C        2.455957     0.961835     1.154228
H       -0.488106     2.188484     1.843832
H        0.877284     3.675405     3.315094
H        3.356314     3.356318     3.356310
H        4.367906     1.569789     1.930092
H        2.850913     0.174321     0.518976
N        1.114286    -1.114286    -1.114286
C        0.956264    -1.160650    -2.455106
C        1.730647    -1.944099    -3.295939
C        2.729236    -2.729241    -2.729238
C        2.916474    -2.703028    -1.351184
C        2.091749    -1.887363    -0.592908
H        0.164343    -0.530479    -2.849387
H        1.559351    -1.942122    -4.366311
H        3.356310    -3.356318    -3.356314
H        3.685835    -3.303072    -0.878879
H        2.198465    -1.832325     0.486581
C       -5.168663     5.110353    -5.301627
C       -4.316401     4.284545    -4.389002
C       -4.140240     4.611862    -3.063900
C       -3.353521     3.851123    -2.217944
C       -3.149655     4.178144    -0.802659
C       -2.716544     2.716544    -2.716544
Te      -1.501111     1.501111    -1.501111
C       -2.881021     2.372504    -4.041456
C       -2.202341     1.162413    -4.575459
C       -3.670200     3.145546    -4.867418
H       -4.513832     5.934198    -5.708385
H       -5.965860     5.630807    -4.752980
H       -5.543775     4.471606    -6.134074
H       -4.625942     5.496938    -2.638175
H       -3.706789     3.560574    -0.090479
H       -2.054022     4.057762    -0.583994
H       -3.355699     5.275057    -0.678255
H       -2.561829     0.231407    -4.077643
H       -1.099971     1.258554    -4.498791
H       -2.429543     1.146368    -5.681689
H       -3.798049     2.879698    -5.893721
C       -5.190674    -5.162507     5.142000
C       -4.335903    -4.295140     4.265467
C       -4.837132    -3.816033     3.072862
C       -3.994398    -3.024899     2.319288
C       -4.528865    -2.496636     1.017561
C       -2.710796    -2.710796     2.710796
Te      -1.501111    -1.501111     1.501111
C       -2.224391    -3.199887     3.909857
C       -0.830130    -2.864132     4.344503
C       -3.052523    -3.992279     4.676237
H       -4.561924    -5.738076     5.852994
H       -5.843324    -5.821722     4.533394
H       -5.848765    -4.531027     5.767265
H       -5.845718    -4.057130     2.755359
H       -3.889926    -2.797996     0.172760
H       -4.647188    -1.411206     1.023156
H       -5.494366    -3.054135     0.859491
H       -0.727282    -1.779252     4.514370
H       -0.616121    -3.463187     5.257130
H       -0.068820    -3.198429     3.597508
H       -2.629241    -4.355706     5.612236
65
ex_0516 frame5 T-4-1-conf6
Zn       0.000000     0.000000     0.000000
N        1.114286     1.114286     1.114286
C        2.399800     0.793890     1.378330
C        3.238181     1.561077     2.171427
C        2.729237     2.729237     2.729241
C        1.408941     3.086046     2.475698
C        0.648214     2.254124     1.669683
H        2.750311    -0.126539     0.920439
H        4.262736     1.255267     2.349782
H        3.356312     3.356310     3.356319
H        0.982453     3.989919     2.895414
H       -0.387505     2.489344     1.442369
N        1.114286    -1.114286    -1.114286
C        1.572206    -2.311640    -0.688174
C        2.373898    -3.146113    -1.450674
C        2.729241    -2.729237    -2.729237
C        2.273228    -1.501009    -3.196449
C        1.475808    -0.736373    -2.359840
H        1.267751    -2.592379     0.315920
H        2.712863    -4.097634    -1.057288
H        3.356320    -3.356311    -3.356311
H        2.532334    -1.147554    -4.187899
H        1.095058     0.229574    -2.678725
C       -5.156857     5.145779    -5.192544
C       -4.286964     4.270937    -4.338608
C       -3.611256     3.209886    -4.904885
C       -2.830471     2.449388    -4.058727
C       -2.089082     1.290271    -4.663708
C       -2.710796     2.710796    -2.710796
Te      -1.501111     1.501111    -1.501111
C       -3.395517     3.778953    -2.159665
C       -3.272042     4.071555    -0.695168
C       -4.180742     4.550129    -2.990169
H       -5.881979     5.705443    -4.565571
H       -5.659463     4.553945    -5.985032
H       -4.539192     5.913644    -5.694222
H       -3.698436     2.995375    -5.964397
H       -2.351852     0.344681    -4.164150
H       -1.006360     1.430116    -4.645075
H       -2.512808     1.192759    -5.702424
H       -2.234627     4.345886    -0.440393
H       -3.999631     4.878934    -0.457876
H       -3.592918     3.203598    -0.068243
H       -4.701939     5.380558    -2.514686
C       -5.190674    -5.162507     5.142000
C       -4.335903    -4.295140     4.265467
C       -4.837132    -3.816033     3.072862
C       -3.994398    -3.024899     2.319288
C       -4.528865    -2.496636     1.017561
C       -2.710796    -2.710796     2.710796
Te      -1.501111    -1.501111     1.501111
C       -2.224391    -3.199887     3.909857
C       -0.830130    -2.864132     4.344503
C       -3.052523    -3.992279     4.676237
H       -4.561924    -5.738076     5.852994
H       -5.843324    -5.821722     4.533394
H       -5.848765    -4.531027     5.767265
H       -5.845718    -4.057130     2.755359
H       -3.889926    -2.797996     0.172760
H       -4.647188    -1.411206     1.023156
H       -5.494366    -3.054135     0.859491
H       -0.727282    -1.779252     4.514370
H       -0.616121    -3.463187     5.257130
H       -0.068820    -3.198429     3.597508
H       -2.629241    -4.355706     5.612236
65
ex_0516 frame6 T-4-1-conf7
Zn       0.000000     0.000000     0.000000
N        1.114286     1.114286     1.114286
C        0.592056     2.086179     1.893786
C        1.350295     2.910659     2.709731
C        2.729238     2.729241     2.729236
C        3.296828     1.736468     1.937389
C        2.455957     0.961835     1.154228
H       -0.488106     2.188484     1.843832
H        0.877284     3.675405     3.315094
H        3.356314     3.356318     3.356310
H        4.367906     1.569789     1.930092
H        2.850913     0.174321     0.518976
N        1.114286    -1.114286    -1.114286
C        1.572206    -2.311640    -0.688174
C        2.373898    -3.146113    -1.450674
C        2.729241    -2.729237    -2.729237
C        2.273228    -1.501009    -3.196449
C        1.475808    -0.736373    -2.359840
H        1.267751    -2.592379     0.315920
H        2.712863    -4.097634    -1.057288
H        3.356320    -3.356311    -3.356311
H        2.532334    -1.147554    -4.187899
H        1.095058     0.229574    -2.678725
C       -5.156857     5.145779    -5.192544
C       -4.286964     4.270937    -4.338608
C       -3.611256     3.209886    -4.904885
C       -2.830471     2.449388    -4.058727
C       -2.089082     1.290271    -4.663708
C       -2.710796     2.710796    -2.710796
Te      -1.501111     1.501111    -1.501111
C       -3.395517     3.778953    -2.159665
C       -3.272042     4.071555    -0.695168
C       -4.180742     4.550129    -2.990169
H       -5.881979     5.705443    -4.565571
H       -5.659463     4.553945    -5.985032
H       -4.539192     5.913644    -5.694222
H       -3.698436     2.995375    -5.964397
H       -2.351852     0.344681    -4.164150
H       -1.006360     1.430116    -4.645075
H       -2.512808     1.192759    -5.702424
H       -2.234627     4.345886    -0.440393
H       -3.999631     4.878934    -0.457876
H       -3.592918     3.203598    -0.068243
H       -4.701939     5.380558    -2.514686
C       -5.302253    -5.166548     5.111841
C       -4.389344    -4.315246     4.285358
C       -3.058836    -4.157350     4.599815
C       -2.212601    -3.371573     3.838413
C       -0.791617    -3.186966     4.151875
C       -2.716544    -2.716544     2.716544
Te      -1.501111    -1.501111     1.501111
C       -4.046916    -2.862574     2.385492
C       -4.586624    -2.164615     1.188974
C       -4.873050    -3.651167     3.158946
H       -5.692592    -4.516494     5.947330
H       -4.756820    -5.975489     5.617338
H       -6.145813    -5.525329     4.478313
H       -2.628824    -4.657541     5.474690
H       -0.092533    -3.744997     3.520311
H       -0.562102    -2.092535     4.041141
H       -0.657440    -3.406573     5.244998
H       -4.103128    -2.519172     0.248577
H       -4.496627    -1.064296     1.296393
H       -5.695426    -2.379424     1.182751
H       -5.903580    -3.764734     2.903154
65
ex_0516 frame7 T-4-1-conf8
Zn       0.000000     0.000000     0.000000
N        1.114286     1.114286     1.114286
C        0.592056     2.086179     1.893786
C        1.350295     2.910659     2.709731
C        2.729238     2.729241     2.729236
C        3.296828     1.736468     1.937389
C        2.455957     0.961835     1.154228
H       -0.488106     2.188484     1.843832
H        0.877284     3.675405     3.315094
H        3.356314     3.356318     3.356310
H        4.367906     1.569789     1.930092
H        2.850913     0.174321     0.518976
N        1.114286    -1.114286    -1.114286
C        1.572206    -2.311640    -0.688174
C        2.373898    -3.146113    -1.450674
C        2.729241    -2.729237    -2.729237
C        2.273228    -1.501009    -3.196449
C        1.475808    -0.736373    -2.359840
H        1.267751    -2.592379     0.315920
H        2.712863    -4.097634    -1.057288
H        3.356320    -3.356311    -3.356311
H        2.532334    -1.147554    -4.187899
H        1.095058     0.229574    -2.678725
C       -5.168663     5.110353    -5.301627
C       -4.316401     4.284545    -4.389002
C       -4.140240     4.611862    -3.063900
C       -3.353521     3.851123    -2.217944
C       -3.149655     4.178144    -0.802659
C       -2.716544     2.716544    -2.716544
Te      -1.501111     1.501111    -1.501111
C       -2.881021     2.372504    -4.041456
C       -2.202341     1.162413    -4.575459
C       -3.670200     3.145546    -4.867418
H       -4.513832     5.934198    -5.708385
H       -5.965860     5.630807    -4.752980
H       -5.543775     4.471606    -6.134074
H       -4.625942     5.496938    -2.638175
H       -3.706789     3.560574    -0.090479
H       -2.054022     4.057762    -0.583994
H       -3.355699     5.275057    -0.678255
H       -2.561829     0.231407    -4.077643
H       -1.099971     1.258554    -4.498791
H       -2.429543     1.146368    -5.681689
H       -3.798049     2.879698    -5.893721
C       -5.190674    -5.162507     5.142000
C       -4.335903    -4.295140     4.265467
C       -4.837132    -3.816033     3.072862
C       -3.994398    -3.024899     2.319288
C       -4.528865    -2.496636     1.017561
C       -2.710796    -2.710796     2.710796
Te      -1.501111    -1.501111     1.501111
C       -2.224391    -3.199887     3.909857
C       -0.830130    -2.864132     4.344503
C       -3.052523    -3.992279     4.676237
H       -4.561924    -5.738076     5.852994
H       -5.843324    -5.821722     4.533394
H       -5.848765    -4.531027     5.767265
H       -5.845718    -4.057130     2.755359
H       -3.889926    -2.797996     0.172760
H       -4.647188    -1.411206     1.023156
H       -5.494366    -3.054135     0.859491
H       -0.727282    -1.779252     4.514370
H       -0.616121    -3.463187     5.257130
H       -0.068820    -3.198429     3.597508
H       -2.629241    -4.355706     5.612236
65
ex_0516 frame8 T-4-1-conf9
Zn       0.000000     0.000000     0.000000
N        1.114286     1.114286     1.114286
C        2.399800     0.793890     1.378330
C        3.238181     1.561077     2.171427
C        2.729237     2.729237     2.729241
C        1.408941     3.086046     2.475698
C        0.648214     2.254124     1.669683
H        2.750311    -0.126539     0.920439
H        4.262736     1.255267     2.349782
H        3.356312     3.356310     3.356319
H        0.982453     3.989919     2.895414
H       -0.387505     2.489344     1.442369
N        1.114286    -1.114286    -1.114286
C        0.956264    -1.160650    -2.455106
C        1.730647    -1.944099    -3.295939
C        2.729236    -2.729241    -2.729238
C        2.916474    -2.703028    -1.351184
C        2.091749    -1.887363    -0.592908
H        0.164343    -0.530479    -2.849387
H        1.559351    -1.942122    -4.366311
H        3.356310    -3.356318    -3.356314
H        3.685835    -3.303072    -0.878879
H        2.198465    -1.832325     0.486581
C       -5.156857     5.145779    -5.192544
C       -4.286964     4.270937    -4.338608
C       -3.611256     3.209886    -4.904885
C       -2.830471     2.449388    -4.058727
C       -2.089082     1.290271    -4.663708
C       -2.710796     2.710796    -2.710796
Te      -1.501111     1.501111    -1.501111
C       -3.395517     3.778953    -2.159665
C       -3.272042     4.071555    -0.695168
C       -4.180742     4.550129    -2.990169
H       -5.881979     5.705443    -4.565571
H       -5.659463     4.553945    -5.985032
H       -4.539192     5.913644    -5.694222
H       -3.698436     2.995375    -5.964397
H       -2.351852     0.344681    -4.164150
H       -1.006360     1.430116    -4.645075
H       -2.512808     1.192759    -5.702424
H       -2.234627     4.345886    -0.440393
H       -3.999631     4.878934    -0.457876
H       -3.592918     3.203598    -0.068243
H       -4.701939     5.380558    -2.514686
C       -5.302253    -5.166548     5.111841
C       -4.389344    -4.315246     4.285358
C       -3.058836    -4.157350     4.599815
C       -2.212601    -3.371573     3.838413
C       -0.791617    -3.186966     4.151875
C       -2.716544    -2.716544     2.716544
Te      -1.501111    -1.501111     1.501111
C       -4.046916    -2.862574     2.385492
C       -4.586624    -2.164615     1.188974
C       -4.873050    -3.651167     3.158946
H       -5.692592    -4.516494     5.947330
H       -4.756820    -5.975489     5.617338
H       -6.145813    -5.525329     4.478313
H       -2.628824    -4.657541     5.474690
H       -0.092533    -3.744997     3.520311
H       -0.562102    -2.092535     4.041141
H       -0.657440    -3.406573     5.244998
H       -4.103128    -2.519172     0.248577
H       -4.496627    -1.064296     1.296393
H       -5.695426    -2.379424     1.182751
H       -5.903580    -3.764734     2.903154
65
ex_0516 frame9 T-4-1-conf10
Zn       0.000000     0.000000     0.000000
N        1.114286     1.114286     1.114286
C        2.399800     0.793890     1.378330
C        3.238181     1.561077     2.171427
C        2.729237     2.729237     2.729241
C        1.408941     3.086046     2.475698
C        0.648214     2.254124     1.669683
H        2.750311    -0.126539     0.920439
H        4.262736     1.255267     2.349782
H        3.356312     3.356310     3.356319
H        0.982453     3.989919     2.895414
H       -0.387505     2.489344     1.442369
N        1.114286    -1.114286    -1.114286
C        0.956264    -1.160650    -2.455106
C        1.730647    -1.944099    -3.295939
C        2.729236    -2.729241    -2.729238
C        2.916474    -2.703028    -1.351184
C        2.091749    -1.887363    -0.592908
H        0.164343    -0.530479    -2.849387
H        1.559351    -1.942122    -4.366311
H        3.356310    -3.356318    -3.356314
H        3.685835    -3.303072    -0.878879
H        2.198465    -1.832325     0.486581
C       -5.168663     5.110353    -5.301627
C       -4.316401     4.284545    -4.389002
C       -4.140240     4.611862    -3.063900
C       -3.353521     3.851123    -2.217944
C       -3.149655     4.178144    -0.802659
C       -2.716544     2.716544    -2.716544
Te      -1.501111     1.501111    -1.501111
C       -2.881021     2.372504    -4.041456
C       -2.202341     1.162413    -4.575459
C       -3.670200     3.145546    -4.867418
H       -4.513832     5.934198    -5.708385
H       -5.965860     5.630807    -4.752980
H       -5.543775     4.471606    -6.134074
H       -4.625942     5.496938    -2.638175
H       -3.706789     3.560574    -0.090479
H       -2.054022     4.057762    -0.583994
H       -3.355699     5.275057    -0.678255
H       -2.561829     0.231407    -4.077643
H       -1.099971     1.258554    -4.498791
H       -2.429543     1.146368    -5.681689
H       -3.798049     2.879698    -5.893721
C       -5.190674    -5.162507     5.142000
C       -4.335903    -4.295140     4.265467
C       -4.837132    -3.816033     3.072862
C       -3.994398    -3.024899     2.319288
C       -4.528865    -2.496636     1.017561
C       -2.710796    -2.710796     2.710796
Te      -1.501111    -1.501111     1.501111
C       -2.224391    -3.199887     3.909857
C       -0.830130    -2.864132     4.344503
C       -3.052523    -3.992279     4.676237
H       -4.561924    -5.738076     5.852994
H       -5.843324    -5.821722     4.533394
H       -5.848765    -4.531027     5.767265
H       -5.845718    -4.057130     2.755359
H       -3.889926    -2.797996     0.172760
H       -4.647188    -1.411206     1.023156
H       -5.494366    -3.054135     0.859491
H       -0.727282    -1.779252     4.514370
H       -0.616121    -3.463187     5.257130
H       -0.068820    -3.198429     3.597508
H       -2.629241    -4.355706     5.612236
65
ex_0516 frame10 SP-4-1
Zn       0.000000     0.000000     0.000000
N        1.930000     0.000000     0.000000
C        2.639657     0.203262     1.131366
C        4.024527     0.212277     1.181523
C        4.727180     0.000004    -0.000000
C        4.024527    -0.212273    -1.181523
C        2.639657    -0.203262    -1.131366
H        2.046250     0.364124     2.026746
H        4.542467     0.380664     2.118766
H        5.813307     0.000005    -0.000000
H        4.542468    -0.380659    -2.118766
H        2.046250    -0.364127    -2.026746
N        0.000000     1.930000     0.000000
C       -0.805474     2.639657     0.820071
C       -0.841186     4.024527     0.856425
C       -0.000003     4.727180    -0.000002
C        0.841183     4.024527    -0.856428
C        0.805474     2.639657    -0.820071
H       -1.442936     2.046250     1.469089
H       -1.508456     4.542467     1.535785
H       -0.000004     5.813307    -0.000003
H        1.508451     4.542468    -1.535788
H        1.442938     2.046250    -1.469087
C       -8.946147     0.004615     0.034250
C       -7.445803     0.006676     0.049563
C       -6.770025     0.167167     1.241472
C       -5.391635     0.158717     1.178733
C       -4.643664     0.332697     2.470818
C       -4.695236    -0.000000    -0.000000
Te      -2.600000     0.000000     0.000000
C       -5.389065    -0.159696    -1.186021
C       -4.641183    -0.332990    -2.472977
C       -6.767145    -0.153845    -1.142568
H       -9.325935     0.219092    -0.986475
H       -9.352174     0.710403     0.787857
H       -9.322508    -1.003648     0.288348
H       -7.308220     0.292822     2.174606
H       -3.961017     1.195520     2.423063
H       -4.088535    -0.562873     2.757130
H       -5.431707     0.632014     3.217397
H       -4.053522    -1.266165    -2.457644
H       -5.390396    -0.311581    -3.295032
H       -3.963370     0.531159    -2.680732
H       -7.272987    -0.282636    -2.099061
C       -0.031120    -8.946147    -0.015031
C       -0.045034    -7.445803    -0.021748
C       -1.128049    -6.770025    -0.544706
C       -1.071042    -5.391635    -0.517176
C       -2.245080    -4.643664    -1.084086
C       -0.000000    -4.695236    -0.000000
Te       0.000000    -2.600000     0.000000
C        1.077665    -5.389065     0.520372
C        2.247041    -4.641183     1.085036
C        1.038182    -6.767145     0.501306
H        1.005717    -9.325935     0.098326
H       -0.528072    -9.352174    -0.920071
H       -0.585976    -9.322508     0.864341
H       -1.975928    -7.308220    -0.954131
H       -1.931548    -3.961018    -1.889345
H       -2.795534    -4.088535    -0.321838
H       -2.861672    -5.431706    -1.600598
H        1.942462    -4.053521     1.967239
H        3.035045    -5.390396     1.320160
H        2.713063    -3.963369     0.328240
H        1.907288    -7.272987     0.920972
65
ex_0516 frame11 SP-4-2
Zn       0.000000     0.000000     0.000000
N        1.930000     0.000000     0.000000
C        2.639657     0.943725     0.656269
C        4.024527     0.985566     0.685360
C        4.727180     0.000003    -0.000003
C        4.024527    -0.985562    -0.685364
C        2.639657    -0.943725    -0.656269
H        2.046250     1.690600     1.175651
H        4.542467     1.767364     1.229024
H        5.813307     0.000004    -0.000004
H        4.542468    -1.767360    -1.229028
H        2.046250    -1.690602    -1.175649
C       -0.004479     8.959917     0.004133
C       -0.019763     7.462551     0.018209
C        0.870549     6.820659    -0.802918
C        0.887774     5.422646    -0.818795
C        1.846154     4.694126    -1.702740
C        0.000000     4.735701    -0.000000
Te       0.000000     2.600000     0.000000
C       -0.888806     5.399701     0.819743
C       -1.838995     4.645379     1.696112
C       -0.905251     6.763256     0.834901
H        0.733995     9.328997     0.774705
H       -0.973844     9.376745     0.308940
H        0.360420     9.353398    -0.950518
H        1.542675     7.381594    -1.422828
H        1.363121     3.859842    -2.248820
H        2.187797     5.401942    -2.485369
H        2.745870     4.399379    -1.124717
H       -2.359975     5.405133     2.346603
H       -2.536294     4.039429     1.121142
H       -1.280403     4.009222     2.405352
H       -1.592621     7.317512     1.468873
N       -1.930000     0.000000     0.000000
C       -2.639657    -0.850251     0.773550
C       -4.024527    -0.887948     0.807841
C       -4.727180    -0.000003    -0.000003
C       -4.024527     0.887944    -0.807844
C       -2.639657     0.850251    -0.773550
H       -2.046250    -1.523149     1.385749
H       -4.542467    -1.592311     1.448662
H       -5.813307    -0.000004    -0.000004
H       -4.542468     1.592306    -1.448665
H       -2.046250     1.523151    -1.385748
C        0.005250    -8.959917     0.003095
C        0.023160    -7.462551     0.013629
C       -1.020344    -6.820659    -0.601191
C       -1.040530    -5.422646    -0.613078
C       -2.163822    -4.694126    -1.274943
C        0.000000    -4.735701     0.000000
Te       0.000000    -2.600000     0.000000
C        1.041740    -5.399701     0.613787
C        2.155426    -4.645379     1.269975
C        1.061012    -6.763256     0.625134
H       -0.554039    -9.328997     0.912116
H        1.017102    -9.376745     0.096540
H       -0.552834    -9.353398    -0.853089
H       -1.808122    -7.381594    -1.065354
H       -1.806865    -3.859842    -1.910637
H       -2.662884    -5.401942    -1.967883
H       -2.921346    -4.399379    -0.520121
H        2.801912    -5.405132     1.795917
H        2.715733    -4.039429     0.560839
H        1.759031    -4.009221     2.081096
H        1.866658    -7.317512     1.099826
