31
ex_0101 frame0 SP-4-chelate-1
Au       0.000000     0.000000     0.000000
C        5.617825     0.777056    -1.319466
C        4.413280     0.544502    -2.194180
N        3.374703     1.601109    -1.973351
C        3.465871     2.710147    -2.764710
Se       4.634199     3.115548    -4.034900
S        2.146530     3.758400    -2.297993
C        1.484524     2.624686    -1.127428
C        2.448677     1.472417    -1.085714
S        2.408930     0.071815    -0.000000
S        0.071815     2.408930    -0.000000
H        5.744459     1.844192    -1.059285
H        5.529191     0.199589    -0.352772
H        6.530320     0.444110    -1.860192
H        3.971532    -0.415520    -1.925769
H        4.750552     0.564153    -3.239831
S       -2.386331    -0.336932    -0.000000
C       -2.076746    -1.252495     1.461455
C       -1.091631    -2.185905     1.524055
S       -0.336932    -2.386331    -0.000000
N       -0.821701    -2.740473     2.683324
C        0.187268    -3.775756     2.909659
C       -0.302337    -5.182866     2.864283
C       -1.559671    -2.231212     3.624640
Se      -1.351248    -2.746832     5.670115
S       -2.752896    -1.079384     3.105056
H        0.920811    -3.654158     2.085166
H        0.689003    -3.559576     3.872697
H       -1.307835    -5.297754     2.392543
H        0.359103    -5.833351     2.223234
H       -0.369076    -5.634755     3.884292
31
ex_0101 frame1 SP-4-chelate-1-conf2
Au       0.000000     0.000000     0.000000
C        5.617825     0.777056    -1.319466
C        4.413280     0.544502    -2.194180
N        3.374703     1.601109    -1.973351
C        3.473667     2.719634    -2.777579
Se       4.634199     3.115548    -4.034900
S        2.146530     3.758400    -2.297993
C        1.484524     2.624686    -1.127428
C        2.440881     1.462930    -1.072845
S        2.408930     0.071815     0.000000
S        0.071815     2.408930     0.000000
H        5.744459     1.844192    -1.059285
H        5.529191     0.199589    -0.352772
H        6.530320     0.444110    -1.860192
H        3.971532    -0.415520    -1.925769
H        4.750552     0.564153    -3.239831
S       -0.334696    -2.386646     0.000000
C       -1.259546    -2.106758    -1.370177
C       -2.186241    -1.143419    -1.408282
S       -2.386646    -0.334696     0.000000
N       -2.777624    -0.948473    -2.667871
C       -3.840787     0.040454    -2.910675
C       -5.217035    -0.528689    -2.811621
C       -2.259902    -1.719154    -3.577832
Se      -2.852597    -1.542770    -5.596135
S       -1.085877    -2.874489    -3.117216
H       -3.688538     0.488375    -3.891281
H       -3.693341     0.812973    -2.150841
H       -5.935907     0.304797    -2.945206
H       -5.449152    -0.957202    -1.819488
H       -5.455900    -1.278348    -3.568669
31
ex_0101 frame2 SP-4-chelate-1-conf3
Au       0.000000     0.000000     0.000000
C        5.617825     0.777056    -1.319466
C        4.413280     0.544502    -2.194180
N        3.374703     1.601109    -1.973351
C        3.465871     2.710147    -2.764710
Se       4.634199     3.115548    -4.034900
S        2.146530     3.758400    -2.297993
C        1.484524     2.624686    -1.127428
C        2.448677     1.472417    -1.085714
S        2.408930     0.071815    -0.000000
S        0.071815     2.408930    -0.000000
H        5.744459     1.844192    -1.059285
H        5.529191     0.199589    -0.352772
H        6.530320     0.444110    -1.860192
H        3.971532    -0.415520    -1.925769
H        4.750552     0.564153    -3.239831
S       -0.138766    -2.406002     0.000000
C       -1.342853    -2.491772     1.218423
C       -2.319397    -1.412890     1.245405
S       -2.406002    -0.138766     0.000000
N       -3.116138    -1.454292     2.264643
C       -4.125308    -0.352447     2.475865
C       -5.423717    -0.674157     1.825479
C       -3.086001    -2.432401     3.150834
Se      -4.072579    -2.687150     4.646987
S       -1.846291    -3.552685     2.632309
H       -3.703638     0.610490     2.113563
H       -4.270847    -0.213946     3.559655
H       -5.461235    -0.195498     0.832430
H       -5.528784    -1.764869     1.672179
H       -6.292395    -0.289549     2.401439
31
ex_0101 frame3 SP-4-chelate-1-conf4
Au       0.000000     0.000000     0.000000
C        4.765971     0.033745    -2.728928
C        4.816647     0.839991    -1.489974
N        3.656888     1.767264    -1.347539
C        3.790315     3.007327    -1.881904
Se       5.104754     3.798004    -2.754820
S        2.150551     3.834311    -1.489880
C        1.538529     2.444577    -0.708641
C        2.594026     1.430023    -0.742133
S        2.405983    -0.139085    -0.000000
S       -0.139085     2.405983     0.000000
H        4.035028     0.373740    -3.482654
H        4.608477    -1.065277    -2.516653
H        5.769432     0.051974    -3.203833
H        5.741970     1.437398    -1.428858
H        4.768924     0.159489    -0.630925
S       -2.386331    -0.336932    -0.000000
C       -2.076746    -1.252495     1.461455
C       -1.091631    -2.185905     1.524055
S       -0.336932    -2.386331    -0.000000
N       -0.821701    -2.740473     2.683324
C        0.187268    -3.775756     2.909659
C       -0.302337    -5.182866     2.864283
C       -1.559671    -2.231212     3.624640
Se      -1.351248    -2.746832     5.670115
S       -2.752896    -1.079384     3.105056
H        0.920811    -3.654158     2.085166
H        0.689003    -3.559576     3.872697
H       -1.307835    -5.297754     2.392543
H        0.359103    -5.833351     2.223234
H       -0.369076    -5.634755     3.884292
31
ex_0101 frame4 SP-4-chelate-1-conf5
Au       0.000000     0.000000     0.000000
C        4.765971     0.033745    -2.728928
C        4.816647     0.839991    -1.489974
N        3.656888     1.767264    -1.347539
C        3.805349     3.027149    -1.896228
Se       5.104754     3.798004    -2.754820
S        2.150551     3.834311    -1.489880
C        1.538529     2.444577    -0.708641
C        2.578992     1.410201    -0.727809
S        2.405983    -0.139085     0.000000
S       -0.139085     2.405983     0.000000
H        4.035028     0.373740    -3.482654
H        4.608477    -1.065277    -2.516653
H        5.769432     0.051974    -3.203833
H        5.741970     1.437398    -1.428858
H        4.768924     0.159489    -0.630925
S       -0.334696    -2.386646     0.000000
C       -1.259546    -2.106758    -1.370177
C       -2.186241    -1.143419    -1.408282
S       -2.386646    -0.334696     0.000000
N       -2.777624    -0.948473    -2.667871
C       -3.840787     0.040454    -2.910675
C       -5.217035    -0.528689    -2.811621
C       -2.259902    -1.719154    -3.577832
Se      -2.852597    -1.542770    -5.596135
S       -1.085877    -2.874489    -3.117216
H       -3.688538     0.488375    -3.891281
H       -3.693341     0.812973    -2.150841
H       -5.935907     0.304797    -2.945206
H       -5.449152    -0.957202    -1.819488
H       -5.455900    -1.278348    -3.568669
31
ex_0101 frame5 SP-4-chelate-1-conf6
Au       0.000000     0.000000     0.000000
C        4.765971     0.033745    -2.728928
C        4.816647     0.839991    -1.489974
N        3.656888     1.767264    -1.347539
C        3.790315     3.007327    -1.881904
Se       5.104754     3.798004    -2.754820
S        2.150551     3.834311    -1.489880
C        1.538529     2.444577    -0.708641
C        2.594026     1.430023    -0.742133
S        2.405983    -0.139085    -0.000000
S       -0.139085     2.405983     0.000000
H        4.035028     0.373740    -3.482654
H        4.608477    -1.065277    -2.516653
H        5.769432     0.051974    -3.203833
H        5.741970     1.437398    -1.428858
H        4.768924     0.159489    -0.630925
S       -0.138766    -2.406002     0.000000
C       -1.342853    -2.491772     1.218423
C       -2.319397    -1.412890     1.245405
S       -2.406002    -0.138766     0.000000
N       -3.116138    -1.454292     2.264643
C       -4.125308    -0.352447     2.475865
C       -5.423717    -0.674157     1.825479
C       -3.086001    -2.432401     3.150834
Se      -4.072579    -2.687150     4.646987
S       -1.846291    -3.552685     2.632309
H       -3.703638     0.610490     2.113563
H       -4.270847    -0.213946     3.559655
H       -5.461235    -0.195498     0.832430
H       -5.528784    -1.764869     1.672179
H       -6.292395    -0.289549     2.401439
31
ex_0101 frame6 SP-4-chelate-1-conf7
Au       0.000000     0.000000     0.000000
C        0.454430     5.260642     2.395522
C        0.089284     3.871999     2.743020
N        1.203830     2.899481     2.522933
C        2.038108     2.712617     3.579190
Se       2.078047     3.400638     5.192959
S        3.268008     1.458063     2.940397
C        2.422778     1.246987     1.443225
C        1.300742     2.237998     1.438563
S        0.259816     2.395954    -0.000000
S        2.395954     0.259816     0.000000
H        0.013188     5.949221     3.148286
H       -0.023652     5.551269     1.435711
H        1.548308     5.479197     2.380251
H       -0.785914     3.557186     2.161982
H       -0.195733     3.801974     3.802262
S       -0.138766    -2.406002     0.000000
C       -1.342853    -2.491772     1.218423
C       -2.319397    -1.412890     1.245405
S       -2.406002    -0.138766     0.000000
N       -3.116138    -1.454292     2.264643
C       -4.125308    -0.352447     2.475865
C       -5.423717    -0.674157     1.825479
C       -3.086001    -2.432401     3.150834
Se      -4.072579    -2.687150     4.646987
S       -1.846291    -3.552685     2.632309
H       -3.703638     0.610490     2.113563
H       -4.270847    -0.213946     3.559655
H       -5.461235    -0.195498     0.832430
H       -5.528784    -1.764869     1.672179
H       -6.292395    -0.289549     2.401439
31
ex_0101 frame7 SP-4-chelate-1-conf8
Au       0.000000     0.000000     0.000000
C        0.582290     5.510617     0.884757
C        0.467825     4.399553     1.893505
N        1.595026     3.434762     1.730400
C        2.723771     3.699942     2.449174
Se       3.110200     5.002993     3.561373
S        3.870724     2.334844     2.011704
C        2.722807     1.531059     1.008208
C        1.524108     2.432858     0.935338
S        0.054614     2.409381    -0.000000
S        2.409381     0.054614    -0.000000
H        1.647406     5.634759     0.567883
H        0.157287     6.459392     1.270559
H       -0.022954     5.249937    -0.030283
H        0.475031     4.746520     2.937757
H       -0.493850     3.861182     1.760180
S       -0.138766    -2.406002     0.000000
C       -1.342853    -2.491772     1.218423
C       -2.319397    -1.412890     1.245405
S       -2.406002    -0.138766     0.000000
N       -3.116138    -1.454292     2.264643
C       -4.125308    -0.352447     2.475865
C       -5.423717    -0.674157     1.825479
C       -3.086001    -2.432401     3.150834
Se      -4.072579    -2.687150     4.646987
S       -1.846291    -3.552685     2.632309
H       -3.703638     0.610490     2.113563
H       -4.270847    -0.213946     3.559655
H       -5.461235    -0.195498     0.832430
H       -5.528784    -1.764869     1.672179
H       -6.292395    -0.289549     2.401439
