78
ex_0172 frame0 Isomer 1
C       -4.396645     2.536827    -5.028197
C       -3.148326     2.162158    -4.276935
C       -2.629334     0.871992    -4.394077
C       -1.452435     0.499039    -3.716859
C       -0.952711    -0.912298    -3.919484
C       -0.781337     1.453923    -2.886345
N        0.424170     1.123919    -2.178558
C        1.655654     1.297070    -2.826114
C        1.747935     2.178633    -4.023252
C        2.902875     0.648677    -2.392615
C        3.159761    -0.093107    -1.284051
C        4.608035    -0.343655    -0.913469
N        2.125950    -0.640802    -0.462085
C        2.367682    -1.670533     0.478831
C        2.542818    -1.337463     1.828975
C        2.478142     0.091234     2.293169
C        2.782299    -2.350466     2.764022
C        2.845047    -3.692176     2.368014
C        3.092869    -4.755138     3.395484
C        2.675887    -4.026022     1.018576
C        2.429115    -3.027868     0.063372
C        2.236280    -3.431405    -1.380292
Ni       0.232506    -0.528327    -1.077493
N       -0.850625    -0.460411     0.600105
C       -1.397157    -1.736366     0.955690
C       -1.355793    -2.773896     0.009024
C       -1.891674    -4.033198     0.300075
C       -2.465442    -4.276244     1.548636
C       -2.503764    -3.260392     2.506072
C       -1.975423    -1.997136     2.215317
C       -1.386651     0.778016     1.067937
C       -2.710829     0.883847     1.559590
C       -3.200513     2.103249     2.029246
C       -2.378366     3.228800     2.027861
C       -1.074605     3.139337     1.532186
C       -0.586454     1.922632     1.042563
C       -1.323361     2.750225    -2.768782
C       -0.675378     3.798419    -1.913755
C       -2.496989     3.090701    -3.459391
H       -4.658435     3.605807    -4.877741
H       -5.248153     1.916452    -4.676280
H       -4.252642     2.364643    -6.116298
H       -3.137905     0.163042    -5.040745
H       -1.525488    -1.434421    -4.720657
H       -1.058280    -1.507821    -2.995067
H        0.104836    -0.906370    -4.249239
H        2.584898     1.993828    -4.729929
H        0.841247     2.331267    -4.645023
H        1.954108     3.105289    -3.448221
H        3.769801     1.023132    -2.933143
H        4.833373     0.131478     0.061449
H        5.320082     0.051698    -1.670824
H        4.792835    -1.436381    -0.840695
H        1.623431     0.203186     2.991161
H        2.330515     0.807015     1.460352
H        3.422944     0.368032     2.800832
H        2.907630    -2.093152     3.807933
H        3.100082    -5.770008     2.943628
H        2.292446    -4.718627     4.164000
H        4.075059    -4.578541     3.881519
H        2.719577    -5.066779     0.715319
H        2.363908    -4.528319    -1.521934
H        2.970647    -2.922304    -2.036826
H        1.212296    -3.170049    -1.712723
H       -0.927377    -2.603654    -0.965897
H       -1.865661    -4.820412    -0.443752
H       -2.878582    -5.251526     1.774810
H       -2.944149    -3.452086     3.475805
H       -2.011404    -1.234109     2.979590
H       -3.386805     0.039443     1.560424
H       -4.218194     2.172870     2.395009
H       -2.755481     4.170676     2.403845
H       -0.440568     4.014643     1.527212
H        0.422025     1.866799     0.661479
H       -1.392804     4.151723    -1.146222
H       -0.377123     4.647256    -2.562363
H        0.232466     3.428750    -1.396758
H       -2.892429     4.095148    -3.374018
78
ex_0172 frame1 Isomer 1
C        3.855919    -3.042253     4.806591
C        2.810967    -2.730514     3.777730
C        3.110261    -2.724080     2.407247
C        2.113777    -2.450290     1.453775
C        2.489488    -2.460297    -0.002290
C        0.798880    -2.174994     1.886928
N       -0.250038    -1.925557     0.958690
C       -1.282838    -2.808345     0.629885
C       -1.126422    -4.240337     1.004037
C       -2.526576    -2.434193    -0.063818
C       -2.884159    -1.269407    -0.658496
C       -4.126821    -1.315957    -1.530772
N       -2.156356    -0.047183    -0.496190
C       -2.645052     1.179560    -1.010344
C       -2.573478     1.501511    -2.381561
C       -1.936564     0.578270    -3.383404
C       -3.112184     2.719546    -2.826680
C       -3.703716     3.615942    -1.922548
C       -4.300067     4.909687    -2.390389
C       -3.740484     3.302547    -0.561034
C       -3.218400     2.090527    -0.096860
C       -3.273874     1.769959     1.376281
Ni      -0.449794     0.013076     0.534129
N        1.111315     1.163777     0.055556
C        2.199548     1.263185     0.960723
C        3.486174     1.672947     0.553203
C        4.520627     1.765813     1.487169
C        4.280346     1.462450     2.829357
C        3.008018     1.053038     3.236736
C        1.976802     0.940895     2.302260
C        1.162571     1.708322    -1.256356
C        0.452761     2.881838    -1.537245
C        0.509106     3.453334    -2.812108
C        1.262409     2.844917    -3.820053
C        1.958568     1.661418    -3.554204
C        1.911401     1.091469    -2.275051
C        0.509308    -2.144440     3.279092
C       -0.866309    -1.797223     3.803836
C        1.514998    -2.441662     4.202538
H        4.845346    -3.231588     4.342143
H        3.949156    -2.189863     5.512575
H        3.552754    -3.947625     5.375675
H        4.120104    -2.939644     2.079459
H        1.631691    -2.224748    -0.664486
H        2.874907    -3.464900    -0.276554
H        3.283630    -1.705639    -0.185497
H       -0.602972    -4.539195     0.070808
H       -0.479439    -4.487190     1.871179
H       -2.054988    -4.838682     1.112830
H       -3.161160    -3.289501    -0.290739
H       -3.955789    -1.996195    -2.391367
H       -4.426930    -0.329855    -1.930823
H       -4.987049    -1.691684    -0.936660
H       -2.693953     0.259144    -4.128035
H       -1.502833    -0.326576    -2.911299
H       -1.113996     1.108778    -3.905228
H       -3.075988     2.964811    -3.880939
H       -5.377924     4.938467    -2.121628
H       -4.208493     5.027629    -3.490154
H       -3.782620     5.758997    -1.896633
H       -4.198945     3.996396     0.134970
H       -2.248182     1.673200     1.790484
H       -3.816356     0.811750     1.524765
H       -3.809087     2.556280     1.950728
H        3.701704     1.920107    -0.477088
H        5.506918     2.079668     1.169877
H        5.078833     1.548695     3.553585
H        2.817049     0.827932     4.277153
H        0.990692     0.636083     2.626623
H       -0.127544     3.361787    -0.760128
H       -0.028894     4.369687    -3.016953
H        1.305224     3.290350    -4.806221
H        2.537180     1.190605    -4.339398
H        2.457441     0.177114    -2.079175
H       -1.637483    -2.517475     3.472122
H       -0.897143    -1.791056     4.913390
H       -1.136199    -0.777370     3.453058
H        1.294373    -2.430755     5.264000
78
ex_0172 frame2 Isomer 2
C        0.766344    -4.687425     5.071901
C        0.355854    -3.473571     4.286041
C        1.266060    -2.444560     4.016250
C        0.859664    -1.277512     3.343287
C        1.875264    -0.193380     3.143893
C       -0.471999    -1.158334     2.881947
N       -0.927787     0.017149     2.200440
C       -1.685354     1.025408     2.807383
C       -1.628880     1.126663     4.293750
C       -2.534221     1.993035     2.079787
C       -2.580752     2.283710     0.747749
C       -3.319639     3.534085     0.321660
N       -1.969364     1.469548    -0.257357
C       -2.242716     1.545758    -1.642657
C       -1.570423     2.450539    -2.480475
C       -0.510474     3.373969    -1.953753
C       -1.896338     2.494103    -3.845271
C       -2.847951     1.615364    -4.385841
C       -3.172346     1.631629    -5.849662
C       -3.505214     0.710016    -3.550153
C       -3.225687     0.674450    -2.180892
C       -4.000855    -0.309093    -1.332938
Ni      -1.040401    -0.227678     0.224724
N        0.500766    -0.626090    -0.984933
C        0.280425    -1.563781    -2.026059
C       -0.808444    -2.439402    -1.930421
C       -1.048476    -3.376231    -2.940244
C       -0.207468    -3.435029    -4.055805
C        0.877287    -2.562461    -4.160048
C        1.126312    -1.635687    -3.149158
C        1.793372    -0.130236    -0.611428
C        2.985171    -0.852698    -0.861126
C        4.229258    -0.322966    -0.501821
C        4.305909     0.932980     0.100011
C        3.136481     1.648393     0.367421
C        1.887557     1.114038     0.024214
C       -1.377074    -2.238766     3.104916
C       -2.804101    -2.246077     2.609960
C       -0.953362    -3.369283     3.817160
H        1.863194    -4.715050     5.241365
H        0.466403    -5.617256     4.543743
H        0.261094    -4.661639     6.061740
H        2.283251    -2.526285     4.381330
H        2.259681     0.122390     4.136553
H        1.440905     0.697619     2.653654
H        2.720241    -0.572063     2.531144
H       -0.727633     1.774399     4.332230
H       -2.475982     1.637363     4.795672
H       -1.424237     0.201428     4.874409
H       -3.041403     2.691906     2.740134
H       -3.791511     4.068030     1.175119
H       -4.128878     3.260552    -0.386995
H       -2.619615     4.235987    -0.172194
H       -0.363600     3.272740    -0.860233
H        0.448722     3.112412    -2.448435
H       -0.767161     4.429307    -2.172020
H       -1.372717     3.182807    -4.495524
H       -2.807688     0.692670    -6.317282
H       -2.696491     2.494906    -6.359524
H       -4.271718     1.703019    -5.994037
H       -4.243055     0.030973    -3.966069
H       -3.799868    -1.344149    -1.680512
H       -5.091186    -0.111727    -1.431067
H       -3.749103    -0.252227    -0.255149
H       -1.461398    -2.404280    -1.066300
H       -1.886404    -4.055510    -2.859141
H       -0.396548    -4.153533    -4.841471
H        1.525682    -2.598095    -5.025484
H        1.963567    -0.960232    -3.261009
H        2.965650    -1.836205    -1.310356
H        5.135299    -0.886054    -0.692667
H        5.270919     1.347219     0.365505
H        3.198388     2.619879     0.839799
H        0.992653     1.678783     0.239079
H       -3.496469    -2.348419     3.472413
H       -3.086976    -1.343516     2.039623
H       -2.954249    -3.110831     1.928850
H       -1.653403    -4.175818     4.011409
