89
ex_0503 frame0 cis
C        0.186456     0.678474     4.996687
C        1.368164     1.158829     4.170240
C        2.297960     1.869607     5.088864
C        2.059834     0.025460     3.526900
C        2.808759    -0.792085     4.380461
C        3.489390    -1.871966     3.929425
C        3.442668    -2.169718     2.587890
C        2.690122    -1.359005     1.726479
C        2.699073    -1.795307     0.297628
C        1.795777    -3.007704     0.161632
C        4.110955    -2.240846    -0.030702
C        2.016768    -0.255515     2.177947
N        1.266805     0.611444     1.261688
Si       2.171528     2.080288     0.797446
C        1.281479     3.655055     1.199326
C        3.774584     2.208723     1.805958
C        2.773526     2.106514    -0.950864
Fe      -0.539064     0.160597     0.650723
N       -1.401799     0.356578    -1.132818
C       -2.541457    -0.477968    -1.495644
C       -2.284893    -1.734962    -2.070325
C       -0.924645    -2.234640    -2.329731
C       -0.637283    -2.018536    -3.817341
C       -0.745607    -3.720612    -2.150364
C       -3.329539    -2.581666    -2.427470
C       -4.616459    -2.181974    -2.237036
C       -4.869294    -0.972798    -1.695544
C       -3.843624    -0.067174    -1.293498
C       -4.309611     1.164577    -0.725845
C       -3.605015     2.370835    -0.463371
C       -5.166542     0.799221     0.495335
Si      -0.867975     1.490321    -2.393465
C        0.659080     1.026123    -3.304064
C       -0.683261     3.256458    -1.836301
C       -2.228953     1.601084    -3.720500
Se      -1.611199    -1.692652     2.054363
Se      -2.271343     0.499152     2.488743
H       -0.175720    -0.310364     4.625042
H        0.423735     0.567349     6.072977
H       -0.673689     1.396206     4.973825
H        0.927118     1.804181     3.384967
H        3.319623     1.432335     4.991846
H        2.391042     2.953960     4.893093
H        1.971999     1.785196     6.152989
H        2.862172    -0.577604     5.457372
H        4.075708    -2.524861     4.559681
H        3.982790    -3.029315     2.216744
H        2.428790    -0.994788    -0.387153
H        0.742263    -2.745377     0.089985
H        2.134035    -3.570619    -0.746311
H        1.980556    -3.619762     1.070295
H        4.162399    -3.342784    -0.072181
H        4.415280    -1.851128    -1.044333
H        4.853031    -1.934850     0.729935
H        1.258188     4.318926     0.284446
H        1.706563     4.268420     1.983754
H        0.198172     3.511812     1.440392
H        4.666138     1.912815     1.190279
H        3.777342     1.477713     2.635715
H        3.987389     3.235005     2.129827
H        2.818071     1.109812    -1.412210
H        3.844319     2.472152    -1.063219
H        2.210712     2.871314    -1.479421
H       -0.132940    -1.655245    -1.842358
H       -1.275837    -1.199194    -4.239049
H        0.409810    -1.769746    -4.028601
H       -0.821309    -2.964763    -4.410702
H       -1.299852    -4.231032    -2.961069
H        0.308586    -4.033826    -2.280020
H       -1.174251    -4.012911    -1.195569
H       -3.172626    -3.558745    -2.864673
H       -5.432958    -2.844815    -2.525044
H       -5.915524    -0.687640    -1.558117
H       -5.152755     1.485447    -1.470319
H       -3.568477     3.036080    -1.383868
H       -2.713243     2.426307     0.146248
H       -4.323306     3.026426     0.156007
H       -4.956844     1.519149     1.340512
H       -4.907813    -0.202733     0.887131
H       -6.235850     0.846328     0.324657
H        1.372647     1.867913    -3.478668
H        1.119770     0.153945    -2.793307
H        0.457190     0.646432    -4.336162
H        0.207440     3.754668    -2.326062
H       -0.727593     3.364988    -0.762495
H       -1.519736     3.932293    -2.204988
H       -2.879560     2.459418    -3.590486
H       -1.793304     1.668329    -4.737587
H       -2.784691     0.633517    -3.677859
89
ex_0503 frame1 cis
C        0.186456     0.678474     4.996687
C        1.368164     1.158829     4.170240
C        2.297960     1.869607     5.088864
C        2.062398     0.027303     3.526427
C        2.808759    -0.792085     4.380461
C        3.489390    -1.871966     3.929425
C        3.442668    -2.169718     2.587890
C        2.692746    -1.357168     1.725927
C        2.699073    -1.795307     0.297628
C        1.795777    -3.007704     0.161632
C        4.110955    -2.240846    -0.030702
C        2.018545    -0.254301     2.177636
N        1.266805     0.611444     1.261688
Si       2.171528     2.080288     0.797446
C        1.281479     3.655055     1.199326
C        3.774584     2.208723     1.805958
C        2.773526     2.106514    -0.950864
Fe      -0.539064     0.160597     0.650723
N       -1.401799     0.356578    -1.132818
C       -2.541468    -0.477566    -1.496530
C       -2.284901    -1.734822    -2.070635
C       -0.924645    -2.234640    -2.329731
C       -0.637283    -2.018536    -3.817341
C       -0.745607    -3.720612    -2.150364
C       -3.329539    -2.581666    -2.427470
C       -4.616459    -2.181974    -2.237036
C       -4.869294    -0.972798    -1.695544
C       -3.843628    -0.067029    -1.293815
C       -4.309611     1.164577    -0.725845
C       -3.605015     2.370835    -0.463371
C       -5.166542     0.799221     0.495335
Si      -0.867975     1.490321    -2.393465
C        0.659080     1.026123    -3.304064
C       -0.683261     3.256458    -1.836301
C       -2.228953     1.601084    -3.720500
Se      -1.611199    -1.692652     2.054363
Se      -2.271343     0.499152     2.488743
H       -0.175720    -0.310364     4.625042
H        0.423735     0.567349     6.072977
H       -0.673689     1.396206     4.973825
H        0.927118     1.804181     3.384967
H        3.319623     1.432335     4.991846
H        2.391042     2.953960     4.893093
H        1.971999     1.785196     6.152989
H        2.862172    -0.577604     5.457372
H        4.075708    -2.524861     4.559681
H        3.982790    -3.029315     2.216744
H        2.428790    -0.994788    -0.387153
H        0.742263    -2.745377     0.089985
H        2.134035    -3.570619    -0.746311
H        1.980556    -3.619762     1.070295
H        4.162399    -3.342784    -0.072181
H        4.415280    -1.851128    -1.044333
H        4.853031    -1.934850     0.729935
H        1.258188     4.318926     0.284446
H        1.706563     4.268420     1.983754
H        0.198172     3.511812     1.440392
H        4.666138     1.912815     1.190279
H        3.777342     1.477713     2.635715
H        3.987389     3.235005     2.129827
H        2.818071     1.109812    -1.412210
H        3.844319     2.472152    -1.063219
H        2.210712     2.871314    -1.479421
H       -0.132940    -1.655245    -1.842358
H       -1.275837    -1.199194    -4.239049
H        0.409810    -1.769746    -4.028601
H       -0.821309    -2.964763    -4.410702
H       -1.299852    -4.231032    -2.961069
H        0.308586    -4.033826    -2.280020
H       -1.174251    -4.012911    -1.195569
H       -3.172626    -3.558745    -2.864673
H       -5.432958    -2.844815    -2.525044
H       -5.915524    -0.687640    -1.558117
H       -5.152755     1.485447    -1.470319
H       -3.568477     3.036080    -1.383868
H       -2.713243     2.426307     0.146248
H       -4.323306     3.026426     0.156007
H       -4.956844     1.519149     1.340512
H       -4.907813    -0.202733     0.887131
H       -6.235850     0.846328     0.324657
H        1.372647     1.867913    -3.478668
H        1.119770     0.153945    -2.793307
H        0.457190     0.646432    -4.336162
H        0.207440     3.754668    -2.326062
H       -0.727593     3.364988    -0.762495
H       -1.519736     3.932293    -2.204988
H       -2.879560     2.459418    -3.590486
H       -1.793304     1.668329    -4.737587
H       -2.784691     0.633517    -3.677859
