158
ex_0488 frame0 Isomer 1
Cl      -4.534500    -0.138987     1.660906
Ag      -2.459760     0.180210     0.724754
P       -2.146684     2.495355     0.567840
C       -0.902151     2.575397    -0.733243
C       -0.224754     3.918466    -0.632742
As       1.084563     3.932559    -2.108854
C        0.527619     5.241788    -3.441848
C        0.994833     5.098510    -4.744539
C        0.611064     5.996268    -5.733179
C       -0.236605     7.050307    -5.410340
C       -0.699579     7.204103    -4.109708
C       -0.310327     6.295620    -3.125486
C        2.829411     4.475687    -1.393452
C        3.434745     5.675429    -1.752037
C        4.693904     6.013512    -1.232788
C        5.332774     5.143742    -0.346005
C        4.724346     3.950566     0.018072
C        3.476185     3.629807    -0.499959
C       -1.686092     3.111092     2.109429
C       -0.376412     3.077998     2.549640
C       -0.029942     3.755418     3.719053
C       -1.001092     4.379442     4.481133
C       -2.314045     4.313475     4.072500
C       -2.662126     3.648358     2.914437
C       -3.732823     3.069677     0.005764
C       -4.941009     2.791678     0.680608
C       -6.116145     3.428383     0.259713
C       -6.103860     4.261508    -0.852718
C       -4.922821     4.435938    -1.534495
C       -3.764920     3.810027    -1.129035
P       -2.366200    -0.989994    -1.310617
C       -0.595521    -1.550325    -1.211536
C       -0.257519    -2.870166    -1.851558
As       1.719319    -3.142491    -1.837800
C        2.553918    -1.414941    -2.211962
C        3.491020    -0.888384    -1.309639
C        4.074706     0.358476    -1.581020
C        3.733580     1.062390    -2.733178
C        2.814049     0.531015    -3.615371
C        2.233853    -0.703430    -3.354277
C        2.105189    -4.375772    -3.301807
C        1.368571    -4.322963    -4.477991
C        1.606390    -5.195528    -5.524552
C        2.612020    -6.132093    -5.394286
C        3.371471    -6.195688    -4.222607
C        3.130524    -5.317526    -3.162669
C       -3.695632    -2.162518    -1.258436
C       -4.960782    -1.748005    -0.879109
C       -6.041140    -2.624501    -0.941973
C       -5.865574    -3.941887    -1.337544
C       -4.595620    -4.364755    -1.657225
C       -3.507331    -3.494749    -1.588594
C       -2.544566     0.175340    -2.584619
C       -1.538975     0.333180    -3.496876
C       -1.708936     1.173485    -4.587580
C       -2.871823     1.904378    -4.745173
C       -3.861352     1.790979    -3.790244
C       -3.694684     0.949954    -2.690470
P       -1.130988    -0.929673     2.314036
C        0.535653    -0.260708     1.922630
C        1.802264    -1.066342     1.926207
As       2.534854    -1.604894     3.648098
C        4.146643    -2.640845     3.245425
C        4.111225    -3.817285     2.496954
C        5.294147    -4.519508     2.234016
C        6.503399    -4.052594     2.718142
C        6.540142    -2.887243     3.461560
C        5.368814    -2.176309     3.729531
C        1.425583    -2.451461     4.976726
C        1.074354    -1.678999     6.073404
C        0.301195    -2.205593     7.092755
C       -0.141637    -3.515425     7.022976
C        0.194790    -4.297229     5.921156
C        0.974042    -3.758802     4.892092
C       -1.553364    -2.641883     2.008482
C       -2.872775    -3.055531     1.824716
C       -3.167587    -4.412627     1.637616
C       -2.160577    -5.363148     1.608606
C       -0.860304    -4.938514     1.767751
C       -0.564440    -3.590327     1.949672
C       -1.741353    -0.300541     3.890634
C       -3.012580    -0.669155     4.344150
C       -3.490502    -0.233464     5.584279
C       -2.722099     0.592529     6.376686
C       -1.478210     0.978892     5.921577
C       -0.989284     0.547888     4.684894
H       -0.148218     1.719576    -0.812765
H       -1.428860     2.536796    -1.695038
H       -0.934532     4.734901    -0.793017
H        0.246467     4.123575     0.342607
H        1.648445     4.275250    -4.980190
H        0.977673     5.865065    -6.741751
H       -0.528265     7.739996    -6.173654
H       -1.353541     8.026615    -3.886359
H       -0.646327     6.388802    -2.124030
H        2.939789     6.333576    -2.431265
H        5.173845     6.947706    -1.515199
H        6.295133     5.385190     0.061832
H        5.215031     3.273574     0.703701
H        3.018960     2.707217    -0.215845
H        0.400979     2.637493     1.991624
H        0.988963     3.812152     4.041466
H       -0.770888     4.912049     5.389102
H       -3.065490     4.801595     4.664268
H       -3.697551     3.661435     2.648614
H       -5.039490     2.199033     1.558700
H       -7.038908     3.292595     0.794490
H       -6.985631     4.775415    -1.214103
H       -4.906122     5.077718    -2.392193
H       -2.887245     3.994887    -1.690555
H        0.063814    -0.787909    -1.645002
H       -0.244963    -1.605498    -0.153824
H       -0.561524    -3.658852    -1.123039
H       -0.639822    -3.010948    -2.872989
H        3.750246    -1.443181    -0.418621
H        4.791142     0.794879    -0.913508
H        4.181401     2.020434    -2.943767
H        2.561465     1.090338    -4.502710
H        1.526180    -1.086495    -4.051946
H        0.594184    -3.604763    -4.577264
H        1.016496    -5.146517    -6.433782
H        2.797672    -6.810002    -6.211910
H        4.137311    -6.939176    -4.174480
H        3.722659    -5.369645    -2.253272
H       -5.189226    -0.745336    -0.597990
H       -7.029357    -2.286514    -0.694137
H       -6.686005    -4.647600    -1.404821
H       -4.457653    -5.380160    -1.968156
H       -2.577132    -3.882767    -1.875675
H       -0.639087    -0.213403    -3.443859
H       -0.940354     1.255131    -5.324674
H       -3.033776     2.562428    -5.583542
H       -4.767613     2.355565    -3.908019
H       -4.497754     0.905585    -1.998663
H        0.725082     0.520921     2.637178
H        0.528635     0.290180     0.948619
H        2.551228    -0.281007     1.640890
H        1.923348    -1.772643     1.108692
H        3.187284    -4.192123     2.113400
H        5.298954    -5.429144     1.658953
H        7.424278    -4.586096     2.523671
H        7.496948    -2.560877     3.817525
H        5.403511    -1.268971     4.309814
H        1.410160    -0.656940     6.146392
H        0.051425    -1.584992     7.937412
H       -0.739422    -3.892856     7.833473
H       -0.152057    -5.317191     5.874253
H        1.219010    -4.376654     4.072876
H       -3.700032    -2.408501     1.825042
H       -4.182896    -4.735786     1.511930
H       -2.377195    -6.414706     1.462932
H       -0.073096    -5.660515     1.748107
H        0.439106    -3.319451     2.066848
H       -3.650696    -1.310205     3.791540
H       -4.460020    -0.531123     5.947181
H       -3.088528     0.931605     7.336494
H       -0.894882     1.620967     6.550927
H       -0.027317     0.887734     4.423446
