69
ex_0461 frame0 OC-6-chelate-1
Mn       0.000000     0.000000     0.000000
C       -1.091647    -5.533449    -1.368611
O       -0.637249    -4.371136    -0.747891
C       -0.919545    -4.008394     0.552715
C       -1.703994    -4.775687     1.405103
C       -1.954516    -4.364038     2.702100
N       -2.759060    -5.155040     3.569804
O       -3.254458    -6.219343     3.202941
O       -2.985572    -4.715309     4.848240
C       -1.434607    -3.169760     3.207457
C       -0.659030    -2.420042     2.374419
C       -0.393715    -2.854701     1.080516
O        0.403339    -2.089188     0.371769
O        2.114054    -0.337439    -0.287246
C        2.883328     0.395558    -1.027235
C        4.027863     0.925333    -0.497559
O        4.336583     0.723092     0.840494
C        5.488707     1.206600     1.460207
C        4.837176     1.655526    -1.354368
C        4.464991     1.832457    -2.690882
N        5.305450     2.574439    -3.567007
O        6.367812     3.061406    -3.136142
O        4.905405     2.725915    -4.871601
C        3.281172     1.293700    -3.184221
C        2.484976     0.579173    -2.346442
C        1.249559    -0.003465    -2.736521
N        0.240569    -0.376695    -2.164331
C       -0.841479    -0.918046    -2.821554
C       -2.096481    -1.322062    -2.271146
C       -2.644605    -0.149031    -1.570584
N       -2.164912     0.160766    -0.414016
C       -2.516374     1.459788     0.109231
C       -1.473595     2.447260    -0.214160
N       -0.189607     2.168486     0.381859
C        0.046590     2.615122     1.562862
C       -0.003999     2.013801     2.885376
C        0.924537     0.906525     2.852506
N        0.347853    -0.190091     2.174158
C       -0.045244    -1.177537     2.762580
H       -0.277805    -6.290951    -1.418403
H       -2.020672    -5.962028    -0.965459
H       -1.339382    -5.239064    -2.430400
H       -2.122224    -5.700950     1.054978
H       -1.627584    -2.843840     4.220516
H        6.335534     1.138127     0.735267
H        5.665899     0.578158     2.358765
H        5.419694     2.264956     1.787866
H        5.758567     2.078645    -0.983046
H        3.008796     1.443413    -4.231334
H        1.153418    -0.195594    -3.833426
H       -1.065421    -0.237686    -3.711433
H       -0.377335    -1.813747    -3.363781
H       -2.071019    -2.221488    -1.594659
H       -2.780973    -1.622346    -3.137045
H       -2.665465     0.780116    -2.220463
H       -3.731283    -0.314688    -1.380995
H       -2.627521    -0.473194     0.311468
H       -2.850713     1.433302     1.145858
H       -3.424214     1.743688    -0.479396
H       -1.754446     3.435663     0.203215
H       -1.429925     2.539215    -1.325129
H        0.446627     2.651852    -0.295584
H        1.041047     3.204365     1.579609
H       -0.665165     3.513701     1.650261
H       -1.006910     1.674262     3.230502
H        0.340726     2.789439     3.640029
H        1.271852     0.493127     3.799781
H        1.906397     1.118041     2.313355
H        0.131625    -1.090625     3.859239
69
ex_0461 frame1 OC-6-chelate-1-beta
Mn       0.000000     0.000000     0.000000
C        2.248863    -2.040815     5.027721
O        1.781486    -1.863052     3.706497
C        0.597881    -2.415422     3.310934
C       -0.172253    -3.162378     4.195551
C       -1.379810    -3.721408     3.775861
N       -2.167226    -4.486008     4.684156
O       -1.761241    -4.647878     5.860734
O       -3.350012    -5.020812     4.233198
C       -1.846855    -3.553410     2.478748
C       -1.079412    -2.822355     1.601787
C        0.117767    -2.297192     2.034076
O        0.836402    -1.636608     1.134701
O        1.662501    -0.788191    -1.131567
C        2.371933    -0.116824    -1.961724
C        2.544972    -0.600256    -3.237275
O        1.921402    -1.753864    -3.610246
C        1.991227    -2.398127    -4.840079
C        3.368842     0.152546    -4.068302
C        3.959753     1.324217    -3.614467
N        4.805178     2.066668    -4.486271
O        5.021189     1.674191    -5.658254
O        5.373063     3.225948    -3.994831
C        3.752722     1.797044    -2.334531
C        2.940573     1.063580    -1.507507
C        2.633766     1.452274    -0.163484
N        1.743712     1.200363     0.634584
C        1.705418     1.744675     1.901271
C        0.719943     1.585691     2.915489
C       -0.550877     2.008642     2.284298
N       -1.126008     1.194311     1.479806
C       -2.204263     1.750235     0.667650
C       -1.773427     2.240088    -0.710845
N       -1.207893     1.122050    -1.471767
C       -1.851440     0.468956    -2.382375
C       -2.655417    -0.738583    -2.294106
C       -1.727087    -1.788793    -1.894449
N       -1.213945    -1.745271    -0.603711
C       -1.454923    -2.604424     0.240249
H        2.660548    -3.070835     5.102377
H        1.463001    -1.884535     5.786351
H        3.061522    -1.332519     5.278714
H        0.116311    -3.340587     5.215573
H       -2.791672    -3.999385     2.174962
H        2.377409    -1.709526    -5.605572
H        2.627251    -3.327033    -4.810945
H        0.943644    -2.672995    -5.131053
H        3.565726    -0.165321    -5.069191
H        4.213217     2.709689    -1.983153
H        3.383019     2.140659     0.293052
H        2.752809     1.469371     2.300416
H        1.859554     2.881663     1.774537
H        0.919622     2.327253     3.744801
H        0.593902     0.564076     3.356082
H       -1.281764     2.127411     3.129946
H       -0.497875     3.084476     1.908882
H       -1.673926     0.480875     2.056888
H       -3.008777     1.017301     0.490149
H       -2.640334     2.573141     1.251668
H       -1.116687     3.080214    -0.594052
H       -2.612591     2.497149    -1.362907
H       -0.479622     1.692652    -2.037283
H       -2.504522     1.227737    -2.917496
H       -1.111593     0.238799    -3.251419
H       -3.069191    -0.976817    -3.292661
H       -3.513103    -0.714846    -1.593637
H       -2.241690    -2.758643    -1.942460
H       -0.965136    -1.856460    -2.692845
H       -2.112483    -3.394391    -0.186681
69
ex_0461 frame2 OC-6-chelate-1-conf3
Mn       0.000000     0.000000     0.000000
C       -1.257330    -5.460432    -1.484481
O       -0.774165    -4.322002    -0.848603
C       -0.960350    -4.025272     0.493121
C       -1.660142    -4.845374     1.360147
C       -1.804441    -4.481572     2.688771
N       -2.524692    -5.326784     3.578990
O       -3.023420    -6.390932     3.162210
O       -2.661491    -4.955735     4.894947
C       -1.261906    -3.300812     3.192103
C       -0.574892    -2.490380     2.341969
C       -0.412982    -2.885112     1.022315
O        0.296393    -2.123094     0.265000
O        2.084538    -0.427745    -0.370589
C        2.861797     0.344693    -1.077725
C        4.026433     0.809970    -0.544868
O        4.407903     0.540868     0.740345
C        5.607022     0.987173     1.306525
C        4.827573     1.589225    -1.388334
C        4.416887     1.861762    -2.697134
N        5.268015     2.649859    -3.522665
O        4.918293     2.902916    -4.692134
O        6.473032     3.142995    -3.063089
C        3.210223     1.380042    -3.188874
C        2.437757     0.617576    -2.373701
C        1.184259     0.058533    -2.761068
N        0.183015    -0.319498    -2.179111
C       -0.926171    -0.853387    -2.861763
C       -2.043291     0.058958    -2.854081
C       -2.629935    -0.027686    -1.525935
N       -2.172249     0.207922    -0.349574
C       -2.426842     1.505824     0.246128
C       -1.424597     2.544661    -0.090772
N       -0.138367     2.164062     0.426371
C        0.201241     2.636487     1.576413
C        1.370913     2.072505     2.276597
C        0.935415     0.828175     2.818690
N        0.389052    -0.250952     2.160963
C        0.019137    -1.261982     2.732959
H       -0.458106    -6.230868    -1.541506
H       -1.457858    -5.165267    -2.553492
H       -2.185969    -5.886261    -1.077299
H       -2.088336    -5.765774     0.987418
H       -1.381862    -3.023191     4.243071
H        6.471886     0.298629     1.098064
H        5.455223     1.041513     2.420751
H        5.930592     1.993511     0.973007
H        5.777433     1.990789    -1.061075
H        2.902907     1.598314    -4.206236
H        1.078680    -0.103192    -3.860707
H       -0.524987    -1.174310    -3.828083
H       -1.115671    -1.857098    -2.355184
H       -1.701425     1.077943    -3.161887
H       -2.828985    -0.269853    -3.606796
H       -3.530587     0.686905    -1.577629
H       -3.229329    -1.021325    -1.542707
H       -2.656091    -0.421504     0.322896
H       -2.531341     1.479095     1.336070
H       -3.408466     1.799957    -0.180220
H       -1.691063     3.447226     0.496271
H       -1.402841     2.843069    -1.144203
H        0.506815     2.623704    -0.310236
H        0.457440     3.712641     1.370319
H       -0.691228     2.772761     2.271295
H        1.737798     2.734584     3.111035
H        2.211280     1.905133     1.545460
H        0.251020     1.059249     3.701152
H        1.819298     0.335943     3.359818
H        0.220065    -1.166522     3.827404
69
ex_0461 frame3 OC-6-chelate-1-conf4
Mn       0.000000     0.000000     0.000000
C        2.248863    -2.040815     5.027721
O        1.781486    -1.863052     3.706497
C        0.597881    -2.415422     3.310934
C       -0.172253    -3.162378     4.195551
C       -1.379810    -3.721408     3.775861
N       -2.167226    -4.486008     4.684156
O       -1.761241    -4.647878     5.860734
O       -3.350012    -5.020812     4.233198
C       -1.846855    -3.553410     2.478748
C       -1.079412    -2.822355     1.601787
C        0.117767    -2.297192     2.034076
O        0.836402    -1.636608     1.134701
O        1.662501    -0.788191    -1.131567
C        2.371933    -0.116824    -1.961724
C        2.544972    -0.600256    -3.237275
O        1.921402    -1.753864    -3.610246
C        1.991227    -2.398127    -4.840079
C        3.368842     0.152546    -4.068302
C        3.959753     1.324217    -3.614467
N        4.805178     2.066668    -4.486271
O        5.021189     1.674191    -5.658254
O        5.373063     3.225948    -3.994831
C        3.752722     1.797044    -2.334531
C        2.940573     1.063580    -1.507507
C        2.633766     1.452274    -0.163484
N        1.743712     1.200363     0.634584
C        1.705418     1.744675     1.901271
C        0.719943     1.585691     2.915489
C       -0.550877     2.008642     2.284298
N       -1.126008     1.194311     1.479806
C       -2.204263     1.750235     0.667650
C       -1.773427     2.240088    -0.710845
N       -1.207893     1.122050    -1.471767
C       -1.851440     0.468956    -2.382375
C       -2.655417    -0.738583    -2.294106
C       -1.727087    -1.788793    -1.894449
N       -1.213945    -1.745271    -0.603711
C       -1.454923    -2.604424     0.240249
H        2.660548    -3.070835     5.102377
H        1.463001    -1.884535     5.786351
H        3.061522    -1.332519     5.278714
H        0.116311    -3.340587     5.215573
H       -2.791672    -3.999385     2.174962
H        2.377409    -1.709526    -5.605572
H        2.627251    -3.327033    -4.810945
H        0.943644    -2.672995    -5.131053
H        3.565726    -0.165321    -5.069191
H        4.213217     2.709689    -1.983153
H        3.383019     2.140659     0.293052
H        2.752809     1.469371     2.300416
H        1.859554     2.881663     1.774537
H        0.919622     2.327253     3.744801
H        0.593902     0.564076     3.356082
H       -1.281764     2.127411     3.129946
H       -0.497875     3.084476     1.908882
H       -1.673926     0.480875     2.056888
H       -3.008777     1.017301     0.490149
H       -2.640334     2.573141     1.251668
H       -1.116687     3.080214    -0.594052
H       -2.612591     2.497149    -1.362907
H       -0.479622     1.692652    -2.037283
H       -2.504522     1.227737    -2.917496
H       -1.111593     0.238799    -3.251419
H       -3.069191    -0.976817    -3.292661
H       -3.513103    -0.714846    -1.593637
H       -2.241690    -2.758643    -1.942460
H       -0.965136    -1.856460    -2.692845
H       -2.112483    -3.394391    -0.186681
69
ex_0461 frame4 OC-6-chelate-1_mirror
Mn       0.000000     0.000000     0.000000
C       -1.091647    -5.533449     1.368611
O       -0.637249    -4.371136     0.747891
C       -0.919545    -4.008394    -0.552715
C       -1.703994    -4.775687    -1.405103
C       -1.954516    -4.364038    -2.702100
N       -2.759060    -5.155040    -3.569804
O       -3.254458    -6.219343    -3.202941
O       -2.985572    -4.715309    -4.848240
C       -1.434607    -3.169760    -3.207457
C       -0.659030    -2.420042    -2.374419
C       -0.393715    -2.854701    -1.080516
O        0.403339    -2.089188    -0.371769
O        2.114054    -0.337439     0.287246
C        2.883328     0.395558     1.027235
C        4.027863     0.925333     0.497559
O        4.336583     0.723092    -0.840494
C        5.488707     1.206600    -1.460207
C        4.837176     1.655526     1.354368
C        4.464991     1.832457     2.690882
N        5.305450     2.574439     3.567007
O        6.367812     3.061406     3.136142
O        4.905405     2.725915     4.871601
C        3.281172     1.293700     3.184221
C        2.484976     0.579173     2.346442
C        1.249559    -0.003465     2.736521
N        0.240569    -0.376695     2.164331
C       -0.841479    -0.918046     2.821554
C       -2.096481    -1.322062     2.271146
C       -2.644605    -0.149031     1.570584
N       -2.164912     0.160766     0.414016
C       -2.516374     1.459788    -0.109231
C       -1.473595     2.447260     0.214160
N       -0.189607     2.168486    -0.381859
C        0.046590     2.615122    -1.562862
C       -0.003999     2.013801    -2.885376
C        0.924537     0.906525    -2.852506
N        0.347853    -0.190091    -2.174158
C       -0.045244    -1.177537    -2.762580
H       -0.277805    -6.290951     1.418403
H       -2.020672    -5.962028     0.965459
H       -1.339382    -5.239064     2.430400
H       -2.122224    -5.700950    -1.054978
H       -1.627584    -2.843840    -4.220516
H        6.335534     1.138127    -0.735267
H        5.665899     0.578158    -2.358765
H        5.419694     2.264956    -1.787866
H        5.758567     2.078645     0.983046
H        3.008796     1.443413     4.231334
H        1.153418    -0.195594     3.833426
H       -1.065421    -0.237686     3.711433
H       -0.377335    -1.813747     3.363781
H       -2.071019    -2.221488     1.594659
H       -2.780973    -1.622346     3.137045
H       -2.665465     0.780116     2.220463
H       -3.731283    -0.314688     1.380995
H       -2.627521    -0.473194    -0.311468
H       -2.850713     1.433302    -1.145858
H       -3.424214     1.743688     0.479396
H       -1.754446     3.435663    -0.203215
H       -1.429925     2.539215     1.325129
H        0.446627     2.651852     0.295584
H        1.041047     3.204365    -1.579609
H       -0.665165     3.513701    -1.650261
H       -1.006910     1.674262    -3.230502
H        0.340726     2.789439    -3.640029
H        1.271852     0.493127    -3.799781
H        1.906397     1.118041    -2.313355
H        0.131625    -1.090625    -3.859239
