42
ex_0471 frame0 trigonal-prismatic top-NOS/bot-NSSe-conf2
N       -4.171512    -0.229662    -2.173661
C       -3.409070     0.303268    -1.493045
C       -2.403834     0.876452    -0.652253
C       -2.367640     0.870393     0.634763
C       -3.206870     0.182065     1.531270
N       -3.870359    -0.413273     2.256992
S       -1.194494     1.784950     1.148659
Mo       0.000000     0.000000     0.000000
O        1.559323    -0.007802     1.338570
Se       2.236068     0.000000    -1.118034
C        3.968222    -0.002086    -1.987832
C        4.404193     1.126557    -2.658219
C        5.668803     1.127621    -3.281720
C        6.480678     0.004160    -3.231849
C        6.027973    -1.114893    -2.565309
C        4.768605    -1.116744    -1.944465
S       -1.010249     1.705198    -1.379332
N       -1.093638    -1.599990     1.061502
C       -0.794663    -1.496033     2.539452
C       -1.778897    -2.159776     3.445103
C       -2.847679    -2.798583     2.957501
C       -3.054414    -2.846775     1.510254
C       -2.116544    -2.247128     0.659453
C       -2.106313    -2.223272    -0.649665
C       -3.123780    -2.824039    -1.541877
C       -3.007241    -2.734639    -2.855051
C       -1.842130    -2.107666    -3.433064
C       -0.870168    -1.583894    -2.612781
N       -0.957919    -1.523917    -1.217096
H        3.784449     1.999630    -2.703219
H        6.014890     1.992027    -3.795187
H        7.453757    -0.036229    -3.693479
H        6.629236    -2.007342    -2.504417
H        4.428056    -1.977544    -1.435617
H        0.052318    -0.988472     2.902118
H       -1.576280    -2.092404     4.502006
H       -3.550236    -3.273054     3.616226
H       -3.902045    -3.349373     1.051240
H       -3.950807    -3.271093    -1.007482
H       -3.744524    -3.116148    -3.533585
H       -1.793495    -2.058402    -4.525779
H        0.004893    -1.115188    -2.958744
42
ex_0471 frame1 trigonal-prismatic top-NOS/bot-NSSe-conf4
N        0.460564     5.199096    -2.204573
C        0.118263     4.340334    -1.512958
C       -0.316871     3.218760    -0.741852
C       -0.398646     3.232855     0.543173
C        0.137339     4.330571     1.428292
N        0.567591     5.176358     2.112161
S       -1.228088     1.774871     1.056267
Mo       0.000000     0.000000     0.000000
O        1.548022     0.099707     1.343121
Se       2.236068     0.000000    -1.118034
C        3.960903    -0.001123    -1.955609
C        4.080111     0.434158    -3.299806
C        5.340745     0.423508    -3.917795
C        6.463054    -0.003795    -3.201953
C        6.328404    -0.428102    -1.880304
C        5.078603    -0.418890    -1.266177
S       -0.810479     1.627826    -1.571450
N       -1.043945    -1.541556     1.085197
C       -0.859844    -1.530722     2.543805
C       -2.027350    -1.928996     3.427048
C       -3.188089    -2.278259     2.869147
C       -3.297756    -2.264607     1.382080
C       -2.240564    -1.910080     0.590236
C       -2.190302    -1.927325    -0.788195
C       -3.226638    -2.393447    -1.662249
C       -2.926091    -2.431888    -2.962759
C       -1.608962    -1.955095    -3.477430
C       -0.676857    -1.468808    -2.645459
N       -0.961137    -1.417852    -1.298064
H        3.204894     0.760106    -3.870661
H        5.466239     0.743907    -4.942449
H        7.440498    -0.012024    -3.660784
H        7.188015    -0.763547    -1.319909
H        4.960376    -0.750244    -0.258242
H        0.088930    -1.245717     3.014543
H       -1.906762    -1.926197     4.514590
H       -4.036911    -2.567521     3.502109
H       -4.237019    -2.547985     0.953905
H       -4.147280    -2.715205    -1.210028
H       -3.633495    -2.810285    -3.669198
H       -1.421475    -2.009628    -4.534207
H        0.288688    -1.108287    -2.934366
42
ex_0471 frame2 trigonal-prismatic top-NOS/bot-NSSe-conf5
N       -2.867325     5.159353    -2.116068
C       -2.453836     4.275058    -1.483756
C       -1.856130     3.208167    -0.667839
C       -1.899296     3.191982     0.581494
C       -2.481751     4.261824     1.458009
N       -2.976848     5.077018     2.130176
S       -1.186731     1.749556     1.166486
Mo       0.000000     0.000000     0.000000
O        1.555345     0.035774     1.338634
Se       2.236068     0.000000    -1.118034
C        3.971891    -0.008471    -1.970214
C        4.622837     1.189683    -2.228395
C        5.862401     1.203979    -2.871790
C        6.475099     0.008173    -3.243297
C        5.829671    -1.196311    -2.978277
C        4.583692    -1.209891    -2.331813
S       -0.925525     1.680328    -1.447417
N       -1.024719    -1.623380     1.059788
C       -0.931969    -1.477229     2.540939
C       -0.935043    -2.701239     3.447224
C       -0.958782    -3.924240     2.927456
C       -0.990963    -4.035630     1.443937
C       -0.964435    -2.894842     0.629658
C       -0.940776    -2.894143    -0.726527
C       -1.071428    -4.080442    -1.573882
C       -1.153556    -3.872818    -2.894181
C       -1.045257    -2.501419    -3.443669
C       -0.861822    -1.426984    -2.636245
N       -0.767205    -1.554906    -1.270088
H        4.142520     2.105774    -1.954250
H        6.334940     2.149957    -3.066081
H        7.441012     0.012543    -3.735402
H        6.315622    -2.106915    -3.275145
H        4.087116    -2.143088    -2.144676
H       -0.928574    -0.491669     2.976156
H       -0.918293    -2.534481     4.526573
H       -0.953082    -4.801691     3.578678
H       -0.990073    -5.043683     1.017896
H       -1.138746    -5.037434    -1.086786
H       -1.298962    -4.677946    -3.599032
H       -1.119261    -2.393801    -4.522732
H       -0.776952    -0.433385    -2.953923
42
ex_0471 frame3 all-cis
N       -1.019150     3.567154     3.527419
C       -1.040357     2.597741     2.904835
C       -1.129011     1.399417     2.102014
C       -2.099824     1.405741     1.141565
C       -2.879795     2.614110     1.069462
N       -3.529039     3.563684     1.009387
S       -2.399334     0.046467     0.053894
Mo       0.000000     0.000000     0.000000
O        2.048976     0.038320     0.026828
Se       0.000000     2.500000     0.000000
C        0.015804     4.369125     0.012094
C        1.164346     5.055215     0.385141
C        1.120174     6.441513     0.360000
C       -0.031168     7.137235    -0.008888
C       -1.169217     6.439578    -0.377978
C       -1.128770     5.060169    -0.354519
S        0.019758     0.008746     2.399610
N       -0.030881    -2.137927    -0.155114
C        0.039843    -2.965557     0.954250
C       -0.375511    -4.335318     0.692774
C       -0.771852    -4.675372    -0.529191
C       -0.792057    -3.680572    -1.614929
C       -0.414122    -2.455401    -1.382980
C       -0.388828    -1.388066    -2.432896
C       -0.804030    -1.592913    -3.740773
C       -0.775857    -0.577112    -4.650369
C       -0.350050     0.741033    -4.279401
C        0.032454     0.948423    -3.000234
N        0.061417    -0.116379    -2.138545
H        2.070875     4.518730     0.667368
H        2.005690     6.971053     0.645152
H        0.006980     8.214729     0.001953
H       -2.069016     6.962558    -0.668443
H       -2.001723     4.522509    -0.649675
H        0.371373    -2.566946     1.887623
H       -0.349989    -5.040747     1.504700
H       -1.076218    -5.685075    -0.724952
H       -1.112693    -3.995829    -2.561610
H       -1.114605    -2.561415    -3.999218
H       -1.071856    -0.717804    -5.674949
H       -0.350408     1.513387    -5.041969
H        0.357800     1.896942    -2.621471
42
ex_0471 frame4 all-cis-conf2
N       -1.002404     3.566528     3.547137
C       -1.032906     2.597591     2.924423
C       -1.131317     1.422021     2.112246
C       -2.100545     1.421585     1.141542
C       -2.913773     2.606565     1.028155
N       -3.543494     3.571929     0.990099
S       -2.398255     0.064659     0.040894
Mo       0.000000     0.000000     0.000000
O        2.048664    -0.021974     0.007719
Se       0.034839     2.499159    -0.119814
C        0.045065     4.370062    -0.018135
C        1.169748     5.057050     0.382042
C        1.133931     6.446724     0.369034
C       -0.020175     7.143102    -0.005353
C       -1.165717     6.445027    -0.372308
C       -1.127000     5.059246    -0.361294
S        0.003191     0.064124     2.398781
N       -0.043548    -2.140512    -0.105700
C        0.037485    -2.992154     0.992981
C       -0.377340    -4.355047     0.700708
C       -0.775421    -4.687761    -0.530797
C       -0.794308    -3.705485    -1.624115
C       -0.427443    -2.469837    -1.385594
C       -0.409042    -1.389422    -2.455894
C       -0.817731    -1.607587    -3.794641
C       -0.782044    -0.595746    -4.662103
C       -0.341095     0.754337    -4.276069
C        0.045472     0.974001    -3.025390
N        0.029401    -0.092685    -2.141909
H        2.069888     4.522678     0.664784
H        2.012016     6.980590     0.648024
H        0.000181     8.218555    -0.000504
H       -2.069525     6.963798    -0.667901
H       -2.003352     4.520184    -0.659439
H        0.377612    -2.567593     1.916462
H       -0.352280    -5.052965     1.506433
H       -1.079547    -5.693701    -0.727576
H       -1.118376    -4.010882    -2.576137
H       -1.126734    -2.572048    -4.031369
H       -1.076958    -0.728289    -5.680431
H       -0.351548     1.522384    -5.034311
H        0.357667     1.913292    -2.643647
42
ex_0471 frame5 all-cis-conf3
N       -0.998467     3.566882     3.548268
C       -1.034975     2.589102     2.939498
C       -1.134652     1.414221     2.123994
C       -2.109841     1.411999     1.159846
C       -2.930633     2.587026     1.048577
N       -3.563422     3.550452     1.015508
S       -2.395861     0.041590     0.062085
Mo       0.000000     0.000000     0.000000
O        2.052633     0.032744     0.032096
Se       0.000000     2.500000     0.000000
C       -0.005955     4.433932    -0.017640
C       -1.190705     5.139131    -0.175741
C       -1.191597     6.537482    -0.148889
C        0.003270     7.239159     0.008407
C        1.188207     6.529443     0.148405
C        1.179981     5.134261     0.128349
S        0.013038     0.052998     2.398795
N       -0.022821    -2.137785    -0.137252
C        0.044292    -2.987490     0.976900
C       -0.377138    -4.354769     0.699000
C       -0.775284    -4.690786    -0.530543
C       -0.797042    -3.710223    -1.628666
C       -0.420308    -2.475499    -1.402067
C       -0.402141    -1.402814    -2.464618
C       -0.819800    -1.611299    -3.799239
C       -0.781837    -0.594931    -4.665257
C       -0.340321     0.752171    -4.275509
C        0.051158     0.964318    -3.019373
N        0.049496    -0.115525    -2.140152
H       -2.096886     4.615518    -0.306081
H       -2.109522     7.080848    -0.253780
H        0.033792     8.321187     0.021632
H        2.118653     7.053862     0.274410
H        2.094215     4.596867     0.250782
H        0.378109    -2.567756     1.913673
H       -0.352988    -5.054197     1.507188
H       -1.080514    -5.695778    -0.727780
H       -1.121996    -4.014771    -2.578471
H       -1.129976    -2.574256    -4.038616
H       -1.077932    -0.729828    -5.681700
H       -0.353443     1.524735    -5.031741
H        0.357898     1.912511    -2.639152
42
ex_0471 frame6 all-cis-conf4
N       -0.999020     3.565528     3.547854
C       -1.040569     2.597812     2.923253
C       -1.138285     1.418698     2.115117
C       -2.116465     1.408552     1.158577
C       -2.968601     2.558886     1.038757
N       -3.533407     3.561838     1.018280
S       -2.397249     0.048979     0.048987
Mo       0.000000     0.000000     0.000000
O        2.047898    -0.014248     0.020217
Se       0.016402     2.492017    -0.136768
C        0.019129     4.440306    -0.041561
C       -1.180535     5.144801    -0.161154
C       -1.190183     6.541995    -0.143075
C        0.003647     7.242333     0.010579
C        1.190630     6.535127     0.154237
C        1.191090     5.140773     0.142883
S        0.008958     0.065213     2.387350
N       -0.032817    -2.137984    -0.104948
C        0.039960    -2.992564     0.993839
C       -0.377513    -4.356195     0.700922
C       -0.775283    -4.689224    -0.530344
C       -0.794192    -3.707288    -1.624845
C       -0.424818    -2.471793    -1.386745
C       -0.410746    -1.392437    -2.458354
C       -0.818406    -1.610348    -3.797659
C       -0.782750    -0.594821    -4.665866
C       -0.340477     0.753784    -4.278480
C        0.045534     0.972154    -3.025042
N        0.022983    -0.102835    -2.136558
H       -2.087536     4.617979    -0.308632
H       -2.109581     7.081186    -0.256384
H        0.034018     8.322158     0.020620
H        2.120468     7.056000     0.272293
H        2.097681     4.598695     0.248360
H        0.378367    -2.568234     1.918898
H       -0.352663    -5.054115     1.507057
H       -1.079954    -5.694661    -0.727725
H       -1.119820    -4.012681    -2.577417
H       -1.128235    -2.574251    -4.035227
H       -1.077772    -0.729113    -5.681958
H       -0.351101     1.523610    -5.033800
H        0.358322     1.913700    -2.646019
42
ex_0471 frame7 all-cis-conf5
N       -1.005830     3.544958     3.569813
C       -1.026665     2.586036     2.931765
C       -1.119649     1.420233     2.110878
C       -2.083404     1.423327     1.129808
C       -2.851865     2.650838     1.039428
N       -3.578756     3.541169     0.983856
S       -2.399286     0.053544     0.034044
Mo       0.000000     0.000000     0.000000
O        2.049526     0.001703     0.013959
Se       0.000000     2.500000     0.000000
C       -0.003259     4.431421     0.017102
C        0.749354     5.118095    -0.904719
C        0.749145     6.510177    -0.928592
C        0.003009     7.230207    -0.014050
C       -0.753870     6.533499     0.926811
C       -0.754016     5.130907     0.946034
S        0.033247     0.039375     2.400294
N       -0.029914    -2.139361    -0.141446
C        0.041812    -2.984025     0.980049
C       -0.376403    -4.344768     0.697454
C       -0.773324    -4.680043    -0.531738
C       -0.794057    -3.695205    -1.622216
C       -0.415764    -2.469018    -1.387283
C       -0.386226    -1.388886    -2.450115
C       -0.816174    -1.598424    -3.784458
C       -0.780409    -0.601200    -4.650002
C       -0.341848     0.755329    -4.265300
C        0.039170     0.970356    -3.028344
N        0.077242    -0.121525    -2.139975
H        1.323592     4.584888    -1.620529
H        1.340186     7.010181    -1.665620
H        0.026451     8.309921    -0.055374
H       -1.335493     7.073175     1.636354
H       -1.344082     4.631696     1.641262
H        0.375165    -2.566637     1.899850
H       -0.351249    -5.044862     1.504816
H       -1.077520    -5.688752    -0.725996
H       -1.117283    -4.002687    -2.568356
H       -1.120012    -2.565642    -4.013664
H       -1.073956    -0.722896    -5.677331
H       -0.351293     1.517439    -5.037637
H        0.356694     1.903245    -2.629283
42
ex_0471 frame8 all-cis-conf6
N       -0.992529     3.534039     3.590617
C       -1.044432     2.587801     2.937984
C       -1.140281     1.437201     2.124981
C       -2.129857     1.415011     1.129674
C       -2.998758     2.591710     1.002394
N       -3.557405     3.576202     0.968924
S       -2.393554     0.059394     0.021965
Mo       0.000000     0.000000     0.000000
O        2.047986    -0.019629     0.009679
Se       0.016910     2.500762    -0.115472
C        0.007096     4.427668    -0.015423
C        0.765662     5.127147    -0.913808
C        0.755571     6.510134    -0.933527
C        0.004819     7.228751    -0.013905
C       -0.752965     6.532428     0.928232
C       -0.742473     5.132010     0.936049
S        0.008746     0.074914     2.399083
N       -0.034994    -2.140042    -0.102943
C        0.042646    -2.996041     0.994231
C       -0.376834    -4.356752     0.701585
C       -0.776026    -4.689246    -0.531096
C       -0.794150    -3.709621    -1.627723
C       -0.427168    -2.475325    -1.390853
C       -0.412806    -1.391221    -2.463231
C       -0.820481    -1.610165    -3.804019
C       -0.783221    -0.599443    -4.663865
C       -0.339106     0.757130    -4.274996
C        0.047970     0.977992    -3.028544
N        0.021193    -0.095653    -2.141019
H        1.329861     4.582904    -1.630250
H        1.342202     7.016154    -1.669324
H        0.023427     8.310994    -0.051936
H       -1.340391     7.075723     1.640504
H       -1.350680     4.636309     1.633576
H        0.378256    -2.566655     1.918106
H       -0.352450    -5.053147     1.506675
H       -1.080012    -5.694374    -0.727643
H       -1.119819    -4.013042    -2.578091
H       -1.128211    -2.573671    -4.035099
H       -1.077488    -0.729867    -5.680978
H       -0.351511     1.523285    -5.033118
H        0.358455     1.915095    -2.644152
42
ex_0471 frame9 all-cis-conf7
N       -1.042809     3.497661     3.670386
C       -1.082346     2.551858     3.015055
C       -1.162139     1.420333     2.155891
C       -2.128629     1.429577     1.181762
C       -2.979256     2.589739     1.082882
N       -3.538634     3.595570     0.980036
S       -2.398353     0.084486     0.022627
Mo       0.000000     0.000000     0.000000
O        2.048595     0.007419     0.064963
Se       0.000000     2.500000     0.000000
C        0.007171     4.424896     0.014028
C        0.029712     5.146367     1.209576
C        0.014423     6.541236     1.191101
C        0.001159     7.217583    -0.027958
C       -0.006990     6.499980    -1.221633
C       -0.010484     5.107832    -1.191949
S        0.020628     0.086696     2.398252
N       -0.025628    -2.139673    -0.134697
C        0.062420    -2.997946     0.988011
C       -0.375221    -4.371513     0.704125
C       -0.777835    -4.708041    -0.529706
C       -0.794514    -3.733250    -1.638292
C       -0.424885    -2.489966    -1.410309
C       -0.416244    -1.410915    -2.481567
C       -0.821927    -1.625919    -3.835321
C       -0.785620    -0.596803    -4.689379
C       -0.334287     0.754620    -4.287079
C        0.049780     0.972279    -3.028117
N        0.014580    -0.110193    -2.141884
H        0.080972     4.655243     2.136825
H        0.022613     7.104012     2.111393
H        0.005207     8.294491    -0.055763
H       -0.011953     7.015347    -2.171640
H       -0.019461     4.550868    -2.108501
H        0.381349    -2.573814     1.942105
H       -0.356872    -5.074174     1.512636
H       -1.088116    -5.711741    -0.728912
H       -1.126095    -4.038969    -2.596192
H       -1.145847    -2.593484    -4.086902
H       -1.089596    -0.738941    -5.700110
H       -0.348422     1.538471    -5.028126
H        0.359778     1.933587    -2.659355
42
ex_0471 frame10 all-cis-conf8
N       -1.047204     3.504511     3.646568
C       -1.080416     2.564772     2.981621
C       -1.162608     1.423185     2.135804
C       -2.125494     1.421033     1.159011
C       -2.966067     2.583175     1.036165
N       -3.519371     3.592559     0.948546
S       -2.399209     0.059858     0.028238
Mo       0.000000     0.000000     0.000000
O        2.048533    -0.026124     0.000311
Se       0.018035     2.501211    -0.099223
C        0.019751     4.425041    -0.004711
C        0.038693     5.135433     1.204456
C        0.013516     6.535218     1.191524
C        0.002288     7.216877    -0.025845
C       -0.006205     6.505728    -1.220898
C        0.001267     5.119285    -1.195922
S        0.011088     0.086125     2.398279
N       -0.041726    -2.136796    -0.099981
C        0.044885    -3.000278     1.005273
C       -0.377832    -4.368637     0.705717
C       -0.777032    -4.701345    -0.529035
C       -0.792077    -3.723463    -1.630984
C       -0.429749    -2.481745    -1.391520
C       -0.418735    -1.398468    -2.470404
C       -0.820266    -1.619806    -3.822007
C       -0.785371    -0.595614    -4.681323
C       -0.336165     0.756065    -4.286271
C        0.046540     0.978678    -3.030487
N        0.007220    -0.096617    -2.142029
H        0.078444     4.649544     2.132732
H        0.018641     7.102670     2.109175
H        0.005566     8.292806    -0.056110
H       -0.013960     7.016830    -2.172284
H       -0.017347     4.557473    -2.108096
H        0.381190    -2.571815     1.941406
H       -0.355388    -5.068679     1.510995
H       -1.084234    -5.704911    -0.729416
H       -1.122129    -4.027816    -2.588846
H       -1.139230    -2.587102    -4.067375
H       -1.085148    -0.736665    -5.692742
H       -0.348412     1.533262    -5.031653
H        0.360534     1.931443    -2.660577
42
ex_0471 frame11 all-cis-conf9
N       -0.985426     3.566425     3.564393
C       -1.047241     2.589547     2.956331
C       -1.143794     1.419670     2.136053
C       -2.132621     1.412352     1.179598
C       -2.999175     2.550551     1.087311
N       -3.647189     3.495931     0.947478
S       -2.398719     0.063450     0.044468
Mo       0.000000     0.000000     0.000000
O        2.049019     0.021590     0.038570
Se       0.000000     2.500000     0.000000
C        0.004327     4.442383     0.014095
C       -1.027310     5.153960     0.572341
C       -1.061394     6.537582     0.562343
C       -0.009386     7.245090    -0.003490
C        1.061558     6.546979    -0.558707
C        1.072581     5.142386    -0.551824
S        0.031927     0.073848     2.398587
N       -0.030170    -2.139157    -0.146004
C        0.052805    -2.989821     0.972632
C       -0.376866    -4.361388     0.698074
C       -0.777810    -4.699502    -0.532615
C       -0.798227    -3.723671    -1.640032
C       -0.427885    -2.483792    -1.415071
C       -0.416491    -1.407146    -2.478920
C       -0.820578    -1.618956    -3.822615
C       -0.784334    -0.594847    -4.679704
C       -0.336526     0.753820    -4.282137
C        0.047692     0.969084    -3.024012
N        0.015891    -0.110951    -2.141722
H       -1.788402     4.651045     1.016174
H       -1.906617     7.043085     0.999869
H       -0.018169     8.326435    -0.008673
H        1.868246     7.110205    -0.993218
H        1.900789     4.611925    -0.991170
H        0.378085    -2.569535     1.919848
H       -0.354370    -5.061847     1.509211
H       -1.084083    -5.704007    -0.728285
H       -1.124231    -4.029978    -2.591623
H       -1.138345    -2.584684    -4.064476
H       -1.084406    -0.734054    -5.691296
H       -0.350374     1.531941    -5.029335
H        0.357084     1.923285    -2.649243
42
ex_0471 frame12 all-cis-conf10
N       -0.993803     3.564546     3.556547
C       -1.035991     2.592982     2.938662
C       -1.137492     1.424018     2.123164
C       -2.121601     1.409932     1.163178
C       -2.979861     2.554515     1.048549
N       -3.646728     3.495792     0.994525
S       -2.385331     0.027583     0.044838
Mo       0.000000     0.000000     0.000000
O        2.060362    -0.003073    -0.007333
Se       0.022716     2.499920    -0.124655
C        0.037721     4.441209    -0.033342
C       -1.008356     5.143993     0.559742
C       -1.059719     6.530671     0.561404
C       -0.010399     7.243959    -0.001982
C        1.064625     6.550834    -0.558386
C        1.092811     5.149900    -0.559024
S        0.022673     0.081914     2.395701
N       -0.047033    -2.141324    -0.098396
C        0.042908    -2.999071     1.000178
C       -0.377551    -4.363169     0.702898
C       -0.777016    -4.694866    -0.530327
C       -0.794266    -3.716699    -1.629130
C       -0.432481    -2.477510    -1.390598
C       -0.420145    -1.395464    -2.467219
C       -0.821241    -1.616529    -3.812669
C       -0.784634    -0.597224    -4.672359
C       -0.337960     0.756153    -4.280672
C        0.047375     0.977528    -3.028818
N        0.005581    -0.105030    -2.136924
H       -1.783191     4.649217     0.997815
H       -1.906465     7.039208     0.998847
H       -0.017651     8.326097    -0.007437
H        1.866870     7.112891    -0.991743
H        1.906100     4.614507    -0.998480
H        0.379917    -2.568693     1.929147
H       -0.353534    -5.060040     1.508057
H       -1.081814    -5.698677    -0.728798
H       -1.120921    -4.019641    -2.583744
H       -1.133498    -2.579303    -4.049639
H       -1.080276    -0.733397    -5.684723
H       -0.350915     1.527576    -5.031160
H        0.358005     1.921321    -2.653353
42
ex_0471 frame13 all-cis-conf12
N       -1.307392     3.355912     3.833069
C       -1.289916     2.428322     3.158263
C       -1.272910     1.320910     2.240548
C       -2.242572     1.310860     1.295118
C       -3.177829     2.388778     1.244666
N       -3.854567     3.343616     1.317072
S       -2.396653     0.020741     0.124327
Mo       0.000000     0.000000     0.000000
O        2.046360     0.057911     0.075174
Se       0.000000     2.500000     0.000000
C        0.000478     4.370624     0.009721
C        1.157550     5.053963     0.385750
C        1.128006     6.443553     0.361678
C       -0.030674     7.139746    -0.008036
C       -1.168004     6.442325    -0.378358
C       -1.138162     5.056290    -0.353373
S        0.029757     0.012951     2.399188
N        0.047970    -2.127581    -0.152189
C       -0.040272    -2.967119     0.975501
C        0.372796    -4.332915     0.672885
C        0.762108    -4.683401    -0.549005
C        0.780649    -3.690912    -1.623983
C        0.424398    -2.457931    -1.365279
C        0.433041    -1.368013    -2.440168
C        0.794024    -1.593651    -3.773257
C        0.769814    -0.603337    -4.656604
C        0.336427     0.749926    -4.273103
C       -0.019722     0.953462    -3.028212
N        0.080756    -0.111406    -2.126071
H        2.070513     4.519780     0.666892
H        2.004632     6.971593     0.644589
H        0.005544     8.214485     0.001493
H       -2.069172     6.962348    -0.668744
H       -2.005341     4.519361    -0.647613
H       -0.367165    -2.584145     1.914718
H        0.356615    -5.043795     1.453486
H        1.069190    -5.706879    -0.763599
H        1.094744    -4.000884    -2.569022
H        1.093936    -2.565505    -4.005809
H        1.056005    -0.720869    -5.696266
H        0.343483     1.512320    -5.051594
H       -0.352673     1.875193    -2.593759
42
ex_0471 frame14 all-cis-conf13
N       -1.232416     3.356099     3.898028
C       -1.290460     2.438277     3.203787
C       -1.299571     1.355148     2.267225
C       -2.262673     1.337308     1.310866
C       -3.212877     2.412877     1.274643
N       -3.894438     3.341951     1.283015
S       -2.395676     0.038245     0.102620
Mo       0.000000     0.000000     0.000000
O        2.049579     0.007897    -0.046308
Se       0.000000     2.500000     0.000000
C        0.009920     4.427669    -0.020568
C       -1.190630     5.131346    -0.182483
C       -1.193167     6.534168    -0.156199
C        0.007528     7.234226     0.004419
C        1.201442     6.527212     0.145183
C        1.203113     5.128336     0.124493
S       -0.040211     0.094748     2.398189
N        0.037099    -2.139713    -0.142850
C       -0.068628    -3.007416     0.984662
C        0.370872    -4.387077     0.689273
C        0.766594    -4.724801    -0.548581
C        0.782082    -3.749919    -1.654697
C        0.433690    -2.501420    -1.423814
C        0.445725    -1.422101    -2.496547
C        0.816193    -1.642851    -3.866365
C        0.779817    -0.604788    -4.715367
C        0.337567     0.751977    -4.300729
C       -0.008786     0.969495    -3.030134
N        0.071485    -0.112775    -2.140869
H       -2.121335     4.595308    -0.287176
H       -2.120397     7.082189    -0.253739
H        0.022952     8.319238     0.022756
H        2.128752     7.062336     0.276654
H        2.122525     4.590142     0.251646
H       -0.372129    -2.593793     1.963616
H        0.362532    -5.099899     1.488022
H        1.078369    -5.729012    -0.758694
H        1.109033    -4.057624    -2.615883
H        1.130436    -2.615369    -4.129101
H        1.075171    -0.749080    -5.729503
H        0.321049     1.540730    -5.038819
H       -0.337357     1.928942    -2.655486
42
ex_0471 frame15 all-cis-conf14
N       -1.253596     3.352028     3.886460
C       -1.299533     2.433204     3.190570
C       -1.296254     1.356906     2.255362
C       -2.270963     1.346065     1.278080
C       -3.199550     2.424535     1.217328
N       -3.901735     3.342277     1.271987
S       -2.396216     0.050594     0.118127
Mo       0.000000     0.000000     0.000000
O        2.049502    -0.011947    -0.068050
Se       0.000000     2.500000     0.000000
C       -0.008479     4.425545     0.018279
C        0.750598     5.119105    -0.913411
C        0.756816     6.510275    -0.935360
C        0.003582     7.228628    -0.014126
C       -0.758190     6.537473     0.933721
C       -0.764170     5.136084     0.951517
S       -0.036157     0.083913     2.398615
N        0.033516    -2.140081    -0.139158
C       -0.070769    -3.002180     0.982496
C        0.370871    -4.373262     0.684227
C        0.766193    -4.710954    -0.549761
C        0.782712    -3.733464    -1.646210
C        0.431271    -2.490130    -1.413923
C        0.443635    -1.412042    -2.484943
C        0.813151    -1.631771    -3.842186
C        0.777231    -0.601775    -4.698632
C        0.337191     0.752677    -4.294269
C       -0.012201     0.969449    -3.025886
N        0.071219    -0.107362    -2.140566
H        1.332375     4.577593    -1.630915
H        1.347570     7.022559    -1.673658
H        0.019726     8.311525    -0.047395
H       -1.344879     7.083268     1.648980
H       -1.352964     4.610908     1.673049
H       -0.372476    -2.586409     1.951319
H        0.359568    -5.080637     1.478332
H        1.074538    -5.716301    -0.760093
H        1.106795    -4.037437    -2.602055
H        1.119421    -2.601306    -4.086440
H        1.067303    -0.742378    -5.712999
H        0.327336     1.530858    -5.041731
H       -0.344326     1.914832    -2.636198
42
ex_0471 frame16 all-cis-conf15
N       -1.259153     3.333729     3.893435
C       -1.262309     2.433057     3.176505
C       -1.268321     1.342839     2.262194
C       -2.228430     1.344270     1.330941
C       -3.157105     2.427647     1.311231
N       -3.923399     3.290103     1.225767
S       -2.392569     0.084008     0.145319
Mo       0.000000     0.000000     0.000000
O        2.047918    -0.011572    -0.062801
Se       0.000000     2.500000     0.000000
C       -0.003432     4.419958     0.018310
C        0.005260     5.127857     1.229952
C        0.008863     6.532149     1.199664
C        0.003431     7.212753    -0.024906
C       -0.007289     6.497715    -1.220185
C       -0.014668     5.105646    -1.186421
S       -0.025607     0.073897     2.399383
N        0.036519    -2.140838    -0.133951
C       -0.068653    -3.003778     0.990073
C        0.372012    -4.374048     0.686758
C        0.766748    -4.707473    -0.549016
C        0.784031    -3.733229    -1.644343
C        0.433773    -2.491577    -1.413395
C        0.445520    -1.411933    -2.488697
C        0.814444    -1.630661    -3.844568
C        0.776942    -0.601321    -4.694169
C        0.335172     0.753682    -4.290471
C       -0.014275     0.971865    -3.025679
N        0.070723    -0.106148    -2.140491
H        0.019763     4.606359     2.175407
H        0.018403     7.102130     2.114756
H        0.008500     8.290830    -0.054041
H       -0.009883     7.017034    -2.171719
H       -0.019054     4.554914    -2.104853
H       -0.376192    -2.580757     1.957201
H        0.356815    -5.075367     1.483390
H        1.072384    -5.711302    -0.760217
H        1.107206    -4.035590    -2.600231
H        1.118465    -2.597003    -4.084176
H        1.066005    -0.744707    -5.705473
H        0.326961     1.528198    -5.036323
H       -0.345037     1.915659    -2.639429
42
ex_0471 frame17 all-cis-conf16
N       -1.223946     3.342734     3.893328
C       -1.275860     2.427359     3.194635
C       -1.282771     1.341780     2.261273
C       -2.244868     1.334393     1.304161
C       -3.178060     2.421180     1.277408
N       -3.914999     3.308773     1.284264
S       -2.396735     0.047158     0.093141
Mo       0.000000     0.000000     0.000000
O        2.050586    -0.027762    -0.064983
Se       0.000000     2.500000     0.000000
C       -0.002843     4.435433     0.010284
C       -1.060932     5.135407     0.571326
C       -1.073445     6.530578     0.566222
C       -0.013292     7.241917     0.000776
C        1.058165     6.547297    -0.556714
C        1.066548     5.143846    -0.550324
S       -0.031202     0.075098     2.398922
N        0.031616    -2.141508    -0.140998
C       -0.073208    -3.002553     0.980104
C        0.369974    -4.374576     0.684000
C        0.766209    -4.712953    -0.550085
C        0.783375    -3.735898    -1.648392
C        0.431558    -2.491593    -1.416664
C        0.445520    -1.413195    -2.487334
C        0.813756    -1.633212    -3.846224
C        0.777811    -0.602016    -4.701631
C        0.337465     0.752624    -4.295666
C       -0.010140     0.969720    -3.026688
N        0.075695    -0.106746    -2.140548
H       -1.865690     4.597880     1.001335
H       -1.911436     7.048270     0.999908
H       -0.018612     8.325474    -0.006786
H        1.871120     7.108375    -0.993233
H        1.897525     4.613251    -0.988856
H       -0.371979    -2.587774     1.950863
H        0.359706    -5.082919     1.479377
H        1.075520    -5.718648    -0.759667
H        1.107378    -4.041216    -2.604813
H        1.120868    -2.603046    -4.093593
H        1.068455    -0.743119    -5.716366
H        0.325535     1.532343    -5.041765
H       -0.342579     1.916845    -2.639389
42
ex_0471 frame18 all-cis-conf17
N       -1.240250     3.335154     3.972705
C       -1.308941     2.433784     3.259171
C       -1.319657     1.363315     2.299642
C       -2.275802     1.348010     1.341355
C       -3.221933     2.427468     1.300026
N       -3.954204     3.320763     1.260265
S       -2.395982     0.038811     0.137778
Mo       0.000000     0.000000     0.000000
O        2.047908    -0.000059    -0.084432
Se       0.000000     2.500000     0.000000
C       -0.008651     4.375352     0.015672
C        1.141837     5.068700     0.393835
C        1.139443     6.461016     0.378624
C       -0.014559     7.155306     0.001568
C       -1.168184     6.453803    -0.365388
C       -1.162867     5.062002    -0.350108
S       -0.063547     0.098673     2.397944
N        0.048273    -2.140913    -0.146878
C       -0.089406    -3.024157     0.974644
C        0.413450    -4.396201     0.702893
C        0.860692    -4.723906    -0.522215
C        0.881136    -3.750018    -1.638295
C        0.493181    -2.501791    -1.420286
C        0.509322    -1.422029    -2.497499
C        0.922935    -1.630192    -3.871404
C        0.878173    -0.583670    -4.714646
C        0.380201     0.761076    -4.300035
C       -0.000189     0.966006    -3.035921
N        0.091686    -0.116881    -2.140488
H        2.042611     4.530418     0.671554
H        2.034014     6.998812     0.650785
H       -0.008668     8.234047    -0.009220
H       -2.063169     6.978673    -0.669791
H       -2.044206     4.511300    -0.647664
H       -0.407103    -2.628517     1.958520
H        0.410375    -5.115235     1.507479
H        1.213857    -5.721649    -0.709688
H        1.245651    -4.052841    -2.596296
H        1.280174    -2.593733    -4.147360
H        1.211484    -0.717921    -5.722395
H        0.349169     1.564233    -5.025318
H       -0.363860     1.927121    -2.683079
42
ex_0471 frame19 all-cis-conf18
N       -1.330280     3.313780     3.897054
C       -1.284839     2.426573     3.161984
C       -1.267011     1.321512     2.246305
C       -2.237860     1.319665     1.292179
C       -3.162412     2.435524     1.313331
N       -3.919316     3.337931     1.319108
S       -2.397243     0.050363     0.079825
Mo       0.000000     0.000000     0.000000
O        2.048985     0.048206     0.023054
Se       0.000000     2.500000     0.000000
C        0.006654     4.429892    -0.010845
C       -1.192814     5.134668    -0.165376
C       -1.191129     6.537009    -0.147356
C        0.001842     7.240190     0.007870
C        1.186208     6.532767     0.149349
C        1.186429     5.137281     0.132672
S        0.003614     0.040033     2.400394
N        0.032908    -2.140787    -0.136487
C       -0.045087    -2.998148     0.972018
C        0.421426    -4.352851     0.696736
C        0.856992    -4.677132    -0.518752
C        0.874259    -3.685916    -1.603909
C        0.475591    -2.459868    -1.384032
C        0.486682    -1.385987    -2.447553
C        0.898392    -1.589268    -3.772605
C        0.865989    -0.573228    -4.651079
C        0.377708     0.761663    -4.276239
C       -0.018565     0.959276    -3.019123
N        0.073075    -0.108009    -2.138891
H       -2.113445     4.594361    -0.275896
H       -2.106369     7.079690    -0.253598
H        0.036144     8.320730     0.021164
H        2.118128     7.053173     0.273066
H        2.092212     4.598866     0.250940
H       -0.404571    -2.625752     1.915256
H        0.402413    -5.067159     1.488748
H        1.193902    -5.682834    -0.704739
H        1.230568    -3.978391    -2.543728
H        1.233411    -2.541222    -3.993132
H        1.187146    -0.695056    -5.667002
H        0.374792     1.536513    -5.031229
H       -0.395066     1.878718    -2.612698
42
ex_0471 frame20 all-cis-conf19
N       -1.342494     3.313775     3.886576
C       -1.294224     2.423625     3.156923
C       -1.268654     1.322821     2.250133
C       -2.241420     1.315560     1.298098
C       -3.223931     2.372767     1.223543
N       -3.820861     3.354050     1.384818
S       -2.395066     0.082922     0.121598
Mo       0.000000     0.000000     0.000000
O        2.047990    -0.060456    -0.007575
Se       0.000000     2.500000     0.000000
C       -0.008260     4.443605     0.019110
C        0.740286     5.120619    -0.901255
C        0.746465     6.513324    -0.925908
C        0.001381     7.230775    -0.013099
C       -0.752174     6.531829     0.924049
C       -0.758075     5.127544     0.947287
S        0.014834     0.018255     2.400846
N        0.027992    -2.139151    -0.137997
C       -0.046708    -2.987202     0.970782
C        0.420295    -4.341498     0.692316
C        0.855544    -4.668384    -0.519781
C        0.872811    -3.667317    -1.596639
C        0.475373    -2.445835    -1.356605
C        0.515693    -1.355628    -2.413961
C        0.909173    -1.567512    -3.737714
C        0.836436    -0.576395    -4.645235
C        0.374511     0.752736    -4.276112
C        0.023027     0.963067    -3.005882
N        0.167568    -0.121134    -2.110719
H        1.321283     4.587161    -1.617860
H        1.339811     7.007831    -1.663995
H        0.027986     8.309107    -0.057129
H       -1.333153     7.071583     1.635276
H       -1.339798     4.606878     1.665070
H       -0.400876    -2.628565     1.903892
H        0.401256    -5.061142     1.486331
H        1.192635    -5.681455    -0.702959
H        1.226170    -3.969582    -2.535557
H        1.235913    -2.530035    -3.971181
H        1.112351    -0.709286    -5.682161
H        0.333559     1.519487    -5.044877
H       -0.335552     1.887887    -2.587247
42
ex_0471 frame21 all-cis-conf20
N       -1.318923     3.308690     3.915990
C       -1.297422     2.424942     3.176361
C       -1.291033     1.331519     2.254783
C       -2.254020     1.320038     1.299117
C       -3.200450     2.402337     1.270981
N       -3.874452     3.337636     1.324531
S       -2.384956     0.039687     0.103777
Mo       0.000000     0.000000     0.000000
O        2.047325    -0.011800    -0.065881
Se       0.000000     2.500000     0.000000
C       -0.005162     4.417732     0.035771
C        0.001786     5.125693     1.239299
C        0.008562     6.529135     1.200015
C        0.003433     7.211191    -0.023318
C       -0.007254     6.499515    -1.216905
C       -0.016154     5.108631    -1.179085
S       -0.031505     0.059353     2.399025
N        0.038609    -2.140023    -0.133279
C       -0.069188    -3.010674     0.978458
C        0.418900    -4.366404     0.700600
C        0.858546    -4.688203    -0.518224
C        0.877863    -3.703932    -1.611982
C        0.483310    -2.472785    -1.391934
C        0.496795    -1.393183    -2.463824
C        0.907221    -1.600602    -3.802111
C        0.869315    -0.575175    -4.666160
C        0.377818     0.765017    -4.280679
C       -0.013538     0.968599    -3.023162
N        0.083572    -0.102670    -2.139857
H        0.014930     4.600703     2.182990
H        0.018500     7.103946     2.107055
H        0.008609     8.289047    -0.057728
H       -0.009555     7.013204    -2.171605
H       -0.019224     4.552215    -2.100606
H       -0.408210    -2.623193     1.933794
H        0.403766    -5.078760     1.495109
H        1.198189    -5.687965    -0.706769
H        1.235330    -3.994038    -2.556507
H        1.245321    -2.557009    -4.027004
H        1.192318    -0.703130    -5.674585
H        0.366853     1.542426    -5.029436
H       -0.389337     1.894529    -2.630299
42
ex_0471 frame22 all-cis-conf21
N       -1.273130     3.316162     3.952921
C       -1.285027     2.432561     3.213702
C       -1.299200     1.352055     2.279331
C       -2.260217     1.345750     1.329401
C       -3.204832     2.426175     1.300293
N       -3.939410     3.316355     1.277981
S       -2.396719     0.054598     0.120344
Mo       0.000000     0.000000     0.000000
O        2.048069    -0.021900    -0.078188
Se       0.000000     2.500000     0.000000
C       -0.001089     4.435773     0.007316
C       -1.063518     5.136336     0.569971
C       -1.076332     6.532156     0.567451
C       -0.014506     7.241600     0.001510
C        1.058987     6.547088    -0.557301
C        1.067674     5.143889    -0.553773
S       -0.054939     0.079993     2.398536
N        0.040036    -2.139747    -0.139728
C       -0.094764    -3.021591     0.977217
C        0.412234    -4.386052     0.703888
C        0.859235    -4.709860    -0.519255
C        0.879286    -3.733110    -1.627901
C        0.488668    -2.491478    -1.409216
C        0.506550    -1.410617    -2.485508
C        0.918690    -1.619630    -3.846164
C        0.875206    -0.580181    -4.695688
C        0.378755     0.763742    -4.292044
C       -0.005231     0.969550    -3.030765
N        0.093219    -0.109159    -2.139961
H       -1.872286     4.602392     1.006224
H       -1.913592     7.054822     1.002342
H       -0.020032     8.324933    -0.005850
H        1.875850     7.104618    -0.994554
H        1.899114     4.611961    -0.989675
H       -0.410489    -2.625834     1.955711
H        0.407322    -5.102719     1.504820
H        1.209474    -5.706228    -0.708749
H        1.244228    -4.029230    -2.580760
H        1.268541    -2.582745    -4.100887
H        1.204069    -0.714887    -5.701715
H        0.354296     1.556150    -5.026498
H       -0.375088     1.918398    -2.663932
42
ex_0471 frame23 all-cis-conf27
N       -2.572806     0.725288     5.184922
C       -2.230265     0.548941     4.097069
C       -1.803254     0.328655     2.737189
C       -2.741731     0.309736     1.792118
C       -4.106477     0.546371     2.191788
N       -5.164217     0.752767     2.607173
S       -2.399610     0.009303     0.072626
Mo       0.000000     0.000000     0.000000
O        2.049670     0.002715     0.002524
Se       0.000000     2.500000     0.000000
C       -0.011296     4.368024     0.017747
C        1.141160     5.056228     0.397122
C        1.132226     6.445959     0.368398
C       -0.019059     7.143539    -0.003692
C       -1.168545     6.445783    -0.373330
C       -1.159050     5.057543    -0.344339
S       -0.068943     0.098427     2.398026
N        0.051546    -2.139715    -0.124249
C       -0.085656    -3.011782     0.969421
C        0.808905    -4.170656     0.890948
C        1.644377    -4.307282    -0.146882
C        1.681797    -3.320577    -1.239322
C        0.902566    -2.267095    -1.191726
C        0.903319    -1.179168    -2.261861
C        1.736584    -1.203608    -3.399084
C        1.665035    -0.205747    -4.280663
C        0.722770     0.925707    -4.108797
C       -0.064645     0.968497    -3.033461
N        0.046650    -0.086885    -2.141373
H        2.057632     4.523855     0.666457
H        2.016774     6.981554     0.644093
H       -0.000895     8.220336    -0.002512
H       -2.067706     6.966331    -0.672800
H       -2.024114     4.511475    -0.649625
H       -0.809235    -2.760334     1.729450
H        0.755912    -4.886093     1.681780
H        2.294505    -5.157350    -0.204338
H        2.371499    -3.456955    -2.019777
H        2.384986    -2.014383    -3.476605
H        2.294333    -0.211617    -5.144643
H        0.719733     1.697092    -4.851603
H       -0.764025     1.741224    -2.788404
42
ex_0471 frame24 all-cis-conf28
N       -2.574351     0.726076     5.184517
C       -2.230430     0.554713     4.096686
C       -1.805596     0.322672     2.740022
C       -2.744506     0.285080     1.798068
C       -4.109592     0.541450     2.187431
N       -5.166839     0.755430     2.600378
S       -2.398149    -0.063993     0.093086
Mo       0.000000     0.000000     0.000000
O        2.045317     0.072884    -0.003772
Se       0.000000     2.500000     0.000000
C        0.005983     4.432913    -0.009974
C       -1.192043     5.134854    -0.163858
C       -1.192502     6.536835    -0.149907
C        0.004500     7.238401     0.007092
C        1.192473     6.531388     0.147712
C        1.190120     5.137959     0.134367
S       -0.065294     0.099355     2.394438
N        0.053938    -2.139682    -0.125699
C       -0.086584    -3.012516     0.968975
C        0.809078    -4.171455     0.891176
C        1.644751    -4.307662    -0.146863
C        1.681492    -3.321677    -1.240340
C        0.902367    -2.267738    -1.192502
C        0.901424    -1.180481    -2.262128
C        1.736726    -1.203482    -3.400574
C        1.664699    -0.205037    -4.281507
C        0.722647     0.926037    -4.108940
C       -0.065871     0.968118    -3.033246
N        0.040547    -0.087745    -2.141811
H       -2.117146     4.592453    -0.275611
H       -2.112261     7.081303    -0.254027
H        0.031672     8.321157     0.021502
H        2.120729     7.056124     0.273709
H        2.101950     4.596231     0.250563
H       -0.810580    -2.760540     1.730293
H        0.756284    -4.886566     1.682078
H        2.294735    -5.157541    -0.204128
H        2.372659    -3.457602    -2.020515
H        2.386137    -2.014157    -3.478010
H        2.294695    -0.211601    -5.144707
H        0.720366     1.697946    -4.851121
H       -0.763768     1.743361    -2.789769
42
ex_0471 frame25 all-cis-conf29
N       -2.592575     0.725932     5.169662
C       -2.236904     0.549324     4.086075
C       -1.798687     0.328849     2.735854
C       -2.732785     0.301673     1.787256
C       -4.109423     0.546658     2.176370
N       -5.145402     0.755151     2.635010
S       -2.381430    -0.020682     0.058864
Mo       0.000000     0.000000     0.000000
O        2.050964     0.023331    -0.009856
Se       0.000000     2.500000     0.000000
C       -0.015166     4.421967     0.033820
C        0.740489     5.126620    -0.896645
C        0.748724     6.514654    -0.927645
C        0.002302     7.231580    -0.014050
C       -0.753327     6.534608     0.927823
C       -0.759223     5.133230     0.960994
S       -0.071933     0.107262     2.395436
N        0.065750    -2.134513    -0.129129
C       -0.077555    -3.001523     0.958654
C        0.804569    -4.157622     0.884268
C        1.637682    -4.296286    -0.148125
C        1.675856    -3.295100    -1.224323
C        0.889507    -2.250749    -1.172462
C        0.867534    -1.163511    -2.236964
C        1.715071    -1.190096    -3.365224
C        1.656276    -0.209383    -4.264437
C        0.728536     0.917213    -4.095943
C       -0.063969     0.960827    -3.028225
N        0.004922    -0.090415    -2.141611
H        1.321283     4.586105    -1.617607
H        1.340151     7.009791    -1.665975
H        0.026746     8.309949    -0.056002
H       -1.335235     7.073146     1.636070
H       -1.341227     4.602856     1.669620
H       -0.792093    -2.759241     1.709900
H        0.749309    -4.873821     1.675085
H        2.289091    -5.150603    -0.206698
H        2.356556    -3.443328    -2.006720
H        2.358212    -2.006267    -3.446771
H        2.284418    -0.207934    -5.141849
H        0.726642     1.686956    -4.849449
H       -0.764606     1.713758    -2.774655
42
ex_0471 frame26 all-cis-conf30
N       -2.581027     0.727493     5.190743
C       -2.236133     0.548712     4.096255
C       -1.811133     0.333154     2.742559
C       -2.748199     0.314156     1.790806
C       -4.115492     0.556675     2.177680
N       -5.170717     0.762290     2.600180
S       -2.399253     0.007265     0.082331
Mo       0.000000     0.000000     0.000000
O        2.050220     0.007210     0.002627
Se       0.000000     2.500000     0.000000
C       -0.006039     4.416426     0.026031
C        0.000307     5.122373     1.237712
C        0.008064     6.527296     1.200911
C        0.003646     7.210057    -0.022460
C       -0.008055     6.499071    -1.215998
C       -0.016902     5.108404    -1.182388
S       -0.070571     0.102614     2.393048
N        0.054121    -2.135656    -0.117493
C       -0.088296    -3.013809     0.973180
C        0.808593    -4.172391     0.892676
C        1.644331    -4.308183    -0.145827
C        1.680270    -3.322152    -1.237971
C        0.902089    -2.267793    -1.188033
C        0.900085    -1.181001    -2.259901
C        1.735817    -1.204754    -3.399751
C        1.664550    -0.205145    -4.281703
C        0.722602     0.925317    -4.108939
C       -0.066242     0.967157    -3.033025
N        0.040584    -0.090595    -2.141707
H        0.008481     4.593344     2.189413
H        0.018817     7.104017     2.105961
H        0.008968     8.288112    -0.058264
H       -0.009099     7.012164    -2.171256
H       -0.019894     4.551669    -2.099188
H       -0.812296    -2.761324     1.734586
H        0.757142    -4.888158     1.682402
H        2.295280    -5.157930    -0.204119
H        2.371045    -3.458205    -2.020629
H        2.387393    -2.014874    -3.479252
H        2.295417    -0.211268    -5.145283
H        0.720033     1.698533    -4.851053
H       -0.764025     1.743470    -2.789867
42
ex_0471 frame27 all-cis-conf31
N       -2.572014     0.726285     5.186351
C       -2.229596     0.551370     4.098208
C       -1.804194     0.325807     2.739994
C       -2.743167     0.295749     1.797083
C       -4.108064     0.543693     2.191227
N       -5.164861     0.753634     2.607119
S       -2.399046    -0.033164     0.085656
Mo       0.000000     0.000000     0.000000
O        2.049329     0.040966    -0.011298
Se       0.000000     2.500000     0.000000
C       -0.003840     4.433836     0.010259
C       -1.067847     5.132135     0.572990
C       -1.072532     6.528719     0.563107
C       -0.012064     7.241839    -0.000263
C        1.056340     6.546329    -0.557828
C        1.061064     5.143397    -0.546945
S       -0.067623     0.101855     2.397673
N        0.053059    -2.138879    -0.121669
C       -0.087713    -3.013265     0.970599
C        0.808930    -4.172046     0.891817
C        1.644610    -4.307931    -0.146438
C        1.680851    -3.321712    -1.239547
C        0.901130    -2.267597    -1.190541
C        0.898915    -1.180218    -2.261226
C        1.735338    -1.203440    -3.399865
C        1.664202    -0.204578    -4.281726
C        0.722523     0.926051    -4.109320
C       -0.067147     0.968553    -3.033612
N        0.037089    -0.089257    -2.141675
H       -1.873577     4.578900     0.995955
H       -1.909272     7.042482     0.998128
H       -0.017265     8.325749    -0.006614
H        1.866084     7.110986    -0.990685
H        1.895383     4.614654    -0.988934
H       -0.811676    -2.761242     1.732604
H        0.756715    -4.887473     1.682407
H        2.295264    -5.157792    -0.204341
H        2.371760    -3.457987    -2.020750
H        2.386493    -2.014174    -3.478430
H        2.295106    -0.211297    -5.144994
H        0.720847     1.698704    -4.851538
H       -0.764283     1.744819    -2.790670
42
ex_0471 frame28 all-cis-conf12-2
N       -1.664748     2.407824     4.933814
C       -1.228572     2.089622     3.909906
C       -0.659396     1.694167     2.637756
C       -0.661135     2.639689     1.697316
C       -1.228341     3.911366     2.087440
N       -1.687669     4.913762     2.379261
S       -0.000000     2.350069     0.049931
Mo       0.000000     0.000000     0.000000
O        2.050000     0.000000     0.000000
Se      -2.500000     0.000000     0.000000
C       -4.371049    -0.002893     0.033347
C       -5.059739    -0.104217     1.228925
C       -6.435510    -0.097321     1.149547
C       -7.130274     0.003238    -0.036531
C       -6.430773     0.104065    -1.227619
C       -5.070265     0.099020    -1.169765
S        0.000000     0.049931     2.350069
N       -0.000000    -2.087497    -0.062503
C       -0.036599    -2.919781     0.917674
C        0.367813    -4.299002     0.662640
C        0.762756    -4.693815    -0.538544
C        0.771877    -3.666735    -1.602471
C        0.411773    -2.424587    -1.389440
C        0.409391    -1.390866    -2.413585
C        0.771841    -1.602533    -3.666715
C        0.755954    -0.529266    -4.675850
C        0.366660     0.699532    -4.331421
C       -0.029443     0.907723    -2.938806
N        0.000000    -0.062503    -2.087497
H       -4.515090    -0.184064     2.169540
H       -6.967725    -0.177893     2.101149
H       -8.214548    -0.000816     0.012425
H       -6.963066     0.183635    -2.165603
H       -4.522894     0.177345    -2.095407
H       -0.362642    -2.588317     1.903770
H        0.357831    -5.043681     1.447626
H        1.069727    -5.705567    -0.767308
H        1.089836    -3.991373    -2.562670
H        1.089325    -2.561111    -3.991189
H        1.054013    -0.714732    -5.694962
H        0.344953     1.512103    -5.056317
H       -0.354413     1.866883    -2.584750
42
ex_0471 frame29 all-cis-conf13-2
N       -1.664748     2.407824     4.933814
C       -1.228572     2.089622     3.909906
C       -0.659396     1.694167     2.637756
C       -0.661135     2.639689     1.697316
C       -1.228341     3.911366     2.087440
N       -1.687669     4.913762     2.379261
S       -0.000000     2.350069     0.049931
Mo       0.000000     0.000000     0.000000
O        2.050000     0.000000     0.000000
Se      -2.500000     0.000000     0.000000
C       -4.407463    -0.004406     0.004140
C       -5.152795     1.178367     0.131740
C       -6.529186     1.172074     0.121309
C       -7.243378     0.019446    -0.006327
C       -6.537059    -1.165045    -0.127275
C       -5.157915    -1.156980    -0.116635
S        0.000000     0.049931     2.350069
N       -0.000000    -2.087497    -0.062503
C       -0.036599    -2.919781     0.917674
C        0.367813    -4.299002     0.662640
C        0.762756    -4.693815    -0.538544
C        0.771877    -3.666735    -1.602471
C        0.411773    -2.424587    -1.389440
C        0.409391    -1.390866    -2.413585
C        0.771841    -1.602533    -3.666715
C        0.755954    -0.529266    -4.675850
C        0.366660     0.699532    -4.331421
C       -0.029443     0.907723    -2.938806
N        0.000000    -0.062503    -2.087497
H       -4.590184     2.114584     0.235288
H       -7.077607     2.097876     0.215870
H       -8.315394    -0.049579    -0.021270
H       -7.047676    -2.124893    -0.232965
H       -4.600447    -2.080697    -0.210906
H       -0.362642    -2.588317     1.903770
H        0.357831    -5.043681     1.447626
H        1.069727    -5.705567    -0.767308
H        1.089836    -3.991373    -2.562670
H        1.089325    -2.561111    -3.991189
H        1.054013    -0.714732    -5.694962
H        0.344953     1.512103    -5.056317
H       -0.354413     1.866883    -2.584750
42
ex_0471 frame30 all-cis-conf14-2
N       -1.664748     2.407824     4.933814
C       -1.228572     2.089622     3.909906
C       -0.659396     1.694167     2.637756
C       -0.661135     2.639689     1.697316
C       -1.228341     3.911366     2.087440
N       -1.687669     4.913762     2.379261
S       -0.000000     2.350069     0.049931
Mo       0.000000     0.000000     0.000000
O        2.050000     0.000000     0.000000
Se      -2.500000     0.000000     0.000000
C       -4.397740     0.005971     0.006888
C       -5.140664    -0.282210    -1.119408
C       -6.518185    -0.295921    -1.137994
C       -7.233767    -0.007791    -0.000405
C       -6.521008     0.290179     1.139456
C       -5.149055     0.303056     1.154937
S        0.000000     0.049931     2.350069
N       -0.000000    -2.087497    -0.062503
C       -0.036599    -2.919781     0.917674
C        0.367813    -4.299002     0.662640
C        0.762756    -4.693815    -0.538544
C        0.771877    -3.666735    -1.602471
C        0.411773    -2.424587    -1.389440
C        0.409391    -1.390866    -2.413585
C        0.771841    -1.602533    -3.666715
C        0.755954    -0.529266    -4.675850
C        0.366660     0.699532    -4.331421
C       -0.029443     0.907723    -2.938806
N        0.000000    -0.062503    -2.087497
H       -4.588078    -0.509827    -2.017756
H       -6.999429    -0.537311    -2.063850
H       -8.305483    -0.031100    -0.063990
H       -7.069525     0.517900     2.038107
H       -4.601504     0.540963     2.065584
H       -0.362642    -2.588317     1.903770
H        0.357831    -5.043681     1.447626
H        1.069727    -5.705567    -0.767308
H        1.089836    -3.991373    -2.562670
H        1.089325    -2.561111    -3.991189
H        1.054013    -0.714732    -5.694962
H        0.344953     1.512103    -5.056317
H       -0.354413     1.866883    -2.584750
42
ex_0471 frame31 all-cis-conf15-2
N       -1.664748     2.407824     4.933814
C       -1.228572     2.089622     3.909906
C       -0.659396     1.694167     2.637756
C       -0.661135     2.639689     1.697316
C       -1.228341     3.911366     2.087440
N       -1.687669     4.913762     2.379261
S       -0.000000     2.350069     0.049931
Mo       0.000000     0.000000     0.000000
O        2.050000     0.000000     0.000000
Se      -2.500000     0.000000     0.000000
C       -4.446927    -0.024298    -0.011500
C       -5.123418    -1.176080    -0.426274
C       -6.507594    -1.118428    -0.399805
C       -7.196994     0.010608     0.008614
C       -6.517718     1.135251     0.409758
C       -5.156556     1.110702     0.395272
S        0.000000     0.049931     2.350069
N       -0.000000    -2.087497    -0.062503
C       -0.036599    -2.919781     0.917674
C        0.367813    -4.299002     0.662640
C        0.762756    -4.693815    -0.538544
C        0.771877    -3.666735    -1.602471
C        0.411773    -2.424587    -1.389440
C        0.409391    -1.390866    -2.413585
C        0.771841    -1.602533    -3.666715
C        0.755954    -0.529266    -4.675850
C        0.366660     0.699532    -4.331421
C       -0.029443     0.907723    -2.938806
N        0.000000    -0.062503    -2.087497
H       -4.588041    -2.059718    -0.745907
H       -7.106354    -1.960771    -0.699875
H       -8.281106     0.065349     0.032788
H       -7.001618     2.047919     0.739612
H       -4.542108     1.968234     0.700746
H       -0.362642    -2.588317     1.903770
H        0.357831    -5.043681     1.447626
H        1.069727    -5.705567    -0.767308
H        1.089836    -3.991373    -2.562670
H        1.089325    -2.561111    -3.991189
H        1.054013    -0.714732    -5.694962
H        0.344953     1.512103    -5.056317
H       -0.354413     1.866883    -2.584750
42
ex_0471 frame32 all-cis-conf16-2
N       -1.664748     2.407824     4.933814
C       -1.228572     2.089622     3.909906
C       -0.659396     1.694167     2.637756
C       -0.661135     2.639689     1.697316
C       -1.228341     3.911366     2.087440
N       -1.687669     4.913762     2.379261
S       -0.000000     2.350069     0.049931
Mo       0.000000     0.000000     0.000000
O        2.050000     0.000000     0.000000
Se      -2.500000     0.000000     0.000000
C       -4.422121     0.005021     0.002814
C       -5.158020    -1.139588     0.283245
C       -6.537185    -1.146694     0.276535
C       -7.243748    -0.001542    -0.006844
C       -6.526065     1.148275    -0.282643
C       -5.148662     1.162526    -0.277686
S        0.000000     0.049931     2.350069
N       -0.000000    -2.087497    -0.062503
C       -0.036599    -2.919781     0.917674
C        0.367813    -4.299002     0.662640
C        0.762756    -4.693815    -0.538544
C        0.771877    -3.666735    -1.602471
C        0.411773    -2.424587    -1.389440
C        0.409391    -1.390866    -2.413585
C        0.771841    -1.602533    -3.666715
C        0.755954    -0.529266    -4.675850
C        0.366660     0.699532    -4.331421
C       -0.029443     0.907723    -2.938806
N        0.000000    -0.062503    -2.087497
H       -4.574044    -2.032214     0.504339
H       -7.024222    -2.092940     0.504134
H       -8.326972    -0.016041    -0.009936
H       -7.123416     2.036347    -0.502707
H       -4.621151     2.075468    -0.496930
H       -0.362642    -2.588317     1.903770
H        0.357831    -5.043681     1.447626
H        1.069727    -5.705567    -0.767308
H        1.089836    -3.991373    -2.562670
H        1.089325    -2.561111    -3.991189
H        1.054013    -0.714732    -5.694962
H        0.344953     1.512103    -5.056317
H       -0.354413     1.866883    -2.584750
42
ex_0471 frame33 all-cis-conf27-2
N       -0.091822     2.663692     5.199426
C       -0.053137     2.279306     4.119613
C       -0.028580     1.799221     2.751495
C       -0.028752     2.754946     1.808568
C       -0.053160     4.119198     2.280715
N       -0.064408     5.190433     2.670681
S       -0.000000     2.340492     0.059508
Mo       0.000000     0.000000     0.000000
O        2.050000     0.000000     0.000000
Se      -2.500000     0.000000     0.000000
C       -4.371049    -0.002893     0.033347
C       -5.059739    -0.104217     1.228925
C       -6.435510    -0.097321     1.149547
C       -7.130274     0.003238    -0.036531
C       -6.430773     0.104065    -1.227619
C       -5.070265     0.099020    -1.169765
S       -0.000000     0.059508     2.340492
N       -0.000000    -2.087336    -0.062664
C       -0.055064    -2.959786     0.886923
C        0.795544    -4.143468     0.878599
C        1.621567    -4.282560    -0.139829
C        1.659933    -3.270588    -1.205538
C        0.878644    -2.205342    -1.175942
C        0.887509    -1.181173    -2.212553
C        1.659861    -1.206734    -3.269360
C        1.623656    -0.144329    -4.281065
C        0.785874     0.879819    -4.131181
C       -0.066366     0.884163    -2.941194
N        0.000000    -0.062664    -2.087336
H       -4.515090    -0.184064     2.169540
H       -6.967725    -0.177893     2.101149
H       -8.214548    -0.000816     0.012425
H       -6.963066     0.183635    -2.165603
H       -4.522894     0.177345    -2.095407
H       -0.774242    -2.758946     1.693888
H        0.745951    -4.866542     1.671153
H        2.290753    -5.150717    -0.209457
H        2.342497    -3.433767    -1.998846
H        2.340404    -2.002781    -3.427001
H        2.283205    -0.205264    -5.144423
H        0.727407     1.682042    -4.851495
H       -0.771202     1.695524    -2.764848
42
ex_0471 frame34 all-cis-conf28-2
N       -0.091822     2.663692     5.199426
C       -0.053137     2.279306     4.119613
C       -0.028580     1.799221     2.751495
C       -0.028752     2.754946     1.808568
C       -0.053160     4.119198     2.280715
N       -0.064408     5.190433     2.670681
S       -0.000000     2.340492     0.059508
Mo       0.000000     0.000000     0.000000
O        2.050000     0.000000     0.000000
Se      -2.500000     0.000000     0.000000
C       -4.407463    -0.004406     0.004140
C       -5.152795     1.178367     0.131740
C       -6.529186     1.172074     0.121309
C       -7.243378     0.019446    -0.006327
C       -6.537059    -1.165045    -0.127275
C       -5.157915    -1.156980    -0.116635
S       -0.000000     0.059508     2.340492
N       -0.000000    -2.087336    -0.062664
C       -0.055064    -2.959786     0.886923
C        0.795544    -4.143468     0.878599
C        1.621567    -4.282560    -0.139829
C        1.659933    -3.270588    -1.205538
C        0.878644    -2.205342    -1.175942
C        0.887509    -1.181173    -2.212553
C        1.659861    -1.206734    -3.269360
C        1.623656    -0.144329    -4.281065
C        0.785874     0.879819    -4.131181
C       -0.066366     0.884163    -2.941194
N        0.000000    -0.062664    -2.087336
H       -4.590184     2.114584     0.235288
H       -7.077607     2.097876     0.215870
H       -8.315394    -0.049579    -0.021270
H       -7.047676    -2.124893    -0.232965
H       -4.600447    -2.080697    -0.210906
H       -0.774242    -2.758946     1.693888
H        0.745951    -4.866542     1.671153
H        2.290753    -5.150717    -0.209457
H        2.342497    -3.433767    -1.998846
H        2.340404    -2.002781    -3.427001
H        2.283205    -0.205264    -5.144423
H        0.727407     1.682042    -4.851495
H       -0.771202     1.695524    -2.764848
42
ex_0471 frame35 all-cis-conf29-2
N       -0.091822     2.663692     5.199426
C       -0.053137     2.279306     4.119613
C       -0.028580     1.799221     2.751495
C       -0.028752     2.754946     1.808568
C       -0.053160     4.119198     2.280715
N       -0.064408     5.190433     2.670681
S       -0.000000     2.340492     0.059508
Mo       0.000000     0.000000     0.000000
O        2.050000     0.000000     0.000000
Se      -2.500000     0.000000     0.000000
C       -4.397740     0.005971     0.006888
C       -5.140664    -0.282210    -1.119408
C       -6.518185    -0.295921    -1.137994
C       -7.233767    -0.007791    -0.000405
C       -6.521008     0.290179     1.139456
C       -5.149055     0.303056     1.154937
S       -0.000000     0.059508     2.340492
N       -0.000000    -2.087336    -0.062664
C       -0.055064    -2.959786     0.886923
C        0.795544    -4.143468     0.878599
C        1.621567    -4.282560    -0.139829
C        1.659933    -3.270588    -1.205538
C        0.878644    -2.205342    -1.175942
C        0.887509    -1.181173    -2.212553
C        1.659861    -1.206734    -3.269360
C        1.623656    -0.144329    -4.281065
C        0.785874     0.879819    -4.131181
C       -0.066366     0.884163    -2.941194
N        0.000000    -0.062664    -2.087336
H       -4.588078    -0.509827    -2.017756
H       -6.999429    -0.537311    -2.063850
H       -8.305483    -0.031100    -0.063990
H       -7.069525     0.517900     2.038107
H       -4.601504     0.540963     2.065584
H       -0.774242    -2.758946     1.693888
H        0.745951    -4.866542     1.671153
H        2.290753    -5.150717    -0.209457
H        2.342497    -3.433767    -1.998846
H        2.340404    -2.002781    -3.427001
H        2.283205    -0.205264    -5.144423
H        0.727407     1.682042    -4.851495
H       -0.771202     1.695524    -2.764848
42
ex_0471 frame36 all-cis-conf30-2
N       -0.091822     2.663692     5.199426
C       -0.053137     2.279306     4.119613
C       -0.028580     1.799221     2.751495
C       -0.028752     2.754946     1.808568
C       -0.053160     4.119198     2.280715
N       -0.064408     5.190433     2.670681
S       -0.000000     2.340492     0.059508
Mo       0.000000     0.000000     0.000000
O        2.050000     0.000000     0.000000
Se      -2.500000     0.000000     0.000000
C       -4.446927    -0.024298    -0.011500
C       -5.123418    -1.176080    -0.426274
C       -6.507594    -1.118428    -0.399805
C       -7.196994     0.010608     0.008614
C       -6.517718     1.135251     0.409758
C       -5.156556     1.110702     0.395272
S       -0.000000     0.059508     2.340492
N       -0.000000    -2.087336    -0.062664
C       -0.055064    -2.959786     0.886923
C        0.795544    -4.143468     0.878599
C        1.621567    -4.282560    -0.139829
C        1.659933    -3.270588    -1.205538
C        0.878644    -2.205342    -1.175942
C        0.887509    -1.181173    -2.212553
C        1.659861    -1.206734    -3.269360
C        1.623656    -0.144329    -4.281065
C        0.785874     0.879819    -4.131181
C       -0.066366     0.884163    -2.941194
N        0.000000    -0.062664    -2.087336
H       -4.588041    -2.059718    -0.745907
H       -7.106354    -1.960771    -0.699875
H       -8.281106     0.065349     0.032788
H       -7.001618     2.047919     0.739612
H       -4.542108     1.968234     0.700746
H       -0.774242    -2.758946     1.693888
H        0.745951    -4.866542     1.671153
H        2.290753    -5.150717    -0.209457
H        2.342497    -3.433767    -1.998846
H        2.340404    -2.002781    -3.427001
H        2.283205    -0.205264    -5.144423
H        0.727407     1.682042    -4.851495
H       -0.771202     1.695524    -2.764848
42
ex_0471 frame37 all-cis-conf31-2
N       -0.091822     2.663692     5.199426
C       -0.053137     2.279306     4.119613
C       -0.028580     1.799221     2.751495
C       -0.028752     2.754946     1.808568
C       -0.053160     4.119198     2.280715
N       -0.064408     5.190433     2.670681
S       -0.000000     2.340492     0.059508
Mo       0.000000     0.000000     0.000000
O        2.050000     0.000000     0.000000
Se      -2.500000     0.000000     0.000000
C       -4.422121     0.005021     0.002814
C       -5.158020    -1.139588     0.283245
C       -6.537185    -1.146694     0.276535
C       -7.243748    -0.001542    -0.006844
C       -6.526065     1.148275    -0.282643
C       -5.148662     1.162526    -0.277686
S       -0.000000     0.059508     2.340492
N       -0.000000    -2.087336    -0.062664
C       -0.055064    -2.959786     0.886923
C        0.795544    -4.143468     0.878599
C        1.621567    -4.282560    -0.139829
C        1.659933    -3.270588    -1.205538
C        0.878644    -2.205342    -1.175942
C        0.887509    -1.181173    -2.212553
C        1.659861    -1.206734    -3.269360
C        1.623656    -0.144329    -4.281065
C        0.785874     0.879819    -4.131181
C       -0.066366     0.884163    -2.941194
N        0.000000    -0.062664    -2.087336
H       -4.574044    -2.032214     0.504339
H       -7.024222    -2.092940     0.504134
H       -8.326972    -0.016041    -0.009936
H       -7.123416     2.036347    -0.502707
H       -4.621151     2.075468    -0.496930
H       -0.774242    -2.758946     1.693888
H        0.745951    -4.866542     1.671153
H        2.290753    -5.150717    -0.209457
H        2.342497    -3.433767    -1.998846
H        2.340404    -2.002781    -3.427001
H        2.283205    -0.205264    -5.144423
H        0.727407     1.682042    -4.851495
H       -0.771202     1.695524    -2.764848
42
ex_0471 frame38 trigonal-prismatic top-NOS/bot-NSSe-conf2
N       -4.171512    -0.229662    -2.173661
C       -3.409070     0.303268    -1.493045
C       -2.403163     0.875305    -0.652276
C       -2.367344     0.870019     0.634753
C       -3.206870     0.182065     1.531270
N       -3.870359    -0.413273     2.256992
S       -1.194494     1.784950     1.148659
Mo       0.000000     0.000000     0.000000
O        1.559323    -0.007802     1.338570
Se       2.236068     0.000000    -1.118034
C        3.968222    -0.002086    -1.987832
C        4.404193     1.126557    -2.658219
C        5.668803     1.127621    -3.281720
C        6.480678     0.004160    -3.231849
C        6.027973    -1.114893    -2.565309
C        4.768605    -1.116744    -1.944465
S       -1.010249     1.705198    -1.379332
N       -1.093638    -1.599990     1.061502
C       -0.753437    -1.562194     2.535766
C       -1.785920    -2.148505     3.445731
C       -2.868098    -2.765813     2.959327
C       -3.041968    -2.866750     1.509141
C       -2.113643    -2.252808     0.657313
C       -2.105126    -2.225249    -0.649666
C       -3.123780    -2.824039    -1.541877
C       -3.007241    -2.734639    -2.855051
C       -1.842130    -2.107666    -3.433064
C       -0.870168    -1.583894    -2.612781
N       -0.957919    -1.523917    -1.217096
H        3.784449     1.999630    -2.703219
H        6.014890     1.992027    -3.795187
H        7.453757    -0.036229    -3.693479
H        6.629236    -2.007342    -2.504417
H        4.428056    -1.977544    -1.435617
H        0.096199    -1.058894     2.898195
H       -1.604265    -2.047492     4.504508
H       -3.609187    -3.178447     3.621497
H       -3.910238    -3.336224     1.051973
H       -3.950807    -3.271093    -1.007482
H       -3.744524    -3.116148    -3.533585
H       -1.793495    -2.058402    -4.525779
H        0.004893    -1.115188    -2.958744
42
ex_0471 frame39 trigonal-prismatic top-NOS/bot-NSSe-conf4
N        0.460564     5.199096    -2.204573
C        0.118263     4.340334    -1.512958
C       -0.318243     3.219232    -0.741943
C       -0.399100     3.233102     0.543142
C        0.137339     4.330571     1.428292
N        0.567591     5.176358     2.112161
S       -1.228088     1.774871     1.056267
Mo       0.000000     0.000000     0.000000
O        1.548022     0.099707     1.343121
Se       2.236068     0.000000    -1.118034
C        3.960903    -0.001123    -1.955609
C        4.080111     0.434158    -3.299806
C        5.340745     0.423508    -3.917795
C        6.463054    -0.003795    -3.201953
C        6.328404    -0.428102    -1.880304
C        5.078603    -0.418890    -1.266177
S       -0.810479     1.627826    -1.571450
N       -1.043945    -1.541556     1.085197
C       -0.858694    -1.533656     2.543887
C       -2.026754    -1.930993     3.426954
C       -3.188689    -2.276731     2.869104
C       -3.299083    -2.260149     1.382293
C       -2.241372    -1.908096     0.589802
C       -2.190871    -1.926170    -0.787862
C       -3.227219    -2.392001    -1.662440
C       -2.926338    -2.431410    -2.962779
C       -1.608643    -1.955847    -3.477344
C       -0.676401    -1.469755    -2.645394
N       -0.961137    -1.417852    -1.298064
H        3.204894     0.760106    -3.870661
H        5.466239     0.743907    -4.942449
H        7.440498    -0.012024    -3.660784
H        7.188015    -0.763547    -1.319909
H        4.960376    -0.750244    -0.258242
H        0.091018    -1.251572     3.014542
H       -1.905559    -1.930412     4.514347
H       -4.037893    -2.565288     3.501960
H       -4.239260    -2.540705     0.954193
H       -4.148261    -2.712841    -1.210314
H       -3.697188    -2.827458    -3.603625
H       -1.420887    -2.011121    -4.534002
H        0.289545    -1.110085    -2.934234
42
ex_0471 frame40 trigonal-prismatic top-NOS/bot-NSSe-conf5
N       -2.867325     5.159353    -2.116068
C       -2.453836     4.275058    -1.483756
C       -1.857527     3.207343    -0.667896
C       -1.899838     3.191705     0.581472
C       -2.481751     4.261824     1.458009
N       -2.976848     5.077018     2.130176
S       -1.186731     1.749556     1.166486
Mo       0.000000     0.000000     0.000000
O        1.555345     0.035774     1.338634
Se       2.236068     0.000000    -1.118034
C        3.971891    -0.008471    -1.970214
C        4.622837     1.189683    -2.228395
C        5.862401     1.203979    -2.871790
C        6.475099     0.008173    -3.243297
C        5.829671    -1.196311    -2.978277
C        4.583692    -1.209891    -2.331813
S       -0.925525     1.680328    -1.447417
N       -1.024719    -1.623380     1.059788
C       -0.931969    -1.477229     2.540939
C       -0.935043    -2.701239     3.447224
C       -0.958782    -3.924240     2.927456
C       -0.990963    -4.035630     1.443937
C       -0.964228    -2.894875     0.629432
C       -0.940472    -2.894198    -0.726386
C       -1.070740    -4.080516    -1.573939
C       -1.153324    -3.872861    -2.894183
C       -1.045612    -2.501376    -3.443644
C       -0.862267    -1.426910    -2.636233
N       -0.767205    -1.554906    -1.270088
H        4.142520     2.105774    -1.954250
H        6.334940     2.149957    -3.066081
H        7.441012     0.012543    -3.735402
H        6.315622    -2.106915    -3.275145
H        4.087116    -2.143088    -2.144676
H       -0.928574    -0.491669     2.976156
H       -0.918293    -2.534481     4.526573
H       -0.953082    -4.801691     3.578678
H       -0.990073    -5.043683     1.017896
H       -1.137618    -5.037566    -1.086868
H       -1.298693    -4.678021    -3.599010
H       -1.119970    -2.393734    -4.522665
H       -0.777798    -0.433250    -2.953895
42
ex_0471 frame41 all-cis
N       -1.019150     3.567154     3.527419
C       -1.040357     2.597741     2.904835
C       -1.127306     1.400451     2.100291
C       -2.099201     1.406106     1.140936
C       -2.879795     2.614110     1.069462
N       -3.529039     3.563684     1.009387
S       -2.399334     0.046467     0.053894
Mo       0.000000     0.000000     0.000000
O        2.048976     0.038320     0.026828
Se       0.000000     2.500000     0.000000
C        0.015804     4.369125     0.012094
C        1.164346     5.055215     0.385141
C        1.120174     6.441513     0.360000
C       -0.031168     7.137235    -0.008888
C       -1.169217     6.439578    -0.377978
C       -1.128770     5.060169    -0.354519
S        0.019758     0.008746     2.399610
N       -0.030881    -2.137927    -0.155114
C        0.039843    -2.965557     0.954250
C       -0.375511    -4.335318     0.692774
C       -0.771852    -4.675372    -0.529191
C       -0.792057    -3.680572    -1.614929
C       -0.413590    -2.455541    -1.383110
C       -0.388655    -1.388116    -2.432943
C       -0.804030    -1.592913    -3.740773
C       -0.775857    -0.577112    -4.650369
C       -0.350050     0.741033    -4.279401
C        0.032454     0.948423    -3.000234
N        0.061417    -0.116379    -2.138545
H        2.070875     4.518730     0.667368
H        2.005690     6.971053     0.645152
H        0.006980     8.214729     0.001953
H       -2.069016     6.962558    -0.668443
H       -2.001723     4.522509    -0.649675
H        0.371373    -2.566946     1.887623
H       -0.349989    -5.040747     1.504700
H       -1.076218    -5.685075    -0.724952
H       -1.112693    -3.995829    -2.561610
H       -1.114605    -2.561415    -3.999218
H       -1.071856    -0.717804    -5.674949
H       -0.350408     1.513387    -5.041969
H        0.357800     1.896942    -2.621471
42
ex_0471 frame42 all-cis-conf2
N       -1.002404     3.566528     3.547137
C       -1.032906     2.597591     2.924423
C       -1.128258     1.423911     2.109167
C       -2.099400     1.422264     1.140393
C       -2.913773     2.606565     1.028155
N       -3.543494     3.571929     0.990099
S       -2.398255     0.064659     0.040894
Mo       0.000000     0.000000     0.000000
O        2.048664    -0.021974     0.007719
Se       0.034839     2.499159    -0.119814
C        0.045065     4.370062    -0.018135
C        1.169748     5.057050     0.382042
C        1.133931     6.446724     0.369034
C       -0.020175     7.143102    -0.005353
C       -1.165717     6.445027    -0.372308
C       -1.127000     5.059246    -0.361294
S        0.003191     0.064124     2.398781
N       -0.043548    -2.140512    -0.105700
C        0.037485    -2.992154     0.992981
C       -0.377340    -4.355047     0.700708
C       -0.775421    -4.687761    -0.530797
C       -0.794308    -3.705485    -1.624115
C       -0.427874    -2.469729    -1.385492
C       -0.409182    -1.389383    -2.455857
C       -0.817731    -1.607587    -3.794641
C       -0.782044    -0.595746    -4.662103
C       -0.341095     0.754337    -4.276069
C        0.045472     0.974001    -3.025390
N        0.029401    -0.092685    -2.141909
H        2.069888     4.522678     0.664784
H        2.012016     6.980590     0.648024
H        0.000181     8.218555    -0.000504
H       -2.069525     6.963798    -0.667901
H       -2.003352     4.520184    -0.659439
H        0.377612    -2.567593     1.916462
H       -0.352280    -5.052965     1.506433
H       -1.079547    -5.693701    -0.727576
H       -1.118376    -4.010882    -2.576137
H       -1.126734    -2.572048    -4.031369
H       -1.076958    -0.728289    -5.680431
H       -0.351548     1.522384    -5.034311
H        0.357667     1.913292    -2.643647
42
ex_0471 frame43 all-cis-conf3
N       -0.998467     3.566882     3.548268
C       -1.034975     2.589102     2.939498
C       -1.131327     1.416319     2.120598
C       -2.108600     1.412750     1.158582
C       -2.930633     2.587026     1.048577
N       -3.563422     3.550452     1.015508
S       -2.395861     0.041590     0.062085
Mo       0.000000     0.000000     0.000000
O        2.052633     0.032744     0.032096
Se       0.000000     2.500000     0.000000
C       -0.005955     4.433932    -0.017640
C       -1.190705     5.139131    -0.175741
C       -1.191597     6.537482    -0.148889
C        0.003270     7.239159     0.008407
C        1.188207     6.529443     0.148405
C        1.179981     5.134261     0.128349
S        0.013038     0.052998     2.398795
N       -0.022821    -2.137785    -0.137252
C        0.044292    -2.987490     0.976900
C       -0.377138    -4.354769     0.699000
C       -0.775284    -4.690786    -0.530543
C       -0.797042    -3.710223    -1.628666
C       -0.420538    -2.475439    -1.402011
C       -0.402216    -1.402793    -2.464598
C       -0.819800    -1.611299    -3.799239
C       -0.781837    -0.594931    -4.665257
C       -0.340321     0.752171    -4.275509
C        0.051158     0.964318    -3.019373
N        0.049496    -0.115525    -2.140152
H       -2.096886     4.615518    -0.306081
H       -2.109522     7.080848    -0.253780
H        0.033792     8.321187     0.021632
H        2.118653     7.053862     0.274410
H        2.094215     4.596867     0.250782
H        0.378109    -2.567756     1.913673
H       -0.352988    -5.054197     1.507188
H       -1.080514    -5.695778    -0.727780
H       -1.121996    -4.014771    -2.578471
H       -1.129976    -2.574256    -4.038616
H       -1.077932    -0.729828    -5.681700
H       -0.353443     1.524735    -5.031741
H        0.357898     1.912511    -2.639152
42
ex_0471 frame44 all-cis-conf4
N       -0.999020     3.565528     3.547854
C       -1.040569     2.597812     2.923253
C       -1.135399     1.420527     2.112125
C       -2.115380     1.409242     1.157455
C       -2.968601     2.558886     1.038757
N       -3.533407     3.561838     1.018280
S       -2.397249     0.048979     0.048987
Mo       0.000000     0.000000     0.000000
O        2.047898    -0.014248     0.020217
Se       0.016402     2.492017    -0.136768
C        0.019129     4.440306    -0.041561
C       -1.180535     5.144801    -0.161154
C       -1.190183     6.541995    -0.143075
C        0.003647     7.242333     0.010579
C        1.190630     6.535127     0.154237
C        1.191090     5.140773     0.142883
S        0.008958     0.065213     2.387350
N       -0.032817    -2.137984    -0.104948
C        0.039960    -2.992564     0.993839
C       -0.377513    -4.356195     0.700922
C       -0.775283    -4.689224    -0.530344
C       -0.794192    -3.707288    -1.624845
C       -0.425235    -2.471688    -1.386645
C       -0.410882    -1.392400    -2.458319
C       -0.818406    -1.610348    -3.797659
C       -0.782750    -0.594821    -4.665866
C       -0.340477     0.753784    -4.278480
C        0.045534     0.972154    -3.025042
N        0.022983    -0.102835    -2.136558
H       -2.087536     4.617979    -0.308632
H       -2.109581     7.081186    -0.256384
H        0.034018     8.322158     0.020620
H        2.120468     7.056000     0.272293
H        2.097681     4.598695     0.248360
H        0.378367    -2.568234     1.918898
H       -0.352663    -5.054115     1.507057
H       -1.079954    -5.694661    -0.727725
H       -1.119820    -4.012681    -2.577417
H       -1.128235    -2.574251    -4.035227
H       -1.077772    -0.729113    -5.681958
H       -0.351101     1.523610    -5.033800
H        0.358322     1.913700    -2.646019
42
ex_0471 frame45 all-cis-conf5
N       -1.005830     3.544958     3.569813
C       -1.026665     2.586036     2.931765
C       -1.116474     1.422209     2.107741
C       -2.082224     1.423983     1.128645
C       -2.851865     2.650838     1.039428
N       -3.578756     3.541169     0.983856
S       -2.399286     0.053544     0.034044
Mo       0.000000     0.000000     0.000000
O        2.049526     0.001703     0.013959
Se       0.000000     2.500000     0.000000
C       -0.003259     4.431421     0.017102
C        0.749354     5.118095    -0.904719
C        0.749145     6.510177    -0.928592
C        0.003009     7.230207    -0.014050
C       -0.753870     6.533499     0.926811
C       -0.754016     5.130907     0.946034
S        0.033247     0.039375     2.400294
N       -0.029914    -2.139361    -0.141446
C        0.041812    -2.984025     0.980049
C       -0.376403    -4.344768     0.697454
C       -0.773324    -4.680043    -0.531738
C       -0.794057    -3.695205    -1.622216
C       -0.415386    -2.469117    -1.387374
C       -0.386105    -1.388922    -2.450148
C       -0.816174    -1.598424    -3.784458
C       -0.780409    -0.601200    -4.650002
C       -0.341848     0.755329    -4.265300
C        0.039170     0.970356    -3.028344
N        0.077242    -0.121525    -2.139975
H        1.323592     4.584888    -1.620529
H        1.340186     7.010181    -1.665620
H        0.026451     8.309921    -0.055374
H       -1.335493     7.073175     1.636354
H       -1.344082     4.631696     1.641262
H        0.375165    -2.566637     1.899850
H       -0.351249    -5.044862     1.504816
H       -1.077520    -5.688752    -0.725996
H       -1.117283    -4.002687    -2.568356
H       -1.120012    -2.565642    -4.013664
H       -1.073956    -0.722896    -5.677331
H       -0.351293     1.517439    -5.037637
H        0.356694     1.903245    -2.629283
42
ex_0471 frame46 all-cis-conf6
N       -0.992529     3.534039     3.590617
C       -1.044432     2.587801     2.937984
C       -1.138432     1.438378     2.123108
C       -2.129168     1.415445     1.128977
C       -2.998758     2.591710     1.002394
N       -3.557405     3.576202     0.968924
S       -2.393554     0.059394     0.021965
Mo       0.000000     0.000000     0.000000
O        2.047986    -0.019629     0.009679
Se       0.016910     2.500762    -0.115472
C        0.007096     4.427668    -0.015423
C        0.765662     5.127147    -0.913808
C        0.755571     6.510134    -0.933527
C        0.004819     7.228751    -0.013905
C       -0.752965     6.532428     0.928232
C       -0.742473     5.132010     0.936049
S        0.008746     0.074914     2.399083
N       -0.034994    -2.140042    -0.102943
C        0.042646    -2.996041     0.994231
C       -0.376834    -4.356752     0.701585
C       -0.776026    -4.689246    -0.531096
C       -0.794150    -3.709621    -1.627723
C       -0.427693    -2.475193    -1.390727
C       -0.412976    -1.391175    -2.463187
C       -0.820481    -1.610165    -3.804019
C       -0.783221    -0.599443    -4.663865
C       -0.339106     0.757130    -4.274996
C        0.047970     0.977992    -3.028544
N        0.021193    -0.095653    -2.141019
H        1.329861     4.582904    -1.630250
H        1.342202     7.016154    -1.669324
H        0.023427     8.310994    -0.051936
H       -1.340391     7.075723     1.640504
H       -1.350680     4.636309     1.633576
H        0.378256    -2.566655     1.918106
H       -0.352450    -5.053147     1.506675
H       -1.080012    -5.694374    -0.727643
H       -1.119819    -4.013042    -2.578091
H       -1.128211    -2.573671    -4.035099
H       -1.077488    -0.729867    -5.680978
H       -0.351511     1.523285    -5.033118
H        0.358455     1.915095    -2.644152
42
ex_0471 frame47 all-cis-conf7
N       -1.042809     3.497661     3.670386
C       -1.082346     2.551858     3.015055
C       -1.157492     1.423572     2.151256
C       -2.126856     1.430733     1.180001
C       -2.979256     2.589739     1.082882
N       -3.538634     3.595570     0.980036
S       -2.398353     0.084486     0.022627
Mo       0.000000     0.000000     0.000000
O        2.048595     0.007419     0.064963
Se       0.000000     2.500000     0.000000
C        0.007171     4.424896     0.014028
C        0.029712     5.146367     1.209576
C        0.014423     6.541236     1.191101
C        0.001159     7.217583    -0.027958
C       -0.006990     6.499980    -1.221633
C       -0.010484     5.107832    -1.191949
S        0.020628     0.086696     2.398252
N       -0.025628    -2.139673    -0.134697
C        0.062420    -2.997946     0.988011
C       -0.375221    -4.371513     0.704125
C       -0.777835    -4.708041    -0.529706
C       -0.794514    -3.733250    -1.638292
C       -0.425711    -2.489758    -1.410107
C       -0.416514    -1.410844    -2.481498
C       -0.821927    -1.625919    -3.835321
C       -0.785620    -0.596803    -4.689379
C       -0.334287     0.754620    -4.287079
C        0.049780     0.972279    -3.028117
N        0.014580    -0.110193    -2.141884
H        0.080972     4.655243     2.136825
H        0.022613     7.104012     2.111393
H        0.005207     8.294491    -0.055763
H       -0.011953     7.015347    -2.171640
H       -0.019461     4.550868    -2.108501
H        0.381349    -2.573814     1.942105
H       -0.356872    -5.074174     1.512636
H       -1.088116    -5.711741    -0.728912
H       -1.126095    -4.038969    -2.596192
H       -1.145847    -2.593484    -4.086902
H       -1.089596    -0.738941    -5.700110
H       -0.348422     1.538471    -5.028126
H        0.359778     1.933587    -2.659355
42
ex_0471 frame48 all-cis-conf8
N       -1.047204     3.504511     3.646568
C       -1.080416     2.564772     2.981621
C       -1.158729     1.425803     2.131937
C       -2.124014     1.421952     1.157541
C       -2.966067     2.583175     1.036165
N       -3.519371     3.592559     0.948546
S       -2.399209     0.059858     0.028238
Mo       0.000000     0.000000     0.000000
O        2.048533    -0.026124     0.000311
Se       0.018035     2.501211    -0.099223
C        0.019751     4.425041    -0.004711
C        0.038693     5.135433     1.204456
C        0.013516     6.535218     1.191524
C        0.002288     7.216877    -0.025845
C       -0.006205     6.505728    -1.220898
C        0.001267     5.119285    -1.195922
S        0.011088     0.086125     2.398279
N       -0.041726    -2.136796    -0.099981
C        0.044885    -3.000278     1.005273
C       -0.377832    -4.368637     0.705717
C       -0.777032    -4.701345    -0.529035
C       -0.792077    -3.723463    -1.630984
C       -0.430581    -2.481541    -1.391324
C       -0.419005    -1.398397    -2.470335
C       -0.820266    -1.619806    -3.822007
C       -0.785371    -0.595614    -4.681323
C       -0.336165     0.756065    -4.286271
C        0.046540     0.978678    -3.030487
N        0.007220    -0.096617    -2.142029
H        0.078444     4.649544     2.132732
H        0.018641     7.102670     2.109175
H        0.005566     8.292806    -0.056110
H       -0.013960     7.016830    -2.172284
H       -0.017347     4.557473    -2.108096
H        0.381190    -2.571815     1.941406
H       -0.355388    -5.068679     1.510995
H       -1.084234    -5.704911    -0.729416
H       -1.122129    -4.027816    -2.588846
H       -1.139230    -2.587102    -4.067375
H       -1.085148    -0.736665    -5.692742
H       -0.348412     1.533262    -5.031653
H        0.360534     1.931443    -2.660577
42
ex_0471 frame49 all-cis-conf9
N       -0.985426     3.566425     3.564393
C       -1.047241     2.589547     2.956331
C       -1.139904     1.422243     2.131972
C       -2.131171     1.413338     1.178082
C       -2.999175     2.550551     1.087311
N       -3.647189     3.495931     0.947478
S       -2.398719     0.063450     0.044468
Mo       0.000000     0.000000     0.000000
O        2.049019     0.021590     0.038570
Se       0.000000     2.500000     0.000000
C        0.004327     4.442383     0.014095
C       -1.027310     5.153960     0.572341
C       -1.061394     6.537582     0.562343
C       -0.009386     7.245090    -0.003490
C        1.061558     6.546979    -0.558707
C        1.072581     5.142386    -0.551824
S        0.031927     0.073848     2.398587
N       -0.030170    -2.139157    -0.146004
C        0.052805    -2.989821     0.972632
C       -0.376866    -4.361388     0.698074
C       -0.777810    -4.699502    -0.532615
C       -0.798227    -3.723671    -1.640032
C       -0.428594    -2.483612    -1.414897
C       -0.416722    -1.407084    -2.478860
C       -0.820578    -1.618956    -3.822615
C       -0.784334    -0.594847    -4.679704
C       -0.336526     0.753820    -4.282137
C        0.047692     0.969084    -3.024012
N        0.015891    -0.110951    -2.141722
H       -1.788402     4.651045     1.016174
H       -1.906617     7.043085     0.999869
H       -0.018169     8.326435    -0.008673
H        1.868246     7.110205    -0.993218
H        1.900789     4.611925    -0.991170
H        0.378085    -2.569535     1.919848
H       -0.354370    -5.061847     1.509211
H       -1.084083    -5.704007    -0.728285
H       -1.124231    -4.029978    -2.591623
H       -1.138345    -2.584684    -4.064476
H       -1.084406    -0.734054    -5.691296
H       -0.350374     1.531941    -5.029335
H        0.357084     1.923285    -2.649243
42
ex_0471 frame50 all-cis-conf10
N       -0.993803     3.564546     3.556547
C       -1.035991     2.592982     2.938662
C       -1.134444     1.425990     2.119986
C       -2.120461     1.410671     1.161993
C       -2.979861     2.554515     1.048549
N       -3.646728     3.495792     0.994525
S       -2.385331     0.027583     0.044838
Mo       0.000000     0.000000     0.000000
O        2.060362    -0.003073    -0.007333
Se       0.022716     2.499920    -0.124655
C        0.037721     4.441209    -0.033342
C       -1.008356     5.143993     0.559742
C       -1.059719     6.530671     0.561404
C       -0.010399     7.243959    -0.001982
C        1.064625     6.550834    -0.558386
C        1.092811     5.149900    -0.559024
S        0.022673     0.081914     2.395701
N       -0.047033    -2.141324    -0.098396
C        0.042908    -2.999071     1.000178
C       -0.377551    -4.363169     0.702898
C       -0.777016    -4.694866    -0.530327
C       -0.794266    -3.716699    -1.629130
C       -0.433274    -2.477315    -1.390412
C       -0.420401    -1.395396    -2.467154
C       -0.821241    -1.616529    -3.812669
C       -0.784634    -0.597224    -4.672359
C       -0.337960     0.756153    -4.280672
C        0.047375     0.977528    -3.028818
N        0.005581    -0.105030    -2.136924
H       -1.783191     4.649217     0.997815
H       -1.906465     7.039208     0.998847
H       -0.017651     8.326097    -0.007437
H        1.866870     7.112891    -0.991743
H        1.906100     4.614507    -0.998480
H        0.379917    -2.568693     1.929147
H       -0.353534    -5.060040     1.508057
H       -1.081814    -5.698677    -0.728798
H       -1.120921    -4.019641    -2.583744
H       -1.133498    -2.579303    -4.049639
H       -1.080276    -0.733397    -5.684723
H       -0.350915     1.527576    -5.031160
H        0.358005     1.921321    -2.653353
42
ex_0471 frame51 all-cis-conf12
N       -1.307392     3.355912     3.833069
C       -1.289916     2.428322     3.158263
C       -1.273246     1.320617     2.240896
C       -2.242700     1.310755     1.295250
C       -3.177829     2.388778     1.244666
N       -3.854567     3.343616     1.317072
S       -2.396653     0.020741     0.124327
Mo       0.000000     0.000000     0.000000
O        2.046360     0.057911     0.075174
Se       0.000000     2.500000     0.000000
C        0.000478     4.370624     0.009721
C        1.157550     5.053963     0.385750
C        1.128006     6.443553     0.361678
C       -0.030674     7.139746    -0.008036
C       -1.168004     6.442325    -0.378358
C       -1.138162     5.056290    -0.353373
S        0.029757     0.012951     2.399188
N        0.047970    -2.127581    -0.152189
C       -0.040272    -2.967119     0.975501
C        0.372796    -4.332915     0.672885
C        0.762108    -4.683401    -0.549005
C        0.780649    -3.690912    -1.623983
C        0.425292    -2.457720    -1.365058
C        0.433330    -1.367949    -2.440101
C        0.794024    -1.593651    -3.773257
C        0.769814    -0.603337    -4.656604
C        0.336427     0.749926    -4.273103
C       -0.019722     0.953462    -3.028212
N        0.080756    -0.111406    -2.126071
H        2.070513     4.519780     0.666892
H        2.004632     6.971593     0.644589
H        0.005544     8.214485     0.001493
H       -2.069172     6.962348    -0.668744
H       -2.005341     4.519361    -0.647613
H       -0.367165    -2.584145     1.914718
H        0.356615    -5.043795     1.453486
H        1.069190    -5.706879    -0.763599
H        1.094744    -4.000884    -2.569022
H        1.093936    -2.565505    -4.005809
H        1.056005    -0.720869    -5.696266
H        0.343483     1.512320    -5.051594
H       -0.352673     1.875193    -2.593759
42
ex_0471 frame52 all-cis-conf13
N       -1.232416     3.356099     3.898028
C       -1.290460     2.438277     3.203787
C       -1.297496     1.356990     2.265088
C       -2.261886     1.337977     1.310058
C       -3.212877     2.412877     1.274643
N       -3.894438     3.341951     1.283015
S       -2.395676     0.038245     0.102620
Mo       0.000000     0.000000     0.000000
O        2.049579     0.007897    -0.046308
Se       0.000000     2.500000     0.000000
C        0.009920     4.427669    -0.020568
C       -1.190630     5.131346    -0.182483
C       -1.193167     6.534168    -0.156199
C        0.007528     7.234226     0.004419
C        1.201442     6.527212     0.145183
C        1.203113     5.128336     0.124493
S       -0.040211     0.094748     2.398189
N        0.037099    -2.139713    -0.142850
C       -0.068628    -3.007416     0.984662
C        0.370872    -4.387077     0.689273
C        0.766594    -4.724801    -0.548581
C        0.782082    -3.749919    -1.654697
C        0.434632    -2.501201    -1.423584
C        0.446035    -1.422032    -2.496474
C        0.816193    -1.642851    -3.866365
C        0.779817    -0.604788    -4.715367
C        0.337567     0.751977    -4.300729
C       -0.008786     0.969495    -3.030134
N        0.071485    -0.112775    -2.140869
H       -2.121335     4.595308    -0.287176
H       -2.120397     7.082189    -0.253739
H        0.022952     8.319238     0.022756
H        2.128752     7.062336     0.276654
H        2.122525     4.590142     0.251646
H       -0.372129    -2.593793     1.963616
H        0.362532    -5.099899     1.488022
H        1.078369    -5.729012    -0.758694
H        1.109033    -4.057624    -2.615883
H        1.130436    -2.615369    -4.129101
H        1.075171    -0.749080    -5.729503
H        0.321049     1.540730    -5.038819
H       -0.337357     1.928942    -2.655486
42
ex_0471 frame53 all-cis-conf14
N       -1.253596     3.352028     3.886460
C       -1.299533     2.433204     3.190570
C       -1.296464     1.356722     2.255573
C       -2.271041     1.346002     1.278159
C       -3.199550     2.424535     1.217328
N       -3.901735     3.342277     1.271987
S       -2.396216     0.050594     0.118127
Mo       0.000000     0.000000     0.000000
O        2.049502    -0.011947    -0.068050
Se       0.000000     2.500000     0.000000
C       -0.008479     4.425545     0.018279
C        0.750598     5.119105    -0.913411
C        0.756816     6.510275    -0.935360
C        0.003582     7.228628    -0.014126
C       -0.758190     6.537473     0.933721
C       -0.764170     5.136084     0.951517
S       -0.036157     0.083913     2.398615
N        0.033516    -2.140081    -0.139158
C       -0.070769    -3.002180     0.982496
C        0.370871    -4.373262     0.684227
C        0.766193    -4.710954    -0.549761
C        0.782712    -3.733464    -1.646210
C        0.432024    -2.489953    -1.413736
C        0.443883    -1.411987    -2.484884
C        0.813151    -1.631771    -3.842186
C        0.777231    -0.601775    -4.698632
C        0.337191     0.752677    -4.294269
C       -0.012201     0.969449    -3.025886
N        0.071219    -0.107362    -2.140566
H        1.332375     4.577593    -1.630915
H        1.347570     7.022559    -1.673658
H        0.019726     8.311525    -0.047395
H       -1.344879     7.083268     1.648980
H       -1.352964     4.610908     1.673049
H       -0.372476    -2.586409     1.951319
H        0.359568    -5.080637     1.478332
H        1.074538    -5.716301    -0.760093
H        1.106795    -4.037437    -2.602055
H        1.119421    -2.601306    -4.086440
H        1.067303    -0.742378    -5.712999
H        0.327336     1.530858    -5.041731
H       -0.344326     1.914832    -2.636198
42
ex_0471 frame54 all-cis-conf15
N       -1.259153     3.333729     3.893435
C       -1.262309     2.433057     3.176505
C       -1.267016     1.343968     2.260845
C       -2.227937     1.344684     1.330432
C       -3.157105     2.427647     1.311231
N       -3.923399     3.290103     1.225767
S       -2.392569     0.084008     0.145319
Mo       0.000000     0.000000     0.000000
O        2.047918    -0.011572    -0.062801
Se       0.000000     2.500000     0.000000
C       -0.003432     4.419958     0.018310
C        0.005260     5.127857     1.229952
C        0.008863     6.532149     1.199664
C        0.003431     7.212753    -0.024906
C       -0.007289     6.497715    -1.220185
C       -0.014668     5.105646    -1.186421
S       -0.025607     0.073897     2.399383
N        0.036519    -2.140838    -0.133951
C       -0.068653    -3.003778     0.990073
C        0.372012    -4.374048     0.686758
C        0.766748    -4.707473    -0.549016
C        0.784031    -3.733229    -1.644343
C        0.434547    -2.491395    -1.413204
C        0.445775    -1.411876    -2.488637
C        0.814444    -1.630661    -3.844568
C        0.776942    -0.601321    -4.694169
C        0.335172     0.753682    -4.290471
C       -0.014275     0.971865    -3.025679
N        0.070723    -0.106148    -2.140491
H        0.019763     4.606359     2.175407
H        0.018403     7.102130     2.114756
H        0.008500     8.290830    -0.054041
H       -0.009883     7.017034    -2.171719
H       -0.019054     4.554914    -2.104853
H       -0.376192    -2.580757     1.957201
H        0.356815    -5.075367     1.483390
H        1.072384    -5.711302    -0.760217
H        1.107206    -4.035590    -2.600231
H        1.118465    -2.597003    -4.084176
H        1.066005    -0.744707    -5.705473
H        0.326961     1.528198    -5.036323
H       -0.345037     1.915659    -2.639429
42
ex_0471 frame55 all-cis-conf16
N       -1.223946     3.342734     3.893328
C       -1.275860     2.427359     3.194635
C       -1.280879     1.343432     2.259348
C       -2.244152     1.334991     1.303434
C       -3.178060     2.421180     1.277408
N       -3.914999     3.308773     1.284264
S       -2.396735     0.047158     0.093141
Mo       0.000000     0.000000     0.000000
O        2.050586    -0.027762    -0.064983
Se       0.000000     2.500000     0.000000
C       -0.002843     4.435433     0.010284
C       -1.060932     5.135407     0.571326
C       -1.073445     6.530578     0.566222
C       -0.013292     7.241917     0.000776
C        1.058165     6.547297    -0.556714
C        1.066548     5.143846    -0.550324
S       -0.031202     0.075098     2.398922
N        0.031616    -2.141508    -0.140998
C       -0.073208    -3.002553     0.980104
C        0.369974    -4.374576     0.684000
C        0.766209    -4.712953    -0.550085
C        0.783375    -3.735898    -1.648392
C        0.432320    -2.491413    -1.416474
C        0.445772    -1.413139    -2.487275
C        0.813756    -1.633212    -3.846224
C        0.777811    -0.602016    -4.701631
C        0.337465     0.752624    -4.295666
C       -0.010140     0.969720    -3.026688
N        0.075695    -0.106746    -2.140548
H       -1.865690     4.597880     1.001335
H       -1.911436     7.048270     0.999908
H       -0.018612     8.325474    -0.006786
H        1.871120     7.108375    -0.993233
H        1.897525     4.613251    -0.988856
H       -0.371979    -2.587774     1.950863
H        0.359706    -5.082919     1.479377
H        1.075520    -5.718648    -0.759667
H        1.107378    -4.041216    -2.604813
H        1.120868    -2.603046    -4.093593
H        1.068455    -0.743119    -5.716366
H        0.325535     1.532343    -5.041765
H       -0.342579     1.916845    -2.639389
42
ex_0471 frame56 all-cis-conf17
N       -1.240250     3.335154     3.972705
C       -1.308941     2.433784     3.259171
C       -1.317466     1.365307     2.297410
C       -2.274966     1.348712     1.340506
C       -3.221933     2.427468     1.300026
N       -3.954204     3.320763     1.260265
S       -2.395982     0.038811     0.137778
Mo       0.000000     0.000000     0.000000
O        2.047908    -0.000059    -0.084432
Se       0.000000     2.500000     0.000000
C       -0.008651     4.375352     0.015672
C        1.141837     5.068700     0.393835
C        1.139443     6.461016     0.378624
C       -0.014559     7.155306     0.001568
C       -1.168184     6.453803    -0.365388
C       -1.162867     5.062002    -0.350108
S       -0.063547     0.098673     2.397944
N        0.048273    -2.140913    -0.146878
C       -0.089406    -3.024157     0.974644
C        0.413450    -4.396201     0.702893
C        0.860692    -4.723906    -0.522215
C        0.881136    -3.750018    -1.638295
C        0.494202    -2.501524    -1.420004
C        0.509660    -1.421945    -2.497410
C        0.922935    -1.630192    -3.871404
C        0.878173    -0.583670    -4.714646
C        0.380201     0.761076    -4.300035
C       -0.000189     0.966006    -3.035921
N        0.091686    -0.116881    -2.140488
H        2.042611     4.530418     0.671554
H        2.034014     6.998812     0.650785
H       -0.008668     8.234047    -0.009220
H       -2.063169     6.978673    -0.669791
H       -2.044206     4.511300    -0.647664
H       -0.407103    -2.628517     1.958520
H        0.410375    -5.115235     1.507479
H        1.213857    -5.721649    -0.709688
H        1.245651    -4.052841    -2.596296
H        1.280174    -2.593733    -4.147360
H        1.211484    -0.717921    -5.722395
H        0.349169     1.564233    -5.025318
H       -0.363860     1.927121    -2.683079
42
ex_0471 frame57 all-cis-conf18
N       -1.330280     3.313780     3.897054
C       -1.284839     2.426573     3.161984
C       -1.265902     1.322473     2.245171
C       -2.237449     1.320014     1.291759
C       -3.162412     2.435524     1.313331
N       -3.919316     3.337931     1.319108
S       -2.397243     0.050363     0.079825
Mo       0.000000     0.000000     0.000000
O        2.048985     0.048206     0.023054
Se       0.000000     2.500000     0.000000
C        0.006654     4.429892    -0.010845
C       -1.192814     5.134668    -0.165376
C       -1.191129     6.537009    -0.147356
C        0.001842     7.240190     0.007870
C        1.186208     6.532767     0.149349
C        1.186429     5.137281     0.132672
S        0.003614     0.040033     2.400394
N        0.032908    -2.140787    -0.136487
C       -0.045087    -2.998148     0.972018
C        0.421426    -4.352851     0.696736
C        0.856992    -4.677132    -0.518752
C        0.874259    -3.685916    -1.603909
C        0.476297    -2.459675    -1.383830
C        0.486916    -1.385927    -2.447490
C        0.898392    -1.589268    -3.772605
C        0.865989    -0.573228    -4.651079
C        0.377708     0.761663    -4.276239
C       -0.018565     0.959276    -3.019123
N        0.073075    -0.108009    -2.138891
H       -2.113445     4.594361    -0.275896
H       -2.106369     7.079690    -0.253598
H        0.036144     8.320730     0.021164
H        2.118128     7.053173     0.273066
H        2.092212     4.598866     0.250940
H       -0.404571    -2.625752     1.915256
H        0.402413    -5.067159     1.488748
H        1.193902    -5.682834    -0.704739
H        1.230568    -3.978391    -2.543728
H        1.233411    -2.541222    -3.993132
H        1.187146    -0.695056    -5.667002
H        0.374792     1.536513    -5.031229
H       -0.395066     1.878718    -2.612698
42
ex_0471 frame58 all-cis-conf19
N       -1.342494     3.313775     3.886576
C       -1.294224     2.423625     3.156923
C       -1.269368     1.322202     2.250866
C       -2.241692     1.315327     1.298378
C       -3.223931     2.372767     1.223543
N       -3.820861     3.354050     1.384818
S       -2.395066     0.082922     0.121598
Mo       0.000000     0.000000     0.000000
O        2.047990    -0.060456    -0.007575
Se       0.000000     2.500000     0.000000
C       -0.008260     4.443605     0.019110
C        0.740286     5.120619    -0.901255
C        0.746465     6.513324    -0.925908
C        0.001381     7.230775    -0.013099
C       -0.752174     6.531829     0.924049
C       -0.758075     5.127544     0.947287
S        0.014834     0.018255     2.400846
N        0.027992    -2.139151    -0.137997
C       -0.046708    -2.987202     0.970782
C        0.420295    -4.341498     0.692316
C        0.855544    -4.668384    -0.519781
C        0.872811    -3.667317    -1.596639
C        0.476853    -2.445443    -1.356158
C        0.516768    -1.355405    -2.413730
C        0.910879    -1.567005    -3.737347
C        0.836343    -0.576447    -4.645227
C        0.373599     0.752469    -4.276313
C        0.023202     0.963163    -3.005894
N        0.167568    -0.121134    -2.110719
H        1.321283     4.587161    -1.617860
H        1.339811     7.007831    -1.663995
H        0.027986     8.309107    -0.057129
H       -1.333153     7.071583     1.635276
H       -1.339798     4.606878     1.665070
H       -0.400876    -2.628565     1.903892
H        0.401256    -5.061142     1.486331
H        1.192635    -5.681455    -0.702959
H        1.226170    -3.969582    -2.535557
H        1.238246    -2.529361    -3.970659
H        1.111336    -0.709648    -5.682311
H        0.331189     1.518765    -5.045367
H       -0.335785     1.887883    -2.587371
42
ex_0471 frame59 all-cis-conf20
N       -1.318923     3.308690     3.915990
C       -1.297422     2.424942     3.176361
C       -1.289624     1.332746     2.253343
C       -2.253492     1.320486     1.298578
C       -3.200450     2.402337     1.270981
N       -3.874452     3.337636     1.324531
S       -2.384956     0.039687     0.103777
Mo       0.000000     0.000000     0.000000
O        2.047325    -0.011800    -0.065881
Se       0.000000     2.500000     0.000000
C       -0.005162     4.417732     0.035771
C        0.001786     5.125693     1.239299
C        0.008562     6.529135     1.200015
C        0.003433     7.211191    -0.023318
C       -0.007254     6.499515    -1.216905
C       -0.016154     5.108631    -1.179085
S       -0.031505     0.059353     2.399025
N        0.038609    -2.140023    -0.133279
C       -0.069188    -3.010674     0.978458
C        0.418900    -4.366404     0.700600
C        0.858546    -4.688203    -0.518224
C        0.877863    -3.703932    -1.611982
C        0.484092    -2.472574    -1.391713
C        0.497053    -1.393118    -2.463755
C        0.907221    -1.600602    -3.802111
C        0.869315    -0.575175    -4.666160
C        0.377818     0.765017    -4.280679
C       -0.013538     0.968599    -3.023162
N        0.083572    -0.102670    -2.139857
H        0.014930     4.600703     2.182990
H        0.018500     7.103946     2.107055
H        0.008609     8.289047    -0.057728
H       -0.009555     7.013204    -2.171605
H       -0.019224     4.552215    -2.100606
H       -0.408210    -2.623193     1.933794
H        0.403766    -5.078760     1.495109
H        1.198189    -5.687965    -0.706769
H        1.235330    -3.994038    -2.556507
H        1.245321    -2.557009    -4.027004
H        1.192318    -0.703130    -5.674585
H        0.366853     1.542426    -5.029436
H       -0.389337     1.894529    -2.630299
42
ex_0471 frame60 all-cis-conf21
N       -1.273130     3.316162     3.952921
C       -1.285027     2.432561     3.213702
C       -1.297109     1.353890     2.277191
C       -2.259427     1.346421     1.328594
C       -3.204832     2.426175     1.300293
N       -3.939410     3.316355     1.277981
S       -2.396719     0.054598     0.120344
Mo       0.000000     0.000000     0.000000
O        2.048069    -0.021900    -0.078188
Se       0.000000     2.500000     0.000000
C       -0.001089     4.435773     0.007316
C       -1.063518     5.136336     0.569971
C       -1.076332     6.532156     0.567451
C       -0.014506     7.241600     0.001510
C        1.058987     6.547088    -0.557301
C        1.067674     5.143889    -0.553773
S       -0.054939     0.079993     2.398536
N        0.040036    -2.139747    -0.139728
C       -0.094764    -3.021591     0.977217
C        0.412234    -4.386052     0.703888
C        0.859235    -4.709860    -0.519255
C        0.879286    -3.733110    -1.627901
C        0.489587    -2.491235    -1.408958
C        0.506854    -1.410542    -2.485428
C        0.918690    -1.619630    -3.846164
C        0.875206    -0.580181    -4.695688
C        0.378755     0.763742    -4.292044
C       -0.005231     0.969550    -3.030765
N        0.093219    -0.109159    -2.139961
H       -1.872286     4.602392     1.006224
H       -1.913592     7.054822     1.002342
H       -0.020032     8.324933    -0.005850
H        1.875850     7.104618    -0.994554
H        1.899114     4.611961    -0.989675
H       -0.410489    -2.625834     1.955711
H        0.407322    -5.102719     1.504820
H        1.209474    -5.706228    -0.708749
H        1.244228    -4.029230    -2.580760
H        1.268541    -2.582745    -4.100887
H        1.204069    -0.714887    -5.701715
H        0.354296     1.556150    -5.026498
H       -0.375088     1.918398    -2.663932
42
ex_0471 frame61 all-cis-conf27
N       -2.572806     0.725288     5.184922
C       -2.230265     0.548941     4.097069
C       -1.803208     0.329082     2.737135
C       -2.741710     0.309897     1.792094
C       -4.106477     0.546371     2.191788
N       -5.164217     0.752767     2.607173
S       -2.399610     0.009303     0.072626
Mo       0.000000     0.000000     0.000000
O        2.049670     0.002715     0.002524
Se       0.000000     2.500000     0.000000
C       -0.011296     4.368024     0.017747
C        1.141160     5.056228     0.397122
C        1.132226     6.445959     0.368398
C       -0.019059     7.143539    -0.003692
C       -1.168545     6.445783    -0.373330
C       -1.159050     5.057543    -0.344339
S       -0.068943     0.098427     2.398026
N        0.051546    -2.139715    -0.124249
C       -0.085656    -3.011782     0.969421
C        0.808905    -4.170656     0.890948
C        1.644377    -4.307282    -0.146882
C        1.681797    -3.320577    -1.239322
C        0.903747    -2.266262    -1.190881
C        0.903704    -1.178897    -2.261585
C        1.736584    -1.203608    -3.399084
C        1.665035    -0.205747    -4.280663
C        0.722770     0.925707    -4.108797
C       -0.064645     0.968497    -3.033461
N        0.046650    -0.086885    -2.141373
H        2.057632     4.523855     0.666457
H        2.016774     6.981554     0.644093
H       -0.000895     8.220336    -0.002512
H       -2.067706     6.966331    -0.672800
H       -2.024114     4.511475    -0.649625
H       -0.809235    -2.760334     1.729450
H        0.755912    -4.886093     1.681780
H        2.294505    -5.157350    -0.204338
H        2.371499    -3.456955    -2.019777
H        2.384986    -2.014383    -3.476605
H        2.294333    -0.211617    -5.144643
H        0.719733     1.697092    -4.851603
H       -0.764025     1.741224    -2.788404
42
ex_0471 frame62 all-cis-conf28
N       -2.574351     0.726076     5.184517
C       -2.230430     0.554713     4.096686
C       -1.805619     0.322442     2.740054
C       -2.744518     0.284994     1.798083
C       -4.109592     0.541450     2.187431
N       -5.166839     0.755430     2.600378
S       -2.398149    -0.063993     0.093086
Mo       0.000000     0.000000     0.000000
O        2.045317     0.072884    -0.003772
Se       0.000000     2.500000     0.000000
C        0.005983     4.432913    -0.009974
C       -1.192043     5.134854    -0.163858
C       -1.192502     6.536835    -0.149907
C        0.004500     7.238401     0.007092
C        1.192473     6.531388     0.147712
C        1.190120     5.137959     0.134367
S       -0.065294     0.099355     2.394438
N        0.053938    -2.139682    -0.125699
C       -0.086584    -3.012516     0.968975
C        0.809078    -4.171455     0.891176
C        1.644751    -4.307662    -0.146863
C        1.681492    -3.321677    -1.240340
C        0.903586    -2.266879    -1.191633
C        0.901820    -1.180200    -2.261843
C        1.736726    -1.203482    -3.400574
C        1.664699    -0.205037    -4.281507
C        0.722647     0.926037    -4.108940
C       -0.065871     0.968118    -3.033246
N        0.040547    -0.087745    -2.141811
H       -2.117146     4.592453    -0.275611
H       -2.112261     7.081303    -0.254027
H        0.031672     8.321157     0.021502
H        2.120729     7.056124     0.273709
H        2.101950     4.596231     0.250563
H       -0.810580    -2.760540     1.730293
H        0.756284    -4.886566     1.682078
H        2.294735    -5.157541    -0.204128
H        2.372659    -3.457602    -2.020515
H        2.386137    -2.014157    -3.478010
H        2.294695    -0.211601    -5.144707
H        0.720366     1.697946    -4.851121
H       -0.763768     1.743361    -2.789769
42
ex_0471 frame63 all-cis-conf29
N       -2.592575     0.725932     5.169662
C       -2.236904     0.549324     4.086075
C       -1.798681     0.328908     2.735846
C       -2.732782     0.301696     1.787252
C       -4.109423     0.546658     2.176370
N       -5.145402     0.755151     2.635010
S       -2.381430    -0.020682     0.058864
Mo       0.000000     0.000000     0.000000
O        2.050964     0.023331    -0.009856
Se       0.000000     2.500000     0.000000
C       -0.015166     4.421967     0.033820
C        0.740489     5.126620    -0.896645
C        0.748724     6.514654    -0.927645
C        0.002302     7.231580    -0.014050
C       -0.753327     6.534608     0.927823
C       -0.759223     5.133230     0.960994
S       -0.071933     0.107262     2.395436
N        0.065750    -2.134513    -0.129129
C       -0.077555    -3.001523     0.958654
C        0.804569    -4.157622     0.884268
C        1.637682    -4.296286    -0.148125
C        1.675856    -3.295100    -1.224323
C        0.889966    -2.250420    -1.172136
C        0.867681    -1.163402    -2.236856
C        1.715071    -1.190096    -3.365224
C        1.656276    -0.209383    -4.264437
C        0.728536     0.917213    -4.095943
C       -0.063969     0.960827    -3.028225
N        0.004922    -0.090415    -2.141611
H        1.321283     4.586105    -1.617607
H        1.340151     7.009791    -1.665975
H        0.026746     8.309949    -0.056002
H       -1.335235     7.073146     1.636070
H       -1.341227     4.602856     1.669620
H       -0.792093    -2.759241     1.709900
H        0.749309    -4.873821     1.675085
H        2.289091    -5.150603    -0.206698
H        2.356556    -3.443328    -2.006720
H        2.358212    -2.006267    -3.446771
H        2.284418    -0.207934    -5.141849
H        0.726642     1.686956    -4.849449
H       -0.764606     1.713758    -2.774655
42
ex_0471 frame64 all-cis-conf30
N       -2.581027     0.727493     5.190743
C       -2.236133     0.548712     4.096255
C       -1.811132     0.333163     2.742558
C       -2.748199     0.314159     1.790806
C       -4.115492     0.556675     2.177680
N       -5.170717     0.762290     2.600180
S       -2.399253     0.007265     0.082331
Mo       0.000000     0.000000     0.000000
O        2.050220     0.007210     0.002627
Se       0.000000     2.500000     0.000000
C       -0.006039     4.416426     0.026031
C        0.000307     5.122373     1.237712
C        0.008064     6.527296     1.200911
C        0.003646     7.210057    -0.022460
C       -0.008055     6.499071    -1.215998
C       -0.016902     5.108404    -1.182388
S       -0.070571     0.102614     2.393048
N        0.054121    -2.135656    -0.117493
C       -0.088296    -3.013809     0.973180
C        0.808593    -4.172391     0.892676
C        1.644331    -4.308183    -0.145827
C        1.680270    -3.322152    -1.237971
C        0.903340    -2.266915    -1.187148
C        0.900490    -1.180713    -2.259610
C        1.735817    -1.204754    -3.399751
C        1.664550    -0.205145    -4.281703
C        0.722602     0.925317    -4.108939
C       -0.066242     0.967157    -3.033025
N        0.040584    -0.090595    -2.141707
H        0.008481     4.593344     2.189413
H        0.018817     7.104017     2.105961
H        0.008968     8.288112    -0.058264
H       -0.009099     7.012164    -2.171256
H       -0.019894     4.551669    -2.099188
H       -0.812296    -2.761324     1.734586
H        0.757142    -4.888158     1.682402
H        2.295280    -5.157930    -0.204119
H        2.371045    -3.458205    -2.020629
H        2.387393    -2.014874    -3.479252
H        2.295417    -0.211268    -5.145283
H        0.720033     1.698533    -4.851053
H       -0.764025     1.743470    -2.789867
42
ex_0471 frame65 all-cis-conf31
N       -2.572014     0.726285     5.186351
C       -2.229596     0.551370     4.098208
C       -1.804196     0.325788     2.739997
C       -2.743168     0.295742     1.797084
C       -4.108064     0.543693     2.191227
N       -5.164861     0.753634     2.607119
S       -2.399046    -0.033164     0.085656
Mo       0.000000     0.000000     0.000000
O        2.049329     0.040966    -0.011298
Se       0.000000     2.500000     0.000000
C       -0.003840     4.433836     0.010259
C       -1.067847     5.132135     0.572990
C       -1.072532     6.528719     0.563107
C       -0.012064     7.241839    -0.000263
C        1.056340     6.546329    -0.557828
C        1.061064     5.143397    -0.546945
S       -0.067623     0.101855     2.397673
N        0.053059    -2.138879    -0.121669
C       -0.087713    -3.013265     0.970599
C        0.808930    -4.172046     0.891817
C        1.644610    -4.307931    -0.146438
C        1.680851    -3.321712    -1.239547
C        0.902361    -2.266730    -1.189666
C        0.899314    -1.179934    -2.260939
C        1.735338    -1.203440    -3.399865
C        1.664202    -0.204578    -4.281726
C        0.722523     0.926051    -4.109320
C       -0.067147     0.968553    -3.033612
N        0.037089    -0.089257    -2.141675
H       -1.873577     4.578900     0.995955
H       -1.909272     7.042482     0.998128
H       -0.017265     8.325749    -0.006614
H        1.866084     7.110986    -0.990685
H        1.895383     4.614654    -0.988934
H       -0.811676    -2.761242     1.732604
H        0.756715    -4.887473     1.682407
H        2.295264    -5.157792    -0.204341
H        2.371760    -3.457987    -2.020750
H        2.386493    -2.014174    -3.478430
H        2.295106    -0.211297    -5.144994
H        0.720847     1.698704    -4.851538
H       -0.764283     1.744819    -2.790670
42
ex_0471 frame66 trigonal-prismatic top-NOS/bot-NSSe-conf2_mirror
N       -4.171512    -0.229662     2.173661
C       -3.409070     0.303268     1.493045
C       -2.403163     0.875305     0.652276
C       -2.367344     0.870019    -0.634753
C       -3.206870     0.182065    -1.531270
N       -3.870359    -0.413273    -2.256992
S       -1.194494     1.784950    -1.148659
Mo       0.000000     0.000000     0.000000
O        1.559323    -0.007802    -1.338570
Se       2.236068     0.000000     1.118034
C        3.968222    -0.002086     1.987832
C        4.404193     1.126557     2.658219
C        5.668803     1.127621     3.281720
C        6.480678     0.004160     3.231849
C        6.027973    -1.114893     2.565309
C        4.768605    -1.116744     1.944465
S       -1.010249     1.705198     1.379332
N       -1.093638    -1.599990    -1.061502
C       -0.753437    -1.562194    -2.535766
C       -1.785920    -2.148505    -3.445731
C       -2.868098    -2.765813    -2.959327
C       -3.041968    -2.866750    -1.509141
C       -2.113643    -2.252808    -0.657313
C       -2.105126    -2.225249     0.649666
C       -3.123780    -2.824039     1.541877
C       -3.007241    -2.734639     2.855051
C       -1.842130    -2.107666     3.433064
C       -0.870168    -1.583894     2.612781
N       -0.957919    -1.523917     1.217096
H        3.784449     1.999630     2.703219
H        6.014890     1.992027     3.795187
H        7.453757    -0.036229     3.693479
H        6.629236    -2.007342     2.504417
H        4.428056    -1.977544     1.435617
H        0.096199    -1.058894    -2.898195
H       -1.604265    -2.047492    -4.504508
H       -3.609187    -3.178447    -3.621497
H       -3.910238    -3.336224    -1.051973
H       -3.950807    -3.271093     1.007482
H       -3.744524    -3.116148     3.533585
H       -1.793495    -2.058402     4.525779
H        0.004893    -1.115188     2.958744
