37
ex_0206 frame0 SP-4-1
Pt       0.000000     0.000000     0.000000
C        2.013145     0.325337    -2.420373
C        2.774480     0.154928    -1.178675
C        4.166459     0.154562    -1.175898
C        4.863822    -0.002450     0.018635
C        4.155862    -0.158273     1.204117
C        2.772737    -0.153247     1.165890
N        2.070000     0.000000     0.000000
H        2.250301    -0.475697    -3.108834
H        2.241571     1.285326    -2.887204
H        1.056399     0.420556    -2.236207
H        4.702109     0.277531    -2.111442
H        5.949563    -0.003103     0.023586
H        4.668017    -0.282755     2.151157
H        2.173138    -0.268384     2.041852
C        0.638378     1.994706     2.351753
C        0.311431     2.774480     1.147296
C        0.310698     4.166459     1.144593
C       -0.004923     4.863822    -0.018139
C       -0.318154     4.155862    -1.172060
C       -0.308053     2.772737    -1.134851
N        0.000000     2.070000     0.000000
H        0.586207     0.918189     2.159631
H        1.653313     2.232552     2.685049
H       -0.068710     2.232574     3.152499
H        0.557890     4.702109     2.055230
H       -0.006232     5.949564    -0.022957
H       -0.568383     4.668018    -2.093887
H       -0.539500     2.173138    -1.987494
O       -2.020000     0.000000     0.000000
N       -3.262183    -0.000000     0.000000
O       -3.883274     1.073676    -0.066965
O       -3.883274    -1.073676     0.066965
O        0.000000    -2.020000     0.000000
N       -0.033869    -3.305872     0.031572
O       -0.857833    -3.883275    -0.649143
O        0.840099    -3.892918     0.661805
37
ex_0206 frame1 SP-4-1-conf1
Pt       0.000000     0.000000     0.000000
C        1.998883     0.321873    -2.413411
C        2.774463     0.151695    -1.154084
C        4.166459     0.154562    -1.175898
C        4.863625    -0.002464     0.018741
C        4.154801    -0.162418     1.203277
C        2.780563    -0.155442     1.127014
N        2.070000     0.000000     0.000000
H        2.270765    -0.469328    -3.095150
H        2.232556     1.278699    -2.882340
H        0.955266     0.326423    -2.222312
H        4.702109     0.277531    -2.111442
H        5.949563    -0.003103     0.023586
H        4.668017    -0.282755     2.151157
H        2.155135    -0.281626     2.053619
C       -1.390056     2.012644    -2.015126
C       -0.647540     2.786492    -0.942496
C       -0.667296     4.166459    -0.980481
C        0.010636     4.863625     0.015626
C        0.683311     4.155862     1.004009
C        0.651388     2.772849     0.957106
N        0.000000     2.070000     0.000000
H       -2.507938     2.076915    -1.830926
H       -1.061639     0.968458    -2.018807
H       -1.185721     2.481190    -3.026581
H       -1.198195     4.702109    -1.760551
H        0.013387     5.949563     0.019665
H        1.220736     4.668017     1.793664
H        1.158705     2.173138     1.702526
O       -2.020000     0.000000     0.000000
N       -3.262183    -0.000000     0.000000
O       -3.883274     1.073676    -0.066965
O       -3.883274    -1.073676     0.066965
O        0.000000    -2.020000     0.000000
N       -0.010998    -3.276492     0.010252
O       -1.067462    -3.883274    -0.133373
O        1.046139    -3.899444     0.143565
37
ex_0206 frame2 SP-4-1-conf2
Pt       0.000000     0.000000     0.000000
C        2.000457     0.323875    -2.411017
C        2.774463     0.151695    -1.154084
C        4.166459     0.154562    -1.175898
C        4.863625    -0.002464     0.018741
C        4.154801    -0.162418     1.203277
C        2.780563    -0.155442     1.127014
N        2.070000     0.000000     0.000000
H        2.275396    -0.471218    -3.091364
H        2.232556     1.278699    -2.882340
H        0.955266     0.326423    -2.222312
H        4.702109     0.277531    -2.111442
H        5.949563    -0.003103     0.023586
H        4.668017    -0.282755     2.151157
H        2.155135    -0.281626     2.053619
C       -1.390056     2.012644    -2.015126
C       -0.647540     2.786492    -0.942496
C       -0.667296     4.166459    -0.980481
C        0.010636     4.863625     0.015626
C        0.683311     4.155862     1.004009
C        0.651388     2.772849     0.957106
N        0.000000     2.070000     0.000000
H       -2.507938     2.076915    -1.830926
H       -1.061639     0.968458    -2.018807
H       -1.185721     2.481190    -3.026581
H       -1.198195     4.702109    -1.760551
H        0.013387     5.949563     0.019665
H        1.220736     4.668017     1.793664
H        1.158705     2.173138     1.702526
O       -2.020000     0.000000     0.000000
N       -3.262183    -0.000000     0.000000
O       -3.883274     1.073676    -0.066965
O       -3.883274    -1.073676     0.066965
O        0.000000    -2.020000     0.000000
N       -0.010998    -3.276492     0.010252
O        1.050541    -3.903858     0.014368
O       -1.075753    -3.883274    -0.004264
37
ex_0206 frame3 SP-4-1-conf3
Pt       0.000000     0.000000     0.000000
C        1.998883     0.321873    -2.413411
C        2.774463     0.151695    -1.154084
C        4.166459     0.154562    -1.175898
C        4.863625    -0.002464     0.018741
C        4.154801    -0.162418     1.203277
C        2.780563    -0.155442     1.127014
N        2.070000     0.000000     0.000000
H        2.270765    -0.469328    -3.095150
H        2.232556     1.278699    -2.882340
H        0.955266     0.326423    -2.222312
H        4.702109     0.277531    -2.111442
H        5.949563    -0.003103     0.023586
H        4.668017    -0.282755     2.151157
H        2.155135    -0.281626     2.053619
C       -1.390056     2.012644    -2.015126
C       -0.647540     2.786492    -0.942496
C       -0.667296     4.166459    -0.980481
C        0.010636     4.863625     0.015626
C        0.683311     4.155862     1.004009
C        0.651388     2.772849     0.957106
N        0.000000     2.070000     0.000000
H       -2.507938     2.076915    -1.830926
H       -1.061639     0.968458    -2.018807
H       -1.185721     2.481190    -3.026581
H       -1.198195     4.702109    -1.760551
H        0.013387     5.949563     0.019665
H        1.220736     4.668017     1.793664
H        1.158705     2.173138     1.702526
O       -2.020000     0.000000     0.000000
N       -3.262183     0.000000    -0.000000
O       -3.883274    -1.075751     0.004832
O       -3.883274     1.075751    -0.004832
O        0.000000    -2.020000     0.000000
N       -0.010998    -3.276492     0.010252
O       -1.067462    -3.883274    -0.133373
O        1.046139    -3.899444     0.143565
37
ex_0206 frame4 SP-4-1-conf4
Pt       0.000000     0.000000     0.000000
C        1.994706    -0.318579    -2.415943
C        2.774458    -0.151191    -1.146574
C        4.166459    -0.155049    -1.175834
C        4.863514     0.002478     0.018800
C        4.155862     0.158768     1.204051
C        2.772907     0.150858     1.144049
N        2.070000     0.000000     0.000000
H        2.232568    -1.279901    -2.881805
H        2.232556     0.489124    -3.115078
H        0.918190    -0.292566    -2.218570
H        4.702109    -0.278407    -2.111327
H        5.949563     0.003107     0.023585
H        4.668017     0.283640     2.151040
H        2.173138     0.269231     2.041741
C       -1.489256     1.994708     1.928831
C       -0.706781     2.774458     0.915396
C       -0.724818     4.166460     0.938756
C        0.011588     4.863515    -0.015011
C        0.742210     4.155864    -0.961286
C        0.705225     2.772907    -0.913380
N        0.000000     2.070000     0.000000
H       -1.169099     0.947963     1.947422
H       -2.555749     2.020544     1.684549
H       -1.338328     2.414981     2.928001
H       -1.301481     4.702110     1.685630
H        0.014538     5.949565    -0.018831
H        1.325961     4.668019    -1.717338
H        1.258588     2.173140    -1.630074
O       -2.020000     0.000000     0.000000
N       -3.262183    -0.000000     0.000000
O       -3.883274     1.073676    -0.066965
O       -3.883274    -1.073676     0.066965
O        0.000000    -2.020000     0.000000
N        0.000000    -3.262183    -0.000000
O       -1.067462    -3.883274    -0.133373
O        1.067462    -3.883274     0.133373
37
ex_0206 frame5 SP-4-1-conf5
Pt       0.000000     0.000000     0.000000
C        1.948311    -0.265428     2.563405
C        2.806047    -0.143072     1.101979
C        4.220075    -0.121858     1.158615
C        4.867595     0.001736    -0.020799
C        4.155864     0.096355    -1.210645
C        2.772536     0.094126    -1.178432
N        2.070000     0.000000     0.000000
H        0.891870    -0.323021     2.235745
H        2.269097     0.646647     3.238106
H        2.155720    -1.258797     2.980936
H        4.702110    -0.168956     2.122889
H        5.949565     0.001889    -0.023715
H        4.668019     0.172136    -2.162820
H        2.173140     0.163386    -2.052923
C        0.412179     2.048778    -2.401289
C        0.131359     2.836353    -1.151255
C        0.177883     4.232902    -1.106578
C       -0.003835     4.868130     0.020968
C       -0.227851     4.155690     1.199175
C       -0.218727     2.772530     1.152101
N        0.000000     2.070000     0.000000
H        1.376764     2.230858    -2.827109
H       -0.371578     2.311690    -3.142654
H        0.398675     0.871977    -2.156246
H        0.397646     4.702109    -2.092149
H       -0.004439     5.949563     0.023371
H       -0.405121     4.668017     2.131502
H       -0.384540     2.173138     2.023195
O       -2.020000     0.000000     0.000000
N       -3.262183    -0.000000     0.000000
O       -3.883274     1.073676    -0.066965
O       -3.883274    -1.073676     0.066965
O        0.000000    -2.020000     0.000000
N        0.000000    -3.262183    -0.000000
O       -1.067462    -3.883274    -0.133373
O        1.067462    -3.883274     0.133373
37
ex_0206 frame6 SP-4-1-conf6
Pt       0.000000     0.000000     0.000000
C        2.000457     0.323875    -2.411017
C        2.774463     0.151695    -1.154084
C        4.166459     0.154562    -1.175898
C        4.863625    -0.002464     0.018741
C        4.154801    -0.162418     1.203277
C        2.780563    -0.155442     1.127014
N        2.070000     0.000000     0.000000
H        2.275396    -0.471218    -3.091364
H        2.232556     1.278699    -2.882340
H        0.955266     0.326423    -2.222312
H        4.702109     0.277531    -2.111442
H        5.949563    -0.003103     0.023586
H        4.668017    -0.282755     2.151157
H        2.155135    -0.281626     2.053619
C       -1.390056     2.012644    -2.015126
C       -0.647540     2.786492    -0.942496
C       -0.667296     4.166459    -0.980481
C        0.010636     4.863625     0.015626
C        0.683311     4.155862     1.004009
C        0.651388     2.772849     0.957106
N        0.000000     2.070000     0.000000
H       -2.507938     2.076915    -1.830926
H       -1.061639     0.968458    -2.018807
H       -1.185721     2.481190    -3.026581
H       -1.198195     4.702109    -1.760551
H        0.013387     5.949563     0.019665
H        1.220736     4.668017     1.793664
H        1.158705     2.173138     1.702526
O       -2.020000     0.000000     0.000000
N       -3.262183     0.000000    -0.000000
O       -3.883274    -1.075751     0.004832
O       -3.883274     1.075751    -0.004832
O        0.000000    -2.020000     0.000000
N       -0.010998    -3.276492     0.010252
O        1.050541    -3.903858     0.014368
O       -1.075753    -3.883274    -0.004264
37
ex_0206 frame7 SP-4-1-conf7
Pt       0.000000     0.000000     0.000000
C        1.994706    -0.318579    -2.415943
C        2.774458    -0.151191    -1.146574
C        4.166459    -0.155049    -1.175834
C        4.863514     0.002478     0.018800
C        4.155862     0.158768     1.204051
C        2.772907     0.150858     1.144049
N        2.070000     0.000000     0.000000
H        2.232568    -1.279901    -2.881805
H        2.232556     0.489124    -3.115078
H        0.918190    -0.292566    -2.218570
H        4.702109    -0.278407    -2.111327
H        5.949563     0.003107     0.023585
H        4.668017     0.283640     2.151040
H        2.173138     0.269231     2.041741
C       -1.489256     1.994708     1.928831
C       -0.706781     2.774458     0.915396
C       -0.724818     4.166460     0.938756
C        0.011588     4.863515    -0.015011
C        0.742210     4.155864    -0.961286
C        0.705225     2.772907    -0.913380
N        0.000000     2.070000     0.000000
H       -1.169099     0.947963     1.947422
H       -2.555749     2.020544     1.684549
H       -1.338328     2.414981     2.928001
H       -1.301481     4.702110     1.685630
H        0.014538     5.949565    -0.018831
H        1.325961     4.668019    -1.717338
H        1.258588     2.173140    -1.630074
O       -2.020000     0.000000     0.000000
N       -3.262183    -0.000000     0.000000
O       -3.883274     1.073676    -0.066965
O       -3.883274    -1.073676     0.066965
O        0.000000    -2.020000     0.000000
N        0.000000    -3.262183    -0.000000
O        1.075753    -3.883274     0.004264
O       -1.075753    -3.883274    -0.004264
37
ex_0206 frame8 SP-4-1-conf8
Pt       0.000000     0.000000     0.000000
C        1.994706    -0.318579    -2.415943
C        2.774458    -0.151191    -1.146574
C        4.166459    -0.155049    -1.175834
C        4.863514     0.002478     0.018800
C        4.155862     0.158768     1.204051
C        2.772907     0.150858     1.144049
N        2.070000     0.000000     0.000000
H        2.232568    -1.279901    -2.881805
H        2.232556     0.489124    -3.115078
H        0.918190    -0.292566    -2.218570
H        4.702109    -0.278407    -2.111327
H        5.949563     0.003107     0.023585
H        4.668017     0.283640     2.151040
H        2.173138     0.269231     2.041741
C       -1.489256     1.994708     1.928831
C       -0.706781     2.774458     0.915396
C       -0.724818     4.166460     0.938756
C        0.011588     4.863515    -0.015011
C        0.742210     4.155864    -0.961286
C        0.705225     2.772907    -0.913380
N        0.000000     2.070000     0.000000
H       -1.169099     0.947963     1.947422
H       -2.555749     2.020544     1.684549
H       -1.338328     2.414981     2.928001
H       -1.301481     4.702110     1.685630
H        0.014538     5.949565    -0.018831
H        1.325961     4.668019    -1.717338
H        1.258588     2.173140    -1.630074
O       -2.020000     0.000000     0.000000
N       -3.262183     0.000000    -0.000000
O       -3.883274    -1.075751     0.004832
O       -3.883274     1.075751    -0.004832
O        0.000000    -2.020000     0.000000
N        0.000000    -3.262183    -0.000000
O       -1.067462    -3.883274    -0.133373
O        1.067462    -3.883274     0.133373
37
ex_0206 frame9 SP-4-1-conf9
Pt       0.000000     0.000000     0.000000
C        1.948311    -0.265428     2.563405
C        2.806047    -0.143072     1.101979
C        4.220075    -0.121858     1.158615
C        4.867595     0.001736    -0.020799
C        4.155864     0.096355    -1.210645
C        2.772536     0.094126    -1.178432
N        2.070000     0.000000     0.000000
H        0.891870    -0.323021     2.235745
H        2.269097     0.646647     3.238106
H        2.155720    -1.258797     2.980936
H        4.702110    -0.168956     2.122889
H        5.949565     0.001889    -0.023715
H        4.668019     0.172136    -2.162820
H        2.173140     0.163386    -2.052923
C        0.412179     2.048778    -2.401289
C        0.131359     2.836353    -1.151255
C        0.177883     4.232902    -1.106578
C       -0.003835     4.868130     0.020968
C       -0.227851     4.155690     1.199175
C       -0.218727     2.772530     1.152101
N        0.000000     2.070000     0.000000
H        1.376764     2.230858    -2.827109
H       -0.371578     2.311690    -3.142654
H        0.398675     0.871977    -2.156246
H        0.397646     4.702109    -2.092149
H       -0.004439     5.949563     0.023371
H       -0.405121     4.668017     2.131502
H       -0.384540     2.173138     2.023195
O       -2.020000     0.000000     0.000000
N       -3.262183    -0.000000     0.000000
O       -3.883274     1.073676    -0.066965
O       -3.883274    -1.073676     0.066965
O        0.000000    -2.020000     0.000000
N        0.000000    -3.262183    -0.000000
O        1.075753    -3.883274     0.004264
O       -1.075753    -3.883274    -0.004264
37
ex_0206 frame10 SP-4-1-conf10
Pt       0.000000     0.000000     0.000000
C        1.948311    -0.265428     2.563405
C        2.806047    -0.143072     1.101979
C        4.220075    -0.121858     1.158615
C        4.867595     0.001736    -0.020799
C        4.155864     0.096355    -1.210645
C        2.772536     0.094126    -1.178432
N        2.070000     0.000000     0.000000
H        0.891870    -0.323021     2.235745
H        2.269097     0.646647     3.238106
H        2.155720    -1.258797     2.980936
H        4.702110    -0.168956     2.122889
H        5.949565     0.001889    -0.023715
H        4.668019     0.172136    -2.162820
H        2.173140     0.163386    -2.052923
C        0.412179     2.048778    -2.401289
C        0.131359     2.836353    -1.151255
C        0.177883     4.232902    -1.106578
C       -0.003835     4.868130     0.020968
C       -0.227851     4.155690     1.199175
C       -0.218727     2.772530     1.152101
N        0.000000     2.070000     0.000000
H        1.376764     2.230858    -2.827109
H       -0.371578     2.311690    -3.142654
H        0.398675     0.871977    -2.156246
H        0.397646     4.702109    -2.092149
H       -0.004439     5.949563     0.023371
H       -0.405121     4.668017     2.131502
H       -0.384540     2.173138     2.023195
O       -2.020000     0.000000     0.000000
N       -3.262183     0.000000    -0.000000
O       -3.883274    -1.075751     0.004832
O       -3.883274     1.075751    -0.004832
O        0.000000    -2.020000     0.000000
N        0.000000    -3.262183    -0.000000
O       -1.067462    -3.883274    -0.133373
O        1.067462    -3.883274     0.133373
37
ex_0206 frame11 SP-4-2
Pt       0.000000     0.000000     0.000000
C        2.013145    -1.481414    -1.941510
C        2.774480    -0.723899    -0.943000
C        4.166459    -0.722193    -0.940778
C        4.863822     0.011444     0.014910
C        4.155862     0.739523     0.963355
C        2.772737     0.716047     0.932771
N        2.070000     0.000000     0.000000
H        2.039479    -2.536311    -1.699900
H        2.423262    -1.327239    -2.941371
H        1.109182    -1.119724    -2.043380
H        4.702109    -1.296771    -1.689259
H        5.949563     0.014483     0.018872
H        4.668017     1.321159     1.721035
H        2.173138     1.254031     1.633584
O        0.000000     2.020000     0.000000
N       -0.000000     3.262183     0.000000
O        1.075382     3.883274    -0.028575
O       -1.075382     3.883274     0.028575
C       -1.994708    -0.091083    -2.435155
C       -2.774481    -0.044433    -1.187983
C       -4.166460    -0.044329    -1.185183
C       -4.863823     0.000704     0.018783
C       -4.155864     0.045395     1.213625
C       -2.772738     0.043951     1.175097
N       -2.070000     0.000000     0.000000
H       -0.918190    -0.083649    -2.236217
H       -2.232566     0.778503    -3.055632
H       -2.232571    -1.004589    -2.988937
H       -4.702110    -0.079597    -2.128113
H       -5.949565     0.000891     0.023773
H       -4.668019     0.081096     2.168143
H       -2.173140     0.076972     2.057975
O        0.000000    -2.020000     0.000000
N       -0.033869    -3.305872     0.031572
O       -0.857833    -3.883275    -0.649143
O        0.840099    -3.892918     0.661805
37
ex_0206 frame12 SP-4-2-conf1
Pt       0.000000     0.000000     0.000000
C        1.998883    -1.478940    -1.934138
C        2.774463    -0.708796    -0.923325
C        4.166459    -0.722193    -0.940778
C        4.863625     0.011509     0.014995
C        4.155862     0.739523     0.963355
C        2.772849     0.704976     0.918350
N        2.070000     0.000000     0.000000
H        2.061994    -2.528393    -1.690511
H        2.413379    -1.329472    -2.932069
H        0.990685    -1.150873    -1.973956
H        4.702109    -1.296771    -1.689259
H        5.949563     0.014483     0.018872
H        4.668017     1.321159     1.721035
H        2.173138     1.254031     1.633584
O        0.000000     2.020000     0.000000
N       -0.000000     3.262183     0.000000
O        1.075382     3.883274    -0.028575
O       -1.056442     3.897140     0.015107
C       -1.994706     1.294970    -2.064298
C       -2.774463     0.618564    -0.986052
C       -4.166459     0.630257    -1.004690
C       -4.863625    -0.010044     0.016013
C       -4.155862    -0.645380     1.028801
C       -2.772849    -0.615231     0.980739
N       -2.070000     0.000000     0.000000
H       -2.558661     1.281541    -3.002125
H       -1.060353     0.773528    -2.218169
H       -1.816087     2.321199    -1.833645
H       -4.702109     1.131690    -1.804021
H       -5.949563    -0.012639     0.020154
H       -4.668017    -1.152972     1.837955
H       -2.173138    -1.094390     1.744563
O        0.000000    -2.020000     0.000000
N       -0.010998    -3.276492     0.010252
O       -1.067462    -3.883274    -0.133373
O        1.046139    -3.899444     0.143565
37
ex_0206 frame13 SP-4-2-conf2
Pt       0.000000     0.000000     0.000000
C        2.000457    -1.475832    -1.933861
C        2.774463    -0.708796    -0.923325
C        4.166459    -0.722193    -0.940778
C        4.863625     0.011509     0.014995
C        4.155862     0.739523     0.963355
C        2.772849     0.704976     0.918350
N        2.070000     0.000000     0.000000
H        2.065544    -2.527006    -1.686008
H        2.412634    -1.329206    -2.932017
H        0.990263    -1.150289    -1.973484
H        4.702109    -1.296771    -1.689259
H        5.949563     0.014483     0.018872
H        4.668017     1.321159     1.721035
H        2.173138     1.254031     1.633584
O        0.000000     2.020000     0.000000
N       -0.000000     3.262183     0.000000
O        1.075382     3.883274    -0.028575
O       -1.056442     3.897140     0.015107
C       -1.994706     1.294970    -2.064298
C       -2.774463     0.618564    -0.986052
C       -4.166459     0.630257    -1.004690
C       -4.863625    -0.010044     0.016013
C       -4.155862    -0.645380     1.028801
C       -2.772849    -0.615231     0.980739
N       -2.070000     0.000000     0.000000
H       -2.558661     1.281541    -3.002125
H       -1.060353     0.773528    -2.218169
H       -1.816087     2.321199    -1.833645
H       -4.702109     1.131690    -1.804021
H       -5.949563    -0.012639     0.020154
H       -4.668017    -1.152972     1.837955
H       -2.173138    -1.094390     1.744563
O        0.000000    -2.020000     0.000000
N       -0.010998    -3.276492     0.010252
O        1.050541    -3.903858     0.014368
O       -1.075753    -3.883274    -0.004264
37
ex_0206 frame14 SP-4-2-conf3
Pt       0.000000     0.000000     0.000000
C        1.998883    -1.478940    -1.934138
C        2.774463    -0.708796    -0.923325
C        4.166459    -0.722193    -0.940778
C        4.863625     0.011509     0.014995
C        4.155862     0.739523     0.963355
C        2.772849     0.704976     0.918350
N        2.070000     0.000000     0.000000
H        2.061994    -2.528393    -1.690511
H        2.413379    -1.329472    -2.932069
H        0.990685    -1.150873    -1.973956
H        4.702109    -1.296771    -1.689259
H        5.949563     0.014483     0.018872
H        4.668017     1.321159     1.721035
H        2.173138     1.254031     1.633584
O        0.000000     2.020000     0.000000
N        0.000000     3.262183    -0.000000
O       -1.057840     3.896392    -0.008560
O        1.075752     3.883274    -0.004554
C       -1.994706     1.294970    -2.064298
C       -2.774463     0.618564    -0.986052
C       -4.166459     0.630257    -1.004690
C       -4.863625    -0.010044     0.016013
C       -4.155862    -0.645380     1.028801
C       -2.772849    -0.615231     0.980739
N       -2.070000     0.000000     0.000000
H       -2.558661     1.281541    -3.002125
H       -1.059279     0.774295    -2.218180
H       -1.816087     2.321199    -1.833645
H       -4.702109     1.131690    -1.804021
H       -5.949563    -0.012639     0.020154
H       -4.668017    -1.152972     1.837955
H       -2.173138    -1.094390     1.744563
O        0.000000    -2.020000     0.000000
N       -0.010998    -3.276492     0.010252
O       -1.067462    -3.883274    -0.133373
O        1.046139    -3.899444     0.143565
37
ex_0206 frame15 SP-4-2-conf4
Pt       0.000000     0.000000     0.000000
C        1.994708     1.580979     1.854395
C        2.774467     0.758433     0.889596
C        4.166460     0.769459     0.902528
C        4.863700    -0.012237    -0.014355
C        4.155864    -0.787922    -0.924189
C        2.772811    -0.752753    -0.882933
N        2.070000     0.000000     0.000000
H        0.990451     1.256212     1.928532
H        2.040051     2.623452     1.566897
H        2.414445     1.479472     2.860012
H        4.702110     1.381639     1.620579
H        5.949565    -0.015433    -0.018104
H        4.668019    -1.407627    -1.651063
H        2.173140    -1.336104    -1.567167
O        0.000000     2.020000     0.000000
N       -0.000000     3.262183     0.000000
O        1.059963     3.895084    -0.042019
O       -1.043815     3.906384     0.006128
C       -1.994706     1.294970    -2.064298
C       -2.774466     0.621225    -0.990294
C       -4.166459     0.630257    -1.004690
C       -4.863699    -0.010023     0.015979
C       -4.155862    -0.645380     1.028801
C       -2.772810    -0.616572     0.982877
N       -2.070000     0.000000     0.000000
H       -2.557745     1.281101    -3.002668
H       -1.076590     0.763255    -2.220217
H       -1.832193     2.309647    -1.854225
H       -4.702109     1.131690    -1.804021
H       -5.949563    -0.012639     0.020154
H       -4.668017    -1.152972     1.837955
H       -2.173138    -1.094390     1.744563
O        0.000000    -2.020000     0.000000
N        0.000000    -3.262183    -0.000000
O       -1.067462    -3.883274    -0.133373
O        1.067462    -3.883274     0.133373
37
ex_0206 frame16 SP-4-2-conf5
Pt       0.000000     0.000000     0.000000
C        2.001667    -1.475655    -1.934911
C        2.774466    -0.711845    -0.927297
C        4.166459    -0.722193    -0.940778
C        4.863699     0.011485     0.014963
C        4.155862     0.739523     0.963355
C        2.772810     0.706513     0.920352
N        2.070000     0.000000     0.000000
H        2.089636    -2.513315    -1.689770
H        2.412314    -1.329017    -2.932294
H        1.019158    -1.142359    -1.989512
H        4.702109    -1.296771    -1.689259
H        5.949563     0.014483     0.018872
H        4.668017     1.321159     1.721035
H        2.173138     1.254031     1.633584
O        0.000000     2.020000     0.000000
N       -0.000000     3.262183     0.000000
O        1.075382     3.883274    -0.028575
O       -1.075382     3.883274     0.028575
C       -2.004609    -1.078455     2.199783
C       -2.774467    -0.513711     1.050097
C       -4.166459    -0.521179     1.065363
C       -4.863700     0.008289    -0.016943
C       -4.155863     0.533687    -1.090928
C       -2.772810     0.509863    -1.042232
N       -2.070000     0.000000     0.000000
H       -2.232561    -0.527614     3.108786
H       -2.285746    -2.133788     2.280341
H       -0.891117    -0.956000     1.973203
H       -4.702109    -0.935828     1.912966
H       -5.949565     0.010455    -0.021367
H       -4.668018     0.953432    -1.948946
H       -2.173138     0.904985    -1.849916
O        0.000000    -2.020000     0.000000
N        0.021142    -3.296504     0.001637
O       -1.059288    -3.895473    -0.124572
O        1.031923    -3.910224     0.150360
37
ex_0206 frame17 SP-4-2-conf6
Pt       0.000000     0.000000     0.000000
C        2.000457    -1.475832    -1.933861
C        2.774463    -0.708796    -0.923325
C        4.166459    -0.722193    -0.940778
C        4.863625     0.011509     0.014995
C        4.155862     0.739523     0.963355
C        2.772849     0.704976     0.918350
N        2.070000     0.000000     0.000000
H        2.065544    -2.527006    -1.686008
H        2.412634    -1.329206    -2.932017
H        0.990263    -1.150289    -1.973484
H        4.702109    -1.296771    -1.689259
H        5.949563     0.014483     0.018872
H        4.668017     1.321159     1.721035
H        2.173138     1.254031     1.633584
O        0.000000     2.020000     0.000000
N        0.000000     3.262183    -0.000000
O       -1.057840     3.896392    -0.008560
O        1.075752     3.883274    -0.004554
C       -1.994706     1.294970    -2.064298
C       -2.774463     0.618564    -0.986052
C       -4.166459     0.630257    -1.004690
C       -4.863625    -0.010044     0.016013
C       -4.155862    -0.645380     1.028801
C       -2.772849    -0.615231     0.980739
N       -2.070000     0.000000     0.000000
H       -2.558661     1.281541    -3.002125
H       -1.059279     0.774295    -2.218180
H       -1.816087     2.321199    -1.833645
H       -4.702109     1.131690    -1.804021
H       -5.949563    -0.012639     0.020154
H       -4.668017    -1.152972     1.837955
H       -2.173138    -1.094390     1.744563
O        0.000000    -2.020000     0.000000
N       -0.010998    -3.276492     0.010252
O        1.050541    -3.903858     0.014368
O       -1.075753    -3.883274    -0.004264
37
ex_0206 frame18 SP-4-2-conf7
Pt       0.000000     0.000000     0.000000
C        1.994708     1.580979     1.854395
C        2.774467     0.758433     0.889596
C        4.166460     0.769459     0.902528
C        4.863700    -0.012237    -0.014355
C        4.155864    -0.787922    -0.924189
C        2.772811    -0.752753    -0.882933
N        2.070000     0.000000     0.000000
H        0.990451     1.256212     1.928532
H        2.040051     2.623452     1.566897
H        2.414445     1.479472     2.860012
H        4.702110     1.381639     1.620579
H        5.949565    -0.015433    -0.018104
H        4.668019    -1.407627    -1.651063
H        2.173140    -1.336104    -1.567167
O        0.000000     2.020000     0.000000
N       -0.000000     3.262183     0.000000
O        1.059963     3.895084    -0.042019
O       -1.043815     3.906384     0.006128
C       -1.994706     1.294970    -2.064298
C       -2.774466     0.621225    -0.990294
C       -4.166459     0.630257    -1.004690
C       -4.863699    -0.010023     0.015979
C       -4.155862    -0.645380     1.028801
C       -2.772810    -0.616572     0.982877
N       -2.070000     0.000000     0.000000
H       -2.557745     1.281101    -3.002668
H       -1.076590     0.763255    -2.220217
H       -1.832193     2.309647    -1.854225
H       -4.702109     1.131690    -1.804021
H       -5.949563    -0.012639     0.020154
H       -4.668017    -1.152972     1.837955
H       -2.173138    -1.094390     1.744563
O        0.000000    -2.020000     0.000000
N        0.000000    -3.262183    -0.000000
O        1.075753    -3.883274     0.004264
O       -1.075753    -3.883274    -0.004264
37
ex_0206 frame19 SP-4-2-conf8
Pt       0.000000     0.000000     0.000000
C        1.994708     1.580979     1.854395
C        2.774467     0.758433     0.889596
C        4.166460     0.769459     0.902528
C        4.863700    -0.012237    -0.014355
C        4.155864    -0.787922    -0.924189
C        2.772811    -0.752753    -0.882933
N        2.070000     0.000000     0.000000
H        0.990451     1.256212     1.928532
H        2.042146     2.622280     1.567595
H        2.414445     1.479472     2.860012
H        4.702110     1.381639     1.620579
H        5.949565    -0.015433    -0.018104
H        4.668019    -1.407627    -1.651063
H        2.173140    -1.336104    -1.567167
O        0.000000     2.020000     0.000000
N        0.000000     3.262183    -0.000000
O       -1.045898     3.905137    -0.017302
O        1.058583     3.896429    -0.019173
C       -1.994706     1.294970    -2.064298
C       -2.774466     0.621225    -0.990294
C       -4.166459     0.630257    -1.004690
C       -4.863699    -0.010023     0.015979
C       -4.155862    -0.645380     1.028801
C       -2.772810    -0.616572     0.982877
N       -2.070000     0.000000     0.000000
H       -2.557745     1.281101    -3.002668
H       -1.074797     0.764531    -2.220236
H       -1.832193     2.309647    -1.854225
H       -4.702109     1.131690    -1.804021
H       -5.949563    -0.012639     0.020154
H       -4.668017    -1.152972     1.837955
H       -2.173138    -1.094390     1.744563
O        0.000000    -2.020000     0.000000
N        0.000000    -3.262183    -0.000000
O       -1.067462    -3.883274    -0.133373
O        1.067462    -3.883274     0.133373
37
ex_0206 frame20 SP-4-2-conf9
Pt       0.000000     0.000000     0.000000
C        2.013145    -1.481414    -1.941510
C        2.774480    -0.723899    -0.943000
C        4.166459    -0.722193    -0.940778
C        4.863822     0.011444     0.014910
C        4.155862     0.739523     0.963355
C        2.772737     0.716047     0.932771
N        2.070000     0.000000     0.000000
H        2.018718    -2.546765    -1.694657
H        2.423262    -1.327239    -2.941371
H        1.109182    -1.119724    -2.043380
H        4.702109    -1.296771    -1.689259
H        5.949563     0.014483     0.018872
H        4.668017     1.321159     1.721035
H        2.173138     1.254031     1.633584
O        0.000000     2.020000     0.000000
N       -0.000000     3.262183     0.000000
O        1.075382     3.883274    -0.028575
O       -1.075382     3.883274     0.028575
C       -1.994708    -0.091083    -2.435155
C       -2.774481    -0.044433    -1.187983
C       -4.166460    -0.044329    -1.185183
C       -4.863823     0.000704     0.018783
C       -4.155864     0.045395     1.213625
C       -2.772738     0.043951     1.175097
N       -2.070000     0.000000     0.000000
H       -0.918190    -0.083649    -2.236217
H       -2.232566     0.778503    -3.055632
H       -2.232571    -1.004589    -2.988937
H       -4.702110    -0.079597    -2.128113
H       -5.949565     0.000891     0.023773
H       -4.668019     0.081096     2.168143
H       -2.173140     0.076972     2.057975
O        0.000000    -2.020000     0.000000
N       -0.033869    -3.305872     0.031572
O       -0.418227    -3.883274    -0.991135
O        0.418227    -3.883274     0.991136
37
ex_0206 frame21 SP-4-2-conf10
Pt       0.000000     0.000000     0.000000
C        2.004291    -1.470475    -1.934450
C        2.774466    -0.711845    -0.927297
C        4.166459    -0.722193    -0.940778
C        4.863699     0.011485     0.014963
C        4.155862     0.739523     0.963355
C        2.772810     0.706513     0.920352
N        2.070000     0.000000     0.000000
H        2.095560    -2.511019    -1.682279
H        2.411064    -1.328570    -2.932205
H        1.018448    -1.141391    -1.988730
H        4.702109    -1.296771    -1.689259
H        5.949563     0.014483     0.018872
H        4.668017     1.321159     1.721035
H        2.173138     1.254031     1.633584
O        0.000000     2.020000     0.000000
N       -0.000000     3.262183     0.000000
O        1.075382     3.883274    -0.028575
O       -1.075382     3.883274     0.028575
C       -2.005139    -1.077013     2.199786
C       -2.774467    -0.513711     1.050097
C       -4.166459    -0.521179     1.065363
C       -4.863700     0.008289    -0.016943
C       -4.155863     0.533687    -1.090928
C       -2.772810     0.509863    -1.042232
N       -2.070000     0.000000     0.000000
H       -2.238978    -0.519748     3.107388
H       -2.277829    -2.137685     2.284147
H       -0.890946    -0.956242     1.971790
H       -4.702109    -0.935828     1.912966
H       -5.949565     0.010455    -0.021367
H       -4.668018     0.953432    -1.948946
H       -2.173138     0.904985    -1.849916
O        0.000000    -2.020000     0.000000
N        0.021142    -3.296504     0.001637
O        1.033732    -3.917581     0.021104
O       -1.069729    -3.893764     0.000926
37
ex_0206 frame22 T-4-1
Pt       0.000000     0.000000     0.000000
C       -0.695876     2.715043     1.435765
C        0.709215     2.357195     1.739117
C        1.506322     3.166408     2.543789
C        2.822379     2.796071     2.805937
C        3.320151     1.620227     2.257785
C        2.483696     0.853766     1.465074
N        1.195115     1.195115     1.195115
H       -1.039458     3.496320     2.120823
H       -1.337651     1.834960     1.542180
H       -0.789026     3.072823     0.491816
H        1.100189     4.081039     2.963064
H        3.453018     3.419721     3.432205
H        4.340026     1.303109     2.442107
H        2.816023    -0.066582     1.014545
C        1.419889     0.689865    -2.724908
C        1.731443    -0.712120    -2.361963
C        2.536060    -1.509248    -3.171211
C        2.806061    -2.822332    -2.795995
C        2.265704    -3.317154    -1.615309
C        1.472664    -2.480822    -0.849050
N        1.195115    -1.195115    -1.195115
H        0.510843     0.725896    -3.333255
H        1.271383     1.286742    -1.819684
H        2.233807     1.141442    -3.301218
H        2.949186    -1.105443    -4.089663
H        3.432365    -3.452959    -3.419624
H        2.456252    -4.334671    -1.294321
H        1.027968    -2.810941     0.074922
O       -1.166248     1.166248    -1.166248
N       -1.883422     1.883422    -1.883422
O       -1.498051     3.018373    -2.209604
O       -2.985968     1.465646    -2.274415
O       -1.166248    -1.166248     1.166248
N       -1.883422    -1.883422     1.883422
O       -2.771083    -1.370272     2.584673
O       -1.712936    -3.113747     1.899346
