57
ex_0073 frame0 OC-6-chelate-1
Zn       0.000000     0.000000     0.000000
Cl       6.480200     1.062428     0.000064
C        4.744968     0.679937     0.000038
C        4.405965    -0.626404     0.000032
C        2.853519    -0.914338     0.000007
N        1.928225     0.082755     0.000000
C        2.478729     1.485663     0.000009
C        1.494537     2.455075     0.000012
C        1.820563     3.836216     0.000038
C        3.149742     4.145970     0.000051
C        4.158463     3.153310     0.000050
C        3.868884     1.835998     0.000034
C        0.675543     4.722463     0.000050
Cl       1.037640     6.443413     0.000073
C       -0.626069     4.352030     0.000046
C       -0.901362     2.821606     0.000012
N        0.082755     1.928225     0.000000
H        5.053767    -1.442471     0.000055
H        2.461456    -1.867643    -0.000003
H        3.411746     5.182074     0.000086
H        5.201257     3.431906     0.000076
H       -1.444347     5.010035     0.000052
H       -1.869771     2.415599    -0.000002
O       -0.047275     0.000000     1.879406
C       -1.470739    -0.000006     2.419002
C       -2.470783    -0.000005     1.390865
C       -3.830516    -0.000010     1.597831
C       -4.353508    -0.000018     2.872486
Br      -6.233783    -0.000023     3.120741
C       -3.465838    -0.000021     3.930858
C       -2.127648    -0.000013     3.722296
Br      -1.037884    -0.000012     5.312859
C       -4.663270    -0.000008     0.391840
C       -4.189387    -0.000004    -0.845284
C       -2.677399    -0.000001    -1.000011
N       -1.929390     0.000000     0.048533
H       -3.888155    -0.000037     4.914672
H       -5.715187    -0.000004     0.555745
H       -4.798066     0.000000    -1.732987
H       -2.226623     0.000003    -1.964780
O        0.000000    -0.047275    -1.879406
C       -0.000006    -1.470739    -2.419002
C       -0.000005    -2.470783    -1.390865
C       -0.000010    -3.830516    -1.597831
C       -0.000018    -4.353508    -2.872486
Br      -0.000023    -6.233783    -3.120741
C       -0.000021    -3.465838    -3.930858
C       -0.000013    -2.127648    -3.722296
Br      -0.000012    -1.037884    -5.312859
C       -0.000008    -4.663270    -0.391840
C       -0.000004    -4.189387     0.845284
C       -0.000001    -2.677399     1.000011
N        0.000000    -1.929390    -0.048533
H       -0.000037    -3.888155    -4.914672
H       -0.000004    -5.715187    -0.555745
H        0.000000    -4.798066     1.732987
H        0.000003    -2.226623     1.964780
57
ex_0073 frame1 OC-6-chelate-1-reembed1
Zn       0.000000     0.000000     0.000000
Cl       6.480200     1.062428     0.000064
C        4.744968     0.679937     0.000038
C        4.405965    -0.626404     0.000032
C        2.853519    -0.914338     0.000007
N        1.928225     0.082755     0.000000
C        2.478729     1.485663     0.000009
C        1.494537     2.455075     0.000012
C        1.820563     3.836216     0.000038
C        3.149742     4.145970     0.000051
C        4.158463     3.153310     0.000050
C        3.868884     1.835998     0.000034
C        0.675543     4.722463     0.000050
Cl       1.037640     6.443413     0.000073
C       -0.626069     4.352030     0.000046
C       -0.901362     2.821606     0.000012
N        0.082755     1.928225     0.000000
H        5.053767    -1.442471     0.000055
H        2.461456    -1.867643    -0.000003
H        3.411746     5.182074     0.000086
H        5.201257     3.431906     0.000076
H       -1.444347     5.010035     0.000052
H       -1.869771     2.415599    -0.000002
O       -0.047275     0.000000     1.879406
C       -1.470739    -0.000006     2.419002
C       -2.470783    -0.000005     1.390865
C       -3.830516    -0.000010     1.597831
C       -4.353508    -0.000018     2.872486
Br      -6.233783    -0.000023     3.120741
C       -3.465838    -0.000021     3.930858
C       -2.127648    -0.000013     3.722296
Br      -1.037884    -0.000012     5.312859
C       -4.663270    -0.000008     0.391840
C       -4.189387    -0.000004    -0.845284
C       -2.677399    -0.000001    -1.000011
N       -1.929390     0.000000     0.048533
H       -3.888155    -0.000037     4.914672
H       -5.715187    -0.000004     0.555745
H       -4.798066     0.000000    -1.732987
H       -2.226623     0.000003    -1.964780
O        0.000000    -0.047275    -1.879406
C       -0.000006    -1.470739    -2.419002
C       -0.000005    -2.470783    -1.390865
C       -0.000010    -3.830516    -1.597831
C       -0.000018    -4.353508    -2.872486
Br      -0.000023    -6.233783    -3.120741
C       -0.000021    -3.465838    -3.930858
C       -0.000013    -2.127648    -3.722296
Br      -0.000012    -1.037884    -5.312859
C       -0.000008    -4.663270    -0.391840
C       -0.000004    -4.189387     0.845284
C       -0.000001    -2.677399     1.000011
N        0.000000    -1.929390    -0.048533
H       -0.000037    -3.888155    -4.914672
H       -0.000004    -5.715187    -0.555745
H        0.000000    -4.798066     1.732987
H        0.000003    -2.226623     1.964780
57
ex_0073 frame2 OC-6-chelate-2
Zn       0.000000     0.000000     0.000000
Cl       6.480200     1.062428     0.000064
C        4.744968     0.679937     0.000038
C        4.405965    -0.626404     0.000032
C        2.853519    -0.914338     0.000007
N        1.928225     0.082755     0.000000
C        2.478729     1.485663     0.000009
C        1.494537     2.455075     0.000012
C        1.820563     3.836216     0.000038
C        3.149742     4.145970     0.000051
C        4.158463     3.153310     0.000050
C        3.868884     1.835998     0.000034
C        0.675543     4.722463     0.000050
Cl       1.037640     6.443413     0.000073
C       -0.626069     4.352030     0.000046
C       -0.901362     2.821606     0.000012
N        0.082755     1.928225     0.000000
H        5.053767    -1.442471     0.000055
H        2.461456    -1.867643    -0.000003
H        3.411746     5.182074     0.000086
H        5.201257     3.431906     0.000076
H       -1.444347     5.010035     0.000052
H       -1.869771     2.415599    -0.000002
O       -0.047275     0.000000     1.879406
C       -1.470739    -0.000006     2.419002
C       -2.470783    -0.000005     1.390865
C       -3.830516    -0.000010     1.597831
C       -4.353508    -0.000018     2.872486
Br      -6.233783    -0.000023     3.120741
C       -3.465838    -0.000021     3.930858
C       -2.127648    -0.000013     3.722296
Br      -1.037884    -0.000012     5.312859
C       -4.663270    -0.000008     0.391840
C       -4.189387    -0.000004    -0.845284
C       -2.677399    -0.000001    -1.000011
N       -1.929390     0.000000     0.048533
H       -3.888155    -0.000037     4.914672
H       -5.715187    -0.000004     0.555745
H       -4.798066     0.000000    -1.732987
H       -2.226623     0.000003    -1.964780
O        0.000000    -1.879406    -0.047275
C        0.000006    -2.419002    -1.470739
C        0.000005    -1.390865    -2.470783
C        0.000010    -1.597831    -3.830516
C        0.000018    -2.872486    -4.353508
Br       0.000023    -3.120741    -6.233783
C        0.000021    -3.930858    -3.465838
C        0.000013    -3.722296    -2.127648
Br       0.000012    -5.312859    -1.037884
C        0.000008    -0.391840    -4.663270
C        0.000004     0.845284    -4.189387
C        0.000001     1.000011    -2.677399
N        0.000000    -0.048533    -1.929390
H        0.000037    -4.914672    -3.888155
H        0.000004    -0.555745    -5.715187
H        0.000000     1.732987    -4.798066
H       -0.000003     1.964780    -2.226623
57
ex_0073 frame3 OC-6-chelate-2-reembed1
Zn       0.000000     0.000000     0.000000
Cl       6.480200     1.062428     0.000064
C        4.744968     0.679937     0.000038
C        4.405965    -0.626404     0.000032
C        2.853519    -0.914338     0.000007
N        1.928225     0.082755     0.000000
C        2.478729     1.485663     0.000009
C        1.494537     2.455075     0.000012
C        1.820563     3.836216     0.000038
C        3.149742     4.145970     0.000051
C        4.158463     3.153310     0.000050
C        3.868884     1.835998     0.000034
C        0.675543     4.722463     0.000050
Cl       1.037640     6.443413     0.000073
C       -0.626069     4.352030     0.000046
C       -0.901362     2.821606     0.000012
N        0.082755     1.928225     0.000000
H        5.053767    -1.442471     0.000055
H        2.461456    -1.867643    -0.000003
H        3.411746     5.182074     0.000086
H        5.201257     3.431906     0.000076
H       -1.444347     5.010035     0.000052
H       -1.869771     2.415599    -0.000002
O       -0.047275     0.000000     1.879406
C       -1.470739    -0.000006     2.419002
C       -2.470783    -0.000005     1.390865
C       -3.830516    -0.000010     1.597831
C       -4.353508    -0.000018     2.872486
Br      -6.233783    -0.000023     3.120741
C       -3.465838    -0.000021     3.930858
C       -2.127648    -0.000013     3.722296
Br      -1.037884    -0.000012     5.312859
C       -4.663270    -0.000008     0.391840
C       -4.189387    -0.000004    -0.845284
C       -2.677399    -0.000001    -1.000011
N       -1.929390     0.000000     0.048533
H       -3.888155    -0.000037     4.914672
H       -5.715187    -0.000004     0.555745
H       -4.798066     0.000000    -1.732987
H       -2.226623     0.000003    -1.964780
O        0.000000    -1.879406    -0.047275
C        0.000006    -2.419002    -1.470739
C        0.000005    -1.390865    -2.470783
C        0.000010    -1.597831    -3.830516
C        0.000018    -2.872486    -4.353508
Br       0.000023    -3.120741    -6.233783
C        0.000021    -3.930858    -3.465838
C        0.000013    -3.722296    -2.127648
Br       0.000012    -5.312859    -1.037884
C        0.000008    -0.391840    -4.663270
C        0.000004     0.845284    -4.189387
C        0.000001     1.000011    -2.677399
N        0.000000    -0.048533    -1.929390
H        0.000037    -4.914672    -3.888155
H        0.000004    -0.555745    -5.715187
H        0.000000     1.732987    -4.798066
H       -0.000003     1.964780    -2.226623
57
ex_0073 frame4 OC-6-chelate-3
Zn       0.000000     0.000000     0.000000
Cl       6.480200     1.062428     0.000064
C        4.744968     0.679937     0.000038
C        4.405965    -0.626404     0.000032
C        2.853519    -0.914338     0.000007
N        1.928225     0.082755     0.000000
C        2.478729     1.485663     0.000009
C        1.494537     2.455075     0.000012
C        1.820563     3.836216     0.000038
C        3.149742     4.145970     0.000051
C        4.158463     3.153310     0.000050
C        3.868884     1.835998     0.000034
C        0.675543     4.722463     0.000050
Cl       1.037640     6.443413     0.000073
C       -0.626069     4.352030     0.000046
C       -0.901362     2.821606     0.000012
N        0.082755     1.928225     0.000000
H        5.053767    -1.442471     0.000055
H        2.461456    -1.867643    -0.000003
H        3.411746     5.182074     0.000086
H        5.201257     3.431906     0.000076
H       -1.444347     5.010035     0.000052
H       -1.869771     2.415599    -0.000002
O       -1.879406     0.000000     0.047275
C       -2.419002     0.000006     1.470739
C       -1.390865     0.000005     2.470783
C       -1.597831     0.000010     3.830516
C       -2.872486     0.000018     4.353508
Br      -3.120741     0.000023     6.233783
C       -3.930858     0.000021     3.465838
C       -3.722296     0.000013     2.127648
Br      -5.312859     0.000012     1.037884
C       -0.391840     0.000008     4.663270
C        0.845284     0.000004     4.189387
C        1.000011     0.000001     2.677399
N       -0.048533     0.000000     1.929390
H       -4.914672     0.000037     3.888155
H       -0.555745     0.000004     5.715187
H        1.732987     0.000000     4.798066
H        1.964780    -0.000003     2.226623
O        0.000000    -1.879406    -0.047275
C        0.000006    -2.419002    -1.470739
C        0.000005    -1.390865    -2.470783
C        0.000010    -1.597831    -3.830516
C        0.000018    -2.872486    -4.353508
Br       0.000023    -3.120741    -6.233783
C        0.000021    -3.930858    -3.465838
C        0.000013    -3.722296    -2.127648
Br       0.000012    -5.312859    -1.037884
C        0.000008    -0.391840    -4.663270
C        0.000004     0.845284    -4.189387
C        0.000001     1.000011    -2.677399
N        0.000000    -0.048533    -1.929390
H        0.000037    -4.914672    -3.888155
H        0.000004    -0.555745    -5.715187
H        0.000000     1.732987    -4.798066
H       -0.000003     1.964780    -2.226623
57
ex_0073 frame5 OC-6-chelate-3-reembed1
Zn       0.000000     0.000000     0.000000
Cl       6.480200     1.062428     0.000064
C        4.744968     0.679937     0.000038
C        4.405965    -0.626404     0.000032
C        2.853519    -0.914338     0.000007
N        1.928225     0.082755     0.000000
C        2.478729     1.485663     0.000009
C        1.494537     2.455075     0.000012
C        1.820563     3.836216     0.000038
C        3.149742     4.145970     0.000051
C        4.158463     3.153310     0.000050
C        3.868884     1.835998     0.000034
C        0.675543     4.722463     0.000050
Cl       1.037640     6.443413     0.000073
C       -0.626069     4.352030     0.000046
C       -0.901362     2.821606     0.000012
N        0.082755     1.928225     0.000000
H        5.053767    -1.442471     0.000055
H        2.461456    -1.867643    -0.000003
H        3.411746     5.182074     0.000086
H        5.201257     3.431906     0.000076
H       -1.444347     5.010035     0.000052
H       -1.869771     2.415599    -0.000002
O       -1.879406     0.000000     0.047275
C       -2.419002     0.000006     1.470739
C       -1.390865     0.000005     2.470783
C       -1.597831     0.000010     3.830516
C       -2.872486     0.000018     4.353508
Br      -3.120741     0.000023     6.233783
C       -3.930858     0.000021     3.465838
C       -3.722296     0.000013     2.127648
Br      -5.312859     0.000012     1.037884
C       -0.391840     0.000008     4.663270
C        0.845284     0.000004     4.189387
C        1.000011     0.000001     2.677399
N       -0.048533     0.000000     1.929390
H       -4.914672     0.000037     3.888155
H       -0.555745     0.000004     5.715187
H        1.732987     0.000000     4.798066
H        1.964780    -0.000003     2.226623
O        0.000000    -1.879406    -0.047275
C        0.000006    -2.419002    -1.470739
C        0.000005    -1.390865    -2.470783
C        0.000010    -1.597831    -3.830516
C        0.000018    -2.872486    -4.353508
Br       0.000023    -3.120741    -6.233783
C        0.000021    -3.930858    -3.465838
C        0.000013    -3.722296    -2.127648
Br       0.000012    -5.312859    -1.037884
C        0.000008    -0.391840    -4.663270
C        0.000004     0.845284    -4.189387
C        0.000001     1.000011    -2.677399
N        0.000000    -0.048533    -1.929390
H        0.000037    -4.914672    -3.888155
H        0.000004    -0.555745    -5.715187
H        0.000000     1.732987    -4.798066
H       -0.000003     1.964780    -2.226623
57
ex_0073 frame6 OC-6-chelate-4
Zn       0.000000     0.000000     0.000000
Cl       6.480200     1.062428     0.000064
C        4.744968     0.679937     0.000038
C        4.405965    -0.626404     0.000032
C        2.853519    -0.914338     0.000007
N        1.928225     0.082755     0.000000
C        2.478729     1.485663     0.000009
C        1.494537     2.455075     0.000012
C        1.820563     3.836216     0.000038
C        3.149742     4.145970     0.000051
C        4.158463     3.153310     0.000050
C        3.868884     1.835998     0.000034
C        0.675543     4.722463     0.000050
Cl       1.037640     6.443413     0.000073
C       -0.626069     4.352030     0.000046
C       -0.901362     2.821606     0.000012
N        0.082755     1.928225     0.000000
H        5.053767    -1.442471     0.000055
H        2.461456    -1.867643    -0.000003
H        3.411746     5.182074     0.000086
H        5.201257     3.431906     0.000076
H       -1.444347     5.010035     0.000052
H       -1.869771     2.415599    -0.000002
O       -0.047275     0.000000    -1.879406
C       -1.470739     0.000006    -2.419002
C       -2.470783     0.000005    -1.390865
C       -3.830516     0.000010    -1.597831
C       -4.353508     0.000018    -2.872486
Br      -6.233783     0.000023    -3.120741
C       -3.465838     0.000021    -3.930858
C       -2.127648     0.000013    -3.722296
Br      -1.037884     0.000012    -5.312859
C       -4.663270     0.000008    -0.391840
C       -4.189387     0.000004     0.845284
C       -2.677399     0.000001     1.000011
N       -1.929390     0.000000    -0.048533
H       -3.888155     0.000037    -4.914672
H       -5.715187     0.000004    -0.555745
H       -4.798066     0.000000     1.732987
H       -2.226623    -0.000003     1.964780
O        0.000000    -0.047275     1.879406
C        0.000006    -1.470739     2.419002
C        0.000005    -2.470783     1.390865
C        0.000010    -3.830516     1.597831
C        0.000018    -4.353508     2.872486
Br       0.000023    -6.233783     3.120741
C        0.000021    -3.465838     3.930858
C        0.000013    -2.127648     3.722296
Br       0.000012    -1.037884     5.312859
C        0.000008    -4.663270     0.391840
C        0.000004    -4.189387    -0.845284
C        0.000001    -2.677399    -1.000011
N        0.000000    -1.929390     0.048533
H        0.000037    -3.888155     4.914672
H        0.000004    -5.715187     0.555745
H        0.000000    -4.798066    -1.732987
H       -0.000003    -2.226623    -1.964780
57
ex_0073 frame7 OC-6-chelate-4-reembed1
Zn       0.000000     0.000000     0.000000
Cl       6.480200     1.062428     0.000064
C        4.744968     0.679937     0.000038
C        4.405965    -0.626404     0.000032
C        2.853519    -0.914338     0.000007
N        1.928225     0.082755     0.000000
C        2.478729     1.485663     0.000009
C        1.494537     2.455075     0.000012
C        1.820563     3.836216     0.000038
C        3.149742     4.145970     0.000051
C        4.158463     3.153310     0.000050
C        3.868884     1.835998     0.000034
C        0.675543     4.722463     0.000050
Cl       1.037640     6.443413     0.000073
C       -0.626069     4.352030     0.000046
C       -0.901362     2.821606     0.000012
N        0.082755     1.928225     0.000000
H        5.053767    -1.442471     0.000055
H        2.461456    -1.867643    -0.000003
H        3.411746     5.182074     0.000086
H        5.201257     3.431906     0.000076
H       -1.444347     5.010035     0.000052
H       -1.869771     2.415599    -0.000002
O       -0.047275     0.000000    -1.879406
C       -1.470739     0.000006    -2.419002
C       -2.470783     0.000005    -1.390865
C       -3.830516     0.000010    -1.597831
C       -4.353508     0.000018    -2.872486
Br      -6.233783     0.000023    -3.120741
C       -3.465838     0.000021    -3.930858
C       -2.127648     0.000013    -3.722296
Br      -1.037884     0.000012    -5.312859
C       -4.663270     0.000008    -0.391840
C       -4.189387     0.000004     0.845284
C       -2.677399     0.000001     1.000011
N       -1.929390     0.000000    -0.048533
H       -3.888155     0.000037    -4.914672
H       -5.715187     0.000004    -0.555745
H       -4.798066     0.000000     1.732987
H       -2.226623    -0.000003     1.964780
O        0.000000    -0.047275     1.879406
C        0.000006    -1.470739     2.419002
C        0.000005    -2.470783     1.390865
C        0.000010    -3.830516     1.597831
C        0.000018    -4.353508     2.872486
Br       0.000023    -6.233783     3.120741
C        0.000021    -3.465838     3.930858
C        0.000013    -2.127648     3.722296
Br       0.000012    -1.037884     5.312859
C        0.000008    -4.663270     0.391840
C        0.000004    -4.189387    -0.845284
C        0.000001    -2.677399    -1.000011
N        0.000000    -1.929390     0.048533
H        0.000037    -3.888155     4.914672
H        0.000004    -5.715187     0.555745
H        0.000000    -4.798066    -1.732987
H       -0.000003    -2.226623    -1.964780
57
ex_0073 frame8 OC-6-chelate-5
Zn       0.000000     0.000000     0.000000
Cl       6.480200     1.062428     0.000064
C        4.744968     0.679937     0.000038
C        4.405965    -0.626404     0.000032
C        2.853519    -0.914338     0.000007
N        1.928225     0.082755     0.000000
C        2.478729     1.485663     0.000009
C        1.494537     2.455075     0.000012
C        1.820563     3.836216     0.000038
C        3.149742     4.145970     0.000051
C        4.158463     3.153310     0.000050
C        3.868884     1.835998     0.000034
C        0.675543     4.722463     0.000050
Cl       1.037640     6.443413     0.000073
C       -0.626069     4.352030     0.000046
C       -0.901362     2.821606     0.000012
N        0.082755     1.928225     0.000000
H        5.053767    -1.442471     0.000055
H        2.461456    -1.867643    -0.000003
H        3.411746     5.182074     0.000086
H        5.201257     3.431906     0.000076
H       -1.444347     5.010035     0.000052
H       -1.869771     2.415599    -0.000002
O       -0.047275     0.000000    -1.879406
C       -1.470739     0.000006    -2.419002
C       -2.470783     0.000005    -1.390865
C       -3.830516     0.000010    -1.597831
C       -4.353508     0.000018    -2.872486
Br      -6.233783     0.000023    -3.120741
C       -3.465838     0.000021    -3.930858
C       -2.127648     0.000013    -3.722296
Br      -1.037884     0.000012    -5.312859
C       -4.663270     0.000008    -0.391840
C       -4.189387     0.000004     0.845284
C       -2.677399     0.000001     1.000011
N       -1.929390     0.000000    -0.048533
H       -3.888155     0.000037    -4.914672
H       -5.715187     0.000004    -0.555745
H       -4.798066     0.000000     1.732987
H       -2.226623    -0.000003     1.964780
O        0.000000    -1.879406     0.047275
C       -0.000006    -2.419002     1.470739
C       -0.000005    -1.390865     2.470783
C       -0.000010    -1.597831     3.830516
C       -0.000018    -2.872486     4.353508
Br      -0.000023    -3.120741     6.233783
C       -0.000021    -3.930858     3.465838
C       -0.000013    -3.722296     2.127648
Br      -0.000012    -5.312859     1.037884
C       -0.000008    -0.391840     4.663270
C       -0.000004     0.845284     4.189387
C       -0.000001     1.000011     2.677399
N        0.000000    -0.048533     1.929390
H       -0.000037    -4.914672     3.888155
H       -0.000004    -0.555745     5.715187
H        0.000000     1.732987     4.798066
H        0.000003     1.964780     2.226623
57
ex_0073 frame9 OC-6-chelate-5-reembed1
Zn       0.000000     0.000000     0.000000
Cl       6.480200     1.062428     0.000064
C        4.744968     0.679937     0.000038
C        4.405965    -0.626404     0.000032
C        2.853519    -0.914338     0.000007
N        1.928225     0.082755     0.000000
C        2.478729     1.485663     0.000009
C        1.494537     2.455075     0.000012
C        1.820563     3.836216     0.000038
C        3.149742     4.145970     0.000051
C        4.158463     3.153310     0.000050
C        3.868884     1.835998     0.000034
C        0.675543     4.722463     0.000050
Cl       1.037640     6.443413     0.000073
C       -0.626069     4.352030     0.000046
C       -0.901362     2.821606     0.000012
N        0.082755     1.928225     0.000000
H        5.053767    -1.442471     0.000055
H        2.461456    -1.867643    -0.000003
H        3.411746     5.182074     0.000086
H        5.201257     3.431906     0.000076
H       -1.444347     5.010035     0.000052
H       -1.869771     2.415599    -0.000002
O       -0.047275     0.000000    -1.879406
C       -1.470739     0.000006    -2.419002
C       -2.470783     0.000005    -1.390865
C       -3.830516     0.000010    -1.597831
C       -4.353508     0.000018    -2.872486
Br      -6.233783     0.000023    -3.120741
C       -3.465838     0.000021    -3.930858
C       -2.127648     0.000013    -3.722296
Br      -1.037884     0.000012    -5.312859
C       -4.663270     0.000008    -0.391840
C       -4.189387     0.000004     0.845284
C       -2.677399     0.000001     1.000011
N       -1.929390     0.000000    -0.048533
H       -3.888155     0.000037    -4.914672
H       -5.715187     0.000004    -0.555745
H       -4.798066     0.000000     1.732987
H       -2.226623    -0.000003     1.964780
O        0.000000    -1.879406     0.047275
C       -0.000006    -2.419002     1.470739
C       -0.000005    -1.390865     2.470783
C       -0.000010    -1.597831     3.830516
C       -0.000018    -2.872486     4.353508
Br      -0.000023    -3.120741     6.233783
C       -0.000021    -3.930858     3.465838
C       -0.000013    -3.722296     2.127648
Br      -0.000012    -5.312859     1.037884
C       -0.000008    -0.391840     4.663270
C       -0.000004     0.845284     4.189387
C       -0.000001     1.000011     2.677399
N        0.000000    -0.048533     1.929390
H       -0.000037    -4.914672     3.888155
H       -0.000004    -0.555745     5.715187
H        0.000000     1.732987     4.798066
H        0.000003     1.964780     2.226623
57
ex_0073 frame10 OC-6-chelate-6
Zn       0.000000     0.000000     0.000000
Cl       6.480200     1.062428     0.000064
C        4.744968     0.679937     0.000038
C        4.405965    -0.626404     0.000032
C        2.853519    -0.914338     0.000007
N        1.928225     0.082755     0.000000
C        2.478729     1.485663     0.000009
C        1.494537     2.455075     0.000012
C        1.820563     3.836216     0.000038
C        3.149742     4.145970     0.000051
C        4.158463     3.153310     0.000050
C        3.868884     1.835998     0.000034
C        0.675543     4.722463     0.000050
Cl       1.037640     6.443413     0.000073
C       -0.626069     4.352030     0.000046
C       -0.901362     2.821606     0.000012
N        0.082755     1.928225     0.000000
H        5.053767    -1.442471     0.000055
H        2.461456    -1.867643    -0.000003
H        3.411746     5.182074     0.000086
H        5.201257     3.431906     0.000076
H       -1.444347     5.010035     0.000052
H       -1.869771     2.415599    -0.000002
O       -1.879406     0.000000    -0.047275
C       -2.419002    -0.000006    -1.470739
C       -1.390865    -0.000005    -2.470783
C       -1.597831    -0.000010    -3.830516
C       -2.872486    -0.000018    -4.353508
Br      -3.120741    -0.000023    -6.233783
C       -3.930858    -0.000021    -3.465838
C       -3.722296    -0.000013    -2.127648
Br      -5.312859    -0.000012    -1.037884
C       -0.391840    -0.000008    -4.663270
C        0.845284    -0.000004    -4.189387
C        1.000011    -0.000001    -2.677399
N       -0.048533     0.000000    -1.929390
H       -4.914672    -0.000037    -3.888155
H       -0.555745    -0.000004    -5.715187
H        1.732987     0.000000    -4.798066
H        1.964780     0.000003    -2.226623
O        0.000000    -1.879406     0.047275
C       -0.000006    -2.419002     1.470739
C       -0.000005    -1.390865     2.470783
C       -0.000010    -1.597831     3.830516
C       -0.000018    -2.872486     4.353508
Br      -0.000023    -3.120741     6.233783
C       -0.000021    -3.930858     3.465838
C       -0.000013    -3.722296     2.127648
Br      -0.000012    -5.312859     1.037884
C       -0.000008    -0.391840     4.663270
C       -0.000004     0.845284     4.189387
C       -0.000001     1.000011     2.677399
N        0.000000    -0.048533     1.929390
H       -0.000037    -4.914672     3.888155
H       -0.000004    -0.555745     5.715187
H        0.000000     1.732987     4.798066
H        0.000003     1.964780     2.226623
57
ex_0073 frame11 OC-6-chelate-6-reembed1
Zn       0.000000     0.000000     0.000000
Cl       6.480200     1.062428     0.000064
C        4.744968     0.679937     0.000038
C        4.405965    -0.626404     0.000032
C        2.853519    -0.914338     0.000007
N        1.928225     0.082755     0.000000
C        2.478729     1.485663     0.000009
C        1.494537     2.455075     0.000012
C        1.820563     3.836216     0.000038
C        3.149742     4.145970     0.000051
C        4.158463     3.153310     0.000050
C        3.868884     1.835998     0.000034
C        0.675543     4.722463     0.000050
Cl       1.037640     6.443413     0.000073
C       -0.626069     4.352030     0.000046
C       -0.901362     2.821606     0.000012
N        0.082755     1.928225     0.000000
H        5.053767    -1.442471     0.000055
H        2.461456    -1.867643    -0.000003
H        3.411746     5.182074     0.000086
H        5.201257     3.431906     0.000076
H       -1.444347     5.010035     0.000052
H       -1.869771     2.415599    -0.000002
O       -1.879406     0.000000    -0.047275
C       -2.419002    -0.000006    -1.470739
C       -1.390865    -0.000005    -2.470783
C       -1.597831    -0.000010    -3.830516
C       -2.872486    -0.000018    -4.353508
Br      -3.120741    -0.000023    -6.233783
C       -3.930858    -0.000021    -3.465838
C       -3.722296    -0.000013    -2.127648
Br      -5.312859    -0.000012    -1.037884
C       -0.391840    -0.000008    -4.663270
C        0.845284    -0.000004    -4.189387
C        1.000011    -0.000001    -2.677399
N       -0.048533     0.000000    -1.929390
H       -4.914672    -0.000037    -3.888155
H       -0.555745    -0.000004    -5.715187
H        1.732987     0.000000    -4.798066
H        1.964780     0.000003    -2.226623
O        0.000000    -1.879406     0.047275
C       -0.000006    -2.419002     1.470739
C       -0.000005    -1.390865     2.470783
C       -0.000010    -1.597831     3.830516
C       -0.000018    -2.872486     4.353508
Br      -0.000023    -3.120741     6.233783
C       -0.000021    -3.930858     3.465838
C       -0.000013    -3.722296     2.127648
Br      -0.000012    -5.312859     1.037884
C       -0.000008    -0.391840     4.663270
C       -0.000004     0.845284     4.189387
C       -0.000001     1.000011     2.677399
N        0.000000    -0.048533     1.929390
H       -0.000037    -4.914672     3.888155
H       -0.000004    -0.555745     5.715187
H        0.000000     1.732987     4.798066
H        0.000003     1.964780     2.226623
