33
ex_0584 frame0 
S        1.773506     3.583915    -0.430271
Sb       2.923089     2.255802     0.665901
S       -1.877660     2.128430    -1.823213
Cr      -0.338477     0.749628    -0.398116
N        0.727134     1.222050    -1.807691
C        0.944311     0.191893    -2.871911
C       -0.485406    -0.438833    -2.846204
N       -0.550931    -0.681154    -1.379613
C       -1.827894    -1.361857    -1.158874
C       -1.696335    -1.375827     0.392611
N       -1.642859     0.083909     0.512065
C       -1.580336     0.480866     1.933974
C       -1.677916     2.013465     1.673155
N       -0.483896     2.069406     0.773425
S        1.401335    -0.189440     1.012370
H        0.767006     2.099008    -2.241635
H        1.770598     1.290029    -1.469585
H        1.605209    -0.607411    -2.557320
H        1.168047     0.632972    -3.826684
H       -1.192353     0.361334    -3.108281
H       -0.517470    -1.338895    -3.429067
H        0.063714    -1.520262    -1.315777
H       -1.880805    -2.376811    -1.568656
H       -2.658750    -0.722066    -1.468524
H       -0.747306    -1.850839     0.671250
H       -2.570572    -1.834094     0.865291
H       -2.683186     0.245091     0.358102
H       -0.625377     0.258643     2.400940
H       -2.460799     0.145862     2.504827
H       -1.572896     2.596850     2.567883
H       -2.579389     2.229519     1.110219
H        0.254177     2.263479     1.479555
H       -0.521813     3.059314     0.444374
33
ex_0584 frame1 stereo-ud
S        1.773506     3.583915    -0.430271
Sb       2.923089     2.255802     0.665901
S       -1.877660     2.128430    -1.823213
Cr      -0.338477     0.749628    -0.398116
N        0.727134     1.222050    -1.807691
C        0.944311     0.191893    -2.871911
C       -0.485406    -0.438833    -2.846204
N       -0.550931    -0.681154    -1.379613
C       -1.827894    -1.361857    -1.158874
C       -1.696335    -1.375827     0.392611
N       -1.642859     0.083909     0.512065
C       -1.580336     0.480866     1.933974
C       -1.677916     2.013465     1.673155
N       -0.483896     2.069406     0.773425
S        1.401335    -0.189440     1.012370
H        0.767006     2.099008    -2.241635
H        1.770598     1.290029    -1.469585
H        1.605209    -0.607411    -2.557320
H        1.168047     0.632972    -3.826684
H       -1.192353     0.361334    -3.108281
H       -0.517470    -1.338895    -3.429067
H        0.180621    -1.416188    -1.191733
H       -1.880805    -2.376811    -1.568656
H       -2.658750    -0.722066    -1.468524
H       -0.747306    -1.850839     0.671250
H       -2.570572    -1.834094     0.865291
H       -2.683186     0.245091     0.358102
H       -0.625377     0.258643     2.400940
H       -2.460799     0.145862     2.504827
H       -1.572896     2.596850     2.567883
H       -2.579389     2.229519     1.110219
H        0.254177     2.263479     1.479555
H       -0.521813     3.059314     0.444374
33
ex_0584 frame2 stereo-du
S        1.773506     3.583915    -0.430271
Sb       2.923089     2.255802     0.665901
S       -1.877660     2.128430    -1.823213
Cr      -0.338477     0.749628    -0.398116
N        0.727134     1.222050    -1.807691
C        0.944311     0.191893    -2.871911
C       -0.485406    -0.438833    -2.846204
N       -0.550931    -0.681154    -1.379613
C       -1.827894    -1.361857    -1.158874
C       -1.696335    -1.375827     0.392611
N       -1.642859     0.083909     0.512065
C       -1.580336     0.480866     1.933974
C       -1.677916     2.013465     1.673155
N       -0.483896     2.069406     0.773425
S        1.401335    -0.189440     1.012370
H        0.767006     2.099008    -2.241635
H        1.770598     1.290029    -1.469585
H        1.605209    -0.607411    -2.557320
H        1.168047     0.632972    -3.826684
H       -1.192353     0.361334    -3.108281
H       -0.517470    -1.338895    -3.429067
H        0.063714    -1.520262    -1.315777
H       -1.880805    -2.376811    -1.568656
H       -2.658750    -0.722066    -1.468524
H       -0.747306    -1.850839     0.671250
H       -2.570572    -1.834094     0.865291
H       -2.620608     0.375308     0.240924
H       -0.625377     0.258643     2.400940
H       -2.460799     0.145862     2.504827
H       -1.572896     2.596850     2.567883
H       -2.579389     2.229519     1.110219
H        0.254177     2.263479     1.479555
H       -0.521813     3.059314     0.444374
33
ex_0584 frame3 stereo-uu
S        1.773506     3.583915    -0.430271
Sb       2.923089     2.255802     0.665901
S       -1.877660     2.128430    -1.823213
Cr      -0.338477     0.749628    -0.398116
N        0.727134     1.222050    -1.807691
C        0.944311     0.191893    -2.871911
C       -0.485406    -0.438833    -2.846204
N       -0.550931    -0.681154    -1.379613
C       -1.827894    -1.361857    -1.158874
C       -1.696335    -1.375827     0.392611
N       -1.642859     0.083909     0.512065
C       -1.580336     0.480866     1.933974
C       -1.677916     2.013465     1.673155
N       -0.483896     2.069406     0.773425
S        1.401335    -0.189440     1.012370
H        0.767006     2.099008    -2.241635
H        1.770598     1.290029    -1.469585
H        1.605209    -0.607411    -2.557320
H        1.168047     0.632972    -3.826684
H       -1.192353     0.361334    -3.108281
H       -0.517470    -1.338895    -3.429067
H        0.180615    -1.416167    -1.191729
H       -1.880805    -2.376811    -1.568656
H       -2.658750    -0.722066    -1.468524
H       -0.747306    -1.850839     0.671250
H       -2.570572    -1.834094     0.865291
H       -2.620603     0.375308     0.240926
H       -0.625377     0.258643     2.400940
H       -2.460799     0.145862     2.504827
H       -1.572896     2.596850     2.567883
H       -2.579389     2.229519     1.110219
H        0.254177     2.263479     1.479555
H       -0.521813     3.059314     0.444374
33
ex_0584 frame4 _mirror
S        1.773506     3.583915     0.430271
Sb       2.923089     2.255802    -0.665901
S       -1.877660     2.128430     1.823213
Cr      -0.338477     0.749628     0.398116
N        0.727134     1.222050     1.807691
C        0.944311     0.191893     2.871911
C       -0.485406    -0.438833     2.846204
N       -0.550931    -0.681154     1.379613
C       -1.827894    -1.361857     1.158874
C       -1.696335    -1.375827    -0.392611
N       -1.642859     0.083909    -0.512065
C       -1.580336     0.480866    -1.933974
C       -1.677916     2.013465    -1.673155
N       -0.483896     2.069406    -0.773425
S        1.401335    -0.189440    -1.012370
H        0.767006     2.099008     2.241635
H        1.770598     1.290029     1.469585
H        1.605209    -0.607411     2.557320
H        1.168047     0.632972     3.826684
H       -1.192353     0.361334     3.108281
H       -0.517470    -1.338895     3.429067
H        0.063714    -1.520262     1.315777
H       -1.880805    -2.376811     1.568656
H       -2.658750    -0.722066     1.468524
H       -0.747306    -1.850839    -0.671250
H       -2.570572    -1.834094    -0.865291
H       -2.683186     0.245091    -0.358102
H       -0.625377     0.258643    -2.400940
H       -2.460799     0.145862    -2.504827
H       -1.572896     2.596850    -2.567883
H       -2.579389     2.229519    -1.110219
H        0.254177     2.263479    -1.479555
H       -0.521813     3.059314    -0.444374
