31
ex_0229 frame0 SP-4-chelate-1
Ni       0.000000     0.000000     0.000000
C        5.596711     0.729541    -1.174332
C        4.436968     0.528005    -2.096573
N        3.401863     1.600873    -1.907603
C        3.530987     2.707279    -2.665385
Se       4.791283     3.100646    -3.897660
S        2.160200     3.778796    -2.213260
C        1.492456     2.618389    -1.119955
C        2.431182     1.449491    -1.058767
S        2.289761     0.033083     0.000000
S        0.033083     2.289761     0.000000
H        5.532580     1.782478    -0.772689
H        5.556482     0.025344    -0.329269
H        6.564750     0.615681    -1.698062
H        3.979693    -0.456592    -1.874995
H        4.777397     0.515509    -3.135083
S       -2.267608    -0.319459    -0.000000
C       -2.022545    -1.174439     1.500862
C       -1.025487    -2.134225     1.559197
S       -0.319459    -2.267608     0.000000
N       -0.754874    -2.691961     2.693294
C        0.225427    -3.741333     2.911540
C       -0.323456    -5.150252     2.881151
C       -1.480349    -2.161917     3.661061
Se      -1.260010    -2.658776     5.682627
S       -2.654952    -0.996175     3.107678
H        0.951777    -3.645315     2.077327
H        0.767859    -3.532535     3.852471
H       -1.359463    -5.208376     2.495889
H        0.300065    -5.817568     2.237766
H       -0.344907    -5.602242     3.909949
31
ex_0229 frame1 SP-4-chelate-1-conf2
Ni       0.000000     0.000000     0.000000
C        5.596711     0.729541    -1.174332
C        4.436968     0.528005    -2.096573
N        3.401863     1.600873    -1.907603
C        3.539821     2.717383    -2.678291
Se       4.791283     3.100646    -3.897660
S        2.160200     3.778796    -2.213260
C        1.492456     2.618389    -1.119955
C        2.422348     1.439387    -1.045861
S        2.289761     0.033083     0.000000
S        0.033083     2.289761     0.000000
H        5.532580     1.782478    -0.772689
H        5.556482     0.025344    -0.329269
H        6.564750     0.615681    -1.698062
H        3.979693    -0.456592    -1.874995
H        4.777397     0.515509    -3.135083
S       -0.308976    -2.269060     0.000000
C       -1.195194    -2.057773    -1.419802
C       -2.132029    -1.080371    -1.434413
S       -2.269060    -0.308976     0.000000
N       -2.733565    -0.880955    -2.681912
C       -3.801433     0.096440    -2.912630
C       -5.191767    -0.428317    -2.830888
C       -2.207619    -1.643908    -3.580947
Se      -2.791241    -1.470114    -5.618381
S       -1.029251    -2.797747    -3.123124
H       -3.635060     0.565925    -3.900356
H       -3.643641     0.877572    -2.144849
H       -5.862959     0.444693    -2.695608
H       -5.376356    -1.091339    -1.980749
H       -5.517070    -0.949343    -3.761376
31
ex_0229 frame2 SP-4-chelate-1-conf3
Ni       0.000000     0.000000     0.000000
C        0.128229     4.871989     2.587508
C        0.872083     4.855015     1.313328
N        1.782910     3.674227     1.186023
C        3.048559     3.830836     1.659159
Se       3.868865     5.194886     2.425540
S        3.855351     2.176464     1.322010
C        2.440086     1.515926     0.633562
C        1.401238     2.590767     0.659903
S       -0.168027     2.283827     0.000000
S        2.283827    -0.168027    -0.000000
H        0.511037     4.157115     3.347536
H       -0.983058     4.754736     2.437416
H        0.219452     5.878010     3.048833
H        1.464988     5.766022     1.174166
H        0.146812     4.790571     0.486399
S       -2.267608    -0.319459    -0.000000
C       -2.022545    -1.174439     1.500862
C       -1.025487    -2.134225     1.559197
S       -0.319459    -2.267608     0.000000
N       -0.754874    -2.691961     2.693294
C        0.225427    -3.741333     2.911540
C       -0.323456    -5.150252     2.881151
C       -1.480349    -2.161917     3.661061
Se      -1.260010    -2.658776     5.682627
S       -2.654952    -0.996175     3.107678
H        0.951777    -3.645315     2.077327
H        0.767859    -3.532535     3.852471
H       -1.359463    -5.208376     2.495889
H        0.300065    -5.817568     2.237766
H       -0.344907    -5.602242     3.909949
31
ex_0229 frame3 SP-4-chelate-1-conf4
Ni       0.000000     0.000000     0.000000
C        5.596711     0.729541    -1.174332
C        4.436968     0.528005    -2.096573
N        3.401863     1.600873    -1.907603
C        3.530987     2.707279    -2.665385
Se       4.791283     3.100646    -3.897660
S        2.160200     3.778796    -2.213260
C        1.492456     2.618389    -1.119955
C        2.431182     1.449491    -1.058767
S        2.289761     0.033083     0.000000
S        0.033083     2.289761     0.000000
H        5.532580     1.782478    -0.772689
H        5.556482     0.025344    -0.329269
H        6.564750     0.615681    -1.698062
H        3.979693    -0.456592    -1.874995
H        4.777397     0.515509    -3.135083
S        0.080467    -2.288586     0.000000
C       -1.385394    -2.400243    -0.982745
C       -2.407775    -1.326746    -1.012385
S       -2.288586     0.080467    -0.000000
N       -3.360992    -1.520337    -1.820259
C       -4.442280    -0.497736    -2.013026
C       -4.094117     0.454275    -3.115445
C       -3.466504    -2.655503    -2.556143
Se      -4.620401    -3.216522    -3.716695
S       -1.939282    -3.605334    -2.003430
H       -4.583733     0.073149    -1.058533
H       -5.376430    -0.995297    -2.225061
H       -2.999928     0.656764    -3.175388
H       -4.710153     1.358992    -2.974179
H       -4.388414     0.022155    -4.105012
31
ex_0229 frame4 SP-4-chelate-1-conf5
Ni       0.000000     0.000000     0.000000
C        0.128229     4.871989     2.587508
C        0.872083     4.855015     1.313328
N        1.782910     3.674227     1.186023
C        3.067695     3.845241     1.670767
Se       3.868865     5.194886     2.425540
S        3.855351     2.176464     1.322010
C        2.440086     1.515926     0.633562
C        1.382102     2.576362     0.648295
S       -0.168027     2.283827     0.000000
S        2.283827    -0.168027     0.000000
H        0.511037     4.157115     3.347536
H       -0.983058     4.754736     2.437416
H        0.219452     5.878010     3.048833
H        1.464988     5.766022     1.174166
H        0.146812     4.790571     0.486399
S       -0.308976    -2.269060     0.000000
C       -1.195194    -2.057773    -1.419802
C       -2.132029    -1.080371    -1.434413
S       -2.269060    -0.308976     0.000000
N       -2.733565    -0.880955    -2.681912
C       -3.801433     0.096440    -2.912630
C       -5.191767    -0.428317    -2.830888
C       -2.207619    -1.643908    -3.580947
Se      -2.791241    -1.470114    -5.618381
S       -1.029251    -2.797747    -3.123124
H       -3.635060     0.565925    -3.900356
H       -3.643641     0.877572    -2.144849
H       -5.862959     0.444693    -2.695608
H       -5.376356    -1.091339    -1.980749
H       -5.517070    -0.949343    -3.761376
31
ex_0229 frame5 SP-4-chelate-1-conf6
Ni       0.000000     0.000000     0.000000
C        0.128229     4.871989     2.587508
C        0.872083     4.855015     1.313328
N        1.782910     3.674227     1.186023
C        3.048559     3.830836     1.659159
Se       3.868865     5.194886     2.425540
S        3.855351     2.176464     1.322010
C        2.440086     1.515926     0.633562
C        1.401238     2.590767     0.659903
S       -0.168027     2.283827     0.000000
S        2.283827    -0.168027    -0.000000
H        0.511037     4.157115     3.347536
H       -0.983058     4.754736     2.437416
H        0.219452     5.878010     3.048833
H        1.464988     5.766022     1.174166
H        0.146812     4.790571     0.486399
S        0.080467    -2.288586     0.000000
C       -1.385394    -2.400243    -0.982745
C       -2.407775    -1.326746    -1.012385
S       -2.288586     0.080467    -0.000000
N       -3.360992    -1.520337    -1.820259
C       -4.442280    -0.497736    -2.013026
C       -4.094117     0.454275    -3.115445
C       -3.466504    -2.655503    -2.556143
Se      -4.620401    -3.216522    -3.716695
S       -1.939282    -3.605334    -2.003430
H       -4.583733     0.073149    -1.058533
H       -5.376430    -0.995297    -2.225061
H       -2.999928     0.656764    -3.175388
H       -4.710153     1.358992    -2.974179
H       -4.388414     0.022155    -4.105012
31
ex_0229 frame6 SP-4-chelate-1-conf7
Ni       0.000000     0.000000     0.000000
C        5.217157     0.381767     2.779629
C        3.839826    -0.127640     2.868558
N        2.791383     0.898743     2.659136
C        2.345690     1.573695     3.738824
Se       2.783624     1.490401     5.476718
S        1.055315     2.738613     3.055811
C        1.193256     2.064906     1.506202
C        2.184272     1.041773     1.542619
S        2.274611     0.265036     0.000000
S        0.265036     2.274611     0.000000
H        5.642177     0.690076     3.774949
H        5.878725    -0.469809     2.485073
H        5.402075     1.134713     1.996628
H        3.684609    -0.628102     3.840875
H        3.703787    -0.934572     2.114811
S       -2.267608    -0.319459    -0.000000
C       -2.022545    -1.174439     1.500862
C       -1.025487    -2.134225     1.559197
S       -0.319459    -2.267608     0.000000
N       -0.754874    -2.691961     2.693294
C        0.225427    -3.741333     2.911540
C       -0.323456    -5.150252     2.881151
C       -1.480349    -2.161917     3.661061
Se      -1.260010    -2.658776     5.682627
S       -2.654952    -0.996175     3.107678
H        0.951777    -3.645315     2.077327
H        0.767859    -3.532535     3.852471
H       -1.359463    -5.208376     2.495889
H        0.300065    -5.817568     2.237766
H       -0.344907    -5.602242     3.909949
31
ex_0229 frame7 SP-4-chelate-1-conf8
Ni       0.000000     0.000000     0.000000
C        5.217157     0.381767     2.779629
C        3.839826    -0.127640     2.868558
N        2.791383     0.898743     2.659136
C        2.348138     1.581763     3.772135
Se       2.783624     1.490401     5.476718
S        1.055315     2.738613     3.055811
C        1.193256     2.064906     1.506202
C        2.181824     1.033705     1.509308
S        2.274611     0.265036     0.000000
S        0.265036     2.274611     0.000000
H        5.642177     0.690076     3.774949
H        5.878725    -0.469809     2.485073
H        5.402075     1.134713     1.996628
H        3.684609    -0.628102     3.840875
H        3.703787    -0.934572     2.114811
S       -0.308976    -2.269060     0.000000
C       -1.195194    -2.057773    -1.419802
C       -2.132029    -1.080371    -1.434413
S       -2.269060    -0.308976     0.000000
N       -2.733565    -0.880955    -2.681912
C       -3.801433     0.096440    -2.912630
C       -5.191767    -0.428317    -2.830888
C       -2.207619    -1.643908    -3.580947
Se      -2.791241    -1.470114    -5.618381
S       -1.029251    -2.797747    -3.123124
H       -3.635060     0.565925    -3.900356
H       -3.643641     0.877572    -2.144849
H       -5.862959     0.444693    -2.695608
H       -5.376356    -1.091339    -1.980749
H       -5.517070    -0.949343    -3.761376
