59
ex_0154 frame0 Δ-conf5
O        0.531516     1.263335     3.685651
C        0.343702     0.687353     2.626265
C       -0.149510    -0.734075     2.636488
O       -0.242092    -1.348457     3.687902
N       -0.483902    -1.298686     1.438294
C       -0.792610    -2.635965     1.130631
C       -1.444769    -3.438583     2.087742
C       -1.725563    -4.770354     1.825868
C       -1.350544    -5.327569     0.613574
C       -0.717450    -4.549303    -0.358229
C       -0.361452    -3.197825    -0.119564
C        0.475496    -2.514203    -1.231950
C        0.694919    -3.222797    -2.503314
C        1.963185    -3.823114    -2.479904
C        2.395549    -4.574895    -3.576509
C        1.568232    -4.719388    -4.695617
C        0.308133    -4.113760    -4.719345
C       -0.124694    -3.360830    -3.627772
N        1.097607    -1.195289    -1.163490
C        0.952597    -0.250726    -2.299513
C       -0.516913     0.302875    -2.494955
N       -1.046688     1.062793    -1.327620
C       -0.662152     2.488805    -1.245415
C       -0.964770     3.272563    -2.487635
C       -2.298740     3.249023    -2.927446
C       -2.671830     3.985741    -4.055922
C       -1.717213     4.739594    -4.746910
C       -0.387319     4.750628    -4.317438
C       -0.008447     4.002321    -3.204437
C       -0.008694     3.234887    -0.022345
C       -0.003884     4.653474    -0.123409
C        0.528082     5.475624     0.866094
C        1.133944     4.925030     1.979183
C        1.165617     3.548778     2.135143
C        0.577172     2.688483     1.180540
N        0.567584     1.293051     1.413581
Cu       0.000000     0.000000     0.000000
H       -1.758261    -3.038531     3.041198
H       -2.234417    -5.370842     2.569916
H       -1.563711    -6.370335     0.418554
H       -0.471995    -5.048794    -1.282545
H        2.609622    -3.709733    -1.617596
H        3.371616    -5.042072    -3.560772
H        1.902814    -5.298739    -5.545207
H       -0.333656    -4.223092    -5.582882
H       -1.099774    -2.890133    -3.651006
H        1.297982    -0.735214    -3.237465
H        1.626065     0.614168    -2.120860
H       -0.550197     0.915275    -3.420315
H       -1.190721    -0.556669    -2.682022
H       -3.044828     2.666021    -2.400091
H       -3.699418     3.971901    -4.395473
H       -2.005706     5.313858    -5.616368
H        0.353369     5.335119    -4.845453
H        1.023770     4.011124    -2.875470
H       -0.450266     5.167834    -0.958179
H        0.480612     6.551515     0.758642
H        1.568240     5.566748     2.735366
H        1.642732     3.171856     3.026219
59
ex_0154 frame1 Δ-conf3
O        0.497638     1.259094     3.689949
C        0.329783     0.683905     2.627348
C       -0.126525    -0.749343     2.632801
O       -0.212927    -1.365752     3.683493
N       -0.434715    -1.321179     1.431206
C       -0.738989    -2.660647     1.121531
C       -1.398799    -3.463217     2.075144
C       -1.699619    -4.789064     1.806557
C       -1.347036    -5.340346     0.586290
C       -0.701995    -4.565923    -0.378774
C       -0.315903    -3.221991    -0.134497
C        0.541560    -2.524458    -1.242824
C        0.849051    -3.285168    -2.487082
C        2.222416    -3.538878    -2.616325
C        2.695974    -4.291480    -3.693094
C        1.803453    -4.775932    -4.653902
C        0.436590    -4.501819    -4.542470
C       -0.039130    -3.740039    -3.472141
N        1.099920    -1.159138    -1.198012
C        0.861235    -0.270722    -2.358050
C       -0.628185     0.248791    -2.454073
N       -1.042028     1.099256    -1.302419
C       -0.594719     2.486270    -1.272611
C       -0.787475     3.233677    -2.538559
C       -2.111151     3.703452    -2.639460
C       -2.494632     4.470143    -3.748584
C       -1.569292     4.750965    -4.759965
C       -0.261818     4.267354    -4.665798
C        0.123576     3.504312    -3.563675
C        0.025709     3.228812    -0.062686
C        0.074182     4.642764    -0.213134
C        0.524504     5.483538     0.801894
C        1.033854     4.953662     1.972310
C        1.059765     3.580468     2.154343
C        0.545538     2.698595     1.176125
N        0.543058     1.299588     1.416606
Cu       0.000000     0.000000     0.000000
H       -1.699816    -3.070367     3.035039
H       -2.207075    -5.390415     2.550682
H       -1.576802    -6.378347     0.383682
H       -0.459483    -5.072257    -1.297700
H        2.920853    -3.166131    -1.876721
H        3.754428    -4.498168    -3.781493
H        2.171465    -5.361969    -5.485139
H       -0.254069    -4.878049    -5.285332
H       -1.098698    -3.529156    -3.391271
H        1.535033     0.607637    -2.264590
H        1.150082    -0.784633    -3.298425
H       -0.756877     0.797483    -3.410661
H       -1.302337    -0.629402    -2.513798
H       -2.835252     3.494246    -1.860998
H       -3.506325     4.849032    -3.827297
H       -1.862434     5.343362    -5.617015
H        0.456756     4.482797    -5.444734
H        1.138287     3.133973    -3.494202
H       -0.278749     5.141136    -1.102213
H        0.496096     6.557486     0.669793
H        1.405951     5.609453     2.749708
H        1.468919     3.230077     3.087272
59
ex_0154 frame2 conf3
O        3.690639     1.247208    -0.523414
C        2.627998     0.676109    -0.342917
C        2.632517    -0.746281     0.146524
O        3.683049    -1.360743     0.248152
N        1.431645    -1.311852     0.467080
C        1.120731    -2.642962     0.802068
C        2.073279    -3.429622     1.482419
C        1.804133    -4.748139     1.813675
C        0.584456    -5.307551     1.471954
C       -0.379568    -4.548429     0.807450
C       -0.134588    -3.213986     0.390344
C       -1.241579    -2.536621    -0.484987
C       -2.485318    -3.304349    -0.777032
C       -2.612243    -3.590248    -2.144311
C       -3.688408    -4.353541    -2.601934
C       -4.650849    -4.816740    -1.699936
C       -4.541644    -4.510697    -0.339689
C       -3.471925    -3.738224     0.119867
N       -1.196116    -1.184590    -1.074778
C       -2.356828    -0.291294    -0.858760
C       -2.455257     0.262888     0.617882
N       -1.304652     1.123399     1.013273
C       -1.274327     2.499365     0.533702
C       -2.540690     3.250769     0.706488
C       -2.643400     3.750972     2.018825
C       -3.752896     4.526474     2.382967
C       -4.762941     4.786006     1.449998
C       -4.667084     4.272263     0.154185
C       -3.564580     3.500298    -0.211963
C       -0.063427     3.227283    -0.101541
C       -0.214132     4.639654    -0.183262
C        0.801685     5.470025    -0.650668
C        1.973272     4.928785    -1.145106
C        2.155561     3.555412    -1.139005
C        1.176496     2.685357    -0.606474
N        1.417333     1.286944    -0.571221
Cu       0.000000     0.000000     0.000000
H        3.032694    -3.029665     1.775606
H        2.547399    -5.337518     2.336216
H        0.381440    -6.339948     1.725349
H       -1.298039    -5.060270     0.575107
H       -1.871412    -3.234098    -2.850075
H       -3.775120    -4.584974    -3.655404
H       -5.481636    -5.411050    -2.055505
H       -5.285774    -4.870449     0.358337
H       -3.392808    -3.502541     1.174320
H       -2.262713     0.571072    -1.552825
H       -3.296560    -0.812199    -1.136914
H       -3.412251     0.814002     0.732379
H       -2.515426    -0.599309     1.312341
H       -1.865959     3.558461     2.748629
H       -3.832898     4.928658     3.385524
H       -5.620248     5.385200     1.728203
H       -5.445000     4.471221    -0.570228
H       -3.493793     3.106623    -1.217757
H       -1.104026     5.145916     0.156112
H        0.669324     6.544305    -0.647341
H        2.751373     5.576007    -1.530484
H        3.089480     3.196095    -1.537962
59
ex_0154 frame3 Λ-conf3
O        1.247235    -0.522058     3.690728
C        0.676227    -0.342069     2.627894
C       -0.746401     0.146907     2.632449
O       -1.360556     0.249123     3.683031
N       -1.311588     0.466140     1.430657
C       -2.643481     0.800809     1.120030
C       -3.430969     1.479997     2.072694
C       -4.749361     1.811383     1.803095
C       -5.308032     1.470941     0.582763
C       -4.548439     0.807063    -0.381230
C       -3.214131     0.389704    -0.135746
C       -2.536469    -0.485143    -1.242742
C       -3.304442    -0.777591    -2.486530
C       -3.591619    -2.144672    -2.612870
C       -4.355154    -2.602116    -3.689020
C       -4.817323    -1.700182    -4.652020
C       -4.510032    -0.340187    -4.543424
C       -3.737410     0.119190    -3.473709
N       -1.184026    -1.074084    -1.197322
C       -0.291779    -0.856689    -2.358548
C        0.262500     0.619920    -2.454940
N        1.124239     1.012556    -1.304490
C        2.499566     0.532151    -1.275080
C        3.250178     0.703473    -2.541778
C        3.749543     2.016156    -2.643137
C        4.525190     2.381982    -3.751863
C        4.785777     1.450289    -4.762755
C        4.272794     0.154027    -4.668510
C        3.500420    -0.213812    -3.566698
C        3.227354    -0.102506    -0.064319
C        4.639537    -0.185652    -0.216030
C        5.470302    -0.651134     0.800309
C        4.929554    -1.142885     1.973220
C        3.556238    -1.136444     2.156076
C        2.685686    -0.605684     1.176426
N        1.287106    -0.570440     1.417394
Cu       0.000000     0.000000     0.000000
H       -3.031809     1.772595     3.032557
H       -5.339186     2.333262     2.546459
H       -6.340225     1.724820     0.379241
H       -5.059791     0.575668    -1.300242
H       -3.236334    -2.850396    -1.871606
H       -4.587629    -3.655397    -3.775310
H       -5.411814    -2.055592    -5.482771
H       -4.868975     0.357784    -5.288013
H       -3.500845     1.173476    -3.395104
H        0.570358    -1.551248    -2.266499
H       -0.813532    -1.133078    -3.298332
H        0.812769     0.736224    -3.412198
H       -0.599565     1.314811    -2.512740
H        3.556209     2.744944    -1.864978
H        4.926670     3.384909    -3.830507
H        5.385219     1.729908    -5.619443
H        4.472756    -0.569323    -5.447193
H        3.107433    -1.219974    -3.497241
H        5.145510     0.151662    -1.106869
H        6.544522    -0.648313     0.667399
H        5.577133    -1.526538     2.751885
H        3.197603    -1.533424     3.091047
59
ex_0154 frame4 square-planar cis-conf3
O        3.497546     1.722548     0.496003
C        2.339964     1.376370     0.328125
C        1.329945     2.391633    -0.132285
O        1.636968     3.570133    -0.222547
N        0.076055     1.945240    -0.439639
C       -1.089941     2.670785    -0.752838
C       -0.981741     3.911339    -1.415050
C       -2.108944     4.654693    -1.727497
C       -3.363147     4.178943    -1.384370
C       -3.499448     2.951331    -0.735611
C       -2.377221     2.178727    -0.337254
C       -2.670247     0.905304     0.523944
C       -4.090299     0.565816     0.828997
C       -4.369699     0.667559     2.199815
C       -5.666160     0.441554     2.667913
C       -6.682419     0.094414     1.772816
C       -6.401412    -0.034104     0.408953
C       -5.103317     0.181196    -0.061219
N       -1.674611    -0.027218     1.088134
C       -1.871300    -1.475271     0.850682
C       -1.557109    -1.912970    -0.634218
N       -0.135831    -1.706498    -1.029112
C        0.858637    -2.665400    -0.568436
C        0.489384    -4.088967    -0.748729
C        0.757494    -4.492368    -2.070687
C        0.520064    -5.818716    -2.455970
C        0.000370    -6.733769    -1.533990
C       -0.283324    -6.326116    -0.227888
C       -0.048944    -5.006184     0.159367
C        2.235423    -2.331884     0.054070
C        3.123751    -3.441140     0.122405
C        4.436780    -3.314968     0.569083
C        4.894109    -2.106125     1.058246
C        4.054650    -1.003942     1.069917
C        2.738133    -1.075471     0.558886
N        1.919796     0.085182     0.544868
Cu       0.000000     0.000000     0.000000
H       -0.024408     4.314443    -1.710230
H       -2.006820     5.604620    -2.237383
H       -4.240373     4.765725    -1.624168
H       -4.508482     2.657433    -0.500719
H       -3.587866     0.935139     2.900369
H       -5.881781     0.535725     3.724131
H       -7.686727    -0.076475     2.136431
H       -7.188348    -0.301429    -0.283700
H       -4.890915     0.078914    -1.118576
H       -1.195485    -2.032861     1.533536
H       -2.904361    -1.772149     1.127490
H       -1.848481    -2.976164    -0.766656
H       -2.208398    -1.330753    -1.317102
H        1.162662    -3.792871    -2.792081
H        0.738702    -6.140897    -3.466677
H       -0.182576    -7.758969    -1.829014
H       -0.683944    -7.031238     0.487709
H       -0.268073    -4.696542     1.173140
H        2.844481    -4.427017    -0.214515
H        5.100168    -4.170152     0.553078
H        5.908742    -2.017258     1.426321
H        4.470968    -0.092345     1.464527
59
ex_0154 frame5 conf5
O        3.688008     1.261264    -0.498612
C        2.625995     0.686445    -0.323988
C        2.631420    -0.740032     0.155641
O        3.683470    -1.352699     0.250803
N        1.430891    -1.309858     0.474224
C        1.117034    -2.647363     0.792316
C        2.083926    -3.463716     1.415427
C        1.810884    -4.788721     1.718277
C        0.575590    -5.328087     1.399375
C       -0.402705    -4.541716     0.789139
C       -0.148943    -3.202494     0.397920
C       -1.260380    -2.521744    -0.434011
C       -2.534732    -3.233174    -0.640652
C       -2.498346    -3.850474    -1.900722
C       -3.585742    -4.616172    -2.332983
C       -4.711531    -4.758007    -1.514835
C       -4.751726    -4.134457    -0.264103
C       -3.669285    -3.366220     0.168790
N       -1.186648    -1.206488    -1.060408
C       -2.321943    -0.263009    -0.922479
C       -2.495026     0.307216     0.540247
N       -1.324895     1.090856     1.021704
C       -1.264527     2.509152     0.615031
C       -2.514996     3.293995     0.894986
C       -2.915955     3.301678     2.242488
C       -4.033943     4.045738     2.635132
C       -4.762477     4.769212     1.685853
C       -4.380611     4.742987     0.341924
C       -3.275542     3.988890    -0.056239
C       -0.044691     3.246914    -0.041291
C       -0.168849     4.662556    -0.101571
C        0.834580     5.482301    -0.610531
C        1.979475     4.929342    -1.150438
C        2.147410     3.554253    -1.148306
C        1.177857     2.694674    -0.581930
N        1.416112     1.297360    -0.550506
Cu       0.000000     0.000000     0.000000
H        3.054962    -3.082958     1.693359
H        2.563019    -5.397518     2.204846
H        0.368987    -6.363596     1.636342
H       -1.343961    -5.028979     0.586150
H       -1.630742    -3.742044    -2.540350
H       -3.557357    -5.097742    -3.301795
H       -5.553033    -5.349779    -1.849431
H       -5.621370    -4.243628     0.370094
H       -3.706682    -2.884048     1.137723
H       -3.262787    -0.754289    -1.249416
H       -2.152625     0.591431    -1.611546
H       -3.427382     0.907914     0.586113
H       -2.654390    -0.542110     1.234152
H       -2.360706     2.744562     2.987496
H       -4.336527     4.062204     3.674457
H       -5.623828     5.348961     1.990160
H       -4.940453     5.304953    -0.393508
H       -2.985596     3.972219    -1.099506
H       -1.027103     5.180544     0.292478
H        0.715340     6.558052    -0.595371
H        2.749788     5.568993    -1.562758
H        3.062461     3.181601    -1.579190
59
ex_0154 frame6 Λ-conf5
O        1.262323    -0.496582     3.687877
C        0.687232    -0.322884     2.625845
C       -0.739751     0.155170     2.631442
O       -1.351973     0.250422     3.683607
N       -1.310052     0.472157     1.430244
C       -2.648010     0.790047     1.116590
C       -3.465833     1.410669     2.083756
C       -4.790493     1.714126     1.810096
C       -5.328575     1.398284     0.573376
C       -4.541224     0.789871    -0.405080
C       -3.202593     0.397433    -0.150631
C       -2.521431    -0.433622    -1.261947
C       -3.233027    -0.640081    -2.536447
C       -3.850714    -1.899911    -2.499032
C       -4.617081    -2.332652    -3.585819
C       -4.759153    -1.515257    -4.712089
C       -4.135121    -0.264822    -4.753474
C       -3.366157     0.168563    -3.671634
N       -1.205965    -1.059255    -1.188198
C       -0.262852    -0.920938    -2.323616
C        0.307339     0.541735    -2.495225
N        1.091952     1.020845    -1.324925
C        2.509871     0.613624    -1.265701
C        3.294448     0.892528    -2.516590
C        3.303352     2.240756    -2.915135
C        4.047550     2.634843    -4.032535
C        4.769572     1.686251    -4.763335
C        4.741772     0.341548    -4.384306
C        3.987597    -0.058051    -3.279674
C        3.247697    -0.042294    -0.046229
C        4.663124    -0.104618    -0.171774
C        5.483230    -0.611708     0.832267
C        4.930710    -1.148361     1.978857
C        3.555705    -1.145391     2.147557
C        2.695638    -0.580787     1.177315
N        1.298064    -0.548987     1.415799
Cu       0.000000     0.000000     0.000000
H       -3.086323     1.686666     3.055873
H       -5.400134     2.199016     2.562575
H       -6.363723     1.636128     0.366032
H       -5.027548     0.589117    -1.347408
H       -3.742255    -2.538947    -1.631033
H       -5.099053    -3.301231    -3.556509
H       -5.351543    -1.850218    -5.553051
H       -4.244570     0.368769    -5.623541
H       -2.883754     1.137335    -3.710019
H       -0.754432    -1.246910    -3.264638
H        0.591426    -1.610406    -2.155170
H        0.907386     0.588825    -3.427944
H       -0.541799     1.236242    -2.653026
H        2.747465     2.985334    -2.358131
H        4.065279     3.674804    -4.332873
H        5.349433     1.991735    -5.624232
H        5.302663    -0.393291    -4.946036
H        3.969852    -1.101918    -2.992001
H        5.180871     0.286905    -1.031314
H        6.558918    -0.597550     0.712261
H        5.570665    -1.558976     2.749837
H        3.183824    -1.573999     3.063916
59
ex_0154 frame7 square-planar cis-conf5
O        3.503177     1.713445     0.481207
C        2.344467     1.369942     0.313666
C        1.336470     2.384982    -0.152985
O        1.646359     3.562568    -0.244331
N        0.082001     1.940978    -0.464632
C       -1.087422     2.665459    -0.772369
C       -0.985700     3.929852    -1.389041
C       -2.117486     4.674279    -1.682651
C       -3.370650     4.179264    -1.360598
C       -3.502038     2.928363    -0.756078
C       -2.373439     2.159956    -0.373762
C       -2.672270     0.888981     0.453956
C       -4.075417     0.490066     0.667479
C       -4.477959     0.947701     1.931822
C       -5.785648     0.719050     2.371598
C       -6.687419     0.026640     1.556645
C       -6.283110    -0.438258     0.301612
C       -4.977088    -0.214928    -0.138822
N       -1.686224     0.008237     1.069933
C       -1.823004    -1.460950     0.926173
C       -1.550327    -1.979444    -0.540439
N       -0.171214    -1.704362    -1.027491
C        0.876153    -2.666683    -0.631110
C        0.544814    -4.104772    -0.914213
C        0.260161    -4.387437    -2.261653
C       -0.006395    -5.702185    -2.659209
C       -0.005968    -6.733311    -1.714746
C        0.251687    -6.451070    -0.370639
C        0.502149    -5.138309     0.032528
C        2.264314    -2.328829     0.017613
C        3.177093    -3.418430     0.069547
C        4.469864    -3.290369     0.569753
C        4.892883    -2.091147     1.109121
C        4.039786    -0.999740     1.115606
C        2.742179    -1.075521     0.558634
N        1.921268     0.081275     0.536517
Cu       0.000000     0.000000     0.000000
H       -0.031471     4.349704    -1.669521
H       -2.019443     5.639189    -2.164643
H       -4.250499     4.765704    -1.590669
H       -4.511120     2.605301    -0.550118
H       -3.783628     1.481992     2.568978
H       -6.099773     1.076231     3.343730
H       -7.698855    -0.150769     1.897058
H       -6.979530    -0.973364    -0.330106
H       -4.669035    -0.578836    -1.111125
H       -2.833948    -1.780188     1.257108
H       -1.095521    -1.948795     1.609039
H       -1.785564    -3.063141    -0.590445
H       -2.266948    -1.487940    -1.228296
H        0.255746    -3.597457    -3.002986
H       -0.213438    -5.922861    -3.698656
H       -0.206755    -7.750844    -2.022957
H        0.256247    -7.247827     0.360992
H        0.700227    -4.926523     1.075918
H        2.933235    -4.390667    -0.324747
H        5.145633    -4.135682     0.548168
H        5.892838    -2.000124     1.514536
H        4.427065    -0.090583     1.545981
59
ex_0154 frame8 see-saw N0-N1-ax-conf3
O        1.703034     0.668318     3.482092
C        1.364887     0.444366     2.331376
C        2.378397    -0.089093     1.369153
O        3.552626    -0.175997     1.693599
N        1.935492    -0.466429     0.135483
C        2.670381    -0.834696    -1.001275
C        3.905119    -1.496095    -0.843328
C        4.666560    -1.851464    -1.942059
C        4.212572    -1.552720    -3.215986
C        2.985109    -0.910156    -3.399716
C        2.194215    -0.467867    -2.308366
C        0.925759     0.383166    -2.658626
C        0.583465     0.598367    -4.081893
C        0.687842     1.955685    -4.418149
C        0.457894     2.367687    -5.730413
C        0.106082     1.428858    -6.704782
C       -0.021236     0.077443    -6.365016
C        0.197469    -0.336187    -5.049623
N       -0.004397     1.022126    -1.715259
C       -1.464318     0.806093    -1.864941
C       -1.943164    -0.656999    -1.489752
N       -1.710652    -1.029738    -0.065053
C       -2.656021    -0.542524     0.939347
C       -4.092048    -0.765568     0.635229
C       -4.505867    -2.067069     0.982626
C       -5.847711    -2.437825     0.808963
C       -6.762642    -1.526152     0.269584
C       -6.341161    -0.245450    -0.095670
C       -5.009504     0.127146     0.076929
C       -2.311980     0.155726     2.281001
C       -3.396927     0.237618     3.201315
C       -3.253127     0.777027     4.478148
C       -2.053200     1.342206     4.863955
C       -0.975272     1.329086     3.994484
C       -1.061470     0.718506     2.720108
N        0.083686     0.663523     1.881239
Cu       0.000000     0.000000     0.000000
H        4.290397    -1.754716     0.132610
H        5.613340    -2.358234    -1.800204
H        4.816389    -1.825560    -4.070725
H        2.705023    -0.714518    -4.420676
H        0.955508     2.689013    -3.665999
H        0.550340     3.414334    -5.988284
H       -0.070350     1.749509    -7.721727
H       -0.292900    -0.649229    -7.118202
H        0.093120    -1.382179    -4.786517
H       -1.987182     1.522329    -1.194602
H       -1.778572     1.056926    -2.899095
H       -3.018784    -0.758580    -1.745998
H       -1.404837    -1.375288    -2.139730
H       -3.808886    -2.778614     1.409815
H       -6.184098    -3.427313     1.094529
H       -7.799177    -1.807448     0.136248
H       -7.043864     0.464562    -0.509249
H       -4.688831     1.123260    -0.199524
H       -4.376871    -0.152294     2.975885
H       -4.088113     0.776394     5.167393
H       -1.950607     1.786326     5.846742
H       -0.068341     1.785162     4.355809
59
ex_0154 frame9 square-planar cis-conf4
O        3.492471     1.728030     0.513730
C        2.335810     1.379628     0.338419
C        1.328817     2.392421    -0.133004
O        1.634263     3.571314    -0.223609
N        0.078534     1.943020    -0.450019
C       -1.087729     2.664309    -0.770556
C       -0.980878     3.907998    -1.426501
C       -2.110021     4.647957    -1.740859
C       -3.364366     4.166208    -1.404254
C       -3.499169     2.934313    -0.762365
C       -2.374209     2.170695    -0.357878
C       -2.664709     0.908974     0.507066
C       -4.075962     0.567960     0.802723
C       -5.068592     0.045497    -0.036288
C       -6.362055    -0.152003     0.452583
C       -6.658499     0.142527     1.787304
C       -5.661978     0.638426     2.633947
C       -4.368967     0.843238     2.146229
N       -1.677649    -0.011907     1.083621
C       -1.851732    -1.467397     0.875070
C       -1.551677    -1.929364    -0.607237
N       -0.141034    -1.704609    -1.031989
C        0.873720    -2.654523    -0.597781
C        0.525725    -4.078222    -0.815791
C        0.779704    -4.444223    -2.151304
C        0.556561    -5.764244    -2.565538
C        0.065053    -6.709385    -1.658416
C       -0.204531    -6.338178    -0.338468
C        0.015650    -5.024944     0.077397
C        2.249248    -2.318686     0.030869
C        3.149036    -3.419753     0.078876
C        4.458817    -3.290745     0.534046
C        4.902229    -2.088688     1.051806
C        4.053099    -0.994425     1.080383
C        2.740954    -1.067053     0.558682
N        1.916358     0.088548     0.556852
Cu       0.000000     0.000000     0.000000
H       -0.023559     4.314566    -1.717335
H       -2.009009     5.599384    -2.248311
H       -4.242568     4.750190    -1.646862
H       -4.508049     2.627270    -0.537210
H       -4.842268    -0.186289    -1.070013
H       -7.132723    -0.535119    -0.202846
H       -7.659445    -0.014874     2.165701
H       -5.890174     0.862615     3.667694
H       -3.600714     1.224990     2.807957
H       -1.156600    -2.001179     1.557837
H       -2.877037    -1.773011     1.171480
H       -2.224993    -1.375261    -1.291846
H       -1.827239    -2.999715    -0.712760
H        1.162553    -3.720816    -2.861423
H        0.764175    -6.058152    -3.587153
H       -0.107134    -7.729687    -1.975608
H       -0.583486    -7.066016     0.365895
H       -0.192635    -4.742464     1.101374
H        2.880873    -4.400767    -0.280525
H        5.130234    -4.139142     0.502668
H        5.913820    -1.998452     1.427736
H        4.458107    -0.086572     1.495563
59
ex_0154 frame10 Λ-conf4
O        1.236646    -0.521295     3.693409
C        0.669399    -0.340473     2.628688
C       -0.751613     0.154183     2.629526
O       -1.368144     0.258297     3.678609
N       -1.313251     0.476405     1.427266
C       -2.641760     0.818895     1.109991
C       -3.435615     1.490189     2.062925
C       -4.751152     1.827702     1.785050
C       -5.301288     1.499800     0.556860
C       -4.535722     0.842579    -0.407148
C       -3.208443     0.413975    -0.148499
C       -2.536211    -0.466011    -1.242673
C       -3.298716    -0.754039    -2.480633
C       -3.615294     0.085520    -3.556506
C       -4.399224    -0.393956    -4.608525
C       -4.842384    -1.720435    -4.603194
C       -4.504609    -2.568206    -3.543494
C       -3.726091    -2.089778    -2.486555
N       -1.196438    -1.064070    -1.193886
C       -0.289398    -0.873538    -2.348483
C        0.276866     0.598020    -2.463434
N        1.126290     1.003955    -1.308781
C        2.505946     0.543282    -1.264077
C        3.268158     0.738964    -2.518797
C        3.727863     2.067121    -2.598736
C        4.510759     2.468668    -3.689184
C        4.818122     1.556353    -4.704364
C        4.343918     0.243758    -4.632582
C        3.562921    -0.159528    -3.548857
C        3.229288    -0.091811    -0.051866
C        4.642485    -0.169717    -0.196938
C        5.470355    -0.629678     0.823864
C        4.926213    -1.125090     1.993420
C        3.551893    -1.127712     2.168499
C        2.683251    -0.599957     1.185420
N        1.283189    -0.572884     1.420065
Cu       0.000000     0.000000     0.000000
H       -3.042872     1.775544     3.027564
H       -5.344708     2.346763     2.527463
H       -6.330208     1.761005     0.346392
H       -5.034412     0.625431    -1.338260
H       -3.271975     1.112911    -3.565707
H       -4.660737     0.262337    -5.427821
H       -5.445903    -2.091564    -5.420502
H       -4.844213    -3.595668    -3.541317
H       -3.465653    -2.752505    -1.670023
H        0.566303    -1.573176    -2.237108
H       -0.805936    -1.159508    -3.288676
H       -0.577884     1.299538    -2.543799
H        0.838278     0.694369    -3.416483
H        3.497559     2.781145    -1.816970
H        4.881354     3.484581    -3.749905
H        5.423774     1.864037    -5.546911
H        4.580701    -0.464340    -5.414994
H        3.199797    -1.177922    -3.496766
H        5.152074     0.170983    -1.084476
H        6.545249    -0.619293     0.696976
H        5.572031    -1.504086     2.775761
H        3.191107    -1.526794     3.101686
59
ex_0154 frame11 conf4
O        3.693426     1.236916    -0.519609
C        2.628620     0.669646    -0.339356
C        2.629568    -0.751260     0.155638
O        3.678722    -1.367381     0.260793
N        1.426376    -1.312188     0.476686
C        1.109314    -2.641641     0.819057
C        2.062742    -3.435419     1.490146
C        1.784558    -4.751276     1.827249
C        0.556709    -5.301087     1.499534
C       -0.407681    -4.535626     0.842398
C       -0.148684    -3.208069     0.414052
C       -1.243092    -2.536080    -0.466019
C       -2.480886    -3.298580    -0.754047
C       -3.556879    -3.615191     0.085447
C       -4.608822    -4.399173    -0.393995
C       -4.603453    -4.842443    -1.720438
C       -3.543699    -4.504705    -2.568194
C       -2.486828    -3.726126    -2.089791
N       -1.193846    -1.196099    -1.063936
C       -2.348661    -0.289255    -0.873398
C       -2.463511     0.276931     0.598192
N       -1.308808     1.126278     1.004087
C       -1.264121     2.505961     0.543356
C       -2.518807     3.268112     0.738965
C       -2.598769     3.727837     2.067148
C       -3.689185     4.510716     2.468679
C       -4.704378     4.818108     1.556387
C       -4.632608     4.343879     0.243772
C       -3.548906     3.562892    -0.159498
C       -0.051850     3.229256    -0.091739
C       -0.197106     4.642546    -0.169796
C        0.823792     5.470339    -0.629754
C        1.993384     4.926303    -1.124885
C        2.168638     3.551885    -1.127328
C        1.185446     2.683360    -0.599694
N        1.420286     1.283211    -0.572657
Cu       0.000000     0.000000     0.000000
H        3.027169    -3.043110     1.775381
H        2.527238    -5.344763     2.346210
H        0.346116    -6.330196     1.760507
H       -1.338538    -5.034272     0.625208
H       -3.566086    -3.271804     1.112816
H       -5.428138    -4.660664     0.262299
H       -5.420735    -5.446000    -2.091539
H       -3.541503    -4.844422    -3.595625
H       -1.670246    -3.465732    -2.752512
H       -2.237392     0.566488    -1.573006
H       -3.288923    -0.805774    -1.159299
H       -2.543782    -0.577848     1.299666
H       -3.416567     0.838346     0.694701
H       -1.816986     3.497499     2.781143
H       -3.749899     4.881312     3.484608
H       -5.546899     5.423772     1.864063
H       -5.415030     4.580670    -0.464308
H       -3.496818     3.199742    -1.177903
H       -1.084678     5.152062     0.170691
H        0.696754     6.545273    -0.619515
H        2.775764     5.572078    -1.503885
H        3.101851     3.191127    -1.526217
59
ex_0154 frame12 Δ-conf4
O        0.502730     1.250965     3.690434
C        0.333518     0.679165     2.626394
C       -0.122880    -0.754759     2.630249
O       -0.206325    -1.372952     3.679823
N       -0.434502    -1.325380     1.429587
C       -0.744108    -2.662624     1.113296
C       -1.387774    -3.474163     2.070390
C       -1.693375    -4.797825     1.793551
C       -1.360657    -5.338250     0.562534
C       -0.729979    -4.555556    -0.405306
C       -0.333192    -3.218011    -0.148025
C        0.522656    -2.523491    -1.247306
C        0.823347    -3.278851    -2.486823
C       -0.013333    -3.616268    -3.558710
C        0.480143    -4.388234    -4.613108
C        1.817130    -4.798555    -4.614340
C        2.661506    -4.439825    -3.558812
C        2.169237    -3.673209    -2.499457
N        1.085673    -1.168377    -1.201727
C        0.864283    -0.267994    -2.356087
C       -0.621595     0.261132    -2.459895
N       -1.038397     1.101762    -1.303054
C       -0.611984     2.492058    -1.262388
C       -0.832008     3.247774    -2.516375
C       -2.172177     3.672571    -2.586756
C       -2.602097     4.444883    -3.673716
C       -1.705680     4.776413    -4.695377
C       -0.380599     4.336667    -4.633498
C        0.051005     3.565920    -3.553162
C        0.010330     3.231205    -0.053847
C        0.054418     4.645888    -0.201393
C        0.496052     5.485573     0.817930
C        1.006523     4.954980     1.986828
C        1.043685     3.580988     2.163301
C        0.535524     2.698657     1.181783
N        0.544524     1.297085     1.416201
Cu       0.000000     0.000000     0.000000
H       -1.676319    -3.090164     3.037342
H       -2.191575    -5.405020     2.539178
H       -1.597211    -6.373301     0.352789
H       -0.506990    -5.047826    -1.338365
H       -1.048933    -3.298492    -3.562886
H       -0.173516    -4.665983    -5.429185
H        2.198968    -5.392864    -5.433489
H        3.697020    -4.754062    -3.561800
H        2.829392    -3.396492    -1.686214
H        1.543437     0.604836    -2.251363
H        1.155410    -0.778349    -3.298088
H       -1.302489    -0.610848    -2.533097
H       -0.740052     0.818661    -3.412764
H       -2.874058     3.423356    -1.799823
H       -3.627805     4.788639    -3.726616
H       -2.035475     5.374158    -5.535206
H        0.315110     4.592466    -5.421081
H        1.078967     3.229678    -3.508856
H       -0.300171     5.146133    -1.088585
H        0.459042     6.559874     0.689891
H        1.370895     5.610663     2.768043
H        1.453311     3.231550     3.095837
59
ex_0154 frame13 see-saw N0-N1-ax-conf4
O        1.714502     0.685333     3.470176
C        1.369907     0.455458     2.323078
C        2.382180    -0.084520     1.359051
O        3.557080    -0.166088     1.680401
N        1.934803    -0.471842     0.131374
C        2.665793    -0.846985    -1.007272
C        3.907706    -1.495600    -0.851821
C        4.664043    -1.854971    -1.953505
C        4.198816    -1.571234    -3.227428
C        2.965064    -0.940171    -3.408163
C        2.184748    -0.489936    -2.313644
C        0.925602     0.358674    -2.660798
C        0.578935     0.569388    -4.074412
C        0.042241    -0.306168    -5.023430
C       -0.160707     0.130209    -6.333523
C        0.146250     1.448580    -6.687986
C        0.662249     2.330711    -5.733179
C        0.873535     1.894667    -4.424652
N        0.002644     1.002351    -1.726581
C       -1.460908     0.805306    -1.867352
C       -1.953564    -0.651891    -1.485728
N       -1.715883    -1.020634    -0.061691
C       -2.653291    -0.549706     0.950746
C       -4.084918    -0.790425     0.659057
C       -4.441639    -2.109339     1.000835
C       -5.770304    -2.530676     0.852250
C       -6.731325    -1.650732     0.342096
C       -6.367781    -0.351094    -0.020083
C       -5.046872     0.071697     0.125990
C       -2.304681     0.145044     2.288614
C       -3.387264     0.218745     3.213099
C       -3.237553     0.742049     4.495445
C       -2.038349     1.307229     4.881013
C       -0.965545     1.310937     4.004578
C       -1.054955     0.711640     2.724550
N        0.086749     0.672208     1.877783
Cu       0.000000     0.000000     0.000000
H        4.301128    -1.744525     0.123284
H        5.614708    -2.355108    -1.814027
H        4.797393    -1.849707    -4.083996
H        2.668235    -0.760896    -4.428921
H       -0.202686    -1.324886    -4.747320
H       -0.560601    -0.552639    -7.070346
H       -0.018563     1.787472    -7.701036
H        0.894273     3.352335    -6.003565
H        1.266239     2.583647    -3.685564
H       -1.972673     1.530380    -1.198193
H       -1.776415     1.054536    -2.901827
H       -1.426983    -1.379840    -2.134682
H       -3.031493    -0.743834    -1.736305
H       -3.707595    -2.796402     1.405165
H       -6.059814    -3.535461     1.135087
H       -7.758564    -1.972181     0.229237
H       -7.107961     0.333652    -0.410682
H       -4.771429     1.081987    -0.148047
H       -4.367471    -0.171109     2.989767
H       -4.068512     0.728468     5.189665
H       -1.931446     1.738250     5.869167
H       -0.059849     1.766001     4.368606
59
ex_0154 frame14 see-saw N0-N1-ax-conf5
O        1.692364     0.669619     3.485702
C        1.356797     0.441180     2.334881
C        2.370913    -0.101001     1.376935
O        3.544352    -0.185217     1.704690
N        1.931102    -0.488876     0.144996
C        2.667053    -0.852753    -0.993917
C        3.924560    -1.470896    -0.841522
C        4.687989    -1.808928    -1.944763
C        4.216738    -1.530170    -3.217740
C        2.967624    -0.928803    -3.396875
C        2.178382    -0.504328    -2.299511
C        0.909915     0.308576    -2.657368
C        0.503179     0.438989    -4.056089
C        0.969702     1.679331    -4.516390
C        0.728706     2.063864    -5.837106
C        0.021529     1.213652    -6.694180
C       -0.444546    -0.021365    -6.231264
C       -0.209087    -0.405779    -4.911421
N        0.025047     0.995194    -1.731023
C       -1.450929     0.859931    -1.838289
C       -1.999946    -0.583371    -1.485555
N       -1.713677    -1.022128    -0.092625
C       -2.660364    -0.587858     0.956490
C       -4.103608    -0.895503     0.685165
C       -4.393522    -2.254619     0.477669
C       -5.718058    -2.662947     0.283347
C       -6.748985    -1.717555     0.274065
C       -6.457739    -0.362527     0.450474
C       -5.137109     0.050007     0.628354
C       -2.310922     0.127988     2.306181
C       -3.377941     0.193404     3.247681
C       -3.233351     0.767180     4.508415
C       -2.043842     1.370211     4.865548
C       -0.976319     1.359888     3.983303
C       -1.064320     0.718717     2.723640
N        0.077394     0.663869     1.883162
Cu       0.000000     0.000000     0.000000
H        4.324816    -1.714805     0.131838
H        5.648895    -2.289523    -1.806677
H        4.820592    -1.794305    -4.075002
H        2.661302    -0.760673    -4.417269
H        1.509963     2.344130    -3.852091
H        1.084824     3.021507    -6.193353
H       -0.168220     1.512282    -7.715553
H       -0.992949    -0.679818    -6.890631
H       -0.577239    -1.359038    -4.552034
H       -1.779765     1.145614    -2.859414
H       -1.917958     1.584626    -1.137260
H       -3.089632    -0.618335    -1.695940
H       -1.536090    -1.312174    -2.179215
H       -3.603925    -2.996336     0.487303
H       -5.947195    -3.711470     0.142398
H       -7.773748    -2.033292     0.130786
H       -7.253180     0.370520     0.450878
H       -4.918097     1.101353     0.769334
H       -4.343260    -0.243795     3.053783
H       -4.058442     0.755762     5.209428
H       -1.939616     1.835734     5.838055
H       -0.073040     1.840662     4.322548
59
ex_0154 frame15 conf2
O        3.688261     1.243282     0.525009
C        2.623506     0.674472     0.346498
C        2.627002    -0.754641    -0.125420
O        3.677105    -1.372187    -0.208433
N        1.426748    -1.321387    -0.451129
C        1.111884    -2.660425    -0.765633
C        2.080428    -3.482506    -1.378953
C        1.805082    -4.807289    -1.682025
C        0.564623    -5.341395    -1.374672
C       -0.414611    -4.550591    -0.773639
C       -0.155835    -3.215022    -0.375233
C       -1.257773    -2.531226     0.459829
C       -2.513983    -3.253376     0.719802
C       -3.698763    -3.375991    -0.016386
C       -4.750828    -4.151363     0.474748
C       -4.625494    -4.800618     1.706643
C       -3.445790    -4.675950     2.448144
C       -2.389684    -3.901356     1.958310
N       -1.204293    -1.200834     1.047723
C       -2.346228    -0.275804     0.866034
C       -2.463336     0.281513    -0.609184
N       -1.303695     1.120967    -1.017377
C       -1.262675     2.505092    -0.581162
C       -2.520875     3.252241    -0.801147
C       -3.585544     3.533957     0.061384
C       -4.668012     4.295392    -0.381847
C       -4.699994     4.768856    -1.696356
C       -3.646722     4.480187    -2.570615
C       -2.558507     3.716369    -2.129479
C       -0.055430     3.235327     0.045388
C       -0.203651     4.648702     0.103780
C        0.817826     5.484332     0.546395
C        1.989010     4.948797     1.047085
C        2.164515     3.574466     1.073691
C        1.181137     2.695850     0.562725
N        1.414749     1.293701     0.561469
Cu       0.000000     0.000000     0.000000
H        3.055034    -3.106026    -1.650258
H        2.558518    -5.420224    -2.160988
H        0.354874    -6.376065    -1.612567
H       -1.360350    -5.033273    -0.578517
H       -3.802329    -2.872205    -0.969596
H       -5.662928    -4.245838    -0.099399
H       -5.443062    -5.398598     2.086403
H       -3.351358    -5.177253     3.402540
H       -1.480052    -3.805203     2.538680
H       -3.291631    -0.777082     1.161135
H       -2.218965     0.580530     1.561995
H       -3.414565     0.844473    -0.708504
H       -2.551595    -0.571548    -1.311302
H       -3.566149     3.169019     1.080342
H       -5.481248     4.516567     0.296065
H       -5.541725     5.358582    -2.035593
H       -3.676711     4.848936    -3.588467
H       -1.748223     3.497868    -2.814733
H       -1.092996     5.152051    -0.241573
H        0.690020     6.558814     0.518214
H        2.772126     5.601568     1.412126
H        3.099118     3.222344     1.476462
59
ex_0154 frame16 Δ-conf2
O       -0.462630     1.238453     3.697938
C       -0.300073     0.671541     2.630187
C        0.187033    -0.752686     2.623797
O        0.298231    -1.368836     3.672112
N        0.493824    -1.316285     1.417079
C        0.815883    -2.652113     1.095823
C        1.456721    -3.467830     2.051850
C        1.768106    -4.789353     1.770224
C        1.442066    -5.326537     0.535897
C        0.813562    -4.542042    -0.431041
C        0.406181    -3.210831    -0.164021
C       -0.457956    -2.536083    -1.248925
C       -0.735605    -3.261237    -2.499713
C       -0.022313    -3.376510    -3.699182
C       -0.526497    -4.157308    -4.741044
C       -1.748740    -4.819374    -4.590770
C       -2.467484    -4.702103    -3.396323
C       -1.964518    -3.922109    -2.350391
N       -1.058499    -1.211922    -1.183618
C       -0.909355    -0.285371    -2.329017
C        0.557143     0.287738    -2.475047
N        0.978642     1.131954    -1.323721
C        0.528418     2.511190    -1.274127
C        0.714682     3.260241    -2.536536
C       -0.171618     3.532903    -3.583948
C        0.242220     4.298967    -4.674804
C        1.550859     4.786072    -4.732639
C        2.448692     4.506487    -3.696913
C        2.037094     3.738147    -2.600377
C       -0.081259     3.234846    -0.054544
C       -0.158100     4.647444    -0.201751
C       -0.588223     5.478568     0.828681
C       -1.058693     4.938020     2.010041
C       -1.067135     3.563501     2.186063
C       -0.567280     2.690113     1.192351
N       -0.546356     1.288007     1.425720
Cu       0.000000     0.000000     0.000000
H        1.743258    -3.088714     3.021039
H        2.268149    -5.397315     2.513919
H        1.686642    -6.358617     0.321169
H        0.604933    -5.026691    -1.372881
H        0.923286    -2.862834    -3.822090
H        0.030020    -4.246078    -5.664580
H       -2.138686    -5.421551    -5.400438
H       -3.414479    -5.213341    -3.282585
H       -2.527369    -3.831786    -1.429234
H       -1.217463    -0.790099    -3.268417
H       -1.611943     0.563400    -2.188282
H        0.631850     0.851407    -3.428110
H        1.266630    -0.557705    -2.576793
H       -1.186159     3.157416    -3.544543
H       -0.453848     4.513152    -5.474470
H        1.867296     5.379313    -5.580760
H        3.461877     4.885759    -3.746885
H        2.740435     3.526762    -1.803829
H        0.163291     5.154245    -1.098095
H       -0.574090     6.553263     0.700298
H       -1.414182     5.587094     2.800594
H       -1.446627     3.207420     3.128860
59
ex_0154 frame17 square-planar cis-conf2
O        3.488802     1.732360    -0.498072
C        2.333545     1.380785    -0.327250
C        1.322819     2.390184     0.146715
O        1.628785     3.568614     0.239086
N        0.071612     1.940316     0.463362
C       -1.099300     2.662275     0.779597
C       -0.998020     3.926105     1.398362
C       -2.130677     4.665126     1.704531
C       -3.384668     4.164941     1.395460
C       -3.515848     2.916176     0.788464
C       -2.387221     2.159002     0.385558
C       -2.680572     0.901780    -0.457691
C       -4.079255     0.526499    -0.723993
C       -5.006693    -0.229733     0.003392
C       -6.297564    -0.420685    -0.493304
C       -6.663877     0.136905    -1.721983
C       -5.738754     0.888079    -2.454708
C       -4.445586     1.082449    -1.959333
N       -1.700728     0.002080    -1.047961
C       -1.856289    -1.460237    -0.875209
C       -1.544077    -1.945370     0.596629
N       -0.129587    -1.723253     1.002650
C        0.876743    -2.670503     0.560577
C        0.513177    -4.089485     0.766671
C       -0.039120    -5.038211    -0.100819
C       -0.265491    -6.344385     0.336736
C        0.045205    -6.707049     1.650220
C        0.583843    -5.761412     2.529083
C        0.812880    -4.450043     2.093718
C        2.247703    -2.328996    -0.058927
C        3.140128    -3.434338    -0.127885
C        4.455819    -3.299391    -0.561560
C        4.909701    -2.087076    -1.044510
C        4.063318    -0.989927    -1.063369
C        2.743555    -1.068083    -0.560766
N        1.917619     0.089103    -0.552762
Cu       0.000000     0.000000     0.000000
H       -0.043785     4.349819     1.671977
H       -2.032929     5.629369     2.187651
H       -4.265603     4.745501     1.636380
H       -4.525444     2.588057     0.592105
H       -4.727096    -0.666857     0.954114
H       -7.011608    -1.002804     0.074002
H       -7.663781    -0.014675    -2.106062
H       -6.023322     1.317006    -3.406629
H       -3.732362     1.661806    -2.533001
H       -2.880116    -1.771292    -1.170554
H       -1.162863    -1.972961    -1.575199
H       -1.820053    -3.016168     0.691184
H       -2.207238    -1.406934     1.302949
H       -0.282354    -4.762678    -1.119038
H       -0.682483    -7.073757    -0.344512
H       -0.132497    -7.720751     1.985267
H        0.822213    -6.047071     3.546136
H        1.229793    -3.725078     2.782466
H        2.864162    -4.423005     0.203744
H        5.123933    -4.150764    -0.539991
H        5.927419    -1.991781    -1.402025
H        4.479219    -0.076232    -1.452761
59
ex_0154 frame18 Λ-conf2
O        1.242890     0.521297     3.688185
C        0.674493     0.344646     2.623533
C       -0.755824    -0.124504     2.626255
O       -1.373616    -0.206391     3.676388
N       -1.322972    -0.448834     1.425901
C       -2.662401    -0.763026     1.110267
C       -3.486699    -1.372458     2.079646
C       -4.811169    -1.676412     1.802973
C       -5.342950    -1.374329     0.560329
C       -4.550525    -0.776669    -0.419405
C       -3.215874    -0.376045    -0.159064
C       -2.531671     0.457603    -1.261048
C       -3.254454     0.717837    -2.517219
C       -3.378135    -0.016589    -3.703332
C       -4.154511     0.475970    -4.754020
C       -4.803938     1.707579    -4.626500
C       -4.678236     2.447304    -3.445767
C       -3.902680     1.956093    -2.391000
N       -1.200460     1.043701    -1.207461
C       -0.277376     0.860739    -2.350718
C        0.281536    -0.613747    -2.463422
N        1.123393    -1.014782    -1.303541
C        2.506258    -0.576787    -1.264935
C        3.251769    -0.793301    -2.524033
C        3.535050     0.066093    -3.591211
C        4.297283    -0.381322    -4.671810
C        4.769009    -1.696618    -4.699626
C        4.478140    -2.567417    -3.644248
C        3.714154    -2.122157    -2.558095
C        3.236207     0.048262    -0.058222
C        4.649075     0.111420    -0.209221
C        5.485529     0.548757     0.813699
C        4.950915     1.041044     1.988804
C        3.576738     1.065841     2.165921
C        2.696940     0.560251     1.180702
N        1.293696     0.558752     1.414032
Cu       0.000000     0.000000     0.000000
H       -3.112682    -1.640363     3.056035
H       -5.425693    -2.152293     2.557054
H       -6.377195    -1.613340     0.349282
H       -5.031633    -0.585251    -1.366724
H       -2.874366    -0.969624    -3.808707
H       -4.249890    -0.096734    -5.667065
H       -5.402649     2.088464    -5.442965
H       -5.179716     3.401493    -3.349663
H       -3.806059     2.535235    -1.480653
H       -0.780476     1.151602    -3.296494
H        0.577751     1.558795    -2.227503
H        0.843070    -0.716396    -3.415180
H       -0.570442    -1.317853    -2.546796
H        3.171674     1.085681    -3.575293
H        4.520597     0.293685    -5.486949
H        5.359146    -2.039335    -5.539697
H        4.845260    -3.585906    -3.670745
H        3.493930    -2.804699    -1.746063
H        5.151904    -0.227573    -1.101353
H        6.559861     0.522697     0.684258
H        5.604457     1.401297     2.773523
H        3.226252     1.462627     3.103540
59
ex_0154 frame19 see-saw N0-N1-ax-conf2
O        1.715054    -0.682354     3.470142
C        1.369329    -0.451026     2.322694
C        2.377050     0.100564     1.363157
O        3.551777     0.186573     1.685572
N        1.930238     0.494793     0.136004
C        2.661992     0.866823    -1.003812
C        3.916706     1.491285    -0.851230
C        4.676136     1.839876    -1.954255
C        4.203368     1.567554    -3.227755
C        2.957721     0.960800    -3.407340
C        2.177403     0.518771    -2.310983
C        0.922953    -0.311374    -2.664390
C        0.537797    -0.494648    -4.060482
C       -0.224313     0.271862    -4.946398
C       -0.427919    -0.172922    -6.252535
C        0.129312    -1.385016    -6.673691
C        0.894146    -2.152246    -5.788209
C        1.101134    -1.708184    -4.480785
N        0.020304    -0.974162    -1.743073
C       -1.449941    -0.808963    -1.861858
C       -1.964171     0.640603    -1.475493
N       -1.725971     1.004718    -0.051407
C       -2.659681     0.528473     0.957215
C       -4.087774     0.764939     0.653170
C       -5.043034    -0.078444     0.079273
C       -6.359631     0.353604    -0.078765
C       -6.726683     1.641667     0.319732
C       -5.773629     2.500861     0.877790
C       -4.449392     2.070771     1.037113
C       -2.306596    -0.161933     2.291815
C       -3.388320    -0.240395     3.215780
C       -3.234391    -0.756891     4.500022
C       -2.031329    -1.314307     4.885819
C       -0.959919    -1.316354     4.007838
C       -1.052524    -0.720911     2.726032
N        0.088211    -0.678091     1.877771
Cu       0.000000     0.000000     0.000000
H        4.317876     1.732558     0.122316
H        5.634829     2.324568    -1.815914
H        4.803088     1.840232    -4.085246
H        2.649391     0.797996    -4.428210
H       -0.664515     1.205814    -4.618043
H       -1.022646     0.420264    -6.933424
H       -0.034969    -1.730829    -7.684463
H        1.320852    -3.092403    -6.111597
H        1.685241    -2.309167    -3.793235
H       -1.774538    -1.063752    -2.891878
H       -1.939448    -1.544870    -1.187949
H       -3.043018     0.718793    -1.724401
H       -1.455514     1.383351    -2.121349
H       -4.764238    -1.078974    -0.225687
H       -7.093475    -0.314502    -0.508211
H       -7.750288     1.970680     0.196845
H       -6.065162     3.496896     1.187847
H       -3.720558     2.741988     1.475994
H       -4.371520     0.141850     2.991620
H       -4.064384    -0.744753     5.195189
H       -1.921241    -1.740363     5.875721
H       -0.051865    -1.765701     4.373240
59
ex_0154 frame20 square-planar cis
O        3.608245     1.555883    -0.301535
C        2.415717     1.303066    -0.215803
C        1.388925     2.270827    -0.700649
O        1.753567     3.343942    -1.145567
N        0.067484     1.896837    -0.619253
C       -1.004388     2.777106    -0.261670
C       -0.847312     4.184690    -0.385671
C       -1.819700     5.068303     0.045415
C       -3.003577     4.589731     0.559852
C       -3.229471     3.219863     0.642408
C       -2.212770     2.269900     0.347557
C       -2.615374     0.873294     0.786811
C       -4.008065     0.503436     0.986221
C       -4.188950     0.733857     2.364312
C       -5.432396     0.511513     2.958481
C       -6.499922     0.045599     2.187563
C       -6.324481    -0.195627     0.820653
C       -5.080509     0.029210     0.219970
N       -1.695748    -0.181081     1.039439
C       -1.917596    -1.596868     0.621932
C       -1.372787    -1.946151    -0.817748
N        0.084341    -1.746394    -0.965726
C        1.006381    -2.672006    -0.262549
C        0.728437    -4.127688    -0.423832
C        0.400532    -5.047601     0.581813
C        0.265444    -6.401862     0.272697
C        0.398900    -6.833533    -1.050084
C        0.670485    -5.910394    -2.064814
C        0.823198    -4.556255    -1.755875
C        2.243191    -2.267266     0.612831
C        2.995518    -3.289460     1.249900
C        4.172436    -3.015347     1.954425
C        4.609563    -1.709321     2.111643
C        3.879910    -0.673672     1.553718
C        2.699335    -0.932380     0.832132
N        1.965879     0.140220     0.324406
Cu       0.000000     0.000000     0.000000
H        0.041073     4.661255    -0.746765
H       -1.642152     6.136002    -0.010380
H       -3.757023     5.289255     0.898522
H       -4.191671     2.949673     1.041858
H       -3.366126     1.093322     2.970890
H       -5.566263     0.698357     4.016419
H       -7.462003    -0.130021     2.650730
H       -7.152963    -0.559217     0.227604
H       -4.952436    -0.162893    -0.837695
H       -1.408568    -2.260688     1.348267
H       -2.995943    -1.858819     0.664250
H       -1.882904    -1.284808    -1.551244
H       -1.640158    -2.988578    -1.090709
H        0.301326    -4.719098     1.609680
H        0.060809    -7.114854     1.060057
H        0.291842    -7.882949    -1.288199
H        0.767928    -6.244004    -3.089458
H        1.040151    -3.848774    -2.547284
H        2.733645    -4.328599     1.169938
H        4.748538    -3.823187     2.385854
H        5.513433    -1.495168     2.668825
H        4.232655     0.338573     1.704507
59
ex_0154 frame21 Isomer 2
O        3.651665     1.467790     0.207494
C        2.629712     0.799062     0.164818
C        2.587961    -0.576950     0.739669
O        3.604511    -1.048121     1.216233
N        1.389151    -1.250845     0.701445
C        1.253846    -2.651261     0.433144
C        2.360410    -3.525636     0.613339
C        2.297753    -4.862963     0.267371
C        1.122241    -5.393923    -0.213695
C       -0.006384    -4.592130    -0.347743
C        0.040774    -3.185511    -0.142767
C       -1.231821    -2.512418    -0.626070
C       -2.478078    -3.247025    -0.778476
C       -2.443176    -3.626023    -2.135006
C       -3.479783    -4.384651    -2.681420
C       -4.564090    -4.759438    -1.884660
C       -4.610441    -4.377483    -0.539529
C       -3.571698    -3.619847     0.013477
N       -1.327357    -1.135801    -0.967719
C       -2.485206    -0.266453    -0.604946
C       -2.346311     0.457196     0.790984
N       -1.174742     1.354051     0.880939
C       -1.177324     2.612426     0.094953
C       -2.403217     3.453952     0.202374
C       -3.285359     3.807176    -0.828137
C       -4.338454     4.687459    -0.575089
C       -4.549377     5.171100     0.719327
C       -3.704758     4.776371     1.761596
C       -2.639271     3.908649     1.507915
C       -0.017153     3.143302    -0.816662
C       -0.207360     4.354223    -1.533258
C        0.818341     4.945836    -2.277748
C        2.050946     4.322178    -2.395583
C        2.267108     3.112641    -1.758349
C        1.249668     2.508732    -0.995875
N        1.489391     1.267311    -0.406926
Cu       0.000000     0.000000     0.000000
H        3.325649    -3.211683     0.954727
H        3.178406    -5.487396     0.363203
H        1.084177    -6.440934    -0.485737
H       -0.877750    -5.106224    -0.714783
H       -1.607204    -3.338164    -2.761493
H       -3.442469    -4.679016    -3.722591
H       -5.368693    -5.344068    -2.311035
H       -5.453374    -4.667247     0.073493
H       -3.616879    -3.325841     1.054378
H       -2.595119     0.514356    -1.383140
H       -3.432858    -0.845352    -0.609485
H       -2.238941    -0.322212     1.576214
H       -3.272411     1.021602     1.028545
H       -3.123183     3.439435    -1.834488
H       -4.987174     4.995731    -1.383952
H       -5.367096     5.851444     0.914112
H       -3.871795     5.146260     2.764573
H       -1.985725     3.613234     2.319990
H       -1.127302     4.908129    -1.488591
H        0.654619     5.894538    -2.771332
H        2.841224     4.772851    -2.983442
H        3.232242     2.637168    -1.879217
59
ex_0154 frame22 Δ
O       -0.349530     1.440627     3.651652
C       -0.241938     0.779232     2.629702
C       -0.680172    -0.646190     2.587921
O       -1.108691    -1.161495     3.604450
N       -0.576489    -1.313165     1.389123
C       -0.173191    -2.680830     1.253820
C       -0.267522    -3.568582     2.360384
C        0.206927    -4.865905     2.297758
C        0.737439    -5.347534     1.122268
C        0.792899    -4.536504    -0.006344
C        0.452033    -3.156500     0.040786
C        0.867621    -2.439580    -1.231779
C        1.090851    -3.155870    -2.478027
C        2.477817    -3.401081    -2.443044
C        3.095511    -4.102942    -3.479621
C        2.339058    -4.553469    -4.563970
C        0.963148    -4.304206    -4.610399
C        0.338991    -3.603974    -3.571687
N        1.073711    -1.036246    -1.327298
C        0.628135    -0.206325    -2.485172
C       -0.831590     0.378065    -2.346359
N       -1.008446     1.261913    -1.174806
C       -0.348628     2.590794    -1.177349
C       -0.537343     3.417873    -2.403236
C        0.453960     3.869698    -3.285326
C        0.116523     4.721185    -4.338429
C       -1.218796     5.076590    -4.549431
C       -2.217763     4.582316    -3.704866
C       -1.880918     3.743391    -2.639371
C        0.506928     3.207840    -0.017153
C        1.102334     4.482740    -0.207304
C        1.785668     5.143969     0.818461
C        1.963557     4.534746     2.051058
C        1.447006     3.268934     2.267194
C        0.746967     2.593726     1.249695
N        0.281584     1.300884     1.489410
Cu       0.000000     0.000000     0.000000
H       -0.637889    -3.289341     3.325607
H        0.172259    -5.496700     3.178406
H        1.110063    -6.363110     1.084230
H        1.208270    -5.012446    -0.877692
H        3.073278    -3.053635    -1.607039
H        4.160381    -4.294606    -3.442247
H        2.820339    -5.093837    -5.368550
H        0.381275    -4.652237    -5.453365
H       -0.725575    -3.412641    -3.616929
H        1.326668     0.646497    -2.595046
H        0.689026    -0.782032    -3.432823
H       -1.537269    -0.474045    -2.239024
H       -1.122892     0.916685    -3.272469
H        1.491308     3.601616    -3.123086
H        0.891591     5.106702    -4.987104
H       -1.478807     5.734755    -5.367159
H       -3.251960     4.852865    -3.871964
H       -2.660434     3.370359    -1.985867
H        1.004041     5.029674    -1.127232
H        2.184611     6.136204     0.654763
H        2.504739     5.040468     2.841377
H        1.613523     2.807485     3.232332
59
ex_0154 frame23 Λ
O        1.467946     0.207739     3.651543
C        0.799098     0.164973     2.629676
C       -0.576796     0.740081     2.587851
O       -1.047831     1.216974     3.604336
N       -1.250621     0.701641     1.388989
C       -2.651161     0.433189     1.253935
C       -3.525364     0.613265     2.360669
C       -4.862687     0.267064     2.298131
C       -5.393721    -0.213984     1.122672
C       -4.592110    -0.347882    -0.006050
C       -3.185446    -0.142751     0.040909
C       -2.512510    -0.625949    -1.231740
C       -3.247125    -0.778471    -2.477984
C       -3.626130    -2.135006    -2.442981
C       -4.384681    -2.681493    -3.479618
C       -4.759388    -1.884799    -4.563999
C       -4.377464    -0.539660    -4.610396
C       -3.619924     0.013414    -3.571628
N       -1.135871    -0.967467    -1.327508
C       -0.266537    -0.604417    -2.485263
C        0.457198     0.791459    -2.346023
N        1.354128     0.881144    -1.174450
C        2.612432     0.094991    -1.177102
C        3.453939     0.202406    -2.402951
C        3.807342    -0.828210    -3.284911
C        4.687646    -0.575220    -4.337974
C        5.171101     0.719231    -4.549104
C        4.776148     1.761607    -3.704702
C        3.908430     1.507976    -2.639229
C        3.143164    -0.816871    -0.016700
C        4.354195    -1.533351    -0.207117
C        4.945578    -2.278078     0.818599
C        4.321762    -2.396080     2.051064
C        3.112210    -1.758875     2.267167
C        2.508489    -0.996161     1.249836
N        1.267257    -0.407171     1.489538
Cu       0.000000     0.000000     0.000000
H       -3.211337     0.954540     3.325823
H       -5.486948     0.362734     3.178931
H       -6.440707    -0.486197     1.084808
H       -5.106256    -0.714957    -0.877395
H       -3.338307    -2.761448    -1.606965
H       -4.679027    -3.722670    -3.442274
H       -5.343928    -2.311227    -5.368638
H       -4.667151     0.073317    -5.453379
H       -3.325908     1.054312    -3.616839
H        0.514245    -1.382604    -2.595445
H       -0.845502    -0.608649    -3.432874
H       -0.322209     1.576664    -2.238380
H        1.021523     1.029269    -3.272109
H        3.439723    -1.834576    -3.122549
H        4.996073    -1.384169    -4.986509
H        5.851461     0.913971    -5.366804
H        5.145878     2.764612    -3.871891
H        3.612834     2.320120    -1.985826
H        4.908237    -1.488510    -1.126919
H        5.894308    -2.771625     0.654941
H        4.772250    -2.984023     2.841358
H        2.636591    -1.879677     3.232216
59
ex_0154 frame24 Isomer 1
O        3.274199     2.821848    -2.392930
C        2.210804     2.474974    -1.900451
C        0.945873     2.506486    -2.694269
O        0.970253     2.922354    -3.839201
N       -0.200375     2.057356    -2.082854
C       -1.516218     2.581650    -2.257271
C       -1.793343     3.444293    -3.349614
C       -3.021890     4.059369    -3.496349
C       -4.033897     3.795562    -2.599035
C       -3.828190     2.905418    -1.548847
C       -2.548456     2.355104    -1.271298
C       -2.526812     1.649487     0.072678
C       -3.731817     1.172065     0.727822
C       -4.055768     2.254340     1.568186
C       -5.180069     2.194963     2.391618
C       -5.987971     1.055748     2.386153
C       -5.673190    -0.023333     1.552577
C       -4.546992     0.032805     0.723147
N       -1.352493     1.382520     0.824338
C       -1.074746     0.085725     1.509563
C       -0.346644    -0.979769     0.606640
N        0.970500    -0.528998     0.115791
C        2.114529    -0.459034     1.053980
C        2.316970    -1.616724     1.972498
C        2.268266    -1.614691     3.373375
C        2.588615    -2.770183     4.087271
C        2.896662    -3.950263     3.405298
C        2.886486    -3.974331     2.006974
C        2.582540    -2.813375     1.288319
C        3.141644     0.716230     1.155351
C        4.158276     0.663577     2.144360
C        5.176189     1.620672     2.209405
C        5.179934     2.703412     1.342381
C        4.174081     2.826221     0.397856
C        3.149410     1.867209     0.313528
N        2.122338     2.048661    -0.612723
Cu       0.296675     1.305316    -0.299046
H       -1.065277     3.738030    -4.079169
H       -3.179727     4.759733    -4.307986
H       -4.990025     4.287410    -2.719143
H       -4.683129     2.752085    -0.912654
H       -3.428869     3.138115     1.585653
H       -5.418767     3.029881     3.037842
H       -6.855082     1.008949     3.031467
H       -6.298920    -0.905758     1.555386
H       -4.304141    -0.810460     0.088913
H       -0.429674     0.281981     2.388561
H       -2.010383    -0.365984     1.902051
H       -0.987960    -1.183270    -0.278282
H       -0.240009    -1.943579     1.147421
H        2.037733    -0.701121     3.908134
H        2.601963    -2.746951     5.168744
H        3.143736    -4.844807     3.961123
H        3.120530    -4.890791     1.480992
H        2.586001    -2.840622     0.205309
H        4.235235    -0.146931     2.846031
H        5.967046     1.523108     2.941419
H        5.960469     3.451764     1.402045
H        4.185481     3.686209    -0.260131
59
ex_0154 frame25 see-saw N0-N1-ax
O        1.526896    -0.177708     3.627933
C        1.287935    -0.132504     2.430014
C        2.245406    -0.692827     1.440230
O        3.299116    -1.159293     1.833676
N        1.882869    -0.652792     0.115577
C        2.777076    -0.315180    -0.945662
C        4.181416    -0.426173    -0.759461
C        5.078744    -0.008646    -1.721962
C        4.616645     0.473943    -2.926373
C        3.249128     0.538678    -3.180481
C        2.283333     0.262494    -2.175383
C        0.892150     0.685213    -2.618381
C        0.520651     0.824248    -4.009572
C        0.759861     2.192379    -4.241444
C        0.522130     2.743130    -5.500281
C        0.039391     1.935865    -6.533092
C       -0.201021     0.575705    -6.307391
C        0.039921     0.018696    -5.047439
N       -0.172537     0.983537    -1.729058
C       -1.594073     0.564361    -1.926077
C       -1.967846    -0.840461    -1.303123
N       -1.764329    -0.922967     0.158083
C       -2.670752    -0.193584     1.075153
C       -4.130311    -0.362348     0.853043
C       -5.074206     0.617145     0.515405
C       -6.429470     0.290005     0.458993
C       -6.839352    -1.029213     0.672133
C       -5.893004    -2.022003     0.945640
C       -4.536682    -1.694117     1.020159
C       -2.248704     0.722713     2.271128
C       -3.256623     1.377351     3.030579
C       -2.957324     2.111371     4.183955
C       -1.641723     2.296851     4.576503
C       -0.622633     1.731687     3.830099
C       -0.907760     0.962919     2.684306
N        0.149114     0.430082     1.945437
Cu       0.000000     0.000000     0.000000
H        4.644622    -0.759936     0.147608
H        6.142927    -0.049037    -1.520021
H        5.328520     0.802591    -3.671713
H        2.991109     0.914921    -4.154844
H        1.126647     2.826308    -3.442186
H        0.706657     3.795994    -5.670589
H       -0.151854     2.366228    -7.506621
H       -0.579938    -0.045604    -7.107241
H       -0.156515    -1.032243    -4.875529
H       -2.250054     1.323339    -1.455691
H       -1.855511     0.550017    -3.004950
H       -1.320395    -1.609972    -1.776673
H       -3.016383    -1.109130    -1.550173
H       -4.762473     1.643188     0.358898
H       -7.160036     1.061320     0.255260
H       -7.889971    -1.281098     0.626832
H       -6.210528    -3.043699     1.106936
H       -3.811448    -2.467615     1.243101
H       -4.302297     1.279297     2.804775
H       -3.752801     2.543863     4.776707
H       -1.406958     2.876787     5.461156
H        0.397410     1.899034     4.151815
59
ex_0154 frame26 Δ-conf5
O        0.531516     1.263335     3.685651
C        0.343712     0.687350     2.626265
C       -0.149507    -0.734076     2.636488
O       -0.242092    -1.348457     3.687902
N       -0.483902    -1.298686     1.438294
C       -0.766352    -2.644114     1.142629
C       -1.444769    -3.438583     2.087742
C       -1.725563    -4.770354     1.825868
C       -1.350544    -5.327569     0.613574
C       -0.717450    -4.549303    -0.358229
C       -0.343788    -3.204367    -0.110684
C        0.481432    -2.517100    -1.229351
C        0.694782    -3.223081    -2.503179
C        1.963185    -3.823114    -2.479904
C        2.395549    -4.574895    -3.576509
C        1.568232    -4.719388    -4.695617
C        0.308133    -4.113760    -4.719345
C       -0.124694    -3.360830    -3.627772
N        1.097607    -1.195289    -1.163490
C        0.952597    -0.250726    -2.299513
C       -0.516913     0.302875    -2.494955
N       -1.046688     1.062793    -1.327620
C       -0.667432     2.490086    -1.243348
C       -0.964975     3.273397    -2.487061
C       -2.298740     3.249023    -2.927446
C       -2.671830     3.985741    -4.055922
C       -1.717213     4.739594    -4.746910
C       -0.387319     4.750628    -4.317438
C       -0.008447     4.002321    -3.204437
C       -0.012055     3.235031    -0.020631
C       -0.003884     4.653474    -0.123409
C        0.528082     5.475624     0.866094
C        1.133944     4.925030     1.979183
C        1.165617     3.548778     2.135143
C        0.576076     2.688587     1.181123
N        0.567584     1.293051     1.413581
Cu       0.000000     0.000000     0.000000
H       -1.758261    -3.038531     3.041198
H       -2.234417    -5.370842     2.569916
H       -1.563711    -6.370335     0.418554
H       -0.471995    -5.048794    -1.282545
H        2.609622    -3.709733    -1.617596
H        3.371616    -5.042072    -3.560772
H        1.902814    -5.298739    -5.545207
H       -0.333656    -4.223092    -5.582882
H       -1.099774    -2.890133    -3.651006
H        1.297982    -0.735214    -3.237465
H        1.626065     0.614168    -2.120860
H       -0.550197     0.915275    -3.420315
H       -1.190721    -0.556669    -2.682022
H       -3.044828     2.666021    -2.400091
H       -3.699418     3.971901    -4.395473
H       -2.005706     5.313858    -5.616368
H        0.353369     5.335119    -4.845453
H        1.023770     4.011124    -2.875470
H       -0.450266     5.167834    -0.958179
H        0.480612     6.551515     0.758642
H        1.568240     5.566748     2.735366
H        1.642732     3.171856     3.026219
59
ex_0154 frame27 Δ-conf3
O        0.497638     1.259094     3.689949
C        0.329762     0.683912     2.627348
C       -0.126532    -0.749341     2.632802
O       -0.212927    -1.365752     3.683493
N       -0.434715    -1.321179     1.431206
C       -0.718948    -2.666920     1.130668
C       -1.398799    -3.463217     2.075144
C       -1.699619    -4.789064     1.806557
C       -1.347036    -5.340346     0.586290
C       -0.701995    -4.565923    -0.378774
C       -0.301754    -3.227571    -0.127318
C        0.546733    -2.526630    -1.240248
C        0.848958    -3.285883    -2.486669
C        2.222416    -3.538878    -2.616325
C        2.695974    -4.291480    -3.693094
C        1.803453    -4.775932    -4.653902
C        0.436590    -4.501819    -4.542470
C       -0.039130    -3.740039    -3.472141
N        1.099920    -1.159138    -1.198012
C        0.861235    -0.270722    -2.358050
C       -0.628185     0.248791    -2.454073
N       -1.042028     1.099256    -1.302419
C       -0.601165     2.488267    -1.270490
C       -0.787392     3.233940    -2.538416
C       -2.111151     3.703452    -2.639460
C       -2.494632     4.470143    -3.748584
C       -1.569292     4.750965    -4.759965
C       -0.261818     4.267354    -4.665798
C        0.123576     3.504312    -3.563675
C        0.021350     3.229192    -0.060675
C        0.074182     4.642764    -0.213134
C        0.524504     5.483538     0.801894
C        1.033854     4.953662     1.972310
C        1.059765     3.580468     2.154343
C        0.544098     2.698709     1.176782
N        0.543058     1.299588     1.416606
Cu       0.000000     0.000000     0.000000
H       -1.699816    -3.070367     3.035039
H       -2.207075    -5.390415     2.550682
H       -1.576802    -6.378347     0.383682
H       -0.459483    -5.072257    -1.297700
H        2.920853    -3.166131    -1.876721
H        3.754428    -4.498168    -3.781493
H        2.171465    -5.361969    -5.485139
H       -0.254069    -4.878049    -5.285332
H       -1.098698    -3.529156    -3.391271
H        1.535033     0.607637    -2.264590
H        1.150082    -0.784633    -3.298425
H       -0.756877     0.797483    -3.410661
H       -1.302337    -0.629402    -2.513798
H       -2.835252     3.494246    -1.860998
H       -3.506325     4.849032    -3.827297
H       -1.862434     5.343362    -5.617015
H        0.456756     4.482797    -5.444734
H        1.138287     3.133973    -3.494202
H       -0.278749     5.141136    -1.102213
H        0.496096     6.557486     0.669793
H        1.405951     5.609453     2.749708
H        1.468919     3.230077     3.087272
59
ex_0154 frame28 conf3
O        3.690639     1.247208    -0.523414
C        2.627998     0.676116    -0.342896
C        2.632518    -0.746279     0.146530
O        3.683049    -1.360743     0.248152
N        1.431645    -1.311852     0.467080
C        1.129896    -2.649707     0.782207
C        2.073279    -3.429622     1.482419
C        1.804133    -4.748139     1.813675
C        0.584456    -5.307551     1.471954
C       -0.379568    -4.548429     0.807450
C       -0.127394    -3.219891     0.376354
C       -1.238997    -2.538909    -0.490098
C       -2.484906    -3.305060    -0.776922
C       -2.612243    -3.590248    -2.144311
C       -3.688408    -4.353541    -2.601934
C       -4.650849    -4.816740    -1.699936
C       -4.541644    -4.510697    -0.339689
C       -3.471925    -3.738224     0.119867
N       -1.196116    -1.184590    -1.074778
C       -2.356828    -0.291294    -0.858760
C       -2.455257     0.262888     0.617882
N       -1.304652     1.123399     1.013273
C       -1.272210     2.501522     0.540129
C       -2.540546     3.251032     0.706399
C       -2.643400     3.750972     2.018825
C       -3.752896     4.526474     2.382967
C       -4.762941     4.786006     1.449998
C       -4.667084     4.272263     0.154185
C       -3.564580     3.500298    -0.211963
C       -0.061417     3.227767    -0.097171
C       -0.214132     4.639654    -0.183262
C        0.801685     5.470025    -0.650668
C        1.973272     4.928785    -1.145106
C        2.155561     3.555412    -1.139005
C        1.177152     2.685505    -0.605031
N        1.417333     1.286944    -0.571221
Cu       0.000000     0.000000     0.000000
H        3.032694    -3.029665     1.775606
H        2.547399    -5.337518     2.336216
H        0.381440    -6.339948     1.725349
H       -1.298039    -5.060270     0.575107
H       -1.871412    -3.234098    -2.850075
H       -3.775120    -4.584974    -3.655404
H       -5.481636    -5.411050    -2.055505
H       -5.285774    -4.870449     0.358337
H       -3.392808    -3.502541     1.174320
H       -2.262713     0.571072    -1.552825
H       -3.296560    -0.812199    -1.136914
H       -3.412251     0.814002     0.732379
H       -2.515426    -0.599309     1.312341
H       -1.865959     3.558461     2.748629
H       -3.832898     4.928658     3.385524
H       -5.620248     5.385200     1.728203
H       -5.445000     4.471221    -0.570228
H       -3.493793     3.106623    -1.217757
H       -1.104026     5.145916     0.156112
H        0.669324     6.544305    -0.647341
H        2.751373     5.576007    -1.530484
H        3.089480     3.196095    -1.537962
59
ex_0154 frame29 Λ-conf3
O        1.247235    -0.522058     3.690728
C        0.676234    -0.342048     2.627894
C       -0.746399     0.146913     2.632450
O       -1.360556     0.249123     3.683031
N       -1.311588     0.466140     1.430657
C       -2.650202     0.780977     1.129161
C       -3.430969     1.479997     2.072694
C       -4.749361     1.811383     1.803095
C       -5.308032     1.470941     0.582763
C       -4.548439     0.807063    -0.381230
C       -3.220028     0.375743    -0.128576
C       -2.538748    -0.490242    -1.240166
C       -3.305149    -0.777481    -2.486121
C       -3.591619    -2.144672    -2.612870
C       -4.355154    -2.602116    -3.689020
C       -4.817323    -1.700182    -4.652020
C       -4.510032    -0.340187    -4.543424
C       -3.737410     0.119190    -3.473709
N       -1.184026    -1.074084    -1.197322
C       -0.291779    -0.856689    -2.358548
C        0.262500     0.619920    -2.454940
N        1.124239     1.012556    -1.304490
C        2.501746     0.538628    -1.272953
C        3.250444     0.703383    -2.541633
C        3.749543     2.016156    -2.643137
C        4.525190     2.381982    -3.751863
C        4.785777     1.450289    -4.762755
C        4.272794     0.154027    -4.668510
C        3.500420    -0.213812    -3.566698
C        3.227847    -0.098100    -0.062297
C        4.639537    -0.185652    -0.216030
C        5.470302    -0.651134     0.800309
C        4.929554    -1.142885     1.973220
C        3.556238    -1.136444     2.156076
C        2.685834    -0.604228     1.177085
N        1.287106    -0.570440     1.417394
Cu       0.000000     0.000000     0.000000
H       -3.031809     1.772595     3.032557
H       -5.339186     2.333262     2.546459
H       -6.340225     1.724820     0.379241
H       -5.059791     0.575668    -1.300242
H       -3.236334    -2.850396    -1.871606
H       -4.587629    -3.655397    -3.775310
H       -5.411814    -2.055592    -5.482771
H       -4.868975     0.357784    -5.288013
H       -3.500845     1.173476    -3.395104
H        0.570358    -1.551248    -2.266499
H       -0.813532    -1.133078    -3.298332
H        0.812769     0.736224    -3.412198
H       -0.599565     1.314811    -2.512740
H        3.556209     2.744944    -1.864978
H        4.926670     3.384909    -3.830507
H        5.385219     1.729908    -5.619443
H        4.472756    -0.569323    -5.447193
H        3.107433    -1.219974    -3.497241
H        5.145510     0.151662    -1.106869
H        6.544522    -0.648313     0.667399
H        5.577133    -1.526538     2.751885
H        3.197603    -1.533424     3.091047
59
ex_0154 frame30 square-planar cis-conf3
O        3.497546     1.722548     0.496003
C        2.339969     1.376364     0.328100
C        1.329947     2.391632    -0.132293
O        1.636968     3.570133    -0.222547
N        0.076055     1.945240    -0.439639
C       -1.088079     2.681638    -0.732981
C       -0.981741     3.911339    -1.415050
C       -2.108944     4.654693    -1.727497
C       -3.363147     4.178943    -1.384370
C       -3.499448     2.951331    -0.735611
C       -2.376230     2.187727    -0.323287
C       -2.669975     0.908637     0.529040
C       -4.090506     0.566590     0.828898
C       -4.369699     0.667559     2.199815
C       -5.666160     0.441554     2.667913
C       -6.682419     0.094414     1.772816
C       -6.401412    -0.034104     0.408953
C       -5.103317     0.181196    -0.061219
N       -1.674611    -0.027218     1.088134
C       -1.871300    -1.475271     0.850682
C       -1.557109    -1.912970    -0.634218
N       -0.135831    -1.706498    -1.029112
C        0.861680    -2.665384    -0.575088
C        0.489686    -4.089057    -0.748640
C        0.757494    -4.492368    -2.070687
C        0.520064    -5.818716    -2.455970
C        0.000370    -6.733769    -1.533990
C       -0.283324    -6.326116    -0.227888
C       -0.048944    -5.006184     0.159367
C        2.237200    -2.330762     0.049556
C        3.123751    -3.441140     0.122405
C        4.436780    -3.314968     0.569083
C        4.894109    -2.106125     1.058246
C        4.054650    -1.003942     1.069917
C        2.738694    -1.075091     0.557392
N        1.919796     0.085182     0.544868
Cu       0.000000     0.000000     0.000000
H       -0.024408     4.314443    -1.710230
H       -2.006820     5.604620    -2.237383
H       -4.240373     4.765725    -1.624168
H       -4.508482     2.657433    -0.500719
H       -3.587866     0.935139     2.900369
H       -5.881781     0.535725     3.724131
H       -7.686727    -0.076475     2.136431
H       -7.188348    -0.301429    -0.283700
H       -4.890915     0.078914    -1.118576
H       -1.195485    -2.032861     1.533536
H       -2.904361    -1.772149     1.127490
H       -1.848481    -2.976164    -0.766656
H       -2.208398    -1.330753    -1.317102
H        1.162662    -3.792871    -2.792081
H        0.738702    -6.140897    -3.466677
H       -0.182576    -7.758969    -1.829014
H       -0.683944    -7.031238     0.487709
H       -0.268073    -4.696542     1.173140
H        2.844481    -4.427017    -0.214515
H        5.100168    -4.170152     0.553078
H        5.908742    -2.017258     1.426321
H        4.470968    -0.092345     1.464527
59
ex_0154 frame31 conf5
O        3.688008     1.261264    -0.498612
C        2.625995     0.686450    -0.323972
C        2.631420    -0.740031     0.155645
O        3.683470    -1.352699     0.250803
N        1.430891    -1.309858     0.474224
C        1.128697    -2.655978     0.764510
C        2.083926    -3.463716     1.415427
C        1.810884    -4.788721     1.718277
C        0.575590    -5.328087     1.399375
C       -0.402705    -4.541716     0.789139
C       -0.140082    -3.209931     0.379424
C       -1.257703    -2.524812    -0.440226
C       -2.534604    -3.233442    -0.640517
C       -2.498346    -3.850474    -1.900722
C       -3.585742    -4.616172    -2.332983
C       -4.711531    -4.758007    -1.514835
C       -4.751726    -4.134457    -0.264103
C       -3.669285    -3.366220     0.168790
N       -1.186648    -1.206488    -1.060408
C       -2.321943    -0.263009    -0.922479
C       -2.495026     0.307216     0.540247
N       -1.324895     1.090856     1.021704
C       -1.262109     2.510820     0.621326
C       -2.514344     3.294969     0.895175
C       -2.915955     3.301678     2.242488
C       -4.033943     4.045738     2.635132
C       -4.762477     4.769212     1.685853
C       -4.380611     4.742987     0.341924
C       -3.275542     3.988890    -0.056239
C       -0.042723     3.247273    -0.037246
C       -0.168849     4.662556    -0.101571
C        0.834580     5.482301    -0.610531
C        1.979475     4.929342    -1.150438
C        2.147410     3.554253    -1.148306
C        1.178513     2.694814    -0.580599
N        1.416112     1.297360    -0.550506
Cu       0.000000     0.000000     0.000000
H        3.054962    -3.082958     1.693359
H        2.563019    -5.397518     2.204846
H        0.368987    -6.363596     1.636342
H       -1.343961    -5.028979     0.586150
H       -1.630742    -3.742044    -2.540350
H       -3.557357    -5.097742    -3.301795
H       -5.553033    -5.349779    -1.849431
H       -5.621370    -4.243628     0.370094
H       -3.706682    -2.884048     1.137723
H       -3.262787    -0.754289    -1.249416
H       -2.152625     0.591431    -1.611546
H       -3.427382     0.907914     0.586113
H       -2.654390    -0.542110     1.234152
H       -2.360706     2.744562     2.987496
H       -4.336527     4.062204     3.674457
H       -5.623828     5.348961     1.990160
H       -4.940453     5.304953    -0.393508
H       -2.985596     3.972219    -1.099506
H       -1.027103     5.180544     0.292478
H        0.715340     6.558052    -0.595371
H        2.749788     5.568993    -1.562758
H        3.062461     3.181601    -1.579190
59
ex_0154 frame32 Λ-conf5
O        1.262323    -0.496582     3.687877
C        0.687237    -0.322869     2.625845
C       -0.739749     0.155175     2.631442
O       -1.351973     0.250422     3.683607
N       -1.310052     0.472157     1.430244
C       -2.656624     0.762161     1.128221
C       -3.465833     1.410669     2.083756
C       -4.790493     1.714126     1.810096
C       -5.328575     1.398284     0.573376
C       -4.541224     0.789871    -0.405080
C       -3.210068     0.378892    -0.141778
C       -2.524502    -0.439853    -1.259266
C       -3.233294    -0.639947    -2.536320
C       -3.850714    -1.899911    -2.499032
C       -4.617081    -2.332652    -3.585819
C       -4.759153    -1.515257    -4.712089
C       -4.135121    -0.264822    -4.753474
C       -3.366157     0.168563    -3.671634
N       -1.205965    -1.059255    -1.188198
C       -0.262852    -0.920938    -2.323616
C        0.307339     0.541735    -2.495225
N        1.091952     1.020845    -1.324925
C        2.511560     0.619979    -1.263264
C        3.295430     0.892716    -2.515934
C        3.303352     2.240756    -2.915135
C        4.047550     2.634843    -4.032535
C        4.769572     1.686251    -4.763335
C        4.741772     0.341548    -4.384306
C        3.987597    -0.058051    -3.279674
C        3.248067    -0.038210    -0.044247
C        4.663124    -0.104618    -0.171774
C        5.483230    -0.611708     0.832267
C        4.930710    -1.148361     1.978857
C        3.555705    -1.145391     2.147557
C        2.695780    -0.579442     1.177974
N        1.298064    -0.548987     1.415799
Cu       0.000000     0.000000     0.000000
H       -3.086323     1.686666     3.055873
H       -5.400134     2.199016     2.562575
H       -6.363723     1.636128     0.366032
H       -5.027548     0.589117    -1.347408
H       -3.742255    -2.538947    -1.631033
H       -5.099053    -3.301231    -3.556509
H       -5.351543    -1.850218    -5.553051
H       -4.244570     0.368769    -5.623541
H       -2.883754     1.137335    -3.710019
H       -0.754432    -1.246910    -3.264638
H        0.591426    -1.610406    -2.155170
H        0.907386     0.588825    -3.427944
H       -0.541799     1.236242    -2.653026
H        2.747465     2.985334    -2.358131
H        4.065279     3.674804    -4.332873
H        5.349433     1.991735    -5.624232
H        5.302663    -0.393291    -4.946036
H        3.969852    -1.101918    -2.992001
H        5.180871     0.286905    -1.031314
H        6.558918    -0.597550     0.712261
H        5.570665    -1.558976     2.749837
H        3.183824    -1.573999     3.063916
59
ex_0154 frame33 square-planar cis-conf5
O        3.503177     1.713445     0.481207
C        2.344471     1.369937     0.313647
C        1.336472     2.384981    -0.152991
O        1.646359     3.562568    -0.244331
N        0.082001     1.940978    -0.464632
C       -1.085123     2.679662    -0.744467
C       -0.985700     3.929852    -1.389041
C       -2.117486     4.674279    -1.682651
C       -3.370650     4.179264    -1.360598
C       -3.502038     2.928363    -0.756078
C       -2.372349     2.171415    -0.355196
C       -2.672507     0.893020     0.460201
C       -4.075517     0.490345     0.667346
C       -4.477959     0.947701     1.931822
C       -5.785648     0.719050     2.371598
C       -6.687419     0.026640     1.556645
C       -6.283110    -0.438258     0.301612
C       -4.977088    -0.214928    -0.138822
N       -1.686224     0.008237     1.069933
C       -1.823004    -1.460950     0.926173
C       -1.550327    -1.979444    -0.540439
N       -0.171214    -1.704362    -1.027491
C        0.879006    -2.666130    -0.637428
C        0.545962    -4.105000    -0.914409
C        0.260161    -4.387437    -2.261653
C       -0.006395    -5.702185    -2.659209
C       -0.005968    -6.733311    -1.714746
C        0.251687    -6.451070    -0.370639
C        0.502149    -5.138309     0.032528
C        2.265937    -2.327682     0.013559
C        3.177093    -3.418430     0.069547
C        4.469864    -3.290369     0.569753
C        4.892883    -2.091147     1.109121
C        4.039786    -0.999740     1.115606
C        2.742732    -1.075152     0.557300
N        1.921268     0.081275     0.536517
Cu       0.000000     0.000000     0.000000
H       -0.031471     4.349704    -1.669521
H       -2.019443     5.639189    -2.164643
H       -4.250499     4.765704    -1.590669
H       -4.511120     2.605301    -0.550118
H       -3.783628     1.481992     2.568978
H       -6.099773     1.076231     3.343730
H       -7.698855    -0.150769     1.897058
H       -6.979530    -0.973364    -0.330106
H       -4.669035    -0.578836    -1.111125
H       -2.833948    -1.780188     1.257108
H       -1.095521    -1.948795     1.609039
H       -1.785564    -3.063141    -0.590445
H       -2.266948    -1.487940    -1.228296
H        0.255746    -3.597457    -3.002986
H       -0.213438    -5.922861    -3.698656
H       -0.206755    -7.750844    -2.022957
H        0.256247    -7.247827     0.360992
H        0.700227    -4.926523     1.075918
H        2.933235    -4.390667    -0.324747
H        5.145633    -4.135682     0.548168
H        5.892838    -2.000124     1.514536
H        4.427065    -0.090583     1.545981
59
ex_0154 frame34 see-saw N0-N1-ax-conf3
O        1.703034     0.668318     3.482092
C        1.364881     0.444343     2.331382
C        2.378396    -0.089099     1.369155
O        3.552626    -0.175997     1.693599
N        1.935492    -0.466429     0.135483
C        2.682478    -0.812760    -1.000007
C        3.905119    -1.496095    -0.843328
C        4.666560    -1.851464    -1.942059
C        4.212572    -1.552720    -3.215986
C        2.985109    -0.910156    -3.399716
C        2.204109    -0.452470    -2.307743
C        0.929486     0.388779    -2.658705
C        0.584343     0.598243    -4.082124
C        0.687842     1.955685    -4.418149
C        0.457894     2.367687    -5.730413
C        0.106082     1.428858    -6.704782
C       -0.021236     0.077443    -6.365016
C        0.197469    -0.336187    -5.049623
N       -0.004397     1.022126    -1.715259
C       -1.464318     0.806093    -1.864941
C       -1.943164    -0.656999    -1.489752
N       -1.710652    -1.029738    -0.065053
C       -2.655773    -0.548605     0.942483
C       -4.092115    -0.765479     0.635481
C       -4.505867    -2.067069     0.982626
C       -5.847711    -2.437825     0.808963
C       -6.762642    -1.526152     0.269584
C       -6.341161    -0.245450    -0.095670
C       -5.009504     0.127146     0.076929
C       -2.310754     0.151607     2.282837
C       -3.396927     0.237618     3.201315
C       -3.253127     0.777027     4.478148
C       -2.053200     1.342206     4.863955
C       -0.975272     1.329086     3.994484
C       -1.061076     0.717152     2.720732
N        0.083686     0.663523     1.881239
Cu       0.000000     0.000000     0.000000
H        4.290397    -1.754716     0.132610
H        5.613340    -2.358234    -1.800204
H        4.816389    -1.825560    -4.070725
H        2.705023    -0.714518    -4.420676
H        0.955508     2.689013    -3.665999
H        0.550340     3.414334    -5.988284
H       -0.070350     1.749509    -7.721727
H       -0.292900    -0.649229    -7.118202
H        0.093120    -1.382179    -4.786517
H       -1.987182     1.522329    -1.194602
H       -1.778572     1.056926    -2.899095
H       -3.018784    -0.758580    -1.745998
H       -1.404837    -1.375288    -2.139730
H       -3.808886    -2.778614     1.409815
H       -6.184098    -3.427313     1.094529
H       -7.799177    -1.807448     0.136248
H       -7.043864     0.464562    -0.509249
H       -4.688831     1.123260    -0.199524
H       -4.376871    -0.152294     2.975885
H       -4.088113     0.776394     5.167393
H       -1.950607     1.786326     5.846742
H       -0.068341     1.785162     4.355809
59
ex_0154 frame35 square-planar cis-conf4
O        3.492471     1.728030     0.513730
C        2.335818     1.379619     0.338383
C        1.328820     2.392419    -0.133015
O        1.634263     3.571314    -0.223609
N        0.078534     1.943020    -0.450019
C       -1.085663     2.677078    -0.747102
C       -0.980878     3.907998    -1.426501
C       -2.110021     4.647957    -1.740859
C       -3.364366     4.166208    -1.404254
C       -3.499169     2.934313    -0.762365
C       -2.373197     2.181134    -0.341887
C       -2.664465     0.912704     0.512686
C       -4.076141     0.568558     0.802562
C       -5.068592     0.045497    -0.036288
C       -6.362055    -0.152003     0.452583
C       -6.658499     0.142527     1.787304
C       -5.661978     0.638426     2.633947
C       -4.368967     0.843238     2.146229
N       -1.677649    -0.011907     1.083621
C       -1.851732    -1.467397     0.875070
C       -1.551677    -1.929364    -0.607237
N       -0.141034    -1.704609    -1.031989
C        0.876771    -2.654278    -0.604501
C        0.526057    -4.078317    -0.815702
C        0.779704    -4.444223    -2.151304
C        0.556561    -5.764244    -2.565538
C        0.065053    -6.709385    -1.658416
C       -0.204531    -6.338178    -0.338468
C        0.015650    -5.024944     0.077397
C        2.251025    -2.317454     0.026340
C        3.149036    -3.419753     0.078876
C        4.458817    -3.290745     0.534046
C        4.902229    -2.088688     1.051806
C        4.053099    -0.994425     1.080383
C        2.741528    -1.066643     0.557186
N        1.916358     0.088548     0.556852
Cu       0.000000     0.000000     0.000000
H       -0.023559     4.314566    -1.717335
H       -2.009009     5.599384    -2.248311
H       -4.242568     4.750190    -1.646862
H       -4.508049     2.627270    -0.537210
H       -4.842268    -0.186289    -1.070013
H       -7.132723    -0.535119    -0.202846
H       -7.659445    -0.014874     2.165701
H       -5.890174     0.862615     3.667694
H       -3.600714     1.224990     2.807957
H       -1.156600    -2.001179     1.557837
H       -2.877037    -1.773011     1.171480
H       -2.224993    -1.375261    -1.291846
H       -1.827239    -2.999715    -0.712760
H        1.162553    -3.720816    -2.861423
H        0.764175    -6.058152    -3.587153
H       -0.107134    -7.729687    -1.975608
H       -0.583486    -7.066016     0.365895
H       -0.192635    -4.742464     1.101374
H        2.880873    -4.400767    -0.280525
H        5.130234    -4.139142     0.502668
H        5.913820    -1.998452     1.427736
H        4.458107    -0.086572     1.495563
59
ex_0154 frame36 Λ-conf4
O        1.236646    -0.521295     3.693409
C        0.669412    -0.340436     2.628687
C       -0.751609     0.154194     2.629527
O       -1.368144     0.258297     3.678609
N       -1.313251     0.476405     1.427266
C       -2.649742     0.795587     1.120514
C       -3.435615     1.490189     2.062925
C       -4.751152     1.827702     1.785050
C       -5.301288     1.499800     0.556860
C       -4.535722     0.842579    -0.407148
C       -3.215415     0.398137    -0.140379
C       -2.538763    -0.471573    -1.239844
C       -3.299256    -0.753868    -2.480341
C       -3.615294     0.085520    -3.556506
C       -4.399224    -0.393956    -4.608525
C       -4.842384    -1.720435    -4.603194
C       -4.504609    -2.568206    -3.543494
C       -3.726091    -2.089778    -2.486555
N       -1.196438    -1.064070    -1.193886
C       -0.289398    -0.873538    -2.348483
C        0.276866     0.598020    -2.463434
N        1.126290     1.003955    -1.308781
C        2.508115     0.550130    -1.261737
C        3.268467     0.738867    -2.518625
C        3.727863     2.067121    -2.598736
C        4.510759     2.468668    -3.689184
C        4.818122     1.556353    -4.704364
C        4.343918     0.243758    -4.632582
C        3.562921    -0.159528    -3.548857
C        3.229783    -0.087171    -0.049721
C        4.642485    -0.169717    -0.196938
C        5.470355    -0.629678     0.823864
C        4.926213    -1.125090     1.993420
C        3.551893    -1.127712     2.168499
C        2.683396    -0.598423     1.186119
N        1.283189    -0.572884     1.420065
Cu       0.000000     0.000000     0.000000
H       -3.042872     1.775544     3.027564
H       -5.344708     2.346763     2.527463
H       -6.330208     1.761005     0.346392
H       -5.034412     0.625431    -1.338260
H       -3.271975     1.112911    -3.565707
H       -4.660737     0.262337    -5.427821
H       -5.445903    -2.091564    -5.420502
H       -4.844213    -3.595668    -3.541317
H       -3.465653    -2.752505    -1.670023
H        0.566303    -1.573176    -2.237108
H       -0.805936    -1.159508    -3.288676
H       -0.577884     1.299538    -2.543799
H        0.838278     0.694369    -3.416483
H        3.497559     2.781145    -1.816970
H        4.881354     3.484581    -3.749905
H        5.423774     1.864037    -5.546911
H        4.580701    -0.464340    -5.414994
H        3.199797    -1.177922    -3.496766
H        5.152074     0.170983    -1.084476
H        6.545249    -0.619293     0.696976
H        5.572031    -1.504086     2.775761
H        3.191107    -1.526794     3.101686
59
ex_0154 frame37 conf4
O        3.693426     1.236916    -0.519609
C        2.628619     0.669660    -0.339316
C        2.629569    -0.751256     0.155649
O        3.678722    -1.367381     0.260793
N        1.426376    -1.312188     0.476686
C        1.119847    -2.649620     0.795726
C        2.062742    -3.435419     1.490146
C        1.784558    -4.751276     1.827249
C        0.556709    -5.301087     1.499534
C       -0.407681    -4.535626     0.842398
C       -0.140555    -3.215045     0.398202
C       -1.240261    -2.538633    -0.471584
C       -2.480593    -3.299121    -0.753875
C       -3.556879    -3.615191     0.085447
C       -4.608822    -4.399173    -0.393995
C       -4.603453    -4.842443    -1.720438
C       -3.543699    -4.504705    -2.568194
C       -2.486828    -3.726126    -2.089791
N       -1.193846    -1.196099    -1.063936
C       -2.348661    -0.289255    -0.873398
C       -2.463511     0.276931     0.598192
N       -1.308808     1.126278     1.004087
C       -1.261782     2.508129     0.550200
C       -2.518634     3.268422     0.738868
C       -2.598769     3.727837     2.067148
C       -3.689185     4.510716     2.468679
C       -4.704378     4.818108     1.556387
C       -4.632608     4.343879     0.243772
C       -3.548906     3.562892    -0.159498
C       -0.049706     3.229751    -0.087100
C       -0.197106     4.642546    -0.169796
C        0.823792     5.470339    -0.629754
C        1.993384     4.926303    -1.124885
C        2.168638     3.551885    -1.127328
C        1.186144     2.683505    -0.598160
N        1.420286     1.283211    -0.572657
Cu       0.000000     0.000000     0.000000
H        3.027169    -3.043110     1.775381
H        2.527238    -5.344763     2.346210
H        0.346116    -6.330196     1.760507
H       -1.338538    -5.034272     0.625208
H       -3.566086    -3.271804     1.112816
H       -5.428138    -4.660664     0.262299
H       -5.420735    -5.446000    -2.091539
H       -3.541503    -4.844422    -3.595625
H       -1.670246    -3.465732    -2.752512
H       -2.237392     0.566488    -1.573006
H       -3.288923    -0.805774    -1.159299
H       -2.543782    -0.577848     1.299666
H       -3.416567     0.838346     0.694701
H       -1.816986     3.497499     2.781143
H       -3.749899     4.881312     3.484608
H       -5.546899     5.423772     1.864063
H       -5.415030     4.580670    -0.464308
H       -3.496818     3.199742    -1.177903
H       -1.084678     5.152062     0.170691
H        0.696754     6.545273    -0.619515
H        2.775764     5.572078    -1.503885
H        3.101851     3.191127    -1.526217
59
ex_0154 frame38 Δ-conf4
O        0.502730     1.250965     3.690434
C        0.333467     0.679181     2.626393
C       -0.122895    -0.754754     2.630251
O       -0.206325    -1.372952     3.679823
N       -0.434502    -1.325380     1.429587
C       -0.720494    -2.670006     1.123669
C       -1.387774    -3.474163     2.070390
C       -1.693375    -4.797825     1.793551
C       -1.360657    -5.338250     0.562534
C       -0.729979    -4.555556    -0.405306
C       -0.317115    -3.224597    -0.140002
C        0.528302    -2.525897    -1.244507
C        0.823191    -3.279393    -2.486531
C       -0.013333    -3.616268    -3.558710
C        0.480143    -4.388234    -4.613108
C        1.817130    -4.798555    -4.614340
C        2.661506    -4.439825    -3.558812
C        2.169237    -3.673209    -2.499457
N        1.085673    -1.168377    -1.201727
C        0.864283    -0.267994    -2.356087
C       -0.621595     0.261132    -2.459895
N       -1.038397     1.101762    -1.303054
C       -0.618883     2.494063    -1.260015
C       -0.831918     3.248087    -2.516203
C       -2.172177     3.672571    -2.586756
C       -2.602097     4.444883    -3.673716
C       -1.705680     4.776413    -4.695377
C       -0.380599     4.336667    -4.633498
C        0.051005     3.565920    -3.553162
C        0.005679     3.231595    -0.051681
C        0.054418     4.645888    -0.201393
C        0.496052     5.485573     0.817930
C        1.006523     4.954980     1.986828
C        1.043685     3.580988     2.163301
C        0.533986     2.698763     1.182487
N        0.544524     1.297085     1.416201
Cu       0.000000     0.000000     0.000000
H       -1.676319    -3.090164     3.037342
H       -2.191575    -5.405020     2.539178
H       -1.597211    -6.373301     0.352789
H       -0.506990    -5.047826    -1.338365
H       -1.048933    -3.298492    -3.562886
H       -0.173516    -4.665983    -5.429185
H        2.198968    -5.392864    -5.433489
H        3.697020    -4.754062    -3.561800
H        2.829392    -3.396492    -1.686214
H        1.543437     0.604836    -2.251363
H        1.155410    -0.778349    -3.298088
H       -1.302489    -0.610848    -2.533097
H       -0.740052     0.818661    -3.412764
H       -2.874058     3.423356    -1.799823
H       -3.627805     4.788639    -3.726616
H       -2.035475     5.374158    -5.535206
H        0.315110     4.592466    -5.421081
H        1.078967     3.229678    -3.508856
H       -0.300171     5.146133    -1.088585
H        0.459042     6.559874     0.689891
H        1.370895     5.610663     2.768043
H        1.453311     3.231550     3.095837
59
ex_0154 frame39 see-saw N0-N1-ax-conf4
O        1.714502     0.685333     3.470176
C        1.369893     0.455404     2.323093
C        2.382177    -0.084536     1.359057
O        3.557080    -0.166088     1.680401
N        1.934803    -0.471842     0.131374
C        2.679634    -0.821489    -1.006046
C        3.907706    -1.495600    -0.851821
C        4.664043    -1.854971    -1.953505
C        4.198816    -1.571234    -3.227428
C        2.965064    -0.940171    -3.408163
C        2.195920    -0.472667    -2.313170
C        0.929638     0.364725    -2.660923
C        0.579564     0.569200    -4.074595
C        0.042241    -0.306168    -5.023430
C       -0.160707     0.130209    -6.333523
C        0.146250     1.448580    -6.687986
C        0.662249     2.330711    -5.733179
C        0.873535     1.894667    -4.424652
N        0.002644     1.002351    -1.726581
C       -1.460908     0.805306    -1.867352
C       -1.953564    -0.651891    -1.485728
N       -1.715883    -1.020634    -0.061691
C       -2.652898    -0.556472     0.954200
C       -4.084999    -0.790323     0.659368
C       -4.441639    -2.109339     1.000835
C       -5.770304    -2.530676     0.852250
C       -6.731325    -1.650732     0.342096
C       -6.367781    -0.351094    -0.020083
C       -5.046872     0.071697     0.125990
C       -2.303290     0.140467     2.290637
C       -3.387264     0.218745     3.213099
C       -3.237553     0.742049     4.495445
C       -2.038349     1.307229     4.881013
C       -0.965545     1.310937     4.004578
C       -1.054502     0.710130     2.725228
N        0.086749     0.672208     1.877783
Cu       0.000000     0.000000     0.000000
H        4.301128    -1.744525     0.123284
H        5.614708    -2.355108    -1.814027
H        4.797393    -1.849707    -4.083996
H        2.668235    -0.760896    -4.428921
H       -0.202686    -1.324886    -4.747320
H       -0.560601    -0.552639    -7.070346
H       -0.018563     1.787472    -7.701036
H        0.894273     3.352335    -6.003565
H        1.266239     2.583647    -3.685564
H       -1.972673     1.530380    -1.198193
H       -1.776415     1.054536    -2.901827
H       -1.426983    -1.379840    -2.134682
H       -3.031493    -0.743834    -1.736305
H       -3.707595    -2.796402     1.405165
H       -6.059814    -3.535461     1.135087
H       -7.758564    -1.972181     0.229237
H       -7.107961     0.333652    -0.410682
H       -4.771429     1.081987    -0.148047
H       -4.367471    -0.171109     2.989767
H       -4.068512     0.728468     5.189665
H       -1.931446     1.738250     5.869167
H       -0.059849     1.766001     4.368606
59
ex_0154 frame40 see-saw N0-N1-ax-conf5
O        1.692364     0.669619     3.485702
C        1.356797     0.441179     2.334881
C        2.370913    -0.101001     1.376935
O        3.544352    -0.185217     1.704690
N        1.931102    -0.488876     0.144996
C        2.682019    -0.823709    -0.992587
C        3.924560    -1.470896    -0.841522
C        4.687989    -1.808928    -1.944763
C        4.216738    -1.530170    -3.217740
C        2.967624    -0.928803    -3.396875
C        2.190199    -0.485011    -2.298952
C        0.914148     0.315026    -2.658040
C        0.503474     0.438841    -4.056189
C        0.969702     1.679331    -4.516390
C        0.728706     2.063864    -5.837106
C        0.021529     1.213652    -6.694180
C       -0.444546    -0.021365    -6.231264
C       -0.209087    -0.405779    -4.911421
N        0.025047     0.995194    -1.731023
C       -1.450929     0.859931    -1.838289
C       -1.999946    -0.583371    -1.485555
N       -1.713677    -1.022128    -0.092625
C       -2.659645    -0.594266     0.959741
C       -4.103805    -0.895645     0.686364
C       -4.393522    -2.254619     0.477669
C       -5.718058    -2.662947     0.283347
C       -6.748985    -1.717555     0.274065
C       -6.457739    -0.362527     0.450474
C       -5.137109     0.050007     0.628354
C       -2.309569     0.123868     2.308024
C       -3.377941     0.193404     3.247681
C       -3.233351     0.767180     4.508415
C       -2.043842     1.370211     4.865548
C       -0.976319     1.359888     3.983303
C       -1.063898     0.717369     2.724298
N        0.077394     0.663869     1.883162
Cu       0.000000     0.000000     0.000000
H        4.324816    -1.714805     0.131838
H        5.648895    -2.289523    -1.806677
H        4.820592    -1.794305    -4.075002
H        2.661302    -0.760673    -4.417269
H        1.509963     2.344130    -3.852091
H        1.084824     3.021507    -6.193353
H       -0.168220     1.512282    -7.715553
H       -0.992949    -0.679818    -6.890631
H       -0.577239    -1.359038    -4.552034
H       -1.779765     1.145614    -2.859414
H       -1.917958     1.584626    -1.137260
H       -3.089632    -0.618335    -1.695940
H       -1.536090    -1.312174    -2.179215
H       -3.603925    -2.996336     0.487303
H       -5.947195    -3.711470     0.142398
H       -7.773748    -2.033292     0.130786
H       -7.253180     0.370520     0.450878
H       -4.918097     1.101353     0.769334
H       -4.343260    -0.243795     3.053783
H       -4.058442     0.755762     5.209428
H       -1.939616     1.835734     5.838055
H       -0.073040     1.840662     4.322548
59
ex_0154 frame41 conf2
O        3.688261     1.243282     0.525009
C        2.623506     0.674478     0.346479
C        2.627003    -0.754639    -0.125426
O        3.677105    -1.372187    -0.208433
N        1.426748    -1.321387    -0.451129
C        1.123806    -2.669230    -0.736725
C        2.080428    -3.482506    -1.378953
C        1.805082    -4.807289    -1.682025
C        0.564623    -5.341395    -1.374672
C       -0.414611    -4.550591    -0.773639
C       -0.146715    -3.222854    -0.356177
C       -1.254799    -2.534156     0.466289
C       -2.513923    -3.253507     0.719727
C       -3.698763    -3.375991    -0.016386
C       -4.750828    -4.151363     0.474748
C       -4.625494    -4.800618     1.706643
C       -3.445790    -4.675950     2.448144
C       -2.389684    -3.901356     1.958310
N       -1.204293    -1.200834     1.047723
C       -2.346228    -0.275804     0.866034
C       -2.463336     0.281513    -0.609184
N       -1.303695     1.120967    -1.017377
C       -1.260223     2.507213    -0.588261
C       -2.520742     3.252489    -0.801064
C       -3.585544     3.533957     0.061384
C       -4.668012     4.295392    -0.381847
C       -4.699994     4.768856    -1.696356
C       -3.646722     4.480187    -2.570615
C       -2.558507     3.716369    -2.129479
C       -0.053207     3.235778     0.040598
C       -0.203651     4.648702     0.103780
C        0.817826     5.484332     0.546395
C        1.989010     4.948797     1.047085
C        2.164515     3.574466     1.073691
C        1.181857     2.695969     0.561139
N        1.414749     1.293701     0.561469
Cu       0.000000     0.000000     0.000000
H        3.055034    -3.106026    -1.650258
H        2.558518    -5.420224    -2.160988
H        0.354874    -6.376065    -1.612567
H       -1.360350    -5.033273    -0.578517
H       -3.802329    -2.872205    -0.969596
H       -5.662928    -4.245838    -0.099399
H       -5.443062    -5.398598     2.086403
H       -3.351358    -5.177253     3.402540
H       -1.480052    -3.805203     2.538680
H       -3.291631    -0.777082     1.161135
H       -2.218965     0.580530     1.561995
H       -3.414565     0.844473    -0.708504
H       -2.551595    -0.571548    -1.311302
H       -3.566149     3.169019     1.080342
H       -5.481248     4.516567     0.296065
H       -5.541725     5.358582    -2.035593
H       -3.676711     4.848936    -3.588467
H       -1.748223     3.497868    -2.814733
H       -1.092996     5.152051    -0.241573
H        0.690020     6.558814     0.518214
H        2.772126     5.601568     1.412126
H        3.099118     3.222344     1.476462
59
ex_0154 frame42 Δ-conf2
O       -0.462630     1.238453     3.697938
C       -0.300052     0.671548     2.630186
C        0.187039    -0.752684     2.623798
O        0.298231    -1.368836     3.672112
N        0.493824    -1.316285     1.417079
C        0.787298    -2.661219     1.108319
C        1.456721    -3.467830     2.051850
C        1.768106    -4.789353     1.770224
C        1.442066    -5.326537     0.535897
C        0.813562    -4.542042    -0.431041
C        0.387387    -3.218870    -0.154519
C       -0.464327    -2.539081    -1.245820
C       -0.735528    -3.261367    -2.499655
C       -0.022313    -3.376510    -3.699182
C       -0.526497    -4.157308    -4.741044
C       -1.748740    -4.819374    -4.590770
C       -2.467484    -4.702103    -3.396323
C       -1.964518    -3.922109    -2.350391
N       -1.058499    -1.211922    -1.183618
C       -0.909355    -0.285371    -2.329017
C        0.557143     0.287738    -2.475047
N        0.978642     1.131954    -1.323721
C        0.535563     2.513395    -1.271813
C        0.714599     3.260489    -2.536401
C       -0.171618     3.532903    -3.583948
C        0.242220     4.298967    -4.674804
C        1.550859     4.786072    -4.732639
C        2.448692     4.506487    -3.696913
C        2.037094     3.738147    -2.600377
C       -0.076416     3.235352    -0.052413
C       -0.158100     4.647444    -0.201751
C       -0.588223     5.478568     0.828681
C       -1.058693     4.938020     2.010041
C       -1.067135     3.563501     2.186063
C       -0.565677     2.690250     1.193041
N       -0.546356     1.288007     1.425720
Cu       0.000000     0.000000     0.000000
H        1.743258    -3.088714     3.021039
H        2.268149    -5.397315     2.513919
H        1.686642    -6.358617     0.321169
H        0.604933    -5.026691    -1.372881
H        0.923286    -2.862834    -3.822090
H        0.030020    -4.246078    -5.664580
H       -2.138686    -5.421551    -5.400438
H       -3.414479    -5.213341    -3.282585
H       -2.527369    -3.831786    -1.429234
H       -1.217463    -0.790099    -3.268417
H       -1.611943     0.563400    -2.188282
H        0.631850     0.851407    -3.428110
H        1.266630    -0.557705    -2.576793
H       -1.186159     3.157416    -3.544543
H       -0.453848     4.513152    -5.474470
H        1.867296     5.379313    -5.580760
H        3.461877     4.885759    -3.746885
H        2.740435     3.526762    -1.803829
H        0.163291     5.154245    -1.098095
H       -0.574090     6.553263     0.700298
H       -1.414182     5.587094     2.800594
H       -1.446627     3.207420     3.128860
59
ex_0154 frame43 square-planar cis-conf2
O        3.488802     1.732360    -0.498072
C        2.333550     1.380779    -0.327227
C        1.322821     2.390183     0.146722
O        1.628785     3.568614     0.239086
N        0.071612     1.940316     0.463362
C       -1.097067     2.677097     0.750673
C       -0.998020     3.926105     1.398362
C       -2.130677     4.665126     1.704531
C       -3.384668     4.164941     1.395460
C       -3.515848     2.916176     0.788464
C       -2.386318     2.171151     0.366526
C       -2.680519     0.906006    -0.464146
C       -4.079304     0.526630    -0.723919
C       -5.006693    -0.229733     0.003392
C       -6.297564    -0.420685    -0.493304
C       -6.663877     0.136905    -1.721983
C       -5.738754     0.888079    -2.454708
C       -4.445586     1.082449    -1.959333
N       -1.700728     0.002080    -1.047961
C       -1.856289    -1.460237    -0.875209
C       -1.544077    -1.945370     0.596629
N       -0.129587    -1.723253     1.002650
C        0.880012    -2.670336     0.567803
C        0.513452    -4.089568     0.766586
C       -0.039120    -5.038211    -0.100819
C       -0.265491    -6.344385     0.336736
C        0.045205    -6.707049     1.650220
C        0.583843    -5.761412     2.529083
C        0.812880    -4.450043     2.093718
C        2.249618    -2.327781    -0.054041
C        3.140128    -3.434338    -0.127885
C        4.455819    -3.299391    -0.561560
C        4.909701    -2.087076    -1.044510
C        4.063318    -0.989927    -1.063369
C        2.744149    -1.067667    -0.559147
N        1.917619     0.089103    -0.552762
Cu       0.000000     0.000000     0.000000
H       -0.043785     4.349819     1.671977
H       -2.032929     5.629369     2.187651
H       -4.265603     4.745501     1.636380
H       -4.525444     2.588057     0.592105
H       -4.727096    -0.666857     0.954114
H       -7.011608    -1.002804     0.074002
H       -7.663781    -0.014675    -2.106062
H       -6.023322     1.317006    -3.406629
H       -3.732362     1.661806    -2.533001
H       -2.880116    -1.771292    -1.170554
H       -1.162863    -1.972961    -1.575199
H       -1.820053    -3.016168     0.691184
H       -2.207238    -1.406934     1.302949
H       -0.282354    -4.762678    -1.119038
H       -0.682483    -7.073757    -0.344512
H       -0.132497    -7.720751     1.985267
H        0.822213    -6.047071     3.546136
H        1.229793    -3.725078     2.782466
H        2.864162    -4.423005     0.203744
H        5.123933    -4.150764    -0.539991
H        5.927419    -1.991781    -1.402025
H        4.479219    -0.076232    -1.452761
59
ex_0154 frame44 Λ-conf2
O        1.242890     0.521297     3.688185
C        0.674502     0.344619     2.623533
C       -0.755822    -0.124512     2.626256
O       -1.373616    -0.206391     3.676388
N       -1.322972    -0.448834     1.425901
C       -2.671223    -0.733957     1.122138
C       -3.486699    -1.372458     2.079646
C       -4.811169    -1.676412     1.802973
C       -5.342950    -1.374329     0.560329
C       -4.550525    -0.776669    -0.419405
C       -3.223779    -0.356906    -0.149958
C       -2.534604     0.464093    -1.258064
C       -3.254582     0.717764    -2.517161
C       -3.378135    -0.016589    -3.703332
C       -4.154511     0.475970    -4.754020
C       -4.803938     1.707579    -4.626500
C       -4.678236     2.447304    -3.445767
C       -3.902680     1.956093    -2.391000
N       -1.200460     1.043701    -1.207461
C       -0.277376     0.860739    -2.350718
C        0.281536    -0.613747    -2.463422
N        1.123393    -1.014782    -1.303541
C        2.508423    -0.583985    -1.262465
C        3.252022    -0.793216    -2.523898
C        3.535050     0.066093    -3.591211
C        4.297283    -0.381322    -4.671810
C        4.769009    -1.696618    -4.699626
C        4.478140    -2.567417    -3.644248
C        3.714154    -2.122157    -2.558095
C        3.236684     0.043402    -0.055983
C        4.649075     0.111420    -0.209221
C        5.485529     0.548757     0.813699
C        4.950915     1.041044     1.988804
C        3.576738     1.065841     2.165921
C        2.697060     0.558641     1.181425
N        1.293696     0.558752     1.414032
Cu       0.000000     0.000000     0.000000
H       -3.112682    -1.640363     3.056035
H       -5.425693    -2.152293     2.557054
H       -6.377195    -1.613340     0.349282
H       -5.031633    -0.585251    -1.366724
H       -2.874366    -0.969624    -3.808707
H       -4.249890    -0.096734    -5.667065
H       -5.402649     2.088464    -5.442965
H       -5.179716     3.401493    -3.349663
H       -3.806059     2.535235    -1.480653
H       -0.780476     1.151602    -3.296494
H        0.577751     1.558795    -2.227503
H        0.843070    -0.716396    -3.415180
H       -0.570442    -1.317853    -2.546796
H        3.171674     1.085681    -3.575293
H        4.520597     0.293685    -5.486949
H        5.359146    -2.039335    -5.539697
H        4.845260    -3.585906    -3.670745
H        3.493930    -2.804699    -1.746063
H        5.151904    -0.227573    -1.101353
H        6.559861     0.522697     0.684258
H        5.604457     1.401297     2.773523
H        3.226252     1.462627     3.103540
59
ex_0154 frame45 see-saw N0-N1-ax-conf2
O        1.715054    -0.682354     3.470142
C        1.369327    -0.451020     2.322696
C        2.377050     0.100566     1.363158
O        3.551777     0.186573     1.685572
N        1.930238     0.494793     0.136004
C        2.677719     0.836753    -1.002518
C        3.916706     1.491285    -0.851230
C        4.676136     1.839876    -1.954255
C        4.203368     1.567554    -3.227755
C        2.957721     0.960800    -3.407340
C        2.189993     0.498892    -2.310543
C        0.927414    -0.318097    -2.664785
C        0.537944    -0.494562    -4.060534
C       -0.224313     0.271862    -4.946398
C       -0.427919    -0.172922    -6.252535
C        0.129312    -1.385016    -6.673691
C        0.894146    -2.152246    -5.788209
C        1.101134    -1.708184    -4.480785
N        0.020304    -0.974162    -1.743073
C       -1.449941    -0.808963    -1.861858
C       -1.964171     0.640603    -1.475493
N       -1.725971     1.004718    -0.051407
C       -2.659328     0.535421     0.960762
C       -4.087839     0.764851     0.653407
C       -5.043034    -0.078444     0.079273
C       -6.359631     0.353604    -0.078765
C       -6.726683     1.641667     0.319732
C       -5.773629     2.500861     0.877790
C       -4.449392     2.070771     1.037113
C       -2.305194    -0.157231     2.293886
C       -3.388320    -0.240395     3.215780
C       -3.234391    -0.756891     4.500022
C       -2.031329    -1.314307     4.885819
C       -0.959919    -1.316354     4.007838
C       -1.052067    -0.719360     2.726722
N        0.088211    -0.678091     1.877771
Cu       0.000000     0.000000     0.000000
H        4.317876     1.732558     0.122316
H        5.634829     2.324568    -1.815914
H        4.803088     1.840232    -4.085246
H        2.649391     0.797996    -4.428210
H       -0.664515     1.205814    -4.618043
H       -1.022646     0.420264    -6.933424
H       -0.034969    -1.730829    -7.684463
H        1.320852    -3.092403    -6.111597
H        1.685241    -2.309167    -3.793235
H       -1.774538    -1.063752    -2.891878
H       -1.939448    -1.544870    -1.187949
H       -3.043018     0.718793    -1.724401
H       -1.455514     1.383351    -2.121349
H       -4.764238    -1.078974    -0.225687
H       -7.093475    -0.314502    -0.508211
H       -7.750288     1.970680     0.196845
H       -6.065162     3.496896     1.187847
H       -3.720558     2.741988     1.475994
H       -4.371520     0.141850     2.991620
H       -4.064384    -0.744753     5.195189
H       -1.921241    -1.740363     5.875721
H       -0.051865    -1.765701     4.373240
59
ex_0154 frame46 square-planar cis
O        3.608245     1.555883    -0.301535
C        2.415682     1.303674    -0.214520
C        1.388901     2.270992    -0.700271
O        1.753567     3.343942    -1.145567
N        0.067484     1.896837    -0.619253
C       -0.987607     2.779884    -0.223165
C       -0.847312     4.184690    -0.385671
C       -1.819700     5.068303     0.045415
C       -3.003577     4.589731     0.559852
C       -3.229471     3.219863     0.642408
C       -2.202006     2.274295     0.373203
C       -2.614845     0.875754     0.795477
C       -4.008111     0.503592     0.986189
C       -4.188950     0.733857     2.364312
C       -5.432396     0.511513     2.958481
C       -6.499922     0.045599     2.187563
C       -6.324481    -0.195627     0.820653
C       -5.080509     0.029210     0.219970
N       -1.695748    -0.181081     1.039439
C       -1.917596    -1.596868     0.621932
C       -1.372787    -1.946151    -0.817748
N        0.084341    -1.746394    -0.965726
C        1.009500    -2.672143    -0.266860
C        0.729213    -4.127849    -0.423726
C        0.400532    -5.047601     0.581813
C        0.265444    -6.401862     0.272697
C        0.398900    -6.833533    -1.050084
C        0.670485    -5.910394    -2.064814
C        0.823198    -4.556255    -1.755875
C        2.245175    -2.267494     0.610140
C        2.995518    -3.289460     1.249900
C        4.172436    -3.015347     1.954425
C        4.609563    -1.709321     2.111643
C        3.879910    -0.673672     1.553718
C        2.699921    -0.932424     0.831190
N        1.965879     0.140220     0.324406
Cu       0.000000     0.000000     0.000000
H        0.041073     4.661255    -0.746765
H       -1.642152     6.136002    -0.010380
H       -3.757023     5.289255     0.898522
H       -4.191671     2.949673     1.041858
H       -3.366126     1.093322     2.970890
H       -5.566263     0.698357     4.016419
H       -7.462003    -0.130021     2.650730
H       -7.152963    -0.559217     0.227604
H       -4.952436    -0.162893    -0.837695
H       -1.408568    -2.260688     1.348267
H       -2.995943    -1.858819     0.664250
H       -1.882904    -1.284808    -1.551244
H       -1.640158    -2.988578    -1.090709
H        0.301326    -4.719098     1.609680
H        0.060809    -7.114854     1.060057
H        0.291842    -7.882949    -1.288199
H        0.767928    -6.244004    -3.089458
H        1.040151    -3.848774    -2.547284
H        2.733645    -4.328599     1.169938
H        4.748538    -3.823187     2.385854
H        5.513433    -1.495168     2.668825
H        4.232655     0.338573     1.704507
59
ex_0154 frame47 Isomer 2
O        3.651665     1.467790     0.207494
C        2.630118     0.798525     0.163565
C        2.588061    -0.577108     0.739300
O        3.604511    -1.048121     1.216233
N        1.389151    -1.250845     0.701445
C        1.267663    -2.643849     0.394090
C        2.360410    -3.525636     0.613339
C        2.297753    -4.862963     0.267371
C        1.122241    -5.393923    -0.213695
C       -0.006384    -4.592130    -0.347743
C        0.051484    -3.182663    -0.168641
C       -1.229710    -2.514336    -0.634626
C       -2.478001    -3.247164    -0.778435
C       -2.443176    -3.626023    -2.135006
C       -3.479783    -4.384651    -2.681420
C       -4.564090    -4.759438    -1.884660
C       -4.610441    -4.377483    -0.539529
C       -3.571698    -3.619847     0.013477
N       -1.327357    -1.135801    -0.967719
C       -2.485206    -0.266453    -0.604946
C       -2.346311     0.457196     0.790984
N       -1.174742     1.354051     0.880939
C       -1.175216     2.615000     0.099103
C       -2.402782     3.454606     0.202225
C       -3.285359     3.807176    -0.828137
C       -4.338454     4.687459    -0.575089
C       -4.549377     5.171100     0.719327
C       -3.704758     4.776371     1.761596
C       -2.639271     3.908649     1.507915
C       -0.015912     3.145034    -0.814081
C       -0.207360     4.354223    -1.533258
C        0.818341     4.945836    -2.277748
C        2.050946     4.322178    -2.395583
C        2.267108     3.112641    -1.758349
C        1.250051     2.509236    -0.994966
N        1.489391     1.267311    -0.406926
Cu       0.000000     0.000000     0.000000
H        3.325649    -3.211683     0.954727
H        3.178406    -5.487396     0.363203
H        1.084177    -6.440934    -0.485737
H       -0.877750    -5.106224    -0.714783
H       -1.607204    -3.338164    -2.761493
H       -3.442469    -4.679016    -3.722591
H       -5.368693    -5.344068    -2.311035
H       -5.453374    -4.667247     0.073493
H       -3.616879    -3.325841     1.054378
H       -2.595119     0.514356    -1.383140
H       -3.432858    -0.845352    -0.609485
H       -2.238941    -0.322212     1.576214
H       -3.272411     1.021602     1.028545
H       -3.123183     3.439435    -1.834488
H       -4.987174     4.995731    -1.383952
H       -5.367096     5.851444     0.914112
H       -3.871795     5.146260     2.764573
H       -1.985725     3.613234     2.319990
H       -1.127302     4.908129    -1.488591
H        0.654619     5.894538    -2.771332
H        2.841224     4.772851    -2.983442
H        3.232242     2.637168    -1.879217
59
ex_0154 frame48 Δ
O       -0.349530     1.440627     3.651652
C       -0.240639     0.778819     2.630108
C       -0.679789    -0.646311     2.588021
O       -1.108691    -1.161495     3.604450
N       -0.576489    -1.313165     1.389123
C       -0.135044    -2.669653     1.267639
C       -0.267522    -3.568582     2.360384
C        0.206927    -4.865905     2.297758
C        0.737439    -5.347534     1.122268
C        0.792899    -4.536504    -0.006344
C        0.477507    -3.151148     0.051498
C        0.876323    -2.440656    -1.229667
C        1.090824    -3.156013    -2.477950
C        2.477817    -3.401081    -2.443044
C        3.095511    -4.102942    -3.479621
C        2.339058    -4.553469    -4.563970
C        0.963148    -4.304206    -4.610399
C        0.338991    -3.603974    -3.571687
N        1.073711    -1.036246    -1.327298
C        0.628135    -0.206325    -2.485172
C       -0.831590     0.378065    -2.346359
N       -1.008446     1.261913    -1.174806
C       -0.353008     2.592952    -1.175242
C       -0.537259     3.418538    -2.402801
C        0.453960     3.869698    -3.285326
C        0.116523     4.721185    -4.338429
C       -1.218796     5.076590    -4.549431
C       -2.217763     4.582316    -3.704866
C       -1.880918     3.743391    -2.639371
C        0.504192     3.209312    -0.015912
C        1.102334     4.482740    -0.207304
C        1.785668     5.143969     0.818461
C        1.963557     4.534746     2.051058
C        1.447006     3.268934     2.267194
C        0.746013     2.594139     1.250078
N        0.281584     1.300884     1.489410
Cu       0.000000     0.000000     0.000000
H       -0.637889    -3.289341     3.325607
H        0.172259    -5.496700     3.178406
H        1.110063    -6.363110     1.084230
H        1.208270    -5.012446    -0.877692
H        3.073278    -3.053635    -1.607039
H        4.160381    -4.294606    -3.442247
H        2.820339    -5.093837    -5.368550
H        0.381275    -4.652237    -5.453365
H       -0.725575    -3.412641    -3.616929
H        1.326668     0.646497    -2.595046
H        0.689026    -0.782032    -3.432823
H       -1.537269    -0.474045    -2.239024
H       -1.122892     0.916685    -3.272469
H        1.491308     3.601616    -3.123086
H        0.891591     5.106702    -4.987104
H       -1.478807     5.734755    -5.367159
H       -3.251960     4.852865    -3.871964
H       -2.660434     3.370359    -1.985867
H        1.004041     5.029674    -1.127232
H        2.184611     6.136204     0.654763
H        2.504739     5.040468     2.841377
H        1.613523     2.807485     3.232332
59
ex_0154 frame49 Λ
O        1.467946     0.207739     3.651543
C        0.798560     0.163720     2.630082
C       -0.576954     0.739712     2.587951
O       -1.047831     1.216974     3.604336
N       -1.250621     0.701641     1.388989
C       -2.643741     0.394127     1.267753
C       -3.525364     0.613265     2.360669
C       -4.862687     0.267064     2.298131
C       -5.393721    -0.213984     1.122672
C       -4.592110    -0.347882    -0.006050
C       -3.182593    -0.168632     0.051621
C       -2.514428    -0.634509    -1.229627
C       -3.247264    -0.778430    -2.477907
C       -3.626130    -2.135006    -2.442981
C       -4.384681    -2.681493    -3.479618
C       -4.759388    -1.884799    -4.563999
C       -4.377464    -0.539660    -4.610396
C       -3.619924     0.013414    -3.571628
N       -1.135871    -0.967467    -1.327508
C       -0.266537    -0.604417    -2.485263
C        0.457198     0.791459    -2.346023
N        1.354128     0.881144    -1.174450
C        2.615012     0.099150    -1.174990
C        3.454595     0.202257    -2.402515
C        3.807342    -0.828210    -3.284911
C        4.687646    -0.575220    -4.337974
C        5.171101     0.719231    -4.549104
C        4.776148     1.761607    -3.704702
C        3.908430     1.507976    -2.639229
C        3.144900    -0.814284    -0.015455
C        4.354195    -1.533351    -0.207117
C        4.945578    -2.278078     0.818599
C        4.321762    -2.396080     2.051064
C        3.112210    -1.758875     2.267167
C        2.508994    -0.995250     1.250220
N        1.267257    -0.407171     1.489538
Cu       0.000000     0.000000     0.000000
H       -3.211337     0.954540     3.325823
H       -5.486948     0.362734     3.178931
H       -6.440707    -0.486197     1.084808
H       -5.106256    -0.714957    -0.877395
H       -3.338307    -2.761448    -1.606965
H       -4.679027    -3.722670    -3.442274
H       -5.343928    -2.311227    -5.368638
H       -4.667151     0.073317    -5.453379
H       -3.325908     1.054312    -3.616839
H        0.514245    -1.382604    -2.595445
H       -0.845502    -0.608649    -3.432874
H       -0.322209     1.576664    -2.238380
H        1.021523     1.029269    -3.272109
H        3.439723    -1.834576    -3.122549
H        4.996073    -1.384169    -4.986509
H        5.851461     0.913971    -5.366804
H        5.145878     2.764612    -3.871891
H        3.612834     2.320120    -1.985826
H        4.908237    -1.488510    -1.126919
H        5.894308    -2.771625     0.654941
H        4.772250    -2.984023     2.841358
H        2.636591    -1.879677     3.232216
59
ex_0154 frame50 Isomer 1
O        3.274199     2.821848    -2.392930
C        2.210606     2.476096    -1.900092
C        0.945808     2.506808    -2.694153
O        0.970253     2.922354    -3.839201
N       -0.200375     2.057356    -2.082854
C       -1.504211     2.615745    -2.235041
C       -1.793343     3.444293    -3.349614
C       -3.021890     4.059369    -3.496349
C       -4.033897     3.795562    -2.599035
C       -3.828190     2.905418    -1.548847
C       -2.541534     2.379337    -1.258084
C       -2.527705     1.657572     0.077058
C       -3.731918     1.172138     0.727690
C       -4.055768     2.254340     1.568186
C       -5.180069     2.194963     2.391618
C       -5.987971     1.055748     2.386153
C       -5.673190    -0.023333     1.552577
C       -4.546992     0.032805     0.723147
N       -1.352493     1.382520     0.824338
C       -1.074746     0.085725     1.509563
C       -0.346644    -0.979769     0.606640
N        0.970500    -0.528998     0.115791
C        2.117878    -0.461594     1.050052
C        2.317805    -1.616556     1.972527
C        2.268266    -1.614691     3.373375
C        2.588615    -2.770183     4.087271
C        2.896662    -3.950263     3.405298
C        2.886486    -3.974331     2.006974
C        2.582540    -2.813375     1.288319
C        3.143840     0.714519     1.153016
C        4.158276     0.663577     2.144360
C        5.176189     1.620672     2.209405
C        5.179934     2.703412     1.342381
C        4.174081     2.826221     0.397856
C        3.150044     1.866605     0.312705
N        2.122338     2.048661    -0.612723
Cu       0.296675     1.305316    -0.299046
H       -1.065277     3.738030    -4.079169
H       -3.179727     4.759733    -4.307986
H       -4.990025     4.287410    -2.719143
H       -4.683129     2.752085    -0.912654
H       -3.428869     3.138115     1.585653
H       -5.418767     3.029881     3.037842
H       -6.855082     1.008949     3.031467
H       -6.298920    -0.905758     1.555386
H       -4.304141    -0.810460     0.088913
H       -0.429674     0.281981     2.388561
H       -2.010383    -0.365984     1.902051
H       -0.987960    -1.183270    -0.278282
H       -0.240009    -1.943579     1.147421
H        2.037733    -0.701121     3.908134
H        2.601963    -2.746951     5.168744
H        3.143736    -4.844807     3.961123
H        3.120530    -4.890791     1.480992
H        2.586001    -2.840622     0.205309
H        4.235235    -0.146931     2.846031
H        5.967046     1.523108     2.941419
H        5.960469     3.451764     1.402045
H        4.185481     3.686209    -0.260131
59
ex_0154 frame51 see-saw N0-N1-ax
O        1.526896    -0.177708     3.627933
C        1.288601    -0.131224     2.429931
C        2.245588    -0.692449     1.440192
O        3.299116    -1.159293     1.833676
N        1.882869    -0.652792     0.115577
C        2.777978    -0.284734    -0.933716
C        4.181838    -0.406546    -0.751550
C        5.078262    -0.031058    -1.730995
C        4.616399     0.462520    -2.930977
C        3.250123     0.584942    -3.161834
C        2.282443     0.221525    -2.191944
C        0.950443     0.654865    -2.706263
C        0.548198     0.818520    -4.018729
C        0.759861     2.192379    -4.241444
C        0.522130     2.743130    -5.500281
C        0.039391     1.935865    -6.533092
C       -0.201021     0.575705    -6.307391
C        0.039921     0.018696    -5.047439
N       -0.172537     0.983537    -1.729058
C       -1.594073     0.564361    -1.926077
C       -1.967846    -0.840461    -1.303123
N       -1.764329    -0.922967     0.158083
C       -2.670801    -0.199222     1.079532
C       -4.130491    -0.362165     0.854074
C       -5.074206     0.617145     0.515405
C       -6.429470     0.290005     0.458993
C       -6.839352    -1.029213     0.672133
C       -5.893004    -2.022003     0.945640
C       -4.536682    -1.694117     1.020159
C       -2.248918     0.719140     2.273951
C       -3.256623     1.377351     3.030579
C       -2.957324     2.111371     4.183955
C       -1.641723     2.296851     4.576503
C       -0.622633     1.731687     3.830099
C       -0.907794     0.961667     2.685157
N        0.149114     0.430082     1.945437
Cu       0.000000     0.000000     0.000000
H        4.644271    -0.776242     0.141036
H        6.141264    -0.126381    -1.551194
H        5.327469     0.753722    -3.691410
H        2.992511     0.980119    -4.128566
H        1.126647     2.826308    -3.442186
H        0.706657     3.795994    -5.670589
H       -0.151854     2.366228    -7.506621
H       -0.579938    -0.045604    -7.107241
H       -0.156515    -1.032243    -4.875529
H       -2.250054     1.323339    -1.455691
H       -1.855511     0.550017    -3.004950
H       -1.320395    -1.609972    -1.776673
H       -3.016383    -1.109130    -1.550173
H       -4.762473     1.643188     0.358898
H       -7.160036     1.061320     0.255260
H       -7.889971    -1.281098     0.626832
H       -6.210528    -3.043699     1.106936
H       -3.811448    -2.467615     1.243101
H       -4.302297     1.279297     2.804775
H       -3.752801     2.543863     4.776707
H       -1.406958     2.876787     5.461156
H        0.397410     1.899034     4.151815
