45
ex_0319 frame0 linear
C       -1.742017    -4.429209    -1.591990
C       -2.607739    -3.395562    -1.878269
C       -2.313237    -2.097457    -1.520219
C       -1.133245    -1.803379    -0.860035
P       -0.919384    -0.053713    -0.470707
Au       1.083633    -0.174525     0.527067
Se       2.363268     1.464111     1.823179
C        3.645671     0.594224     2.961852
C        4.909280     0.284375     2.470255
N        5.814599    -0.328418     3.270225
C        5.504368    -0.646300     4.552399
C        4.240531    -0.337486     5.047329
N        3.343165     0.271074     4.250991
C       -0.689203     0.962350    -1.907605
C       -1.223471     2.230880    -1.966565
C       -1.109313     2.963116    -3.135210
C       -0.423425     2.458526    -4.234904
C        0.157226     1.194603    -4.154871
C        0.034269     0.477067    -2.981141
C       -2.067237     0.564181     0.727000
C       -1.898063     1.785098     1.345369
C       -2.876881     2.255056     2.213094
C       -4.008987     1.514871     2.515482
C       -4.137759     0.275836     1.919040
C       -3.176364    -0.209190     1.054005
C       -0.271969    -2.844915    -0.577867
C       -0.552865    -4.150495    -0.930207
H       -1.931048    -5.461287    -1.853356
H       -3.530145    -3.662027    -2.399551
H       -3.034886    -1.328342    -1.773345
H        5.120988     0.552466     1.444451
H        6.242991    -1.137304     5.178670
H        4.004520    -0.595319     6.069963
H       -1.747950     2.622012    -1.131922
H       -1.543182     3.955985    -3.253579
H       -0.331433     3.038655    -5.165000
H        0.686103     0.823882    -5.025005
H        0.497957    -0.499843    -2.957088
H       -1.044877     2.433226     1.166682
H       -2.808182     3.224083     2.699543
H       -4.767927     1.886717     3.192410
H       -5.022970    -0.303281     2.155273
H       -3.313524    -1.165207     0.617278
H        0.644346    -2.601962    -0.063458
H        0.165515    -4.944534    -0.682610
45
ex_0319 frame1 P-Se
C        3.791965     3.647968     2.311629
C        3.791896     3.673281     0.934168
C        3.334779     2.570777     0.213865
C        2.888206     1.467748     0.913225
P        2.280000     0.000000     0.000000
Au       0.000000     0.000000     0.000000
Se      -2.450000     0.000000     0.000000
C       -4.340279     0.021493    -0.067019
C       -5.085218     0.373470    -1.164556
N       -6.445284     0.356326    -1.111099
C       -7.082511    -0.005100     0.015903
C       -6.359427    -0.363954     1.134884
N       -5.015574    -0.340887     1.062955
C        2.725876    -1.569726     0.787352
C        3.732582    -2.400216     0.339665
C        4.009313    -3.580759     0.997510
C        3.296246    -3.980137     2.124536
C        2.286835    -3.151734     2.576969
C        2.015524    -1.974807     1.916010
C        2.725606     0.116897    -1.736975
C        1.830565     0.178349    -2.786215
C        2.244686     0.267211    -4.097543
C        3.592264     0.298089    -4.408112
C        4.510520     0.238190    -3.379861
C        4.078360     0.149476    -2.072974
C        2.889248     1.444792     2.291795
C        3.339937     2.531471     3.019251
H        4.149414     4.509960     2.881684
H        4.146400     4.548886     0.379796
H        3.345654     2.617499    -0.876727
H       -4.567662     0.657905    -2.051483
H       -8.165838    -0.035099     0.109442
H       -6.810225    -0.664154     2.070973
H        4.294883    -2.106348    -0.531794
H        4.789613    -4.258247     0.678202
H        3.484496    -4.885354     2.655805
H        1.677945    -3.374968     3.442740
H        1.208085    -1.323627     2.287320
H        0.774618     0.154798    -2.552718
H        1.562320     0.316685    -4.937669
H        3.947616     0.368281    -5.440505
H        5.591183     0.260260    -3.587675
H        4.843452     0.105794    -1.311602
H        2.542282     0.587188     2.867776
H        3.356679     2.552325     4.101073
45
ex_0319 frame2 P-Se-conf2
C        3.904802     1.570882    -3.992151
C        4.762041     1.292955    -2.943710
C        4.218863     0.823029    -1.766536
C        2.841087     0.626148    -1.617123
P        2.280000     0.000000     0.000000
Au       0.000000     0.000000     0.000000
Se      -2.450000     0.000000     0.000000
C       -4.368743     0.039104     0.015871
C       -5.047061    -1.094605    -0.444264
N       -6.387240    -1.089318    -0.442117
C       -7.102074    -0.017793    -0.007221
C       -6.398888     1.101144     0.446919
N       -5.046896     1.128536     0.458036
C        2.831108     1.100936     1.339947
C        3.475081     2.305452     1.051369
C        3.895191     3.144244     2.062691
C        3.684688     2.804811     3.385984
C        3.047470     1.613609     3.686899
C        2.625721     0.770833     2.655545
C        2.831124    -1.742358     0.255468
C        2.221654    -2.506738     1.229398
C        2.655541    -3.820918     1.403664
C        3.674637    -4.353242     0.620401
C        4.284630    -3.589163    -0.353922
C        3.855575    -2.289111    -0.526482
C        1.985901     0.903716    -2.663925
C        2.548985     1.371760    -3.829784
H        4.348027     1.939590    -4.910673
H        5.841942     1.430343    -3.012581
H        4.899316     0.610184    -0.956453
H       -4.498178    -1.971905    -0.800333
H       -8.190664    -0.034374    -0.013952
H       -6.969752     1.939212     0.787062
H        3.620268     2.533204    -0.005181
H        4.392370     4.071118     1.770274
H        4.028648     3.489335     4.163440
H        2.889009     1.360221     4.731239
H        2.142399    -0.129554     2.954536
H        1.431275    -2.143625     1.860091
H        2.225924    -4.479805     2.146252
H        4.020750    -5.373053     0.746101
H        5.087137    -3.982396    -0.982835
H        4.337828    -1.704461    -1.287699
H        0.929579     0.747332    -2.533866
H        1.924863     1.604720    -4.680378
45
ex_0319 frame3 P-Se-conf3
C        3.671411     1.492048    -4.186018
C        2.375253     1.665234    -3.741451
C        1.952901     1.227076    -2.503405
C        2.835987     0.582252    -1.641844
P        2.280000     0.000000     0.000000
Au       0.000000     0.000000     0.000000
Se      -2.450000     0.000000     0.000000
C       -4.370579     0.015126     0.017711
C       -5.017795    -0.775222    -0.907798
N       -6.379371    -0.776606    -0.909418
C       -7.046883    -0.016928    -0.019824
C       -6.403787     0.777264     0.910184
N       -5.044995     0.781489     0.915130
C        2.819254     1.137852     1.347302
C        2.461064     2.459294     1.241513
C        2.859611     3.334937     2.250441
C        3.594484     2.906322     3.334591
C        3.953966     1.562610     3.434113
C        3.554932     0.694654     2.427276
C        2.782406    -1.708778     0.324364
C        1.882405    -2.764534     0.347724
C        2.244525    -4.062329     0.591234
C        3.564034    -4.384490     0.831545
C        4.489993    -3.364279     0.817195
C        4.113941    -2.057739     0.570359
C        4.126198     0.417663    -2.101615
C        4.550907     0.855251    -3.339912
H        3.974309     1.845547    -5.160700
H        1.705705     2.175056    -4.440920
H        0.940707     1.378634    -2.192319
H       -4.498665    -1.389346    -1.626940
H       -8.136137    -0.000366    -0.000420
H       -6.959317     1.384588     1.621376
H        1.888309     2.877025     0.428327
H        2.607227     4.390027     2.222993
H        3.910197     3.590290     4.130124
H        4.527926     1.175013     4.260831
H        3.833953    -0.347464     2.504811
H        0.840920    -2.540425     0.162487
H        1.523571    -4.852196     0.601726
H        3.899641    -5.389034     1.028141
H        5.533939    -3.603065     1.004945
H        4.876385    -1.318463     0.573342
H        4.852383    -0.073880    -1.478661
H        5.572305     0.699891    -3.648539
45
ex_0319 frame4 P-Se-conf4
C        3.914707     1.608880    -3.905446
C        4.774008     1.038329    -2.987661
C        4.275158     0.553435    -1.808606
C        2.902875     0.665152    -1.597416
P        2.280000     0.000000     0.000000
Au       0.000000     0.000000     0.000000
Se      -2.450000     0.000000     0.000000
C       -4.385719     0.017281     0.041324
C       -5.039758    -0.457585    -1.094267
N       -6.403555    -0.461097    -1.102660
C       -7.102510    -0.009121    -0.021807
C       -6.423274     0.463156     1.107589
N       -5.059390     0.467907     1.118947
C        2.693665     1.059555     1.406285
C        3.846183     1.821847     1.456733
C        4.114820     2.618579     2.561861
C        3.258573     2.685962     3.643660
C        2.107770     1.925232     3.594055
C        1.818744     1.118508     2.494207
C        2.961155    -1.683244     0.166905
C        3.756558    -2.093129     1.198338
C        4.233095    -3.401688     1.244670
C        3.918840    -4.305744     0.263938
C        3.121081    -3.897768    -0.772220
C        2.648363    -2.598045    -0.817293
C        2.054072     1.232361    -2.511600
C        2.555101     1.714957    -3.686539
H        4.282595     1.997461    -4.839918
H        5.828132     0.956423    -3.158150
H        4.925935     0.096171    -1.060733
H       -4.467070    -0.814461    -1.947702
H       -8.200653    -0.021210    -0.050699
H       -7.006627     0.815129     1.949275
H        4.537799     1.788876     0.620805
H        5.034130     3.216252     2.583783
H        3.511833     3.323869     4.485550
H        1.422320     1.975525     4.453611
H        0.901984     0.556996     2.533304
H        4.000240    -1.379359     1.965716
H        4.874099    -3.740649     2.071225
H        4.284646    -5.340762     0.283086
H        2.875302    -4.616934    -1.545745
H        2.016170    -2.338881    -1.672901
H        0.983886     1.287165    -2.279119
H        1.863687     2.154673    -4.384389
45
ex_0319 frame5 P-Se-conf5
C        3.685032     1.542892    -4.056077
C        3.880642     2.333879    -2.920370
C        3.467998     1.898061    -1.678040
C        2.863767     0.666700    -1.609512
P        2.280000     0.000000     0.000000
Au       0.000000     0.000000     0.000000
Se      -2.450000     0.000000     0.000000
C       -4.378753    -0.008799     0.007639
C       -5.065447     0.911917    -0.791859
N       -6.411780     0.886792    -0.770038
C       -7.085524     0.017597    -0.015276
C       -6.426394    -0.894495     0.776730
N       -5.073617    -0.892472     0.774968
C        2.909038    -1.728502     0.203240
C        2.056375    -2.768739     0.531184
C        2.562496    -4.048270     0.674877
C        3.911345    -4.229599     0.481944
C        4.769225    -3.197048     0.154498
C        4.264115    -1.901723     0.007820
C        2.728640     1.050424     1.396843
C        3.826814     0.795453     2.188779
C        4.184887     1.586623     3.259766
C        3.409949     2.702537     3.571034
C        2.303050     2.969406     2.781983
C        1.968531     2.158052     1.714302
C        2.663918    -0.124086    -2.718635
C        3.072117     0.300874    -3.965783
H        3.999023     1.865010    -5.029479
H        4.356509     3.285580    -3.027684
H        3.601316     2.483082    -0.768481
H       -4.486739     1.601703    -1.390832
H       -8.178286    -0.016621     0.014435
H       -6.996441    -1.605620     1.394235
H        0.990826    -2.546231     0.669460
H        1.884736    -4.863280     0.933429
H        4.335856    -5.236517     0.590633
H        5.838539    -3.347969     0.002820
H        4.929970    -1.085361    -0.248991
H        4.448007    -0.075299     1.961360
H        5.066953     1.347556     3.863996
H        3.665803     3.341201     4.404465
H        1.651688     3.833862     2.975286
H        1.085583     2.405020     1.116588
H        2.185854    -1.086960    -2.630907
H        2.910998    -0.326626    -4.830348
45
ex_0319 frame6 P-Se-conf6
C        3.837241    -3.770318     2.068982
C        2.616431    -3.832779     1.429223
C        2.151758    -2.676220     0.801590
C        2.907456    -1.515747     0.832534
P        2.280000     0.000000     0.000000
Au       0.000000     0.000000     0.000000
Se      -2.450000     0.000000     0.000000
C       -4.222937     0.000002    -0.000001
C       -4.898340    -0.623083    -1.020103
N       -6.259180    -0.614535    -1.006118
C       -6.926725    -0.005519    -0.009058
C       -6.238016     0.616096     1.008639
N       -4.899900     0.603253     0.987624
C        2.875954     1.524456     0.822034
C        3.055400     1.630387     2.177225
C        3.507688     2.788605     2.797142
C        3.791540     3.896357     1.991450
C        3.621384     3.826490     0.610465
C        3.168955     2.645384     0.060998
C        3.081799    -0.015483    -1.669013
C        4.382274     0.453007    -1.759604
C        4.997499     0.449143    -2.997760
C        4.282362    -0.021745    -4.078399
C        2.998018    -0.488257    -4.009257
C        2.379113    -0.483516    -2.759155
C        4.129010    -1.437254     1.467475
C        4.593375    -2.596126     2.095693
H        4.226303    -4.668650     2.571696
H        2.010169    -4.721843     1.390754
H        1.198177    -2.653814     0.278703
H       -4.352910    -1.116879    -1.828532
H       -8.017346    -0.003172    -0.005224
H       -6.754377     1.112070     1.820630
H        2.838791     0.781374     2.803500
H        3.648448     2.873086     3.855740
H        4.150646     4.831632     2.434650
H        3.844679     4.697813    -0.023147
H        3.035060     2.583405    -1.003722
H        4.877882     0.808197    -0.857761
H        6.009097     0.806564    -3.105362
H        4.761974    -0.024836    -5.044062
H        2.468549    -0.849246    -4.874833
H        1.362602    -0.838258    -2.627650
H        4.678623    -0.516496     1.464994
H        5.540953    -2.587355     2.605203
