41
ex_0232 frame0 trans
N        0.481699    -0.146520    -5.739352
C        0.934282     0.611547    -4.989558
S        1.672901     1.756075    -3.858893
Hg      -0.143337     2.033642    -2.238233
S       -2.083755     3.517196    -2.428243
C       -3.346078     2.730874    -1.483052
N       -4.200174     2.253683    -0.865306
As       0.033364     0.453870    -0.256951
C       -0.600794    -1.317425    -0.715176
C       -0.947382    -2.262060     0.254278
C       -1.410198    -3.523436    -0.152830
C       -1.508349    -3.837352    -1.516549
C       -1.150544    -2.892200    -2.477950
C       -0.706395    -1.637033    -2.074749
C        1.854501     0.214980     0.339480
C        2.897505     0.547954    -0.538018
C        4.226461     0.404306    -0.148220
C        4.517875    -0.074522     1.129128
C        3.477085    -0.410392     2.007017
C        2.141662    -0.275468     1.608465
C       -0.946714     1.252045     1.216384
C       -2.116932     0.669679     1.719659
C       -2.818266     1.309057     2.751086
C       -2.335365     2.505680     3.295105
C       -1.155579     3.069532     2.805452
C       -0.459433     2.436536     1.777338
H       -0.872342    -2.025199     1.306156
H       -1.693960    -4.260278     0.585021
H       -1.859717    -4.810592    -1.832301
H       -1.215635    -3.125699    -3.534024
H       -0.428058    -0.904735    -2.823480
H        2.680789     0.924055    -1.524079
H        5.024468     0.667031    -0.834315
H        5.548665    -0.181409     1.437109
H        3.704487    -0.771637     2.997934
H        1.337873    -0.524101     2.285498
H       -2.516313    -0.237331     1.290054
H       -3.741996     0.885873     3.122722
H       -2.877739     3.002605     4.088440
H       -0.783095     4.000721     3.212502
H        0.444483     2.886319     1.385447
41
ex_0232 frame1 cis-conf2
N        4.761624    -0.118845    -0.496972
C        3.735102    -0.114620     0.046633
S        2.229937    -0.113348     1.011935
Hg       0.000000     0.000000     0.000000
S       -2.011610     1.362107    -0.333568
C       -2.068228     3.151894    -0.053683
N       -2.207957     4.299605     0.100062
As      -1.255028    -2.173708     0.000000
C       -1.881347    -2.551615    -1.798319
C       -2.912257    -3.460266    -2.056593
C       -3.319858    -3.677252    -3.382774
C       -2.690365    -3.001787    -4.438429
C       -1.656036    -2.104029    -4.174153
C       -1.261794    -1.876595    -2.858522
C       -0.253849    -3.749186     0.522122
C        1.145112    -3.676558     0.509214
C        1.917484    -4.768266     0.895825
C        1.290485    -5.948215     1.296387
C       -0.109553    -6.031687     1.301834
C       -0.887965    -4.933502     0.903900
C       -2.714678    -2.011009     1.276176
C       -4.048767    -1.952001     0.855531
C       -5.065653    -1.770222     1.802185
C       -4.753482    -1.682035     3.164098
C       -3.424584    -1.774762     3.583218
C       -2.410539    -1.952715     2.641541
H       -3.400085    -3.986051    -1.248166
H       -4.122929    -4.368212    -3.597178
H       -2.999525    -3.172070    -5.461411
H       -1.157861    -1.583276    -4.983383
H       -0.456003    -1.179791    -2.657023
H        1.636013    -2.763647     0.201538
H        2.998624    -4.693618     0.886938
H        1.892020    -6.793521     1.603473
H       -0.587635    -6.946992     1.620218
H       -1.966924    -4.997070     0.919431
H       -4.302452    -1.987867    -0.193218
H       -6.094955    -1.682944     1.481053
H       -5.537990    -1.531920     3.894299
H       -3.177007    -1.696230     4.634413
H       -1.379294    -2.002325     2.969175
41
ex_0232 frame2 T-shaped As-S-ax/S-eq
N        4.318947     0.290512    -0.104238
C        3.369144    -0.359066     0.055699
S        1.964641    -1.428803     0.320404
Hg       0.000000     0.000000     0.000000
S       -0.426938     2.188012     1.017461
C        0.013678     3.637532     0.086292
N        0.274055     4.628071    -0.457916
As      -2.510000     0.000000     0.000000
C       -3.166274     0.816215    -1.634892
C       -4.533540     0.986628    -1.872891
C       -4.956545     1.573310    -3.075015
C       -4.016968     1.987142    -4.029234
C       -2.652963     1.818325    -3.784971
C       -2.231481     1.239100    -2.589024
C       -3.201526     0.949953     1.557934
C       -2.957169     0.412292     2.828575
C       -3.351985     1.100601     3.974620
C       -4.031496     2.313813     3.854345
C       -4.319770     2.832768     2.585335
C       -3.926019     2.140312     1.430928
C       -3.333282    -1.758827     0.054363
C       -2.787690    -2.778977    -0.732626
C       -3.304948    -4.072977    -0.665260
C       -4.398726    -4.342379     0.160677
C       -4.973593    -3.315407     0.918746
C       -4.450124    -2.017947     0.858846
H       -5.261421     0.664733    -1.140809
H       -6.011375     1.706512    -3.271509
H       -4.342338     2.436626    -4.958493
H       -1.921428     2.132287    -4.519838
H       -1.171832     1.105595    -2.405092
H       -2.402081    -0.512924     2.926973
H       -3.113463     0.700967     4.952734
H       -4.322064     2.855253     4.745300
H       -4.831283     3.781771     2.499998
H       -4.122457     2.568047     0.458683
H       -1.923852    -2.579046    -1.354953
H       -2.848119    -4.866739    -1.242682
H       -4.793934    -5.347945     0.218282
H       -5.816598    -3.529097     1.561977
H       -4.892456    -1.239300     1.463580
41
ex_0232 frame3 T-shaped As-S-ax/S-eq-conf5
N        4.259707     0.276982     0.125942
C        3.332895    -0.360464    -0.126875
S        1.935602    -1.403085    -0.536176
Hg       0.000000     0.000000     0.000000
S       -0.458594     2.159069     1.064333
C        0.015710     3.547092     0.071798
N        0.301293     4.499111    -0.522592
As      -2.510000     0.000000     0.000000
C       -3.089503    -1.588048    -0.963582
C       -2.300574    -2.020469    -2.038578
C       -2.633248    -3.171414    -2.748489
C       -3.776068    -3.890738    -2.399797
C       -4.582182    -3.454367    -1.339165
C       -4.246731    -2.295235    -0.620889
C       -3.317847     1.539957    -0.874262
C       -3.209385     1.669848    -2.263826
C       -3.709953     2.805208    -2.904326
C       -4.350303     3.799426    -2.160390
C       -4.495874     3.653298    -0.776530
C       -4.001503     2.512456    -0.133710
C       -3.130452     0.001995     1.853758
C       -2.167462     0.029976     2.874148
C       -2.546604     0.077474     4.212024
C       -3.899965     0.069289     4.545194
C       -4.870207     0.014182     3.534643
C       -4.489118    -0.023373     2.183833
H       -1.403721    -1.472730    -2.304511
H       -1.999514    -3.505544    -3.561419
H       -4.030143    -4.787909    -2.949221
H       -5.462392    -4.022258    -1.071812
H       -4.868869    -1.981480     0.200831
H       -2.689270     0.916614    -2.841916
H       -3.585848     2.920829    -3.973555
H       -4.722292     4.687204    -2.654911
H       -4.975868     4.433109    -0.200257
H       -4.091201     2.431305     0.939624
H       -1.113500     0.036324     2.631471
H       -1.788263     0.125461     4.984876
H       -4.191894     0.108122     5.586344
H       -5.917035     0.009656     3.802523
H       -5.244039    -0.045697     1.411896
41
ex_0232 frame4 cis
N        2.900078    -4.503961     2.176674
C        2.869644    -4.013827     1.128288
S        2.821058    -3.243140    -0.460774
Hg       2.608176    -0.858370     0.057751
S        4.496529     0.617604     0.565120
C        3.900801     2.241356     0.248682
N        3.591477     3.340280     0.064523
As       0.270431     0.061053    -0.071277
C       -0.024187     1.009639    -1.735961
C       -1.256294     1.580831    -2.012684
C       -1.453606     2.261843    -3.219500
C       -0.411331     2.368280    -4.148352
C        0.827118     1.795741    -3.874330
C        1.025208     1.115952    -2.667267
C       -0.070226     1.187347     1.468402
C       -0.009872     0.602024     2.730244
C       -0.228623     1.346364     3.877380
C       -0.522124     2.697020     3.778761
C       -0.588016     3.299028     2.517225
C       -0.368952     2.544487     1.348772
C       -1.001868    -1.372739     0.002297
C       -0.727997    -2.517033    -0.743095
C       -1.587627    -3.597164    -0.724082
C       -2.753313    -3.530075     0.036867
C       -3.048882    -2.381694     0.787932
C       -2.169179    -1.290436     0.771665
H       -2.045597     1.487548    -1.285174
H       -2.412073     2.707016    -3.435441
H       -0.551038     2.891557    -5.083898
H        1.620079     1.888523    -4.606317
H        1.990292     0.670931    -2.459356
H        0.223847    -0.440738     2.828003
H       -0.171365     0.866902     4.839989
H       -0.693811     3.262775     4.685265
H       -0.811413     4.347705     2.464576
H       -0.406375     3.008014     0.375925
H        0.178399    -2.578360    -1.325483
H       -1.333380    -4.472985    -1.307515
H       -3.419831    -4.372110     0.038565
H       -3.957085    -2.342526     1.375024
H       -2.387093    -0.401471     1.352354
41
ex_0232 frame5 T-shaped As-S-ax/S-eq-conf3
N        4.882840     0.192277    -0.118367
C        3.807628    -0.248009    -0.010288
S        2.194046    -1.073954     0.188525
Hg       0.000000     0.000000     0.000000
S       -0.176254     2.142919     1.171898
C       -0.003582     3.668419     0.238999
N        0.094898     4.689122    -0.307583
As      -2.510000     0.000000     0.000000
C       -3.071537     0.150454     1.849930
C       -2.288739    -0.463860     2.836311
C       -2.610307    -0.314632     4.185319
C       -3.744974     0.412488     4.550483
C       -4.552098     0.993209     3.564318
C       -4.225709     0.850314     2.210008
C       -3.200801    -1.632505    -0.800626
C       -2.323094    -2.423442    -1.554115
C       -2.768451    -3.596928    -2.160922
C       -4.097554    -3.994015    -2.007560
C       -4.978891    -3.212912    -1.247755
C       -4.533893    -2.027235    -0.642592
C       -3.337273     1.442272    -1.034709
C       -2.501230     2.434500    -1.562124
C       -3.020998     3.500499    -2.291536
C       -4.393953     3.573062    -2.518260
C       -5.239888     2.576179    -2.011916
C       -4.716215     1.510975    -1.259807
H       -1.390406    -1.003574     2.558867
H       -1.971769    -0.749614     4.944646
H       -3.990560     0.534774     5.597011
H       -5.422342     1.566798     3.851129
H       -4.839830     1.325983     1.462253
H       -1.291304    -2.116952    -1.679567
H       -2.082479    -4.194073    -2.749689
H       -4.440798    -4.906551    -2.477895
H       -6.006098    -3.529855    -1.130499
H       -5.219349    -1.433641    -0.055293
H       -1.437192     2.373652    -1.409720
H       -2.356824     4.263979    -2.680920
H       -4.796619     4.398536    -3.091115
H       -6.301556     2.633270    -2.204897
H       -5.378295     0.751141    -0.877844
41
ex_0232 frame6 trans-conf3
N        5.336412    -0.004396     0.006542
C        4.185255    -0.093739     0.009264
S        2.444120     0.162853    -0.026720
Hg       0.000000     0.000000     0.000000
S       -1.336932     2.051044     0.086648
C       -2.038657     3.666803    -0.048654
N       -2.670015     4.635837    -0.000480
As      -1.255028    -2.173708     0.000000
C       -1.246654    -2.733208     1.832675
C       -0.143622    -2.442900     2.653255
C       -0.157959    -2.858519     3.988652
C       -1.248331    -3.554655     4.505193
C       -2.330172    -3.833284     3.677869
C       -2.332024    -3.424131     2.342995
C       -0.389955    -3.459172    -1.190676
C        0.530555    -3.000674    -2.116554
C        1.178984    -3.872524    -2.994963
C        0.906672    -5.226948    -2.946191
C       -0.017349    -5.683667    -2.013422
C       -0.670666    -4.800676    -1.132763
C       -3.090421    -1.975738    -0.644896
C       -3.616857    -0.701804    -0.849517
C       -4.920576    -0.570481    -1.305958
C       -5.697644    -1.703211    -1.560749
C       -5.174347    -2.969232    -1.358968
C       -3.871634    -3.098491    -0.899904
H        0.711599    -1.899570     2.261871
H        0.677618    -2.644431     4.632033
H       -1.261955    -3.881538     5.547658
H       -3.158886    -4.372265     4.102826
H       -3.173994    -3.641104     1.698522
H        0.732527    -1.956764    -2.148384
H        1.885445    -3.453018    -3.695445
H        1.410857    -5.906232    -3.627262
H       -0.210592    -6.734428    -1.995072
H       -1.374567    -5.172521    -0.423373
H       -2.993946     0.148995    -0.642847
H       -5.307260     0.414628    -1.455670
H       -6.712243    -1.595203    -1.917265
H       -5.792994    -3.836095    -1.562563
H       -3.491025    -4.091375    -0.753564
41
ex_0232 frame7 cis-conf4
N        5.330627     0.000214    -0.006425
C        4.176222     0.077099    -0.001940
S        2.444964    -0.138583     0.013903
Hg       0.000000     0.000000     0.000000
S       -1.291564     2.074500     0.165900
C       -2.049174     3.643738    -0.094229
N       -2.664637     4.608313    -0.002821
As      -1.255028    -2.173708     0.000000
C       -2.897180    -1.935832    -1.037566
C       -3.892264    -1.082013    -0.592195
C       -5.067084    -0.921389    -1.347046
C       -5.235393    -1.612624    -2.538915
C       -4.236842    -2.462136    -2.977274
C       -3.074375    -2.618533    -2.221648
C       -1.601098    -2.651378     1.856081
C       -0.911233    -1.981627     2.849351
C       -1.121310    -2.287838     4.198377
C       -2.020501    -3.259124     4.563108
C       -2.712851    -3.929240     3.565510
C       -2.501290    -3.623840     2.196975
C       -0.242185    -3.601021    -0.822885
C       -0.288812    -4.881291    -0.292883
C        0.432663    -5.903342    -0.878914
C        1.212766    -5.633225    -2.011669
C        1.262922    -4.343972    -2.547798
C        0.537577    -3.334943    -1.955452
H       -3.794503    -0.541362     0.313368
H       -5.861159    -0.269788    -1.034786
H       -6.121672    -1.514396    -3.144806
H       -4.323874    -3.020639    -3.898715
H       -2.314594    -3.271979    -2.568581
H       -0.214566    -1.232523     2.582386
H       -0.554793    -1.733740     4.919198
H       -2.160600    -3.470786     5.612845
H       -3.409207    -4.682989     3.874666
H       -3.048725    -4.154676     1.449754
H       -0.909186    -5.048708     0.588773
H        0.388842    -6.899184    -0.458061
H        1.780713    -6.416319    -2.479348
H        1.858533    -4.119302    -3.419301
H        0.549513    -2.325383    -2.337264
41
ex_0232 frame8 cis-conf5
N        5.352333     0.043535    -0.000328
C        4.198386     0.005876     0.001863
S        2.446827    -0.119922    -0.002234
Hg       0.000000     0.000000     0.000000
S       -1.421488     1.990226     0.142655
C       -2.057913     3.627085    -0.026954
N       -2.585905     4.651032    -0.061712
As      -1.255028    -2.173708     0.000000
C        0.014801    -3.523342     0.580878
C        1.353419    -3.366807     0.211811
C        2.310657    -4.288659     0.609411
C        1.941078    -5.388567     1.367904
C        0.602638    -5.559065     1.738858
C       -0.366063    -4.624454     1.342473
C       -1.925507    -2.637626    -1.745653
C       -1.029846    -3.024199    -2.737156
C       -1.503958    -3.340759    -4.006471
C       -2.877789    -3.287340    -4.287055
C       -3.774126    -2.903858    -3.292578
C       -3.295513    -2.589072    -2.021547
C       -2.777594    -1.942113     1.188960
C       -2.987705    -0.696108     1.802286
C       -4.073622    -0.496171     2.649253
C       -4.951723    -1.547230     2.896208
C       -4.739768    -2.789639     2.288103
C       -3.653761    -2.985505     1.437733
H        1.653967    -2.524658    -0.380180
H        3.341418    -4.160912     0.327587
H        2.701889    -6.100466     1.660793
H        0.319812    -6.414600     2.329330
H       -1.386080    -4.752998     1.631809
H        0.032576    -3.051369    -2.518319
H       -0.798905    -3.634120    -4.761658
H       -3.256243    -3.539035    -5.265946
H       -4.836404    -2.855356    -3.514117
H       -3.983279    -2.276881    -1.265193
H       -2.330822     0.135020     1.642913
H       -4.228024     0.468025     3.113813
H       -5.790421    -1.394130     3.556991
H       -5.413011    -3.613242     2.468703
H       -3.507060    -3.939502     0.973536
41
ex_0232 frame9 cis-conf6
N        5.370829    -0.000210     0.000032
C        4.213708     0.000000     0.000000
S        2.450000     0.000000     0.000000
Hg       0.000000     0.000000     0.000000
S       -2.253263     0.952887     0.016385
C       -1.849412     2.670423    -0.016674
N       -1.632545     3.805688     0.028893
As      -1.255028    -2.173708     0.000000
C       -2.390917    -2.319819     1.576838
C       -2.322511    -1.303483     2.540410
C       -3.103776    -1.361068     3.692102
C       -3.969096    -2.437520     3.886769
C       -4.046675    -3.456189     2.927336
C       -3.259843    -3.399358     1.766328
C       -2.309889    -2.190131    -1.641560
C       -2.096037    -1.155363    -2.564314
C       -2.823843    -1.091609    -3.748407
C       -3.774754    -2.072253    -4.025465
C       -3.989183    -3.117501    -3.115486
C       -3.254228    -3.183575    -1.919727
C       -0.084022    -3.719918     0.087254
C       -0.097199    -4.707841    -0.902978
C        0.821847    -5.765081    -0.833703
C        1.723695    -5.848938     0.235232
C        1.705190    -4.881769     1.241703
C        0.789344    -3.832434     1.176380
H       -1.644783    -0.470351     2.404505
H       -3.032224    -0.572557     4.431722
H       -4.573221    -2.481495     4.783606
H       -4.715110    -4.290356     3.089091
H       -3.320400    -4.194739     1.040159
H       -1.357695    -0.389858    -2.358961
H       -2.648166    -0.280432    -4.445364
H       -4.341568    -2.018637    -4.945826
H       -4.728442    -3.873101    -3.340629
H       -3.430061    -3.991631    -1.228388
H       -0.769548    -4.637729    -1.745707
H        0.848567    -6.511963    -1.615351
H        2.443663    -6.655751     0.280852
H        2.408671    -4.933484     2.063759
H        0.796865    -3.069233     1.945536
41
ex_0232 frame10 T-shaped As-S-ax/S-eq-conf4
N        5.346532     0.050211    -0.001881
C        4.190429    -0.020978    -0.002011
S        2.435811    -0.261283    -0.003290
Hg       0.000000     0.000000     0.000000
S       -0.006509     2.450426     0.014329
C        0.046527     4.204622     0.024999
N        0.069462     5.360171     0.031573
As      -2.510000     0.000000     0.000000
C       -3.165909     1.670077    -0.790734
C       -2.958135     2.898233    -0.144236
C       -3.362877     4.092485    -0.749768
C       -4.028973     4.057161    -1.974517
C       -4.269107     2.832254    -2.598756
C       -3.845032     1.643854    -2.005068
C       -3.107132    -0.208893     1.840292
C       -2.162815    -0.616226     2.789001
C       -2.518643    -0.790752     4.122241
C       -3.829746    -0.552341     4.524740
C       -4.781134    -0.140298     3.582208
C       -4.423202     0.031105     2.232334
C       -3.253437    -1.439904    -1.035874
C       -4.387121    -2.115166    -0.603374
C       -4.901251    -3.166216    -1.363981
C       -4.278630    -3.534617    -2.564523
C       -3.138356    -2.852719    -3.000489
C       -2.632601    -1.800143    -2.238809
H       -2.439758     2.940848     0.801915
H       -3.161196     5.043615    -0.274443
H       -4.360694     4.974028    -2.441195
H       -4.779913     2.798084    -3.547087
H       -4.009290     0.711303    -2.512694
H       -1.143473    -0.807246     2.485876
H       -1.773997    -1.111394     4.836434
H       -4.101504    -0.687622     5.565008
H       -5.792061     0.043598     3.907873
H       -5.151055     0.351293     1.504358
H       -4.854977    -1.831789     0.323675
H       -5.780763    -3.689936    -1.017591
H       -4.675576    -4.347489    -3.154951
H       -2.645275    -3.135553    -3.923069
H       -1.741443    -1.277086    -2.566813
41
ex_0232 frame11 T-shaped As-S-ax/S-eq-conf2
N        5.357273    -0.044065    -0.042848
C        4.202239    -0.021032    -0.002631
S        2.447125     0.030407     0.103837
Hg       0.000000     0.000000     0.000000
S        0.234388     2.436778     0.071511
C       -0.069697     4.174432    -0.040790
N       -0.215172     5.321619    -0.096279
As      -2.510000     0.000000     0.000000
C       -3.124865    -0.913983    -1.588025
C       -4.410028    -0.734822    -2.101298
C       -4.784453    -1.426749    -3.265052
C       -3.881359    -2.296262    -3.895172
C       -2.602338    -2.473596    -3.370163
C       -2.229094    -1.780259    -2.225864
C       -3.305783    -0.919257     1.487599
C       -2.528499    -1.828627     2.233691
C       -3.098143    -2.499174     3.320880
C       -4.433642    -2.257180     3.657732
C       -5.194471    -1.350718     2.910241
C       -4.629759    -0.691015     1.823834
C       -3.067348     1.854816     0.071684
C       -3.663990     2.489225    -1.024275
C       -4.015754     3.844722    -0.924416
C       -3.793034     4.547540     0.265660
C       -3.209551     3.902869     1.353944
C       -2.860026     2.561089     1.256816
H       -5.102156    -0.062557    -1.614301
H       -5.771297    -1.293847    -3.683637
H       -4.166578    -2.834747    -4.788455
H       -1.895017    -3.144510    -3.841893
H       -1.235007    -1.925029    -1.822087
H       -1.487501    -2.018056     1.975181
H       -2.513440    -3.203288     3.902864
H       -4.880403    -2.768905     4.496808
H       -6.224055    -1.148785     3.162205
H       -5.212233     0.012760     1.253922
H       -3.814748     1.961347    -1.955383
H       -4.456752     4.359953    -1.764064
H       -4.064318     5.591547     0.347889
H       -3.020829     4.437643     2.273137
H       -2.388616     2.071058     2.095683
41
ex_0232 frame12 T-shaped As-S-ax/S-eq-conf6
N        5.370834     0.000088     0.000000
C        4.213708     0.000000     0.000000
S        2.450000     0.000000     0.000000
Hg       0.000000     0.000000     0.000000
S        0.000000     2.450000     0.000000
C        0.000000     4.239155     0.000000
N       -0.000753     5.396216    -0.000458
As      -2.510000     0.000000     0.000000
C       -3.229242     0.441431     1.756501
C       -2.327890     0.684999     2.805440
C       -2.801253     0.992466     4.083824
C       -4.174050     1.062937     4.318143
C       -5.076061     0.831065     3.273720
C       -4.608072     0.519328     1.989545
C       -3.102020     1.278644    -1.341617
C       -2.182382     1.789670    -2.264968
C       -2.569986     2.716316    -3.229230
C       -3.892898     3.160022    -3.249399
C       -4.851992     2.644276    -2.339432
C       -4.449677     1.697149    -1.394365
C       -3.307055    -1.725844    -0.413266
C       -4.171545    -1.887687    -1.502794
C       -4.664544    -3.162765    -1.811509
C       -4.320875    -4.262954    -1.016688
C       -3.490330    -4.090513     0.092770
C       -3.001473    -2.820874     0.403979
H       -1.264399     0.624879     2.624008
H       -2.095792     1.163877     4.884380
H       -4.531419     1.298881     5.311606
H       -6.138427     0.885013     3.467383
H       -5.319892     0.324582     1.204695
H       -1.168724     1.410076    -2.235669
H       -1.820925     3.097607    -3.903916
H       -4.145326     3.936600    -3.974717
H       -5.882088     3.078641    -2.367076
H       -5.194199     1.360890    -0.695186
H       -4.422997    -1.052821    -2.140520
H       -5.299830    -3.303479    -2.675716
H       -4.688603    -5.250377    -1.264176
H       -3.211534    -4.940573     0.703021
H       -2.336372    -2.696753     1.249764
41
ex_0232 frame13 T-shaped S-S-ax/As-eq-conf2
N        4.310900    -1.981551     1.051409
C        3.512862    -1.240655     0.658317
S        2.450000     0.000000     0.000000
Hg       0.000000     0.000000     0.000000
S       -2.450000     0.000000     0.000000
C       -4.198046    -0.344328     0.091221
N       -5.318906    -0.616169     0.287304
As       0.000000     2.510000     0.000000
C       -0.325380     3.181565     1.797162
C       -0.673901     4.518018     2.027051
C       -0.888516     4.961537     3.339384
C       -0.753888     4.074242     4.414879
C       -0.408669     2.741512     4.181428
C       -0.204423     2.296238     2.875138
C        1.486901     3.687243    -0.550303
C        2.795082     3.372543    -0.154505
C        3.876060     4.135163    -0.599395
C        3.654664     5.252119    -1.404551
C        2.349406     5.608206    -1.759471
C        1.262840     4.833415    -1.329823
C       -1.428748     3.134169    -1.191391
C       -2.590410     3.739764    -0.668433
C       -3.593201     4.145934    -1.561935
C       -3.434783     3.968576    -2.941460
C       -2.275615     3.377756    -3.440358
C       -1.272439     2.967844    -2.551658
H       -0.772337     5.210267     1.201931
H       -1.155934     5.992719     3.526125
H       -0.912789     4.417660     5.428935
H       -0.294796     2.053092     5.010235
H        0.070389     1.263330     2.698748
H        2.992448     2.516560     0.464251
H        4.885595     3.852180    -0.326563
H        4.495238     5.838952    -1.752569
H        2.182990     6.479264    -2.378820
H        0.267593     5.122205    -1.629945
H       -2.737410     3.872604     0.387547
H       -4.501917     4.599276    -1.183979
H       -4.214513     4.279859    -3.627576
H       -2.147155     3.231223    -4.505626
H       -0.376522     2.502094    -2.951184
41
ex_0232 frame14 T-shaped S-S-ax/As-eq-conf4
N        5.368992    -0.007961     0.058034
C        4.212046    -0.006035     0.048453
S        2.450000     0.000000     0.000000
Hg       0.000000     0.000000     0.000000
S       -2.450000     0.000000     0.000000
C       -4.212203    -0.007878    -0.055119
N       -5.367858    -0.000388     0.003262
As       0.000000     2.510000     0.000000
C        1.210305     3.281531    -1.342073
C        2.595704     3.143563    -1.192526
C        3.460509     3.599344    -2.191851
C        2.946833     4.236169    -3.324066
C        1.568638     4.428320    -3.451024
C        0.700847     3.972011    -2.453230
C        0.549217     3.178339     1.742124
C        0.603665     2.267299     2.805307
C        0.981252     2.683492     4.079717
C        1.314510     4.020379     4.298926
C        1.268774     4.937406     3.239144
C        0.884432     4.519774     1.954849
C       -1.720160     3.368892    -0.394927
C       -2.207488     4.431570     0.377983
C       -3.462143     4.983932     0.086722
C       -4.223896     4.485297    -0.976203
C       -3.729049     3.441552    -1.759323
C       -2.474048     2.899999    -1.480846
H        3.006329     2.641958    -0.330933
H        4.527482     3.444407    -2.095623
H        3.615320     4.574099    -4.105455
H        1.170725     4.914210    -4.332618
H       -0.359348     4.106551    -2.593681
H        0.342877     1.228311     2.639797
H        1.012580     1.968244     4.893074
H        1.607734     4.341260     5.290126
H        1.531207     5.970742     3.418031
H        0.851382     5.230736     1.140963
H       -1.647611     4.820372     1.212266
H       -3.850954     5.792367     0.691138
H       -5.199369     4.902207    -1.190598
H       -4.319625     3.044010    -2.575370
H       -2.103456     2.080517    -2.084137
41
ex_0232 frame15 T-shaped S-S-ax/As-eq-conf5
N        5.303656    -0.161127     0.584338
C        4.165718    -0.107195     0.392748
S        2.450000     0.000000     0.000000
Hg       0.000000     0.000000     0.000000
S       -2.450000     0.000000     0.000000
C       -4.213290    -0.019329     0.044757
N       -5.368278    -0.000862    -0.000129
As       0.000000     2.510000     0.000000
C       -0.756870     3.124940    -1.689764
C       -0.493152     2.365029    -2.837463
C       -1.031253     2.727736    -4.070622
C       -1.824480     3.870880    -4.169435
C       -2.078164     4.647006    -3.031361
C       -1.540763     4.280881    -1.788047
C        1.749120     3.364008     0.158268
C        2.654637     3.272198    -0.906284
C        3.941255     3.801820    -0.782458
C        4.315122     4.458138     0.392757
C        3.398929     4.590790     1.441226
C        2.107830     4.064305     1.318377
C       -1.032329     3.176614     1.524733
C       -1.553214     2.241693     2.430430
C       -2.295617     2.654962     3.534309
C       -2.527437     4.014371     3.741626
C       -2.009031     4.957623     2.844622
C       -1.261045     4.542894     1.731836
H        0.112492     1.469354    -2.764050
H       -0.837061     2.117715    -4.944469
H       -2.245202     4.149457    -5.126842
H       -2.698377     5.528904    -3.114804
H       -1.761667     4.885019    -0.927159
H        2.381783     2.740258    -1.808646
H        4.652662     3.687802    -1.590400
H        5.317610     4.853137     0.494748
H        3.696286     5.085503     2.356574
H        1.427801     4.146538     2.152931
H       -1.369390     1.185711     2.286922
H       -2.686031     1.919280     4.227360
H       -3.103048     4.333134     4.600930
H       -2.185911     6.010089     3.017444
H       -0.854979     5.281943     1.058059
41
ex_0232 frame16 T-shaped S-S-ax/As-eq
N        5.365715     0.005120     0.006838
C        4.216253    -0.025692    -0.023393
S        2.450000     0.000000     0.000000
Hg       0.000000     0.000000     0.000000
S       -2.450000     0.000000     0.000000
C       -4.208753     0.029304    -0.015854
N       -5.365978     0.006603    -0.003488
As       0.000000     2.510000     0.000000
C        0.856659     3.196351    -1.606219
C        1.029856     4.569401    -1.812161
C        1.643298     5.019901    -2.990108
C        2.084566     4.101972    -3.952333
C        1.914004     2.732614    -3.740825
C        1.305144     2.283556    -2.569561
C        0.937432     3.206554     1.562002
C        0.393008     2.969954     2.831614
C        1.055044     3.408228     3.978119
C        2.258043     4.106584     3.860122
C        2.795020     4.367469     2.593259
C        2.129845     3.929832     1.439404
C       -1.728001     3.434528    -0.013590
C       -2.682685     3.075567    -0.974307
C       -3.956449     3.646771    -0.951833
C       -4.266305     4.619300     0.000697
C       -3.298600     5.024064     0.926445
C       -2.024367     4.442523     0.915026
H        0.686640     5.281809    -1.074305
H        1.775847     6.079354    -3.161468
H        2.555768     4.448542    -4.862957
H        2.249141     2.018036    -4.482722
H        1.168904     1.220624    -2.414790
H       -0.531756     2.414026     2.928817
H        0.639173     3.196697     4.955494
H        2.775752     4.437409     4.751095
H        3.732741     4.899738     2.508792
H        2.566616     4.119950     0.470304
H       -2.458877     2.307246    -1.703118
H       -4.706451     3.322725    -1.662554
H       -5.257329     5.053898     0.024059
H       -3.542735     5.777792     1.663155
H       -1.300907     4.755622     1.651599
41
ex_0232 frame17 T-shaped S-S-ax/As-eq-conf3
N        5.300165     0.616828     0.256605
C        4.167224     0.386340     0.170132
S        2.450000     0.000000     0.000000
Hg       0.000000     0.000000     0.000000
S       -2.450000     0.000000     0.000000
C       -4.209765     0.111786    -0.195886
N       -5.326356     0.192965    -0.386249
As       0.000000     2.510000     0.000000
C       -0.051117     3.113050     1.868150
C       -0.832945     2.393966     2.781051
C       -0.849299     2.748670     4.132276
C       -0.116957     3.853068     4.572198
C        0.637461     4.596926     3.661273
C        0.667819     4.234901     2.310093
C       -1.519080     3.296130    -0.950326
C       -2.168093     2.528775    -1.928437
C       -3.260369     3.038345    -2.626829
C       -3.711202     4.329958    -2.357137
C       -3.063720     5.109350    -1.389116
C       -1.967926     4.593774    -0.678657
C        1.430809     3.530184    -0.935555
C        2.385084     2.822141    -1.682810
C        3.441891     3.474079    -2.312520
C        3.551618     4.858107    -2.220188
C        2.586903     5.587241    -1.514739
C        1.521115     4.930055    -0.876018
H       -1.386150     1.523809     2.453190
H       -1.419725     2.160016     4.839169
H       -0.124970     4.125511     5.619519
H        1.211688     5.447427     4.005248
H        1.284786     4.813263     1.653610
H       -1.817232     1.532127    -2.159646
H       -3.751952     2.430183    -3.376915
H       -4.558942     4.724259    -2.902511
H       -3.415631     6.112291    -1.191349
H       -1.480307     5.201714     0.068821
H        2.314475     1.761464    -1.800649
H        4.173392     2.900589    -2.870586
H        4.378322     5.361065    -2.705734
H        2.672442     6.663502    -1.461509
H        0.792694     5.518399    -0.343845
41
ex_0232 frame18 T-shaped S-S-ax/As-eq-conf6
N        5.370753     0.001366    -0.001014
C        4.213708     0.000000     0.000000
S        2.450000     0.000000     0.000000
Hg       0.000000     0.000000     0.000000
S       -2.450000     0.000000     0.000000
C       -4.239155     0.000000     0.000000
N       -5.396224     0.000749    -0.000085
As       0.000000     2.510000     0.000000
C        0.102093     3.163838     1.824488
C        0.080229     2.234554     2.886962
C        0.122788     2.676449     4.192267
C        0.211448     4.061189     4.458002
C        0.252669     4.976967     3.446588
C        0.196366     4.534074     2.097992
C        1.508269     3.078196    -1.137984
C        2.083944     2.134627    -2.003876
C        3.247004     2.413351    -2.709313
C        3.806212     3.683992    -2.630716
C        3.179933     4.674865    -1.860007
C        2.022320     4.379073    -1.114076
C       -1.639123     3.305185    -0.712828
C       -1.624478     4.110392    -1.857984
C       -2.843101     4.535881    -2.412569
C       -4.056713     4.190605    -1.803857
C       -4.056481     3.455874    -0.620391
C       -2.848528     3.056288    -0.054221
H        0.012963     1.189901     2.638036
H        0.068725     1.946884     4.971972
H        0.231290     4.346273     5.510903
H        0.314100     6.019679     3.681693
H        0.226923     5.283276     1.312488
H        1.655840     1.146634    -2.096045
H        3.721567     1.634315    -3.300632
H        4.720693     3.895717    -3.171878
H        3.610197     5.663562    -1.827077
H        1.573364     5.140157    -0.502430
H       -0.699147     4.342089    -2.363967
H       -2.851956     5.106756    -3.330752
H       -4.998376     4.482832    -2.250496
H       -4.990482     3.169003    -0.150961
H       -2.863789     2.469652     0.852873
