130
ex_0301 frame0 linear
C       -1.602957     3.751846     4.577681
C       -1.375244     2.873059     3.389998
C       -0.637657     3.341322     2.317526
C       -0.450804     2.551671     1.164588
C        0.303213     3.107459    -0.022321
C       -0.639015     3.969368    -0.834063
C       -0.152379     4.654560    -1.957940
C       -0.995200     5.515955    -2.657609
C       -2.330597     5.661503    -2.266292
C       -2.829179     4.943127    -1.182739
C       -1.999489     4.095084    -0.478789
C        1.465505     3.936157     0.453184
C        1.310414     5.319823     0.675478
C        2.371446     6.081916     1.124372
C        3.606620     5.477762     1.352993
C        3.772795     4.104091     1.131389
C        2.701340     3.334763     0.675273
C       -0.965754     1.254512     1.124911
N       -0.736457     0.499416    -0.051607
C       -1.396886     0.698573    -1.288443
C       -0.873773    -0.262003    -2.200068
N        0.111696    -1.004260    -1.510495
C        0.885526    -2.030365    -2.121871
C        2.220679    -1.695048    -2.447988
C        2.824957    -0.356118    -2.081224
C        3.115584     0.431251    -3.350440
C        2.143848     1.300252    -3.871923
C        2.431448     2.062210    -5.007602
C        3.680899     1.955571    -5.628784
C        4.639116     1.075711    -5.130291
C        4.354258     0.300939    -4.015810
C        4.111076    -0.558903    -1.269594
C        5.053646     0.481620    -1.184140
C        6.272196     0.272639    -0.547297
C        6.539565    -0.950403     0.071883
C        5.586151    -1.970097     0.056594
C        4.373778    -1.779320    -0.598784
C        3.021044    -2.623932    -3.133026
C        2.555133    -3.889603    -3.432166
C        3.444261    -4.865511    -4.123698
C        1.262437    -4.245924    -3.087565
C        0.413181    -3.352494    -2.421261
C       -0.981692    -3.851232    -2.051047
C       -2.126358    -3.055595    -2.638219
C       -3.077816    -2.402088    -1.824967
C       -4.158835    -1.741529    -2.414913
C       -4.277376    -1.696140    -3.804763
C       -3.314664    -2.305146    -4.610598
C       -2.238316    -2.969735    -4.030737
C       -1.132747    -4.351427    -0.623372
C       -0.053008    -4.336218     0.281124
C       -0.220482    -4.843880     1.572375
C       -1.465461    -5.330472     1.980640
C       -2.543827    -5.324930     1.098290
C       -2.379577    -4.841604    -0.193056
C        0.151741    -0.551669    -0.181185
Se       1.195686    -1.217301     1.188018
Cu       2.757466    -0.441785     2.837084
Br       4.758633     0.832497     2.478789
C       -1.684144     0.758045     2.234038
C       -2.232884    -0.649549     2.252201
C       -1.724398    -1.470407     3.432641
C       -2.344090    -2.695259     3.718531
C       -1.997929    -3.408407     4.854934
C       -0.974671    -2.947401     5.683286
C       -0.292896    -1.768764     5.370461
C       -0.651035    -1.033623     4.243103
C       -3.751168    -0.598587     2.344310
C       -4.520898    -0.554850     1.177619
C       -5.916140    -0.573840     1.263907
C       -6.543408    -0.615422     2.514450
C       -5.781570    -0.625454     3.680753
C       -4.398509    -0.594818     3.600877
C       -1.896749     1.589415     3.350952
H       -0.639409     3.890055     5.110649
H       -1.981945     4.741603     4.244755
H       -2.341196     3.303919     5.274437
H       -0.274469     4.352509     2.371336
H        0.692453     2.308813    -0.694440
H        0.890764     4.563372    -2.247373
H       -0.608739     6.083749    -3.490682
H       -2.983723     6.334425    -2.795439
H       -3.855803     5.044680    -0.863048
H       -2.437500     3.576860     0.361571
H        0.355855     5.809499     0.523266
H        2.218693     7.138210     1.294472
H        4.429307     6.078602     1.704273
H        4.727757     3.634798     1.313444
H        2.812510     2.274397     0.499413
H       -2.099243     1.482532    -1.505257
H       -1.088675    -0.349828    -3.251283
H        2.155374     0.286670    -1.482705
H        1.180071     1.408501    -3.387928
H        1.691103     2.745624    -5.398539
H        3.914717     2.555651    -6.495001
H        5.612455     0.996302    -5.594739
H        5.127717    -0.361582    -3.650735
H        4.874940     1.433106    -1.669065
H        7.006731     1.063472    -0.540978
H        7.483111    -1.102414     0.570888
H        5.785979    -2.916100     0.541657
H        3.671289    -2.604271    -0.596605
H        4.038882    -2.371614    -3.396975
H        4.486539    -4.757765    -3.752640
H        3.403260    -4.672276    -5.213847
H        3.114710    -5.903772    -3.910809
H        0.916850    -5.241351    -3.331683
H       -1.119370    -4.828417    -2.565383
H       -3.014188    -2.424590    -0.745884
H       -4.914793    -1.273633    -1.799757
H       -5.118558    -1.193381    -4.259018
H       -3.406694    -2.278674    -5.686183
H       -1.508503    -3.461255    -4.661785
H        0.928929    -3.989621    -0.010267
H        0.617961    -4.867981     2.254864
H       -1.597478    -5.720411     2.978685
H       -3.509115    -5.701998     1.405879
H       -3.224728    -4.870732    -0.869790
H       -1.984987    -1.215740     1.329008
H       -3.163726    -3.046662     3.103015
H       -2.548330    -4.305773     5.094718
H       -0.716338    -3.501704     6.571307
H        0.499644    -1.408557     6.012213
H       -0.111084    -0.114936     4.053270
H       -4.037943    -0.537823     0.212261
H       -6.512776    -0.569523     0.363295
H       -7.619881    -0.644280     2.585293
H       -6.252536    -0.671034     4.653205
H       -3.837925    -0.621111     4.526626
H       -2.460060     1.228916     4.199508
130
ex_0301 frame1 Br-Se-conf3
C        1.736285    -5.771815    -2.652529
C        2.507389    -4.695161    -1.965741
C        3.080444    -3.668161    -2.689745
C        3.850434    -2.666272    -2.058207
C        4.494242    -1.601818    -2.927170
C        3.604529    -1.225209    -4.120719
C        3.832030    -1.778092    -5.402941
C        3.011431    -1.444788    -6.475263
C        1.965208    -0.541721    -6.298796
C        1.730769     0.021565    -5.040705
C        2.543722    -0.318262    -3.951748
C        5.858385    -2.096508    -3.394829
C        6.071174    -3.450414    -3.753241
C        7.317536    -3.868860    -4.208127
C        8.367221    -2.956411    -4.300957
C        8.171704    -1.622417    -3.934107
C        6.926681    -1.197228    -3.473379
C        4.002267    -2.692475    -0.629801
N        4.745901    -1.572282    -0.129830
C        6.139186    -1.525453     0.081100
C        6.436240    -0.197013     0.473141
N        5.220203     0.516915     0.521348
C        5.144375     1.930228     0.840644
C        4.638377     2.493425     2.041600
C        4.081983     1.631232     3.133613
C        5.247354     1.517243     4.099509
C        6.114989     0.416527     4.032702
C        7.165250     0.303174     4.946008
C        7.348169     1.280715     5.930235
C        6.499215     2.384372     5.989263
C        5.468988     2.513998     5.071134
C        2.856769     2.237213     3.837921
C        1.981648     3.118616     3.162657
C        0.948274     3.742894     3.860062
C        0.743081     3.460328     5.211745
C        1.561596     2.542680     5.868311
C        2.591829     1.914590     5.181901
C        4.654325     3.896296     2.222916
C        5.154539     4.744105     1.261436
C        5.175268     6.223418     1.492823
C        5.634169     4.219129     0.088251
C        5.631015     2.830098    -0.160518
C        6.152032     2.359458    -1.497053
C        7.527223     3.002938    -1.702074
C        8.673385     2.437070    -1.129806
C        9.919246     3.040199    -1.328693
C       10.027489     4.203343    -2.100014
C        8.893394     4.775200    -2.666797
C        7.658490     4.183500    -2.476223
C        5.249207     2.808382    -2.646053
C        4.046263     3.522092    -2.425928
C        3.312242     3.994929    -3.509157
C        3.735794     3.729033    -4.812169
C        4.890059     2.977026    -5.036473
C        5.630046     2.500242    -3.961174
C        4.210232    -0.351092     0.142457
Se       2.400000     0.000000     0.000000
Cu       0.000000     0.000000     0.000000
Br      -2.399988    -0.008579     0.012549
C        3.425859    -3.783652     0.081758
C        3.615566    -3.980413     1.569942
C        4.992846    -4.531600     1.906905
C        5.288151    -4.884259     3.235783
C        6.531391    -5.414935     3.564337
C        7.496688    -5.594764     2.572387
C        7.219766    -5.240759     1.251018
C        5.983374    -4.698162     0.917438
C        3.031913    -2.934705     2.484427
C        1.662259    -2.653721     2.397256
C        1.067441    -1.785545     3.306606
C        1.843090    -1.164956     4.284937
C        3.220606    -1.388530     4.335529
C        3.825262    -2.240133     3.416003
C        2.648863    -4.726189    -0.596155
H        1.945877    -5.787261    -3.742768
H        0.654773    -5.606580    -2.478491
H        2.035667    -6.753228    -2.224833
H        2.956232    -3.681536    -3.765411
H        4.657290    -0.666134    -2.351004
H        4.616773    -2.490730    -5.591934
H        3.192177    -1.895926    -7.442530
H        1.335264    -0.283568    -7.138798
H        0.915173     0.720118    -4.912021
H        2.343087     0.123598    -2.985889
H        5.290103    -4.191479    -3.716958
H        7.462084    -4.901818    -4.497136
H        9.329875    -3.284307    -4.663686
H        8.981340    -0.912026    -4.014549
H        6.786487    -0.162850    -3.211449
H        6.857659    -2.298022    -0.139340
H        7.409983     0.229161     0.633750
H        3.833412     0.628063     2.757301
H        5.981130    -0.347239     3.279053
H        7.832140    -0.545912     4.896601
H        8.146844     1.188799     6.649964
H        6.625552     3.141646     6.750011
H        4.822279     3.377514     5.146474
H        2.124342     3.385284     2.122509
H        0.320569     4.464084     3.355114
H       -0.045897     3.958217     5.754114
H        1.420352     2.329531     6.918361
H        3.230420     1.235744     5.729799
H        4.300354     4.340665     3.141920
H        5.752110     6.442798     2.414104
H        4.134808     6.594904     1.602397
H        5.649362     6.758572     0.641962
H        6.006812     4.909019    -0.653029
H        6.215109     1.262136    -1.570060
H        8.614991     1.545696    -0.531809
H       10.802580     2.605589    -0.884408
H       10.986743     4.670438    -2.258184
H        8.955997     5.680872    -3.254956
H        6.803523     4.678549    -2.918583
H        3.680375     3.777312    -1.442324
H        2.424330     4.586433    -3.330314
H        3.174154     4.113491    -5.649181
H        5.231184     2.780856    -6.042207
H        6.546225     1.954096    -4.147326
H        2.998403    -4.856804     1.857581
H        4.541521    -4.769405     4.013704
H        6.738541    -5.693805     4.587910
H        8.456037    -6.018791     2.825238
H        7.956720    -5.393151     0.475173
H        5.810748    -4.462554    -0.121367
H        1.046643    -3.165581     1.667591
H        0.000638    -1.619936     3.268051
H        1.372471    -0.517110     5.007257
H        3.825508    -0.915994     5.095497
H        4.891226    -2.396353     3.494229
H        2.214092    -5.555872    -0.056559
130
ex_0301 frame2 Br-Se-conf2
C        4.267537     1.455211     6.322273
C        4.438466     0.981849     4.908938
C        4.774980     1.883740     3.921723
C        5.023370     1.467404     2.601403
C        5.469000     2.498720     1.589041
C        6.975366     2.692082     1.781637
C        7.629359     3.758349     1.140457
C        8.983348     3.988230     1.371121
C        9.709435     3.130820     2.201390
C        9.084773     2.039320     2.801717
C        7.731899     1.815406     2.596866
C        4.704675     3.809070     1.812832
C        5.257567     4.835409     2.614397
C        4.568990     6.018928     2.829702
C        3.320770     6.211056     2.243027
C        2.756819     5.207983     1.444305
C        3.445697     4.007158     1.224799
C        4.864051     0.102296     2.255937
N        5.124172    -0.204125     0.876945
C        6.418904    -0.446579     0.360107
C        6.272162    -0.623236    -1.051067
N        4.883346    -0.514982    -1.335205
C        4.257979    -0.586119    -2.631744
C        3.771476     0.644331    -3.203414
C        4.021789     2.007322    -2.554789
C        2.950265     3.045464    -2.935652
C        1.779258     3.164030    -2.168972
C        0.795342     4.093793    -2.528501
C        0.972940     4.913994    -3.647065
C        2.132953     4.810684    -4.410758
C        3.119782     3.896288    -4.057255
C        5.384875     2.526753    -3.004466
C        6.157041     3.296934    -2.129739
C        7.384499     3.817429    -2.544836
C        7.859395     3.556236    -3.832898
C        7.108785     2.772369    -4.709268
C        5.887192     2.243098    -4.297600
C        3.035846     0.602094    -4.405744
C        2.879423    -0.573050    -5.111110
C        2.177183    -0.566117    -6.430777
C        3.373603    -1.753345    -4.593403
C        4.107041    -1.777613    -3.400425
C        4.715936    -3.093342    -2.976523
C        6.210033    -3.094571    -3.255652
C        7.042464    -4.096511    -2.727753
C        8.407311    -4.086538    -3.008088
C        8.954772    -3.080744    -3.809295
C        8.139359    -2.082948    -4.337677
C        6.782672    -2.078526    -4.056464
C        4.187972    -3.885153    -1.794551
C        4.880447    -3.929599    -0.572314
C        4.429047    -4.768170     0.450146
C        3.258653    -5.513705     0.287180
C        2.527843    -5.415997    -0.897911
C        2.978041    -4.589870    -1.927176
C        4.219497    -0.250839    -0.157418
Se       2.400000     0.000000     0.000000
Cu       0.000000     0.000000     0.000000
Br      -2.400331    -0.007421     0.002903
C        4.469134    -0.817803     3.261661
C        4.273045    -2.281777     2.917172
C        5.282384    -3.156283     3.645907
C        6.605389    -2.708140     3.814844
C        7.528740    -3.497559     4.501334
C        7.145848    -4.739898     5.014917
C        5.841974    -5.199690     4.837544
C        4.915097    -4.418490     4.160095
C        2.833519    -2.740705     3.080313
C        2.278000    -2.947005     4.361327
C        0.976964    -3.425546     4.492141
C        0.204322    -3.664564     3.354671
C        0.733689    -3.425475     2.083935
C        2.041338    -2.963928     1.946646
C        4.260980    -0.359655     4.581995
H        3.275806     1.143415     6.704453
H        4.326928     2.565362     6.387279
H        5.074362     1.031025     6.955446
H        4.932072     2.909055     4.217335
H        5.315073     2.166145     0.544242
H        7.078066     4.449312     0.515939
H        9.462823     4.843108     0.917071
H       10.756455     3.312740     2.385360
H        9.638323     1.365942     3.441492
H        7.300009     0.960367     3.098190
H        6.212663     4.715912     3.107942
H        5.011850     6.779126     3.459960
H        2.792285     7.137139     2.417438
H        1.783572     5.363044     0.999615
H        2.996634     3.236586     0.612403
H        7.341100    -0.407558     0.924845
H        7.076317    -0.737036    -1.759580
H        4.019564     1.931271    -1.449196
H        1.615604     2.531568    -1.308883
H       -0.110845     4.176016    -1.944360
H        0.210842     5.627348    -3.929395
H        2.272057     5.433107    -5.285908
H        3.986517     3.848612    -4.694495
H        5.782818     3.534228    -1.149221
H        7.959914     4.436945    -1.871944
H        8.803135     3.971259    -4.157481
H        7.463946     2.583823    -5.714563
H        5.324785     1.663798    -5.015235
H        2.667294     1.501159    -4.874919
H        2.468673     0.335417    -7.013229
H        1.082589    -0.570763    -6.262669
H        2.465883    -1.457737    -7.026117
H        3.257056    -2.656256    -5.176098
H        4.466229    -3.820248    -3.779571
H        6.648640    -4.904513    -2.127433
H        9.037234    -4.867467    -2.608282
H       10.009564    -3.078157    -4.032760
H        8.547702    -1.309151    -4.973100
H        6.191268    -1.290750    -4.504258
H        5.800191    -3.379488    -0.427978
H        4.997287    -4.851810     1.364219
H        2.920938    -6.169786     1.077606
H        1.625658    -5.998050    -1.032202
H        2.422211    -4.552837    -2.856910
H        4.534922    -2.403020     1.854172
H        6.921265    -1.746576     3.427086
H        8.540779    -3.142902     4.636598
H        7.858619    -5.352110     5.546503
H        5.539761    -6.164195     5.222271
H        3.924513    -4.828587     4.032896
H        2.858957    -2.805868     5.259851
H        0.577361    -3.625489     5.477738
H       -0.802239    -4.041924     3.458334
H        0.137835    -3.608825     1.201372
H        2.439878    -2.797532     0.955647
H        4.022919    -1.040569     5.378560
130
ex_0301 frame3 Br-Se-conf6
C        3.672872     6.428917    -1.879552
C        4.000313     5.026331    -1.456343
C        4.517782     4.146153    -2.352464
C        4.846371     2.829043    -1.955377
C        5.416741     1.917381    -2.947203
C        6.844379     2.293890    -3.132758
C        7.442783     3.295214    -2.356157
C        8.759407     3.645269    -2.541398
C        9.519246     2.997825    -3.512335
C        8.923314     1.995147    -4.289500
C        7.596106     1.638963    -4.094637
C        4.697576     2.027341    -4.243496
C        5.172926     2.901783    -5.239688
C        4.531435     3.013924    -6.447166
C        3.390878     2.253082    -6.690780
C        2.904229     1.380804    -5.705445
C        3.561946     1.273629    -4.476144
C        4.638736     2.418784    -0.651934
N        5.003490     1.078182    -0.295399
C        6.307512     0.654885    -0.191217
C        6.315744    -0.699961     0.183507
N        4.975289    -1.074455     0.294121
C        4.450214    -2.336243     0.647033
C        4.032472    -3.234472    -0.343294
C        4.164757    -2.906119    -1.787027
C        5.574314    -3.149978    -2.213820
C        6.217965    -2.227778    -3.024561
C        7.543907    -2.439385    -3.416904
C        8.222123    -3.568437    -3.008098
C        7.575465    -4.490497    -2.207477
C        6.252604    -4.288907    -1.810476
C        3.148965    -3.731013    -2.540493
C        3.488251    -4.947616    -3.168978
C        2.480652    -5.659969    -3.843488
C        1.177850    -5.165483    -3.900741
C        0.878670    -3.972862    -3.279942
C        1.863081    -3.269191    -2.605937
C        3.473757    -4.478278     0.031065
C        3.364381    -4.831030     1.344889
C        2.796021    -6.147780     1.744555
C        3.778317    -3.971967     2.297835
C        4.335113    -2.724394     1.989189
C        4.790526    -1.843585     3.106866
C        6.273931    -1.784650     3.196691
C        6.914492    -0.589974     3.468859
C        8.322661    -0.580689     3.530584
C        9.063179    -1.749362     3.327615
C        8.400432    -2.925224     3.067941
C        7.019582    -2.936742     3.005971
C        4.196075    -2.365130     4.396253
C        2.912325    -2.019482     4.712401
C        2.315736    -2.463672     5.888879
C        3.015866    -3.276590     6.770582
C        4.313371    -3.638281     6.453572
C        4.921174    -3.190942     5.275121
C        4.206310    -0.000022    -0.000084
Se       2.400000     0.000000     0.000000
Cu       0.000000     0.000000     0.000000
Br      -2.400141     0.000694     0.000474
C        4.091148     3.319022     0.253969
C        3.822798     2.948987     1.652483
C        2.379141     2.937847     2.033439
C        1.355348     3.339137     1.156211
C        0.031042     3.329110     1.564015
C       -0.290939     2.909540     2.836489
C        0.723967     2.504914     3.705942
C        2.054467     2.511799     3.306751
C        4.452054     3.949360     2.586017
C        5.771071     3.821742     2.971165
C        6.325480     4.760921     3.850800
C        5.556829     5.824323     4.333466
C        4.233241     5.954501     3.941758
C        3.691687     5.030212     3.075656
C        3.780809     4.625439    -0.169559
H        2.670736     6.742128    -1.518700
H        3.649917     6.472287    -2.977492
H        4.458079     7.149938    -1.559337
H        4.699199     4.481727    -3.361464
H        5.385936     0.864983    -2.631700
H        6.880971     3.814386    -1.596015
H        9.175765     4.424419    -1.918636
H       10.559832     3.265018    -3.666589
H        9.481939     1.487486    -5.037384
H        7.112249     0.874438    -4.689668
H        6.051547     3.505359    -5.076541
H        4.924551     3.693819    -7.192965
H        2.887724     2.342213    -7.641911
H        2.015602     0.790302    -5.899065
H        3.207329     0.607624    -3.704042
H        7.155069     1.234592    -0.353477
H        7.159942    -1.310712     0.345281
H        3.953819    -1.825086    -1.969009
H        5.723848    -1.360782    -3.355367
H        8.046941    -1.722349    -4.038784
H        9.249773    -3.729704    -3.311756
H        8.128168    -5.356375    -1.905707
H        5.800131    -5.025362    -1.190163
H        4.474250    -5.342019    -3.128759
H        2.690253    -6.589793    -4.332249
H        0.379739    -5.680223    -4.415452
H       -0.124451    -3.574498    -3.314802
H        1.590990    -2.341667    -2.133154
H        3.137649    -5.171443    -0.713390
H        2.867359    -6.869797     0.922954
H        3.401288    -6.541155     2.591089
H        1.736570    -6.021958     2.032124
H        3.687194    -4.281793     3.330585
H        4.393706    -0.817914     2.946247
H        6.356444     0.318503     3.629905
H        8.832485     0.332975     3.732282
H       10.141173    -1.766504     3.366884
H        8.932433    -3.849335     2.905326
H        6.534563    -3.857034     2.804026
H        2.341711    -1.396085     4.055733
H        1.302425    -2.162870     6.105393
H        2.561825    -3.630177     7.696462
H        4.843200    -4.264787     7.137943
H        5.909292    -3.503161     5.081966
H        4.237215     1.947924     1.865723
H        1.560549     3.669353     0.173464
H       -0.734868     3.649484     0.865687
H       -1.330000     2.906997     3.124099
H        0.440190     2.187040     4.682658
H        2.837165     2.198012     4.002565
H        6.353696     3.004571     2.600389
H        7.349895     4.669809     4.161094
H        5.990265     6.544738     5.010136
H        3.608548     6.768910     4.298615
H        2.663247     5.164023     2.795850
H        3.359881     5.335603     0.510464
130
ex_0301 frame4 Br-Se
C        2.996307     0.148697    -6.466844
C        3.522598     0.100296    -5.063938
C        3.566540    -1.067743    -4.390188
C        4.054335    -1.153765    -3.081250
C        4.084022    -2.478915    -2.419561
C        5.428359    -3.118353    -2.552490
C        5.967121    -3.798137    -1.470993
C        7.229712    -4.392645    -1.579043
C        7.954062    -4.316518    -2.755774
C        7.400107    -3.639345    -3.833498
C        6.143706    -3.044044    -3.734005
C        3.019229    -3.387194    -2.998712
C        1.753921    -3.333690    -2.491135
C        0.755286    -4.169217    -2.992292
C        1.021543    -5.064243    -4.023093
C        2.298337    -5.112560    -4.546541
C        3.302633    -4.287033    -4.049603
C        4.500923     0.027523    -2.418681
N        4.980979    -0.004683    -1.071435
C        6.311800    -0.033170    -0.662903
C        6.330386    -0.030842     0.740945
N        5.027093    -0.015089     1.172855
C        4.663799    -0.000847     2.534709
C        4.166309     1.148934     3.183249
C        4.010264     2.445479     2.485055
C        4.618620     3.572002     3.272409
C        3.858305     4.337461     4.172643
C        4.476236     5.377783     4.871643
C        5.830833     5.660389     4.690605
C        6.570951     4.895298     3.802609
C        5.964410     3.863236     3.106109
C        2.626595     2.863053     2.066919
C        1.498338     2.639017     2.854125
C        0.243897     3.078114     2.403464
C        0.110035     3.716474     1.183817
C        1.239547     3.915795     0.421446
C        2.489831     3.484799     0.865573
C        3.807567     1.074358     4.521501
C        3.947508    -0.083550     5.244177
C        3.571702    -0.117813     6.689833
C        4.430180    -1.201467     4.639012
C        4.809849    -1.183516     3.289465
C        5.355860    -2.414663     2.694714
C        4.568229    -3.619453     3.122230
C        3.423951    -3.911867     2.456410
C        2.655004    -5.019706     2.806348
C        3.043549    -5.840376     3.845136
C        4.211222    -5.549824     4.537988
C        4.985474    -4.441015     4.184331
C        6.823413    -2.577641     2.953412
C        7.375455    -2.406218     4.219228
C        8.753462    -2.583695     4.389112
C        9.575827    -2.919149     3.325931
C        9.011748    -3.079724     2.084454
C        7.641604    -2.904954     1.910466
C        4.183368    -0.006746     0.029448
Se       2.400000     0.000000     0.000000
Cu       0.000000     0.000000     0.000000
Br      -2.400060     0.000612     0.000245
C        4.447844     1.223172    -3.138421
C        4.895508     2.504423    -2.548797
C        6.368456     2.657820    -2.386756
C        7.255815     2.272823    -3.395713
C        8.618620     2.462679    -3.179586
C        9.095730     3.015836    -1.981116
C        8.203908     3.383986    -0.989816
C        6.851674     3.198795    -1.196329
C        4.290695     3.631318    -3.363825
C        5.007474     4.282282    -4.366126
C        4.408072     5.311488    -5.093826
C        3.111791     5.704350    -4.830335
C        2.400983     5.057470    -3.834268
C        2.993590     4.021746    -3.104042
C        3.962032     1.234362    -4.454188
H        3.746868    -0.274327    -7.167439
H        2.736051     1.187302    -6.757392
H        2.058700    -0.444323    -6.544506
H        3.212537    -1.957735    -4.894081
H        3.879122    -2.363717    -1.335763
H        5.435963    -3.878173    -0.551520
H        7.604654    -4.903660    -0.707669
H        8.926218    -4.786735    -2.797775
H        7.943677    -3.570948    -4.748570
H        5.777965    -2.539258    -4.600748
H        1.502537    -2.654209    -1.689510
H       -0.229244    -4.127433    -2.583499
H        0.257158    -5.722595    -4.426204
H        2.532977    -5.795824    -5.345619
H        4.255082    -4.367331    -4.493115
H        7.138689    -0.047309    -1.270962
H        7.188222    -0.038568     1.367476
H        4.588581     2.352355     1.535057
H        2.811049     4.127857     4.320234
H        3.926358     5.986236     5.565518
H        6.298267     6.468760     5.238254
H        7.619537     5.086904     3.639283
H        6.565144     3.287384     2.424911
H        1.532383     2.163816     3.783996
H       -0.622224     2.912344     3.014442
H       -0.857473     4.054292     0.830329
H        1.150653     4.404857    -0.514894
H        3.346146     3.657353     0.262217
H        3.443600     1.934697     5.051854
H        2.995813     0.790551     6.955380
H        4.488190    -0.218796     7.315969
H        2.904395    -0.980332     6.865187
H        4.511318    -2.101107     5.236849
H        5.217845    -2.358365     1.573421
H        3.095055    -3.302569     1.647849
H        1.746521    -5.256524     2.276740
H        2.424630    -6.694366     4.094510
H        4.534203    -6.175028     5.350799
H        5.856086    -4.266286     4.737741
H        6.809093    -2.145483     5.066568
H        9.193452    -2.458552     5.350332
H       10.641628    -3.055946     3.445441
H        9.614972    -3.337759     1.243618
H        7.219448    -3.033612     0.949171
H        4.394509     2.573328    -1.560955
H        6.911475     1.840269    -4.336282
H        9.331639     2.186302    -3.930675
H       10.148563     3.160946    -1.813326
H        8.512627     3.814019    -0.048730
H        6.157881     3.489896    -0.425245
H        5.998345     4.017450    -4.612615
H        4.970968     5.808707    -5.868837
H        2.690339     6.509512    -5.415144
H        1.393918     5.375117    -3.641869
H        2.414865     3.551120    -2.353666
H        3.920342     2.143336    -5.025408
130
ex_0301 frame5 Br-Se-conf5
C        3.560383     6.129059     2.383920
C        3.951850     4.757525     1.961654
C        3.880299     4.392366     0.697071
C        4.260412     3.102069     0.272577
C        4.174823     2.850585    -1.137598
C        5.222827     3.792836    -1.716425
C        6.550593     3.448259    -1.681240
C        7.535875     4.296232    -2.199572
C        7.173001     5.503685    -2.763669
C        5.827099     5.858204    -2.807945
C        4.862701     5.029434    -2.297053
C        2.858718     3.284401    -1.747289
C        2.772786     3.391145    -3.103247
C        1.622976     3.846904    -3.710368
C        0.511057     4.150929    -2.963487
C        0.569008     4.019660    -1.591160
C        1.735863     3.576141    -0.952032
C        4.703172     2.132239     1.197096
N        5.024246     0.839362     0.688148
C        6.313096     0.279230     0.637569
C        6.211286    -0.999998     0.041537
N        4.897030    -1.177826    -0.300071
C        4.403593    -2.277899    -0.997456
C        4.453621    -2.103824    -2.368699
C        5.097836    -0.909991    -2.932052
C        4.313677    -0.478644    -4.146904
C        4.747792    -0.790703    -5.429645
C        3.986758    -0.392425    -6.523412
C        2.818566     0.325862    -6.356651
C        2.402104     0.638969    -5.085376
C        3.155173     0.232491    -3.970205
C        6.545035    -1.208986    -3.264466
C        7.512550    -0.280011    -2.967369
C        8.858689    -0.532997    -3.256819
C        9.229354    -1.721933    -3.847896
C        8.254897    -2.655398    -4.152977
C        6.918047    -2.414937    -3.869485
C        3.910273    -3.027445    -3.252439
C        3.380934    -4.153284    -2.818769
C        2.841292    -5.152476    -3.776472
C        3.327869    -4.405578    -1.461474
C        3.874069    -3.543955    -0.530345
C        3.840205    -4.058770     0.879227
C        3.214172    -3.428810     2.073976
C        3.889651    -3.437790     3.285205
C        3.267180    -2.950000     4.413699
C        1.997893    -2.407571     4.352486
C        1.347520    -2.344763     3.138980
C        1.964461    -2.836374     1.979599
C        5.145118    -4.778261     1.114464
C        6.282754    -4.102121     1.533772
C        7.476920    -4.798749     1.760795
C        7.539833    -6.166222     1.550106
C        6.411583    -6.829697     1.126413
C        5.215041    -6.140940     0.909435
C        4.141387    -0.099826     0.139331
Se       2.400000     0.000000     0.000000
Cu       0.000000     0.000000     0.000000
Br      -2.400172     0.000719     0.000266
C        4.788480     2.575962     2.567826
C        5.271535     1.786331     3.723291
C        4.143440     1.574178     4.722870
C        4.288888     2.060536     6.010332
C        3.247609     1.909826     6.948599
C        2.089993     1.267309     6.594019
C        1.954866     0.765373     5.303300
C        2.998905     0.915026     4.367266
C        6.329007     0.743823     3.702032
C        5.987442    -0.550793     3.812298
C        6.993587    -1.526296     3.866339
C        8.343762    -1.164856     3.766761
C        8.678552     0.160414     3.617048
C        7.665597     1.130559     3.567131
C        4.393501     3.854850     2.889858
H        2.681531     6.523286     1.822754
H        3.277783     6.085503     3.447068
H        4.455219     6.774077     2.294789
H        3.511120     5.108104    -0.044198
H        4.384982     1.808068    -1.434358
H        6.818335     2.536004    -1.247186
H        8.570421     4.001940    -2.151590
H        7.921544     6.165125    -3.162243
H        5.547695     6.795190    -3.245089
H        3.845571     5.380869    -2.359793
H        3.635751     3.188577    -3.710657
H        1.599074     3.942536    -4.767438
H       -0.386290     4.485406    -3.476933
H       -0.301924     4.258762    -1.025432
H        1.725179     3.494907     0.097442
H        7.197051     0.700883     0.909402
H        7.003586    -1.654958    -0.178796
H        5.105529    -0.065445    -2.224423
H        5.624551    -1.346471    -5.628031
H        4.306769    -0.634147    -7.507576
H        2.255285     0.626149    -7.234947
H        1.496032     1.196992    -4.956107
H        2.824163     0.481932    -3.011517
H        7.237683     0.632012    -2.519655
H        9.615435     0.189795    -3.020992
H       10.257598    -1.933024    -4.074272
H        8.557094    -3.572317    -4.610471
H        6.227794    -3.168254    -4.127070
H        3.936176    -2.836059    -4.326181
H        3.691975    -5.769336    -4.106443
H        2.109582    -5.822421    -3.291001
H        2.427141    -4.680097    -4.691137
H        2.897550    -5.336804    -1.185436
H        3.138866    -4.945913     0.765670
H        4.855816    -3.859707     3.439691
H        3.760219    -2.990452     5.360951
H        1.555297    -2.048402     5.259763
H        0.361612    -1.917219     3.115794
H        1.430049    -2.776536     1.077196
H        6.266381    -3.082079     1.713703
H        8.339036    -4.255714     2.093466
H        8.443813    -6.735122     1.706172
H        6.458177    -7.885170     0.962601
H        4.386876    -6.721155     0.578970
H        5.866801     2.585292     4.262196
H        5.183972     2.554661     6.268821
H        3.341626     2.293260     7.945700
H        1.304315     1.164447     7.332077
H        1.053594     0.270448     5.046873
H        2.899728     0.532431     3.387383
H        4.946388    -0.810175     3.888383
H        6.750287    -2.533075     3.983902
H        9.133017    -1.906768     3.804168
H        9.696808     0.484443     3.538455
H        7.916440     2.155707     3.456626
H        4.448951     4.187091     3.911005
130
ex_0301 frame6 Br-Se-conf4
C        7.203795     0.240496    -5.532792
C        6.648010     0.230534    -4.160679
C        6.967113     1.204689    -3.285338
C        6.467550     1.229463    -1.994100
C        6.902729     2.380163    -1.105714
C        6.129123     3.659199    -1.728600
C        5.029654     3.536462    -2.597859
C        4.454928     4.681451    -3.131198
C        4.961588     5.942460    -2.799129
C        6.036504     6.073314    -1.939090
C        6.588846     4.948190    -1.375343
C        8.318648     2.747249    -1.225986
C        8.812746     3.579689    -2.261099
C       10.129092     3.942899    -2.309092
C       11.009440     3.456576    -1.363764
C       10.554012     2.612972    -0.357647
C        9.212532     2.252622    -0.277710
C        5.644284     0.136614    -1.540368
N        5.258012     0.091663    -0.158276
C        6.293818     0.177409     0.757080
C        5.795484     0.072343     2.033090
N        4.433763    -0.116488     1.956571
C        3.659311    -0.356575     3.099603
C        3.734954    -1.655959     3.745310
C        4.546555    -2.835559     3.274425
C        3.612075    -3.889784     2.808737
C        3.604034    -5.125898     3.445432
C        2.738737    -6.116765     3.040929
C        1.866695    -5.889843     1.984919
C        1.871214    -4.650892     1.335426
C        2.743710    -3.649388     1.738954
C        5.851601    -2.822590     2.545843
C        7.019307    -2.624146     3.265390
C        8.248951    -2.684359     2.648223
C        8.335189    -2.901618     1.283199
C        7.174525    -3.060567     0.533421
C        5.913349    -3.006741     1.155153
C        3.019360    -1.881757     4.894392
C        2.212834    -0.952370     5.449068
C        1.449789    -1.272612     6.675122
C        2.109506     0.271795     4.874054
C        2.766855     0.596850     3.704703
C        2.465886     1.965797     3.170946
C        3.486809     2.871258     2.629326
C        4.546820     3.263143     3.444859
C        5.457557     4.202537     3.001342
C        5.321478     4.724563     1.710275
C        4.283201     4.286510     0.880513
C        3.396681     3.333468     1.314578
C        1.055277     2.061750     2.647365
C        0.214601     0.947175     2.675807
C       -1.084835     1.058947     2.277001
C       -1.571027     2.251800     1.755222
C       -0.743748     3.350211     1.672730
C        0.564135     3.272609     2.122933
C        4.047239    -0.007453     0.595228
Se       2.400000     0.000000     0.000000
Cu       0.000000     0.000000     0.000000
Br      -2.394413    -0.077245    -0.153997
C        5.279162    -0.847278    -2.494802
C        4.347052    -1.994393    -2.230244
C        4.538469    -3.190653    -3.042249
C        4.133676    -3.371479    -4.390175
C        4.364418    -4.546121    -5.044985
C        5.017689    -5.582233    -4.395680
C        5.426876    -5.422279    -3.072680
C        5.185537    -4.234308    -2.394578
C        2.965273    -1.411598    -3.073773
C        1.846233    -2.238935    -3.120854
C        0.748970    -1.893609    -3.887658
C        0.723014    -0.674188    -4.546971
C        1.807649     0.186124    -4.465673
C        2.912088    -0.149761    -3.712968
C        5.809142    -0.765698    -3.774744
H        7.126333    -0.786725    -5.944612
H        8.285277     0.535218    -5.518787
H        6.607918     0.894463    -6.169430
H        7.625639     1.964231    -3.626973
H        6.479298     2.409338    -0.091234
H        4.638702     2.566047    -2.861868
H        3.615079     4.599002    -3.792279
H        4.527083     6.833337    -3.191280
H        6.432580     7.047884    -1.704722
H        7.454647     5.060660    -0.737585
H        8.156005     4.004680    -3.011730
H       10.452674     4.600815    -3.078697
H       12.053445     3.728289    -1.405480
H       11.255250     2.251697     0.358512
H        8.908905     1.627784     0.521818
H        7.290480     0.259397     0.486941
H        6.361219     0.055971     2.916116
H        4.907764    -3.240177     4.266449
H        4.264975    -5.323053     4.262183
H        2.745069    -7.059265     3.546307
H        1.193533    -6.682452     1.681626
H        1.203527    -4.467650     0.525426
H        2.732340    -2.699140     1.233283
H        6.967493    -2.470311     4.313488
H        9.127014    -2.563755     3.239926
H        9.312890    -2.942229     0.819705
H        7.292928    -3.223358    -0.512443
H        5.007535    -3.143545     0.581009
H        3.080078    -2.840247     5.362479
H        0.600214    -0.569008     6.759533
H        1.030950    -2.300724     6.632045
H        2.127203    -1.145454     7.549722
H        1.444414     0.987736     5.334096
H        2.286167     2.531596     4.106635
H        4.614698     2.874348     4.444621
H        6.246590     4.527388     3.670172
H        6.017112     5.458325     1.349170
H        4.134698     4.670577    -0.098561
H        2.592993     3.022716     0.648653
H        0.525885    -0.005260     3.050139
H       -1.711681     0.199494     2.348834
H       -2.593044     2.322109     1.403717
H       -1.141362     4.253996     1.272376
H        1.171293     4.158616     2.072784
H        3.981744    -2.113553    -1.240331
H        3.615953    -2.592398    -4.940187
H        4.027682    -4.625853    -6.048721
H        5.211501    -6.516289    -4.900416
H        5.925152    -6.227556    -2.577321
H        5.487167    -4.159173    -1.388111
H        1.904602    -3.204055    -2.662286
H       -0.082761    -2.569754    -3.960325
H       -0.140910    -0.388841    -5.115135
H        1.790298     1.121284    -4.971614
H        3.733049     0.545091    -3.712163
H        5.601545    -1.496386    -4.510683
130
ex_0301 frame7 linear
C       -1.602957     3.751846     4.577681
C       -1.375244     2.873059     3.389998
C       -0.637657     3.341322     2.317526
C       -0.450863     2.551695     1.164562
C        0.303213     3.107459    -0.022321
C       -0.639015     3.969368    -0.834063
C       -0.152379     4.654560    -1.957940
C       -0.995200     5.515955    -2.657609
C       -2.330597     5.661503    -2.266292
C       -2.829179     4.943127    -1.182739
C       -1.999489     4.095084    -0.478789
C        1.465505     3.936157     0.453184
C        1.310414     5.319823     0.675478
C        2.371446     6.081916     1.124372
C        3.606620     5.477762     1.352993
C        3.772795     4.104091     1.131389
C        2.701340     3.334763     0.675273
C       -0.967156     1.255090     1.124264
N       -0.739176     0.496976    -0.050560
C       -1.396886     0.698573    -1.288443
C       -0.873773    -0.262003    -2.200068
N        0.109007    -1.006892    -1.509507
C        0.885779    -2.030629    -2.121109
C        2.220769    -1.695158    -2.447734
C        2.824957    -0.356118    -2.081224
C        3.115584     0.431251    -3.350440
C        2.143848     1.300252    -3.871923
C        2.431448     2.062210    -5.007602
C        3.680899     1.955571    -5.628784
C        4.639116     1.075711    -5.130291
C        4.354258     0.300939    -4.015810
C        4.111076    -0.558903    -1.269594
C        5.053646     0.481620    -1.184140
C        6.272196     0.272639    -0.547297
C        6.539565    -0.950403     0.071883
C        5.586151    -1.970097     0.056594
C        4.373778    -1.779320    -0.598784
C        3.021044    -2.623932    -3.133026
C        2.555133    -3.889603    -3.432166
C        3.444261    -4.865511    -4.123698
C        1.262437    -4.245924    -3.087565
C        0.413283    -3.352589    -2.421004
C       -0.981692    -3.851232    -2.051047
C       -2.126358    -3.055595    -2.638219
C       -3.077816    -2.402088    -1.824967
C       -4.158835    -1.741529    -2.414913
C       -4.277376    -1.696140    -3.804763
C       -3.314664    -2.305146    -4.610598
C       -2.238316    -2.969735    -4.030737
C       -1.132747    -4.351427    -0.623372
C       -0.053008    -4.336218     0.281124
C       -0.220482    -4.843880     1.572375
C       -1.465461    -5.330472     1.980640
C       -2.543827    -5.324930     1.098290
C       -2.379577    -4.841604    -0.193056
C        0.149807    -0.553386    -0.180540
Se       1.195686    -1.217301     1.188018
Cu       2.757466    -0.441785     2.837084
Br       4.758633     0.832497     2.478789
C       -1.684628     0.758231     2.233808
C       -2.232884    -0.649549     2.252201
C       -1.724398    -1.470407     3.432641
C       -2.344090    -2.695259     3.718531
C       -1.997929    -3.408407     4.854934
C       -0.974671    -2.947401     5.683286
C       -0.292896    -1.768764     5.370461
C       -0.651035    -1.033623     4.243103
C       -3.751168    -0.598587     2.344310
C       -4.520898    -0.554850     1.177619
C       -5.916140    -0.573840     1.263907
C       -6.543408    -0.615422     2.514450
C       -5.781570    -0.625454     3.680753
C       -4.398509    -0.594818     3.600877
C       -1.896749     1.589415     3.350952
H       -0.639409     3.890055     5.110649
H       -1.981945     4.741603     4.244755
H       -2.341196     3.303919     5.274437
H       -0.274469     4.352509     2.371336
H        0.692453     2.308813    -0.694440
H        0.890764     4.563372    -2.247373
H       -0.608739     6.083749    -3.490682
H       -2.983723     6.334425    -2.795439
H       -3.855803     5.044680    -0.863048
H       -2.437500     3.576860     0.361571
H        0.355855     5.809499     0.523266
H        2.218693     7.138210     1.294472
H        4.429307     6.078602     1.704273
H        4.727757     3.634798     1.313444
H        2.812510     2.274397     0.499413
H       -2.099243     1.482532    -1.505257
H       -1.088675    -0.349828    -3.251283
H        2.155374     0.286670    -1.482705
H        1.180071     1.408501    -3.387928
H        1.691103     2.745624    -5.398539
H        3.914717     2.555651    -6.495001
H        5.612455     0.996302    -5.594739
H        5.127717    -0.361582    -3.650735
H        4.874940     1.433106    -1.669065
H        7.006731     1.063472    -0.540978
H        7.483111    -1.102414     0.570888
H        5.785979    -2.916100     0.541657
H        3.671289    -2.604271    -0.596605
H        4.038882    -2.371614    -3.396975
H        4.486539    -4.757765    -3.752640
H        3.403260    -4.672276    -5.213847
H        3.114710    -5.903772    -3.910809
H        0.916850    -5.241351    -3.331683
H       -1.119370    -4.828417    -2.565383
H       -3.014188    -2.424590    -0.745884
H       -4.914793    -1.273633    -1.799757
H       -5.118558    -1.193381    -4.259018
H       -3.406694    -2.278674    -5.686183
H       -1.508503    -3.461255    -4.661785
H        0.928929    -3.989621    -0.010267
H        0.617961    -4.867981     2.254864
H       -1.597478    -5.720411     2.978685
H       -3.509115    -5.701998     1.405879
H       -3.224728    -4.870732    -0.869790
H       -1.984987    -1.215740     1.329008
H       -3.163726    -3.046662     3.103015
H       -2.548330    -4.305773     5.094718
H       -0.716338    -3.501704     6.571307
H        0.499644    -1.408557     6.012213
H       -0.111084    -0.114936     4.053270
H       -4.037943    -0.537823     0.212261
H       -6.512776    -0.569523     0.363295
H       -7.619881    -0.644280     2.585293
H       -6.252536    -0.671034     4.653205
H       -3.837925    -0.621111     4.526626
H       -2.460060     1.228916     4.199508
130
ex_0301 frame8 Br-Se-conf3
C        1.736285    -5.771815    -2.652529
C        2.507389    -4.695161    -1.965741
C        3.080444    -3.668161    -2.689745
C        3.852372    -2.667624    -2.058434
C        4.494242    -1.601818    -2.927170
C        3.604529    -1.225209    -4.120719
C        3.832030    -1.778092    -5.402941
C        3.011431    -1.444788    -6.475263
C        1.965208    -0.541721    -6.298796
C        1.730769     0.021565    -5.040705
C        2.543722    -0.318262    -3.951748
C        5.858385    -2.096508    -3.394829
C        6.071174    -3.450414    -3.753241
C        7.317536    -3.868860    -4.208127
C        8.367221    -2.956411    -4.300957
C        8.171704    -1.622417    -3.934107
C        6.926681    -1.197228    -3.473379
C        4.004714    -2.693963    -0.630089
N        4.749792    -1.564623    -0.154092
C        6.139186    -1.525453     0.081100
C        6.436240    -0.197013     0.473141
N        5.223531     0.523322     0.495961
C        5.142364     1.930330     0.839753
C        4.637691     2.493473     2.041289
C        4.081983     1.631232     3.133613
C        5.247354     1.517243     4.099509
C        6.114989     0.416527     4.032702
C        7.165250     0.303174     4.946008
C        7.348169     1.280715     5.930235
C        6.499215     2.384372     5.989263
C        5.468988     2.513998     5.071134
C        2.856769     2.237213     3.837921
C        1.981648     3.118616     3.162657
C        0.948274     3.742894     3.860062
C        0.743081     3.460328     5.211745
C        1.561596     2.542680     5.868311
C        2.591829     1.914590     5.181901
C        4.654325     3.896296     2.222916
C        5.154539     4.744105     1.261436
C        5.175268     6.223418     1.492823
C        5.634169     4.219129     0.088251
C        5.630314     2.830152    -0.160811
C        6.152032     2.359458    -1.497053
C        7.527223     3.002938    -1.702074
C        8.673385     2.437070    -1.129806
C        9.919246     3.040199    -1.328693
C       10.027489     4.203343    -2.100014
C        8.893394     4.775200    -2.666797
C        7.658490     4.183500    -2.476223
C        5.249207     2.808382    -2.646053
C        4.046263     3.522092    -2.425928
C        3.312242     3.994929    -3.509157
C        3.735794     3.729033    -4.812169
C        4.890059     2.977026    -5.036473
C        5.630046     2.500242    -3.961174
C        4.212375    -0.346159     0.125050
Se       2.400000     0.000000     0.000000
Cu       0.000000     0.000000     0.000000
Br      -2.399988    -0.008579     0.012549
C        3.426672    -3.784197     0.081583
C        3.615566    -3.980413     1.569942
C        4.992846    -4.531600     1.906905
C        5.288151    -4.884259     3.235783
C        6.531391    -5.414935     3.564337
C        7.496688    -5.594764     2.572387
C        7.219766    -5.240759     1.251018
C        5.983374    -4.698162     0.917438
C        3.031913    -2.934705     2.484427
C        1.662259    -2.653721     2.397256
C        1.067441    -1.785545     3.306606
C        1.843090    -1.164956     4.284937
C        3.220606    -1.388530     4.335529
C        3.825262    -2.240133     3.416003
C        2.648863    -4.726189    -0.596155
H        1.945877    -5.787261    -3.742768
H        0.654773    -5.606580    -2.478491
H        2.035667    -6.753228    -2.224833
H        2.956232    -3.681536    -3.765411
H        4.657290    -0.666134    -2.351004
H        4.616773    -2.490730    -5.591934
H        3.192177    -1.895926    -7.442530
H        1.335264    -0.283568    -7.138798
H        0.915173     0.720118    -4.912021
H        2.343087     0.123598    -2.985889
H        5.290103    -4.191479    -3.716958
H        7.462084    -4.901818    -4.497136
H        9.329875    -3.284307    -4.663686
H        8.981340    -0.912026    -4.014549
H        6.786487    -0.162850    -3.211449
H        6.857659    -2.298022    -0.139340
H        7.409983     0.229161     0.633750
H        3.833412     0.628063     2.757301
H        5.981130    -0.347239     3.279053
H        7.832140    -0.545912     4.896601
H        8.146844     1.188799     6.649964
H        6.625552     3.141646     6.750011
H        4.822279     3.377514     5.146474
H        2.124342     3.385284     2.122509
H        0.320569     4.464084     3.355114
H       -0.045897     3.958217     5.754114
H        1.420352     2.329531     6.918361
H        3.230420     1.235744     5.729799
H        4.300354     4.340665     3.141920
H        5.752110     6.442798     2.414104
H        4.134808     6.594904     1.602397
H        5.649362     6.758572     0.641962
H        6.006812     4.909019    -0.653029
H        6.215109     1.262136    -1.570060
H        8.614991     1.545696    -0.531809
H       10.802580     2.605589    -0.884408
H       10.986743     4.670438    -2.258184
H        8.955997     5.680872    -3.254956
H        6.803523     4.678549    -2.918583
H        3.680375     3.777312    -1.442324
H        2.424330     4.586433    -3.330314
H        3.174154     4.113491    -5.649181
H        5.231184     2.780856    -6.042207
H        6.546225     1.954096    -4.147326
H        2.998403    -4.856804     1.857581
H        4.541521    -4.769405     4.013704
H        6.738541    -5.693805     4.587910
H        8.456037    -6.018791     2.825238
H        7.956720    -5.393151     0.475173
H        5.810748    -4.462554    -0.121367
H        1.046643    -3.165581     1.667591
H        0.000638    -1.619936     3.268051
H        1.372471    -0.517110     5.007257
H        3.825508    -0.915994     5.095497
H        4.891226    -2.396353     3.494229
H        2.214092    -5.555872    -0.056559
130
ex_0301 frame9 Br-Se-conf2
C        4.267537     1.455211     6.322273
C        4.438466     0.981849     4.908938
C        4.774980     1.883740     3.921723
C        5.027465     1.466654     2.602424
C        5.469000     2.498720     1.589041
C        6.975366     2.692082     1.781637
C        7.629359     3.758349     1.140457
C        8.983348     3.988230     1.371121
C        9.709435     3.130820     2.201390
C        9.084773     2.039320     2.801717
C        7.731899     1.815406     2.596866
C        4.704675     3.809070     1.812832
C        5.257567     4.835409     2.614397
C        4.568990     6.018928     2.829702
C        3.320770     6.211056     2.243027
C        2.756819     5.207983     1.444305
C        3.445697     4.007158     1.224799
C        4.863406     0.102411     2.255789
N        5.126918    -0.183279     0.873161
C        6.418904    -0.446579     0.360107
C        6.272162    -0.623236    -1.051067
N        4.886326    -0.490802    -1.338435
C        4.267909    -0.584348    -2.636602
C        3.774707     0.644701    -3.205416
C        4.021789     2.007322    -2.554789
C        2.950265     3.045464    -2.935652
C        1.779258     3.164030    -2.168972
C        0.795342     4.093793    -2.528501
C        0.972940     4.913994    -3.647065
C        2.132953     4.810684    -4.410758
C        3.119782     3.896288    -4.057255
C        5.384875     2.526753    -3.004466
C        6.157041     3.296934    -2.129739
C        7.384499     3.817429    -2.544836
C        7.859395     3.556236    -3.832898
C        7.108785     2.772369    -4.709268
C        5.887192     2.243098    -4.297600
C        3.035846     0.602094    -4.405744
C        2.879423    -0.573050    -5.111110
C        2.177183    -0.566117    -6.430777
C        3.373603    -1.753345    -4.593403
C        4.110237    -1.776777    -3.402385
C        4.715936    -3.093342    -2.976523
C        6.210033    -3.094571    -3.255652
C        7.042464    -4.096511    -2.727753
C        8.407311    -4.086538    -3.008088
C        8.954772    -3.080744    -3.809295
C        8.139359    -2.082948    -4.337677
C        6.782672    -2.078526    -4.056464
C        4.187972    -3.885153    -1.794551
C        4.880447    -3.929599    -0.572314
C        4.429047    -4.768170     0.450146
C        3.258653    -5.513705     0.287180
C        2.527843    -5.415997    -0.897911
C        2.978041    -4.589870    -1.927176
C        4.221321    -0.235084    -0.159807
Se       2.400000     0.000000     0.000000
Cu       0.000000     0.000000     0.000000
Br      -2.400331    -0.007421     0.002903
C        4.468915    -0.817762     3.261612
C        4.273045    -2.281777     2.917172
C        5.282384    -3.156283     3.645907
C        6.605389    -2.708140     3.814844
C        7.528740    -3.497559     4.501334
C        7.145848    -4.739898     5.014917
C        5.841974    -5.199690     4.837544
C        4.915097    -4.418490     4.160095
C        2.833519    -2.740705     3.080313
C        2.278000    -2.947005     4.361327
C        0.976964    -3.425546     4.492141
C        0.204322    -3.664564     3.354671
C        0.733689    -3.425475     2.083935
C        2.041338    -2.963928     1.946646
C        4.260980    -0.359655     4.581995
H        3.275806     1.143415     6.704453
H        4.326928     2.565362     6.387279
H        5.074362     1.031025     6.955446
H        4.932072     2.909055     4.217335
H        5.315073     2.166145     0.544242
H        7.078066     4.449312     0.515939
H        9.462823     4.843108     0.917071
H       10.756455     3.312740     2.385360
H        9.638323     1.365942     3.441492
H        7.300009     0.960367     3.098190
H        6.212663     4.715912     3.107942
H        5.011850     6.779126     3.459960
H        2.792285     7.137139     2.417438
H        1.783572     5.363044     0.999615
H        2.996634     3.236586     0.612403
H        7.341100    -0.407558     0.924845
H        7.076317    -0.737036    -1.759580
H        4.019564     1.931271    -1.449196
H        1.615604     2.531568    -1.308883
H       -0.110845     4.176016    -1.944360
H        0.210842     5.627348    -3.929395
H        2.272057     5.433107    -5.285908
H        3.986517     3.848612    -4.694495
H        5.782818     3.534228    -1.149221
H        7.959914     4.436945    -1.871944
H        8.803135     3.971259    -4.157481
H        7.463946     2.583823    -5.714563
H        5.324785     1.663798    -5.015235
H        2.667294     1.501159    -4.874919
H        2.468673     0.335417    -7.013229
H        1.082589    -0.570763    -6.262669
H        2.465883    -1.457737    -7.026117
H        3.257056    -2.656256    -5.176098
H        4.466229    -3.820248    -3.779571
H        6.648640    -4.904513    -2.127433
H        9.037234    -4.867467    -2.608282
H       10.009564    -3.078157    -4.032760
H        8.547702    -1.309151    -4.973100
H        6.191268    -1.290750    -4.504258
H        5.800191    -3.379488    -0.427978
H        4.997287    -4.851810     1.364219
H        2.920938    -6.169786     1.077606
H        1.625658    -5.998050    -1.032202
H        2.422211    -4.552837    -2.856910
H        4.534922    -2.403020     1.854172
H        6.921265    -1.746576     3.427086
H        8.540779    -3.142902     4.636598
H        7.858619    -5.352110     5.546503
H        5.539761    -6.164195     5.222271
H        3.924513    -4.828587     4.032896
H        2.858957    -2.805868     5.259851
H        0.577361    -3.625489     5.477738
H       -0.802239    -4.041924     3.458334
H        0.137835    -3.608825     1.201372
H        2.439878    -2.797532     0.955647
H        4.022919    -1.040569     5.378560
130
ex_0301 frame10 Br-Se-conf6
C        3.672872     6.428917    -1.879552
C        4.000313     5.026331    -1.456343
C        4.517782     4.146153    -2.352464
C        4.849131     2.829960    -1.954642
C        5.416741     1.917381    -2.947203
C        6.844379     2.293890    -3.132758
C        7.442783     3.295214    -2.356157
C        8.759407     3.645269    -2.541398
C        9.519246     2.997825    -3.512335
C        8.923314     1.995147    -4.289500
C        7.596106     1.638963    -4.094637
C        4.697576     2.027341    -4.243496
C        5.172926     2.901783    -5.239688
C        4.531435     3.013924    -6.447166
C        3.390878     2.253082    -6.690780
C        2.904229     1.380804    -5.705445
C        3.561946     1.273629    -4.476144
C        4.640648     2.419437    -0.651422
N        5.003494     1.078317    -0.294893
C        6.307512     0.654885    -0.191217
C        6.315744    -0.699961     0.183507
N        4.975289    -1.074432     0.294202
C        4.450983    -2.336570     0.647005
C        4.032734    -3.234591    -0.343297
C        4.164757    -2.906119    -1.787027
C        5.574314    -3.149978    -2.213820
C        6.217965    -2.227778    -3.024561
C        7.543907    -2.439385    -3.416904
C        8.222123    -3.568437    -3.008098
C        7.575465    -4.490497    -2.207477
C        6.252604    -4.288907    -1.810476
C        3.148965    -3.731013    -2.540493
C        3.488251    -4.947616    -3.168978
C        2.480652    -5.659969    -3.843488
C        1.177850    -5.165483    -3.900741
C        0.878670    -3.972862    -3.279942
C        1.863081    -3.269191    -2.605937
C        3.473757    -4.478278     0.031065
C        3.364381    -4.831030     1.344889
C        2.796021    -6.147780     1.744555
C        3.778317    -3.971967     2.297835
C        4.335374    -2.724514     1.989177
C        4.790526    -1.843585     3.106866
C        6.273931    -1.784650     3.196691
C        6.914492    -0.589974     3.468859
C        8.322661    -0.580689     3.530584
C        9.063179    -1.749362     3.327615
C        8.400432    -2.925224     3.067941
C        7.019582    -2.936742     3.005971
C        4.196075    -2.365130     4.396253
C        2.912325    -2.019482     4.712401
C        2.315736    -2.463672     5.888879
C        3.015866    -3.276590     6.770582
C        4.313371    -3.638281     6.453572
C        4.921174    -3.190942     5.275121
C        4.206310     0.000034     0.000120
Se       2.400000     0.000000     0.000000
Cu       0.000000     0.000000     0.000000
Br      -2.400141     0.000694     0.000474
C        4.091810     3.319239     0.254154
C        3.822798     2.948987     1.652483
C        2.379141     2.937847     2.033439
C        1.355348     3.339137     1.156211
C        0.031042     3.329110     1.564015
C       -0.290939     2.909540     2.836489
C        0.723967     2.504914     3.705942
C        2.054467     2.511799     3.306751
C        4.452054     3.949360     2.586017
C        5.771071     3.821742     2.971165
C        6.325480     4.760921     3.850800
C        5.556829     5.824323     4.333466
C        4.233241     5.954501     3.941758
C        3.691687     5.030212     3.075656
C        3.780809     4.625439    -0.169559
H        2.670736     6.742128    -1.518700
H        3.649917     6.472287    -2.977492
H        4.458079     7.149938    -1.559337
H        4.699199     4.481727    -3.361464
H        5.385936     0.864983    -2.631700
H        6.880971     3.814386    -1.596015
H        9.175765     4.424419    -1.918636
H       10.559832     3.265018    -3.666589
H        9.481939     1.487486    -5.037384
H        7.112249     0.874438    -4.689668
H        6.051547     3.505359    -5.076541
H        4.924551     3.693819    -7.192965
H        2.887724     2.342213    -7.641911
H        2.015602     0.790302    -5.899065
H        3.207329     0.607624    -3.704042
H        7.155069     1.234592    -0.353477
H        7.159942    -1.310712     0.345281
H        3.953819    -1.825086    -1.969009
H        5.723848    -1.360782    -3.355367
H        8.046941    -1.722349    -4.038784
H        9.249773    -3.729704    -3.311756
H        8.128168    -5.356375    -1.905707
H        5.800131    -5.025362    -1.190163
H        4.474250    -5.342019    -3.128759
H        2.690253    -6.589793    -4.332249
H        0.379739    -5.680223    -4.415452
H       -0.124451    -3.574498    -3.314802
H        1.590990    -2.341667    -2.133154
H        3.137649    -5.171443    -0.713390
H        2.867359    -6.869797     0.922954
H        3.401288    -6.541155     2.591089
H        1.736570    -6.021958     2.032124
H        3.687194    -4.281793     3.330585
H        4.393706    -0.817914     2.946247
H        6.356444     0.318503     3.629905
H        8.832485     0.332975     3.732282
H       10.141173    -1.766504     3.366884
H        8.932433    -3.849335     2.905326
H        6.534563    -3.857034     2.804026
H        2.341711    -1.396085     4.055733
H        1.302425    -2.162870     6.105393
H        2.561825    -3.630177     7.696462
H        4.843200    -4.264787     7.137943
H        5.909292    -3.503161     5.081966
H        4.237215     1.947924     1.865723
H        1.560549     3.669353     0.173464
H       -0.734868     3.649484     0.865687
H       -1.330000     2.906997     3.124099
H        0.440190     2.187040     4.682658
H        2.837165     2.198012     4.002565
H        6.353696     3.004571     2.600389
H        7.349895     4.669809     4.161094
H        5.990265     6.544738     5.010136
H        3.608548     6.768910     4.298615
H        2.663247     5.164023     2.795850
H        3.359881     5.335603     0.510464
130
ex_0301 frame11 Br-Se
C        2.996307     0.148697    -6.466844
C        3.522598     0.100296    -5.063938
C        3.566540    -1.067743    -4.390188
C        4.052132    -1.153399    -3.080409
C        4.084022    -2.478915    -2.419561
C        5.428359    -3.118353    -2.552490
C        5.967121    -3.798137    -1.470993
C        7.229712    -4.392645    -1.579043
C        7.954062    -4.316518    -2.755774
C        7.400107    -3.639345    -3.833498
C        6.143706    -3.044044    -3.734005
C        3.019229    -3.387194    -2.998712
C        1.753921    -3.333690    -2.491135
C        0.755286    -4.169217    -2.992292
C        1.021543    -5.064243    -4.023093
C        2.298337    -5.112560    -4.546541
C        3.302633    -4.287033    -4.049603
C        4.499099     0.027843    -2.418021
N        4.981012    -0.002830    -1.071405
C        6.311800    -0.033170    -0.662903
C        6.330386    -0.030842     0.740945
N        5.027132    -0.012058     1.172840
C        4.666709    -0.000009     2.535471
C        4.167304     1.149207     3.183532
C        4.010264     2.445479     2.485055
C        4.618620     3.572002     3.272409
C        3.858305     4.337461     4.172643
C        4.476236     5.377783     4.871643
C        5.830833     5.660389     4.690605
C        6.570951     4.895298     3.802609
C        5.964410     3.863236     3.106109
C        2.626595     2.863053     2.066919
C        1.498338     2.639017     2.854125
C        0.243897     3.078114     2.403464
C        0.110035     3.716474     1.183817
C        1.239547     3.915795     0.421446
C        2.489831     3.484799     0.865573
C        3.807567     1.074358     4.521501
C        3.947508    -0.083550     5.244177
C        3.571702    -0.117813     6.689833
C        4.430180    -1.201467     4.639012
C        4.810835    -1.183216     3.289747
C        5.355860    -2.414663     2.694714
C        4.568229    -3.619453     3.122230
C        3.423951    -3.911867     2.456410
C        2.655004    -5.019706     2.806348
C        3.043549    -5.840376     3.845136
C        4.211222    -5.549824     4.537988
C        4.985474    -4.441015     4.184331
C        6.823413    -2.577641     2.953412
C        7.375455    -2.406218     4.219228
C        8.753462    -2.583695     4.389112
C        9.575827    -2.919149     3.325931
C        9.011748    -3.079724     2.084454
C        7.641604    -2.904954     1.910466
C        4.183373    -0.005077     0.029455
Se       2.400000     0.000000     0.000000
Cu       0.000000     0.000000     0.000000
Br      -2.400060     0.000612     0.000245
C        4.447214     1.223285    -3.138188
C        4.895508     2.504423    -2.548797
C        6.368456     2.657820    -2.386756
C        7.255815     2.272823    -3.395713
C        8.618620     2.462679    -3.179586
C        9.095730     3.015836    -1.981116
C        8.203908     3.383986    -0.989816
C        6.851674     3.198795    -1.196329
C        4.290695     3.631318    -3.363825
C        5.007474     4.282282    -4.366126
C        4.408072     5.311488    -5.093826
C        3.111791     5.704350    -4.830335
C        2.400983     5.057470    -3.834268
C        2.993590     4.021746    -3.104042
C        3.962032     1.234362    -4.454188
H        3.746868    -0.274327    -7.167439
H        2.736051     1.187302    -6.757392
H        2.058700    -0.444323    -6.544506
H        3.212537    -1.957735    -4.894081
H        3.879122    -2.363717    -1.335763
H        5.435963    -3.878173    -0.551520
H        7.604654    -4.903660    -0.707669
H        8.926218    -4.786735    -2.797775
H        7.943677    -3.570948    -4.748570
H        5.777965    -2.539258    -4.600748
H        1.502537    -2.654209    -1.689510
H       -0.229244    -4.127433    -2.583499
H        0.257158    -5.722595    -4.426204
H        2.532977    -5.795824    -5.345619
H        4.255082    -4.367331    -4.493115
H        7.138689    -0.047309    -1.270962
H        7.188222    -0.038568     1.367476
H        4.588581     2.352355     1.535057
H        2.811049     4.127857     4.320234
H        3.926358     5.986236     5.565518
H        6.298267     6.468760     5.238254
H        7.619537     5.086904     3.639283
H        6.565144     3.287384     2.424911
H        1.532383     2.163816     3.783996
H       -0.622224     2.912344     3.014442
H       -0.857473     4.054292     0.830329
H        1.150653     4.404857    -0.514894
H        3.346146     3.657353     0.262217
H        3.443600     1.934697     5.051854
H        2.995813     0.790551     6.955380
H        4.488190    -0.218796     7.315969
H        2.904395    -0.980332     6.865187
H        4.511318    -2.101107     5.236849
H        5.217845    -2.358365     1.573421
H        3.095055    -3.302569     1.647849
H        1.746521    -5.256524     2.276740
H        2.424630    -6.694366     4.094510
H        4.534203    -6.175028     5.350799
H        5.856086    -4.266286     4.737741
H        6.809093    -2.145483     5.066568
H        9.193452    -2.458552     5.350332
H       10.641628    -3.055946     3.445441
H        9.614972    -3.337759     1.243618
H        7.219448    -3.033612     0.949171
H        4.394509     2.573328    -1.560955
H        6.911475     1.840269    -4.336282
H        9.331639     2.186302    -3.930675
H       10.148563     3.160946    -1.813326
H        8.512627     3.814019    -0.048730
H        6.157881     3.489896    -0.425245
H        5.998345     4.017450    -4.612615
H        4.970968     5.808707    -5.868837
H        2.690339     6.509512    -5.415144
H        1.393918     5.375117    -3.641869
H        2.414865     3.551120    -2.353666
H        3.920342     2.143336    -5.025408
130
ex_0301 frame12 Br-Se-conf5
C        3.560383     6.129059     2.383920
C        3.951850     4.757525     1.961654
C        3.880299     4.392366     0.697071
C        4.262716     3.102845     0.272294
C        4.174823     2.850585    -1.137598
C        5.222827     3.792836    -1.716425
C        6.550593     3.448259    -1.681240
C        7.535875     4.296232    -2.199572
C        7.173001     5.503685    -2.763669
C        5.827099     5.858204    -2.807945
C        4.862701     5.029434    -2.297053
C        2.858718     3.284401    -1.747289
C        2.772786     3.391145    -3.103247
C        1.622976     3.846904    -3.710368
C        0.511057     4.150929    -2.963487
C        0.569008     4.019660    -1.591160
C        1.735863     3.576141    -0.952032
C        4.707114     2.133450     1.196471
N        5.024903     0.841220     0.683870
C        6.313096     0.279230     0.637569
C        6.211286    -0.999998     0.041537
N        4.897674    -1.175975    -0.303469
C        4.407776    -2.279698    -0.997547
C        4.454996    -2.104588    -2.368749
C        5.097836    -0.909991    -2.932052
C        4.313677    -0.478644    -4.146904
C        4.747792    -0.790703    -5.429645
C        3.986758    -0.392425    -6.523412
C        2.818566     0.325862    -6.356651
C        2.402104     0.638969    -5.085376
C        3.155173     0.232491    -3.970205
C        6.545035    -1.208986    -3.264466
C        7.512550    -0.280011    -2.967369
C        8.858689    -0.532997    -3.256819
C        9.229354    -1.721933    -3.847896
C        8.254897    -2.655398    -4.152977
C        6.918047    -2.414937    -3.869485
C        3.910273    -3.027445    -3.252439
C        3.380934    -4.153284    -2.818769
C        2.841292    -5.152476    -3.776472
C        3.327869    -4.405578    -1.461474
C        3.875492    -3.544632    -0.530556
C        3.840205    -4.058770     0.879227
C        3.214172    -3.428810     2.073976
C        3.889651    -3.437790     3.285205
C        3.267180    -2.950000     4.413699
C        1.997893    -2.407571     4.352486
C        1.347520    -2.344763     3.138980
C        1.964461    -2.836374     1.979599
C        5.145118    -4.778261     1.114464
C        6.282754    -4.102121     1.533772
C        7.476920    -4.798749     1.760795
C        7.539833    -6.166222     1.550106
C        6.411583    -6.829697     1.126413
C        5.215041    -6.140940     0.909435
C        4.141665    -0.098557     0.136703
Se       2.400000     0.000000     0.000000
Cu       0.000000     0.000000     0.000000
Br      -2.400172     0.000719     0.000266
C        4.789840     2.576443     2.567588
C        5.271535     1.786331     3.723291
C        4.143440     1.574178     4.722870
C        4.288888     2.060536     6.010332
C        3.247609     1.909826     6.948599
C        2.089993     1.267309     6.594019
C        1.954866     0.765373     5.303300
C        2.998905     0.915026     4.367266
C        6.329007     0.743823     3.702032
C        5.987442    -0.550793     3.812298
C        6.993587    -1.526296     3.866339
C        8.343762    -1.164856     3.766761
C        8.678552     0.160414     3.617048
C        7.665597     1.130559     3.567131
C        4.393501     3.854850     2.889858
H        2.681531     6.523286     1.822754
H        3.277783     6.085503     3.447068
H        4.455219     6.774077     2.294789
H        3.511120     5.108104    -0.044198
H        4.384982     1.808068    -1.434358
H        6.818335     2.536004    -1.247186
H        8.570421     4.001940    -2.151590
H        7.921544     6.165125    -3.162243
H        5.547695     6.795190    -3.245089
H        3.845571     5.380869    -2.359793
H        3.635751     3.188577    -3.710657
H        1.599074     3.942536    -4.767438
H       -0.386290     4.485406    -3.476933
H       -0.301924     4.258762    -1.025432
H        1.725179     3.494907     0.097442
H        7.197051     0.700883     0.909402
H        7.003586    -1.654958    -0.178796
H        5.105529    -0.065445    -2.224423
H        5.624551    -1.346471    -5.628031
H        4.306769    -0.634147    -7.507576
H        2.255285     0.626149    -7.234947
H        1.496032     1.196992    -4.956107
H        2.824163     0.481932    -3.011517
H        7.237683     0.632012    -2.519655
H        9.615435     0.189795    -3.020992
H       10.257598    -1.933024    -4.074272
H        8.557094    -3.572317    -4.610471
H        6.227794    -3.168254    -4.127070
H        3.936176    -2.836059    -4.326181
H        3.691975    -5.769336    -4.106443
H        2.109582    -5.822421    -3.291001
H        2.427141    -4.680097    -4.691137
H        2.897550    -5.336804    -1.185436
H        3.138866    -4.945913     0.765670
H        4.855816    -3.859707     3.439691
H        3.760219    -2.990452     5.360951
H        1.555297    -2.048402     5.259763
H        0.361612    -1.917219     3.115794
H        1.430049    -2.776536     1.077196
H        6.266381    -3.082079     1.713703
H        8.339036    -4.255714     2.093466
H        8.443813    -6.735122     1.706172
H        6.458177    -7.885170     0.962601
H        4.386876    -6.721155     0.578970
H        5.866801     2.585292     4.262196
H        5.183972     2.554661     6.268821
H        3.341626     2.293260     7.945700
H        1.304315     1.164447     7.332077
H        1.053594     0.270448     5.046873
H        2.899728     0.532431     3.387383
H        4.946388    -0.810175     3.888383
H        6.750287    -2.533075     3.983902
H        9.133017    -1.906768     3.804168
H        9.696808     0.484443     3.538455
H        7.916440     2.155707     3.456626
H        4.448951     4.187091     3.911005
130
ex_0301 frame13 Br-Se-conf4
C        7.195248     0.246473    -5.536041
C        6.646705     0.231478    -4.161122
C        6.973612     1.200218    -3.282746
C        6.481711     1.221566    -1.988253
C        6.924586     2.364571    -1.097909
C        6.130525     3.659213    -1.730404
C        5.029654     3.536462    -2.597859
C        4.454928     4.681451    -3.131198
C        4.961588     5.942460    -2.799129
C        6.036504     6.073314    -1.939090
C        6.588846     4.948190    -1.375343
C        8.319352     2.744183    -1.228180
C        8.812746     3.579689    -2.261099
C       10.129092     3.942899    -2.309092
C       11.009440     3.456576    -1.363764
C       10.554012     2.612972    -0.357647
C        9.212532     2.252622    -0.277710
C        5.646060     0.134804    -1.538367
N        5.257569     0.096621    -0.158141
C        6.293818     0.177409     0.757080
C        5.795484     0.072343     2.033090
N        4.433125    -0.111990     1.957102
C        3.658531    -0.356921     3.099000
C        3.734671    -1.656074     3.745111
C        4.546555    -2.835559     3.274425
C        3.612075    -3.889784     2.808737
C        3.604034    -5.125898     3.445432
C        2.738737    -6.116765     3.040929
C        1.866695    -5.889843     1.984919
C        1.871214    -4.650892     1.335426
C        2.743710    -3.649388     1.738954
C        5.851601    -2.822590     2.545843
C        7.019307    -2.624146     3.265390
C        8.248951    -2.684359     2.648223
C        8.335189    -2.901618     1.283199
C        7.174525    -3.060567     0.533421
C        5.913349    -3.006741     1.155153
C        3.019360    -1.881757     4.894392
C        2.212834    -0.952370     5.449068
C        1.449789    -1.272612     6.675122
C        2.109506     0.271795     4.874054
C        2.766577     0.596714     3.704509
C        2.465886     1.965797     3.170946
C        3.486809     2.871258     2.629326
C        4.546820     3.263143     3.444859
C        5.457557     4.202537     3.001342
C        5.321478     4.724563     1.710275
C        4.283201     4.286510     0.880513
C        3.396681     3.333468     1.314578
C        1.055277     2.061750     2.647365
C        0.214601     0.947175     2.675807
C       -1.084835     1.058947     2.277001
C       -1.571027     2.251800     1.755222
C       -0.743748     3.350211     1.672730
C        0.564135     3.272609     2.122933
C        4.047128    -0.004273     0.595529
Se       2.400000     0.000000     0.000000
Cu       0.000000     0.000000     0.000000
Br      -2.394413    -0.077245    -0.153997
C        5.279519    -0.848051    -2.494805
C        4.348730    -1.996391    -2.230953
C        4.538762    -3.190547    -3.042358
C        4.133676    -3.371479    -4.390175
C        4.364418    -4.546121    -5.044985
C        5.017689    -5.582233    -4.395680
C        5.426876    -5.422279    -3.072680
C        5.185537    -4.234308    -2.394578
C        2.965462    -1.411837    -3.074273
C        1.846233    -2.238935    -3.120854
C        0.748970    -1.893609    -3.887658
C        0.723014    -0.674188    -4.546971
C        1.807649     0.186124    -4.465673
C        2.912088    -0.149761    -3.712968
C        5.806649    -0.763935    -3.775661
H        7.126333    -0.786725    -5.944612
H        8.285277     0.535218    -5.518787
H        6.607918     0.894463    -6.169430
H        7.632795     1.959368    -3.624023
H        6.479298     2.409338    -0.091234
H        4.638702     2.566047    -2.861868
H        3.615079     4.599002    -3.792279
H        4.527083     6.833337    -3.191280
H        6.432580     7.047884    -1.704722
H        7.454647     5.060660    -0.737585
H        8.156005     4.004680    -3.011730
H       10.452674     4.600815    -3.078697
H       12.053445     3.728289    -1.405480
H       11.255250     2.251697     0.358512
H        8.908905     1.627784     0.521818
H        7.290480     0.259397     0.486941
H        6.361219     0.055971     2.916116
H        4.907764    -3.240177     4.266449
H        4.264975    -5.323053     4.262183
H        2.745069    -7.059265     3.546307
H        1.193533    -6.682452     1.681626
H        1.203527    -4.467650     0.525426
H        2.732340    -2.699140     1.233283
H        6.967493    -2.470311     4.313488
H        9.127014    -2.563755     3.239926
H        9.312890    -2.942229     0.819705
H        7.292928    -3.223358    -0.512443
H        5.007535    -3.143545     0.581009
H        3.080078    -2.840247     5.362479
H        0.600214    -0.569008     6.759533
H        1.030950    -2.300724     6.632045
H        2.127203    -1.145454     7.549722
H        1.444414     0.987736     5.334096
H        2.286167     2.531596     4.106635
H        4.614698     2.874348     4.444621
H        6.246590     4.527388     3.670172
H        6.017112     5.458325     1.349170
H        4.134698     4.670577    -0.098561
H        2.592993     3.022716     0.648653
H        0.525885    -0.005260     3.050139
H       -1.711681     0.199494     2.348834
H       -2.593044     2.322109     1.403717
H       -1.141362     4.253996     1.272376
H        1.171293     4.158616     2.072784
H        3.981744    -2.113553    -1.240331
H        3.615953    -2.592398    -4.940187
H        4.027682    -4.625853    -6.048721
H        5.211501    -6.516289    -4.900416
H        5.925152    -6.227556    -2.577321
H        5.487167    -4.159173    -1.388111
H        1.904602    -3.204055    -2.662286
H       -0.082761    -2.569754    -3.960325
H       -0.140910    -0.388841    -5.115135
H        1.790298     1.121284    -4.971614
H        3.733049     0.545091    -3.712163
H        5.592771    -1.490450    -4.514343
