90
ex_0492 frame0 trans
C       -0.824449    -2.641104     2.162051
C        0.473845    -2.060875     2.757672
C        1.121525    -3.084146     3.693234
N        0.097276    -0.817163     3.411818
C       -0.150321    -0.651401     4.795140
C       -0.490916     0.692232     5.003288
N       -0.475976     1.324597     3.738455
C       -0.826017     2.715218     3.520681
C        0.209564     3.754445     3.935715
C        1.158257     4.239620     2.982187
C        1.123982     3.841695     1.623695
C        2.073512     4.311694     0.720205
C        3.071354     5.182423     1.139462
C        3.119277     5.600445     2.468087
C        2.166965     5.143459     3.394097
C        2.220898     5.583403     4.715410
C        1.280065     5.160471     5.653630
C        1.355124     5.634082     6.973816
C        0.417499     5.234779     7.923436
C       -0.608253     4.363458     7.566486
C       -0.699904     3.875224     6.259346
C        0.253699     4.255196     5.280094
C       -0.241236     0.341921     2.843386
Se      -0.379740     0.583726     0.935853
Cu       1.582238    -0.046670    -0.294287
I        3.835821     0.934871     0.456975
Se       1.326769    -0.474148    -2.642052
C       -0.306740     0.043050    -3.503300
N       -1.485905    -0.675880    -3.432272
C       -1.849405    -1.821788    -2.584591
C       -1.659264    -3.143625    -3.396406
C       -2.647493    -3.571115    -4.352785
C       -3.867706    -2.880667    -4.522015
C       -4.800499    -3.297772    -5.477334
C       -4.539423    -4.402222    -6.283649
C       -3.352612    -5.111212    -6.125396
C       -2.410794    -4.718187    -5.158486
C       -1.248601    -5.461592    -4.999345
C       -0.311403    -5.130823    -4.027671
C        0.820338    -5.947420    -3.860815
C        1.769243    -5.652328    -2.888452
C        1.604256    -4.537931    -2.074035
C        0.493874    -3.703365    -2.225984
C       -0.493009    -3.984575    -3.210562
C       -2.331111    -0.060618    -4.391454
C       -1.705778     1.099492    -4.851863
N       -0.414331     1.124545    -4.321318
C        0.606819     2.116084    -4.595755
C        0.109778     3.271923    -5.487402
C        1.432505     2.718212    -3.451020
H       -1.304456    -1.941139     1.452461
H       -1.563254    -2.876428     2.956632
H       -0.597886    -3.570156     1.595693
H        1.184237    -1.869151     1.925231
H        1.409128    -3.987598     3.116612
H        2.028291    -2.647372     4.159347
H        0.412808    -3.395209     4.491445
H       -0.093652    -1.415610     5.556174
H       -0.742899     1.148056     5.949400
H       -1.809798     2.845787     4.015054
H       -1.183115     2.822656     2.483855
H        0.391698     3.180120     1.214839
H        2.036148     3.993634    -0.311732
H        3.807333     5.534733     0.430002
H        3.904044     6.280418     2.773142
H        3.006010     6.267891     5.017324
H        2.143360     6.315449     7.271531
H        0.484565     5.606204     8.938267
H       -1.338526     4.065180     8.308722
H       -1.525538     3.216339     6.060373
H       -1.223131    -1.806948    -1.689258
H       -2.863784    -1.762582    -2.141656
H       -4.149652    -2.050452    -3.903396
H       -5.736322    -2.765745    -5.587963
H       -5.265983    -4.722614    -7.020185
H       -3.179229    -5.983826    -6.746201
H       -1.091359    -6.343414    -5.614169
H        0.966041    -6.825599    -4.480354
H        2.632522    -6.293609    -2.762794
H        2.342997    -4.318614    -1.313806
H        0.460166    -2.883440    -1.540631
H       -3.307569    -0.415868    -4.685948
H       -2.081363     1.719287    -5.654752
H        1.282077     1.493802    -5.229352
H       -0.610652     3.903444    -4.926438
H       -0.368478     2.890194    -6.413545
H        0.960796     3.904550    -5.820501
H        0.758080     3.136185    -2.678408
H        2.102625     1.973470    -2.993952
H        2.119112     3.506584    -3.822872
90
ex_0492 frame1 cis-1
C        0.519169    -3.990525    -3.332453
C        0.390444    -2.678134    -4.117882
C       -0.908030    -1.906796    -3.792642
N        1.566240    -1.835254    -3.942050
C        2.462817    -1.471977    -4.980594
C        3.453074    -0.636974    -4.404554
N        3.174912    -0.543655    -3.026907
C        3.964192     0.163838    -2.063139
C        3.879690     1.673376    -1.697683
C        2.977174     2.646203    -2.303377
C        2.027096     2.320404    -3.306183
C        1.197269     3.312451    -3.853541
C        1.284335     4.633161    -3.424941
C        2.197375     4.979232    -2.439692
C        3.042309     4.009986    -1.871693
C        3.942037     4.399094    -0.883623
C        4.795819     3.482672    -0.285085
C        5.685723     3.909561     0.714740
C        6.545881     2.999846     1.330409
C        6.527507     1.660757     0.958515
C        5.658154     1.222101    -0.030924
C        4.773033     2.125275    -0.676324
C        1.973064    -1.160123    -2.786900
Se       1.018519    -1.090192    -1.113134
Cu       1.335713    -2.941917     0.380353
I        3.798060    -3.551639     0.791704
Se      -0.014539    -3.297507     2.332372
C       -1.830672    -2.759680     2.395437
N       -2.439182    -2.006166     3.397061
C       -1.812131    -1.394134     4.563635
C       -1.702305     0.115374     4.407144
C       -0.512269     0.697179     3.866908
C        0.630516    -0.080122     3.558384
C        1.764511     0.506003     3.001486
C        1.791750     1.872486     2.748512
C        0.687199     2.663812     3.060447
C       -0.462861     2.090662     3.627634
C       -1.550936     2.898923     3.952223
C       -2.696882     2.361119     4.537865
C       -3.766304     3.205448     4.874604
C       -4.912898     2.689561     5.475143
C       -5.004487     1.327656     5.749462
C       -3.954875     0.468422     5.417494
C       -2.785655     0.969345     4.789813
C       -3.821677    -1.927498     3.086385
C       -4.020671    -2.590391     1.853797
N       -2.763693    -3.107763     1.452062
C       -2.472668    -3.879581     0.253288
C       -2.008363    -5.286997     0.720497
C       -3.661553    -4.002064    -0.693682
H        0.798834    -4.804388    -4.032836
H        1.318680    -3.929903    -2.563732
H       -0.429617    -4.271169    -2.833937
H        0.279850    -2.935924    -5.195484
H       -0.991821    -1.002457    -4.433036
H       -0.999818    -1.592312    -2.743009
H       -1.787577    -2.553070    -4.007258
H        2.424446    -1.818451    -6.004748
H        4.275876    -0.154957    -4.915937
H        3.778900    -0.371477    -1.107213
H        5.006783    -0.054266    -2.371025
H        1.868027     1.348056    -3.703313
H        0.476253     3.058345    -4.620475
H        0.641942     5.394324    -3.853931
H        2.247162     6.014977    -2.117192
H        3.974971     5.438929    -0.569644
H        5.716271     4.947355     1.022003
H        7.229397     3.330523     2.099053
H        7.189899     0.950034     1.434539
H        5.705795     0.169334    -0.259846
H       -2.365405    -1.725887     5.465416
H       -0.863034    -1.904823     4.800535
H        0.700112    -1.129835     3.736033
H        2.627001    -0.106796     2.769445
H        2.674031     2.320026     2.317114
H        0.731424     3.726271     2.858529
H       -1.502844     3.963234     3.751316
H       -3.713322     4.268139     4.671957
H       -5.730955     3.349223     5.732762
H       -5.894525     0.933805     6.224169
H       -4.097401    -0.567760     5.670695
H       -4.597684    -1.506875     3.705342
H       -4.974342    -2.764660     1.378734
H       -1.643244    -3.416802    -0.316825
H       -1.760862    -5.329334     1.800448
H       -1.103572    -5.594466     0.149835
H       -2.784419    -6.063687     0.552938
H       -3.399681    -4.662234    -1.545495
H       -4.533467    -4.437772    -0.160270
H       -3.922468    -2.994596    -1.077845
90
ex_0492 frame2 trans-conf4
C        3.642212    -0.421071     3.500051
C        3.240902    -1.807831     2.674624
C        3.347313    -2.929315     3.623313
N        4.150860    -1.755142     1.568879
C        5.453494    -2.296879     1.560411
C        6.000229    -2.032240     0.301680
N        5.020254    -1.328273    -0.448138
C        5.198657    -0.867825    -1.813221
C        6.416141     0.328281    -1.616586
C        6.141106     1.719255    -1.348876
C        4.821148     2.217467    -1.262496
C        4.581488     3.569672    -0.998437
C        5.643826     4.451840    -0.809564
C        6.950956     3.987177    -0.892732
C        7.212950     2.633707    -1.164677
C        8.530743     2.200429    -1.251275
C        8.835072     0.875827    -1.540315
C       10.180142     0.485681    -1.644076
C       10.508037    -0.833352    -1.945065
C        9.509077    -1.775001    -2.143700
C        8.163754    -1.411182    -2.040004
C        7.797601    -0.075625    -1.733639
C        3.960077    -1.098705     0.396157
Se       2.400000     0.000000     0.000000
Cu       0.000000     0.000000     0.000000
I       -1.283928     2.226615     0.034980
Se      -1.200026    -2.078446     0.000000
C       -1.420956    -3.770253     0.905360
N       -1.610579    -5.003277     0.300957
C       -1.613478    -5.296277    -1.132185
C       -3.058098    -5.750807    -1.528320
C       -4.043462    -4.802275    -1.992809
C       -3.753766    -3.428266    -2.135780
C       -4.726264    -2.535454    -2.594560
C       -6.004632    -2.985377    -2.911615
C       -6.318332    -4.333774    -2.774540
C       -5.352941    -5.248503    -2.322642
C       -5.689508    -6.590131    -2.201498
C       -4.761318    -7.533696    -1.783462
C       -5.138463    -8.883574    -1.701407
C       -4.224730    -9.850253    -1.294920
C       -2.924042    -9.480843    -0.961077
C       -2.528003    -8.141956    -1.027448
C       -3.439307    -7.140094    -1.443759
C       -1.805422    -5.951141     1.337314
C       -1.725261    -5.264314     2.564977
N       -1.474456    -3.907200     2.268535
C       -1.299913    -2.826839     3.220396
C       -1.780355    -3.182438     4.630650
C        0.100056    -2.306209     3.285159
H        2.865427    -0.256884     4.283466
H        4.633342    -0.491463     3.988531
H        3.617408     0.464243     2.828723
H        2.288713    -1.502248     2.366321
H        2.691790    -2.803081     4.508216
H        3.042153    -3.829830     3.048597
H        4.373209    -3.080467     4.014702
H        5.938949    -2.816389     2.367535
H        6.982386    -2.324582    -0.000926
H        4.333953    -0.277605    -2.157857
H        5.506264    -1.442267    -2.554368
H        3.955757     1.615098    -1.410481
H        3.563304     3.935779    -0.941749
H        5.447941     5.495570    -0.606876
H        7.761603     4.689413    -0.750759
H        9.334632     2.910550    -1.112464
H       10.976577     1.204280    -1.498798
H       11.553403    -1.119897    -2.024033
H        9.777215    -2.796998    -2.380004
H        7.445075    -2.196823    -2.211175
H       -0.885356    -6.055289    -1.470103
H       -1.286155    -4.426066    -1.724136
H       -2.797543    -3.008152    -1.925450
H       -4.487634    -1.486057    -2.709229
H       -6.753815    -2.289449    -3.268773
H       -7.318749    -4.664354    -3.032673
H       -6.695468    -6.912572    -2.466927
H       -6.144799    -9.194479    -1.964190
H       -4.525574   -10.889274    -1.243069
H       -2.218589   -10.239255    -0.649809
H       -1.505387    -7.936067    -0.756472
H       -2.105775    -6.978806     1.229015
H       -1.948832    -5.674050     3.540762
H       -1.963276    -2.022611     2.831654
H       -1.710845    -2.281078     5.279736
H       -2.840102    -3.506642     4.601293
H       -1.149517    -3.980942     5.074806
H        0.195109    -1.393187     3.906658
H        0.734712    -3.124837     3.667864
H        0.381607    -2.065777     2.249351
90
ex_0492 frame3 cis-conf3
C        2.545302    -3.080579     3.179473
C        3.029421    -2.706584     1.858578
C        3.676242    -3.963295     1.078628
N        4.025148    -1.655752     1.779613
C        5.339624    -1.730671     2.294437
C        5.967086    -0.504710     2.005976
N        5.031112     0.310146     1.316974
C        5.289748     1.673481     0.834797
C        6.387269     1.575951    -0.345292
C        6.006094     1.488160    -1.738267
C        4.658985     1.533169    -2.155952
C        4.322952     1.441290    -3.510420
C        5.314726     1.297633    -4.474829
C        6.650600     1.253072    -4.093764
C        7.012541     1.352659    -2.736504
C        8.354602     1.317052    -2.388851
C        8.758039     1.443665    -1.062446
C       10.128567     1.436245    -0.759143
C       10.560694     1.577975     0.556316
C        9.629947     1.727094     1.580835
C        8.259443     1.726618     1.303063
C        7.790958     1.583124    -0.027742
C        3.917239    -0.476158     1.102011
Se       2.400000     0.000000     0.000000
Cu       0.000000     0.000000     0.000000
I       -1.234333     2.133030    -0.727659
Se      -1.200026    -2.078446     0.000000
C       -0.942959    -3.597768    -1.088583
N       -1.168781    -4.857285    -0.596692
C       -1.391537    -5.291369     0.770023
C       -2.848606    -5.439174     1.354721
C       -4.094387    -5.237112     0.609733
C       -4.143449    -4.870262    -0.753089
C       -5.376091    -4.703916    -1.409260
C       -6.576901    -4.891047    -0.732071
C       -6.562133    -5.242383     0.607188
C       -5.344463    -5.418444     1.292597
C       -5.381471    -5.768578     2.633033
C       -4.215655    -5.953655     3.362625
C       -4.299990    -6.293124     4.722710
C       -3.142792    -6.482331     5.476284
C       -1.894661    -6.342368     4.879513
C       -1.790393    -6.011761     3.531057
C       -2.951036    -5.798596     2.738181
C       -1.146346    -5.717295    -1.719880
C       -0.732744    -4.957100    -2.823706
N       -0.580954    -3.606286    -2.402978
C       -0.125899    -2.493220    -3.248845
C       -1.163618    -1.360017    -3.093449
C       -0.155878    -2.911109    -4.730468
H        1.534516    -3.534089     3.092977
H        3.227682    -3.776766     3.706983
H        2.446957    -2.146308     3.773625
H        2.172019    -2.410092     1.205857
H        3.998656    -3.709919     0.045761
H        2.948454    -4.800555     1.027708
H        4.569514    -4.330837     1.632034
H        5.780836    -2.568620     2.811379
H        6.976335    -0.262370     2.274296
H        4.379857     2.124889     0.434873
H        5.629530     2.372305     1.560052
H        3.838765     1.659826    -1.490120
H        3.285017     1.485483    -3.813339
H        5.047306     1.227714    -5.521998
H        7.409148     1.149023    -4.862621
H        9.106974     1.217910    -3.166900
H       10.870915     1.331714    -1.543136
H       11.620637     1.579206     0.778205
H        9.975215     1.845781     2.599656
H        7.601319     1.855792     2.144810
H       -0.859979    -6.253448     0.931269
H       -0.923723    -4.536145     1.434782
H       -3.294691    -4.686040    -1.354787
H       -5.406027    -4.424288    -2.454302
H       -7.525237    -4.758876    -1.242160
H       -7.511023    -5.375933     1.120633
H       -6.341376    -5.889320     3.130541
H       -5.261674    -6.406308     5.210517
H       -3.213350    -6.737333     6.525078
H       -0.996497    -6.488760     5.464642
H       -0.789195    -5.920310     3.143464
H       -1.378466    -6.772056    -1.719827
H       -0.667698    -5.325097    -3.837749
H        0.884284    -2.080235    -3.036372
H       -1.056345    -0.601899    -3.896052
H       -2.199984    -1.763300    -3.118037
H       -1.002176    -0.771339    -2.180913
H        0.645082    -3.648914    -4.938952
H        0.008325    -2.033677    -5.391503
H       -1.147068    -3.346702    -4.989082
90
ex_0492 frame4 trans-conf2
C        2.854134    -2.227752    -2.006383
C        2.810092    -3.252494    -0.625503
C        3.414098    -4.544152    -1.284823
N        3.785412    -2.539530     0.151025
C        5.031348    -3.075494     0.539135
C        5.681727    -2.093167     1.268532
N        4.845300    -0.953324     1.333573
C        5.173528     0.305994     2.020393
C        6.174789     1.158447     1.106444
C        7.583411     0.841604     1.052661
C        8.157071    -0.159081     1.867106
C        9.519270    -0.468844     1.771857
C       10.336539     0.206612     0.869763
C        9.802483     1.211424     0.070945
C        8.440135     1.547311     0.161405
C        7.942194     2.573520    -0.627623
C        6.612554     2.964397    -0.544150
C        6.169885     4.051352    -1.316757
C        4.848993     4.476974    -1.248100
C        3.951842     3.820065    -0.413872
C        4.363378     2.729603     0.357440
C        5.706906     2.277025     0.315682
C        3.776130    -1.244445     0.536439
Se       2.400000     0.000000     0.000000
Cu       0.000000     0.000000     0.000000
I       -1.281851     2.227560    -0.000920
Se      -1.200026    -2.078446     0.000000
C       -0.939273    -3.850754    -0.688325
N       -1.137530    -5.012609     0.031655
C       -1.473063    -5.149337     1.461081
C       -3.047577    -5.250308     1.589324
C       -3.733184    -6.461942     1.234134
C       -3.040714    -7.632798     0.873511
C       -3.733679    -8.784139     0.485606
C       -5.124961    -8.802069     0.472563
C       -5.833727    -7.667354     0.847808
C       -5.155344    -6.498396     1.232641
C       -5.888242    -5.382733     1.610282
C       -5.259944    -4.209979     2.005008
C       -6.045985    -3.104329     2.370157
C       -5.451154    -1.915518     2.770074
C       -4.065374    -1.813411     2.811193
C       -3.258802    -2.897153     2.453462
C       -3.837329    -4.115880     2.016839
C       -0.951074    -6.072079    -0.893568
C       -0.583900    -5.517212    -2.128880
N       -0.609097    -4.129875    -1.980910
C       -0.336048    -3.151155    -3.006174
C       -1.727864    -2.987729    -3.626821
C        0.667867    -3.514368    -4.115074
H        2.807960    -2.752108    -2.963465
H        3.774752    -1.614083    -2.069219
H        1.960605    -1.580545    -1.975026
H        1.891745    -3.374665    -0.399994
H        2.711505    -4.971643    -2.028499
H        4.403783    -4.428780    -1.777295
H        3.482977    -5.263580    -0.444326
H        5.424437    -4.053827     0.323806
H        6.645557    -2.248061     1.677173
H        5.603385     0.184420     3.011980
H        4.260824     0.862068     2.200589
H        7.594554    -0.684649     2.615259
H        9.947504    -1.232863     2.407303
H       11.390863    -0.033371     0.801947
H       10.461696     1.744754    -0.606502
H        8.616130     3.112331    -1.288597
H        6.854600     4.582382    -1.969550
H        4.522110     5.322574    -1.839889
H        2.926366     4.161507    -0.360342
H        3.599240     2.306583     0.972699
H       -1.080967    -4.292652     2.017349
H       -0.986248    -5.993305     1.991807
H       -1.960772    -7.625078     0.881566
H       -3.188381    -9.669215     0.192878
H       -5.658318    -9.718794     0.242914
H       -6.918120    -7.691894     0.807576
H       -6.973775    -5.410714     1.543306
H       -7.129288    -3.170777     2.370994
H       -6.065673    -1.072170     3.048520
H       -3.609868    -0.885265     3.123377
H       -2.208012    -2.719696     2.546187
H       -1.084487    -7.123582    -0.686343
H       -0.486374    -6.047904    -3.065965
H       -0.057762    -2.175319    -2.566811
H       -1.704982    -2.180526    -4.389991
H       -2.047691    -3.932741    -4.119262
H       -2.473917    -2.724493    -2.849788
H        1.094300    -2.581192    -4.546215
H        1.474594    -4.165167    -3.735048
H        0.196517    -4.081139    -4.943131
90
ex_0492 frame5 trans-conf5
C        1.058215    -0.650199    -3.388657
C        2.188490    -1.511710    -3.059218
C        1.871966    -2.547997    -1.855664
N        3.397442    -0.838075    -2.650331
C        4.621207    -0.873494    -3.365395
C        5.543966    -0.093893    -2.635540
N        4.876214     0.399745    -1.498849
C        5.461114     1.238973    -0.493121
C        6.294932     0.900091     0.710215
C        6.630891    -0.459986     1.114213
C        6.191370    -1.615375     0.419828
C        6.561472    -2.897469     0.863014
C        7.363234    -3.062471     1.989565
C        7.801757    -1.950193     2.691572
C        7.449276    -0.655377     2.275152
C        7.909084     0.432841     3.010151
C        7.590511     1.732467     2.646005
C        8.069533     2.807353     3.414069
C        7.758020     4.120778     3.063129
C        6.964764     4.375994     1.950679
C        6.482363     3.326559     1.180232
C        6.787461     1.980830     1.509089
C        3.630369    -0.157566    -1.474370
Se       2.400000     0.000000     0.000000
Cu       0.000000     0.000000     0.000000
I       -1.339480     2.169029    -0.328257
Se      -1.200026    -2.078446     0.000000
C       -2.332076    -2.957635     1.199185
N       -3.564173    -3.521386     0.863507
C       -4.256308    -3.491668    -0.443931
C       -3.972913    -4.843573    -1.228537
C       -4.669427    -6.055690    -0.885072
C       -5.698293    -6.079048     0.075492
C       -6.326211    -7.280142     0.420566
C       -5.962156    -8.473995    -0.195975
C       -4.966042    -8.476085    -1.163668
C       -4.317297    -7.282066    -1.519474
C       -3.332353    -7.314157    -2.493979
C       -2.670332    -6.159642    -2.882429
C       -1.674200    -6.245515    -3.868599
C       -0.991681    -5.111078    -4.281377
C       -1.294016    -3.878705    -3.716278
C       -2.280111    -3.762287    -2.733125
C       -2.977115    -4.905489    -2.274829
C       -4.049853    -4.146583     2.032758
C       -3.122361    -3.920610     3.055787
N       -2.035473    -3.199466     2.512103
C       -0.815682    -2.793096     3.244388
C       -0.607786    -3.822707     4.365171
C        0.446741    -2.888518     2.339879
H        1.214642    -0.285974    -4.424310
H        1.037982     0.239680    -2.721115
H        0.072818    -1.142239    -3.310833
H        2.450986    -2.247273    -3.874466
H        1.527922    -3.532472    -2.241070
H        2.735710    -2.732027    -1.179356
H        1.065620    -2.133599    -1.251108
H        4.803665    -1.399940    -4.292264
H        6.577984     0.098153    -2.890373
H        6.052141     1.995160    -1.142986
H        4.586441     1.876850    -0.114555
H        5.570450    -1.599228    -0.444117
H        6.225101    -3.777612     0.330299
H        7.646796    -4.054011     2.325940
H        8.423299    -2.099675     3.570365
H        8.527334     0.263682     3.888036
H        8.688199     2.632046     4.285705
H        8.130775     4.945251     3.653445
H        6.717517     5.391986     1.674190
H        5.873806     3.609127     0.336383
H       -5.350539    -3.321952    -0.389618
H       -3.938225    -2.621971    -1.026184
H       -5.985309    -5.156188     0.557521
H       -7.101590    -7.285245     1.172339
H       -6.508253    -9.388042     0.015121
H       -4.686849    -9.417786    -1.626386
H       -3.036312    -8.269599    -2.923621
H       -1.430023    -7.197153    -4.329459
H       -0.227513    -5.189045    -5.040566
H       -0.757955    -2.999972    -4.043185
H       -2.464942    -2.766020    -2.392054
H       -4.915258    -4.769517     2.144645
H       -3.179938    -4.355839     4.042403
H       -0.794829    -1.778630     3.688714
H       -1.354496    -3.662345     5.165007
H       -0.698895    -4.853897     3.951420
H        0.398775    -3.723396     4.822067
H        0.429456    -3.765687     1.655649
H        1.381596    -2.944339     2.936239
H        0.605261    -1.940699     1.789423
90
ex_0492 frame6 trans-conf6
C        3.105330     1.441576     2.547853
C        4.470365     1.798390     1.903779
C        5.469088     1.905280     3.068379
N        4.977075     0.872106     0.846367
C        6.352607     0.697915     0.531754
C        6.448258    -0.279375    -0.487187
N        5.130095    -0.716222    -0.811742
C        4.816861    -1.740934    -1.793902
C        5.269982    -3.097904    -1.228277
C        4.356512    -3.908715    -0.478426
C        3.008672    -3.529020    -0.282726
C        2.146322    -4.327151     0.458943
C        2.592307    -5.513314     1.028715
C        3.913343    -5.916232     0.846754
C        4.800267    -5.129458     0.091143
C        6.112475    -5.555605    -0.093373
C        7.012337    -4.805311    -0.847538
C        8.325308    -5.271834    -1.023246
C        9.239857    -4.541547    -1.777519
C        8.854489    -3.341411    -2.369254
C        7.552316    -2.858698    -2.209941
C        6.608533    -3.575938    -1.434275
C        4.208633     0.021754    -0.020876
Se       2.400000     0.000000     0.000000
Cu       0.000000     0.000000     0.000000
I       -1.281347     2.227500     0.050961
Se      -1.200026    -2.078446     0.000000
C       -2.188871    -3.723779     0.101663
N       -2.978768    -4.240417    -0.899758
C       -3.363062    -3.640686    -2.175520
C       -2.655407    -4.500222    -3.270043
C       -1.349301    -4.147714    -3.766691
C       -0.666479    -2.989231    -3.333993
C        0.604397    -2.678814    -3.825567
C        1.223074    -3.508917    -4.754777
C        0.572072    -4.653602    -5.204211
C       -0.708710    -4.981233    -4.726045
C       -1.339946    -6.125633    -5.200134
C       -2.615668    -6.473088    -4.770997
C       -3.227013    -7.625656    -5.294308
C       -4.507534    -7.991151    -4.891590
C       -5.193452    -7.212782    -3.963612
C       -4.603673    -6.064557    -3.424594
C       -3.297798    -5.672250    -3.813345
C       -3.374612    -5.523050    -0.453081
C       -2.867813    -5.708928     0.836572
N       -2.121658    -4.565362     1.168214
C       -1.413236    -4.325305     2.411203
C       -1.992314    -3.359680     3.436194
C       -1.051313    -5.673834     3.064715
H        3.083443     0.380696     2.881816
H        2.895248     2.080603     3.431578
H        2.252271     1.685077     1.890433
H        4.385065     2.820707     1.474822
H        6.426760     2.344537     2.730881
H        5.642779     0.907614     3.523237
H        5.078534     2.592008     3.852661
H        7.187110     1.212290     0.985781
H        7.374452    -0.612694    -0.918915
H        3.748198    -1.722866    -2.055290
H        5.259954    -1.497256    -2.777830
H        2.570243    -2.640765    -0.681164
H        1.125159    -4.014785     0.581886
H        1.911191    -6.122534     1.607620
H        4.241762    -6.845702     1.295659
H        6.437396    -6.489458     0.354255
H        8.644463    -6.205440    -0.573987
H       10.249767    -4.909744    -1.905939
H        9.570271    -2.781019    -2.957049
H        7.326756    -1.929088    -2.703296
H       -4.446277    -3.580696    -2.383359
H       -3.083620    -2.575802    -2.222501
H       -1.076736    -2.293570    -2.640647
H        1.111556    -1.784832    -3.485978
H        2.206831    -3.261806    -5.133289
H        1.068666    -5.283473    -5.934145
H       -0.835270    -6.748382    -5.933032
H       -2.713181    -8.242841    -6.023130
H       -4.969933    -8.879132    -5.304754
H       -6.190895    -7.502264    -3.659415
H       -5.197855    -5.515522    -2.714295
H       -3.952555    -6.240482    -1.016706
H       -2.985064    -6.594122     1.444094
H       -0.452353    -3.910920     2.057431
H       -2.986133    -3.717626     3.774315
H       -2.098002    -2.352915     2.981404
H       -1.310775    -3.276885     4.309912
H       -1.945250    -6.171297     3.493537
H       -0.582218    -6.345968     2.311196
H       -0.305895    -5.521257     3.874445
90
ex_0492 frame7 T-shaped I-Se-ax/Se-eq-conf6
C        3.211874     1.283189     2.683488
C        4.556992     1.659153     2.022137
C        5.594351     1.702437     3.161122
N        5.014774     0.773111     0.913980
C        6.381839     0.570338     0.577406
C        6.440295    -0.355588    -0.485062
N        5.110095    -0.754250    -0.802536
C        4.763929    -1.756262    -1.798390
C        5.225643    -3.113581    -1.233120
C        4.323559    -3.924385    -0.464110
C        2.977964    -3.543653    -0.237108
C        2.129905    -4.339588     0.531877
C        2.590285    -5.531488     1.080148
C        3.904961    -5.937225     0.861242
C        4.777841    -5.146945     0.094015
C        6.087380    -5.572286    -0.113013
C        6.978509    -4.816749    -0.871057
C        8.294577    -5.274698    -1.051299
C        9.202389    -4.538621    -1.807992
C        8.804457    -3.346038    -2.406121
C        7.497473    -2.874740    -2.247148
C        6.564166    -3.590544    -1.456036
C        4.208867    -0.015218     0.013531
Se       2.400000     0.000000     0.000000
Cu       0.000000     0.000000     0.000000
I       -1.815619    -1.818580    -0.012203
Se       0.000000     2.400000     0.000000
C        0.036891     4.231646    -0.050725
N        0.926356     5.154753     0.558305
C        2.085123     4.845256     1.362329
C        3.327067     5.378205     0.613835
C        3.990507     4.557294    -0.350742
C        3.498922     3.289048    -0.703191
C        4.177538     2.491403    -1.621607
C        5.343690     2.938542    -2.219834
C        5.843168     4.195624    -1.901610
C        5.176196     5.013640    -0.973122
C        5.686721     6.270206    -0.670595
C        5.044734     7.104922     0.241445
C        5.592043     8.362982     0.525774
C        4.969243     9.213338     1.432436
C        3.793891     8.820766     2.066701
C        3.229553     7.573367     1.800377
C        3.855606     6.682183     0.891911
C        0.494686     6.478173     0.250318
C       -0.645844     6.383756    -0.577858
N       -0.900426     5.002712    -0.788919
C       -1.959395     4.448606    -1.632386
C       -3.142288     3.898649    -0.826298
C       -2.456924     5.470294    -2.666376
H        3.209106     0.222440     3.012947
H        3.021660     1.925801     3.570069
H        2.344068     1.504402     2.045516
H        4.485045     2.699655     1.653417
H        6.560467     2.117623     2.816383
H        5.747624     0.688521     3.587800
H        5.248306     2.380826     3.972483
H        7.240342     1.025109     1.048526
H        7.355527    -0.699397    -0.928646
H        3.688620    -1.732759    -2.029725
H        5.190537    -1.521050    -2.792076
H        2.536945    -2.651110    -0.622024
H        1.107161    -4.027006     0.701406
H        1.925365    -6.142394     1.676127
H        4.243106    -6.868642     1.299148
H        6.421874    -6.503901     0.332304
H        8.624025    -6.202607    -0.597618
H       10.216728    -4.896497    -1.933081
H        9.515348    -2.781602    -2.996291
H        7.262867    -1.949269    -2.744666
H        1.974690     5.268859     2.378098
H        2.161097     3.766260     1.577364
H        2.564891     2.923142    -0.344353
H        3.794865     1.513377    -1.873456
H        5.823737     2.332661    -2.978752
H        6.794823     4.497317    -2.323972
H        6.634804     6.575585    -1.103930
H        6.469321     8.713502    -0.008482
H        5.399214    10.181054     1.644686
H        3.315209     9.486153     2.769925
H        2.343293     7.326569     2.361766
H        0.957553     7.401239     0.555087
H       -1.189094     7.216483    -1.002311
H       -1.497155     3.626575    -2.222129
H       -3.626080     4.717103    -0.250842
H       -2.813621     3.114688    -0.115611
H       -3.895830     3.450646    -1.509486
H       -2.975645     6.322348    -2.180434
H       -1.596775     5.849744    -3.259602
H       -3.166602     4.983222    -3.369092
90
ex_0492 frame8 T-shaped I-Se-ax/Se-eq-conf3
C        2.563009    -2.974751     3.046720
C        3.107536    -2.763492     1.637791
C        3.774465    -4.014332     1.053183
N        4.068951    -1.683901     1.658199
C        5.325689    -1.712182     2.303219
C        5.955846    -0.470151     2.050853
N        5.069757     0.303875     1.253057
C        5.344732     1.650564     0.747389
C        6.416972     1.572802    -0.371426
C        6.035178     1.490230    -1.754665
C        4.685216     1.543506    -2.162232
C        4.341785     1.451684    -3.509741
C        5.327233     1.300948    -4.480203
C        6.666459     1.249168    -4.107944
C        7.032293     1.350810    -2.757116
C        8.375043     1.313675    -2.412958
C        8.777370     1.442759    -1.090874
C       10.144790     1.434120    -0.788713
C       10.576041     1.576905     0.524510
C        9.646834     1.726802     1.551314
C        8.278219     1.729810     1.274377
C        7.815439     1.583099    -0.052923
C        3.914821    -0.472540     1.012105
Se       2.400000     0.000000     0.000000
Cu       0.000000     0.000000     0.000000
I       -2.051167    -1.097792     1.093721
Se       0.000000     2.400000     0.000000
C       -1.376024     3.587614    -0.414903
N       -1.521679     4.815124     0.205096
C       -0.769870     5.334635     1.314229
C        0.538162     6.176560     1.225375
C        1.179532     6.636926     0.003013
C        0.678876     6.364758    -1.292256
C        1.350157     6.845405    -2.429804
C        2.518289     7.594389    -2.309582
C        3.031543     7.872879    -1.052492
C        2.384370     7.408577     0.103219
C        2.931007     7.709489     1.343031
C        2.333037     7.274292     2.514336
C        2.913876     7.592160     3.750321
C        2.325406     7.159444     4.938345
C        1.155483     6.410156     4.906977
C        0.566907     6.090677     3.695607
C        1.144181     6.512940     2.471630
C       -2.564618     5.519162    -0.437954
C       -3.157210     4.617004    -1.345862
N       -2.365211     3.431832    -1.347542
C       -2.568011     2.249070    -2.196264
C       -1.212434     1.749617    -2.760440
C       -3.452260     2.646768    -3.381347
H        1.452316    -2.972936     3.022768
H        2.944374    -3.912015     3.490022
H        2.861576    -2.126204     3.702400
H        2.239232    -2.510489     0.984351
H        4.046718    -3.848847    -0.012492
H        3.101406    -4.891358     1.131682
H        4.704218    -4.238329     1.615680
H        5.720090    -2.541201     2.867215
H        6.929770    -0.195073     2.402714
H        4.425672     2.153665     0.409469
H        5.641826     2.336139     1.561179
H        3.871201     1.671661    -1.488419
H        3.301011     1.501672    -3.798143
H        5.054375     1.230579    -5.523861
H        7.422922     1.137138    -4.876756
H        9.123870     1.205339    -3.192214
H       10.880350     1.325623    -1.577933
H       11.634978     1.577483     0.741410
H        9.987547     1.844852     2.570314
H        7.621657     1.863328     2.115553
H       -1.496149     5.909655     1.922560
H       -0.470038     4.435958     1.892325
H       -0.201346     5.801435    -1.491198
H        0.962382     6.636150    -3.417627
H        3.032932     7.962706    -3.189662
H        3.944286     8.457402    -0.975784
H        3.845624     8.293392     1.397642
H        3.825418     8.174154     3.794268
H        2.774891     7.403429     5.887730
H        0.690668     6.067999     5.820606
H       -0.337745     5.507078     3.760746
H       -2.888465     6.527475    -0.207731
H       -4.024069     4.823726    -1.955401
H       -3.023428     1.374713    -1.685755
H       -1.356840     1.098162    -3.647003
H       -0.525333     2.579628    -3.025577
H       -0.727342     1.046858    -2.056841
H       -4.507764     2.669574    -3.044964
H       -3.363591     1.925453    -4.217826
H       -3.145364     3.641435    -3.772751
90
ex_0492 frame9 T-shaped I-Se-ax/Se-eq-conf2
C        2.399981    -2.190773    -2.075290
C        2.703786    -3.160567    -0.776947
C        3.324305    -4.415437    -1.443657
N        3.724108    -2.513167     0.058068
C        4.939886    -3.100482     0.499393
C        5.622950    -2.144789     1.271219
N        4.830912    -0.971949     1.305706
C        5.182006     0.273032     2.009559
C        6.224129     1.187787     1.098457
C        7.611874     0.850916     1.020028
C        8.163823    -0.194370     1.783201
C        9.509958    -0.530289     1.657141
C       10.338329     0.176514     0.789885
C        9.823982     1.226877     0.041028
C        8.473374     1.573316     0.149311
C        7.987241     2.630728    -0.604301
C        6.660466     3.009723    -0.521467
C        6.208707     4.080285    -1.307148
C        4.886344     4.480994    -1.244449
C        4.005728     3.816065    -0.397229
C        4.423604     2.753914     0.391663
C        5.756128     2.311051     0.332022
C        3.719782    -1.212033     0.483570
Se       2.400000     0.000000     0.000000
Cu       0.000000     0.000000     0.000000
I       -2.530124    -0.452373    -0.006701
Se       0.000000     2.400000     0.000000
C       -0.494314     3.758676    -1.197237
N       -1.261891     4.881774    -0.902628
C       -1.932551     5.229516     0.361900
C       -0.985129     6.096302     1.276761
C       -0.762893     7.482685     0.986036
C       -1.449564     8.145396    -0.044163
C       -1.181752     9.483925    -0.334049
C       -0.243223    10.193527     0.409624
C        0.433248     9.568487     1.447948
C        0.182862     8.222598     1.748701
C        0.866023     7.626935     2.793594
C        0.643067     6.300875     3.128503
C        1.363814     5.738313     4.189092
C        1.163828     4.413554     4.549301
C        0.242126     3.636110     3.854568
C       -0.488271     4.173501     2.794232
C       -0.288107     5.512930     2.391364
C       -1.286419     5.668547    -2.086854
C       -0.573661     4.971136    -3.076555
N       -0.085434     3.790237    -2.486682
C        0.718206     2.770543    -3.130665
C        2.137976     3.304403    -2.981806
C        0.371978     2.458687    -4.578359
H        2.098292    -2.759548    -2.979850
H        3.227268    -1.503767    -2.357351
H        1.481611    -1.606983    -1.844277
H        1.809476    -3.355257    -0.355075
H        2.622985    -4.846073    -2.186367
H        4.300296    -4.209183    -1.935929
H        3.448026    -5.143703    -0.618622
H        5.291707    -4.098320     0.289763
H        6.574542    -2.317325     1.733653
H        5.656620     0.115489     2.937795
H        4.320269     0.851228     2.230438
H        7.603003    -0.722146     2.526974
H        9.915392    -1.346220     2.237038
H       11.381044    -0.088967     0.696802
H       10.484977     1.784499    -0.613615
H        8.643577     3.130068    -1.314482
H        6.880041     4.583266    -1.997112
H        4.548444     5.306426    -1.853452
H        2.974253     4.132956    -0.352064
H        3.678166     2.341499     1.038763
H       -2.282129     4.313867     0.850883
H       -2.894552     5.754588     0.211540
H       -2.178781     7.599540    -0.624408
H       -1.705180     9.975291    -1.140884
H       -0.103392    11.255777     0.243881
H        1.166474    10.131304     2.015323
H        1.631672     8.191500     3.321909
H        2.081474     6.334160     4.743550
H        1.724811     3.989199     5.368826
H        0.091174     2.605510     4.140007
H       -1.199643     3.511520     2.345720
H       -1.738004     6.629604    -2.241875
H       -0.363995     5.318692    -4.078079
H        0.742391     1.818268    -2.556231
H        2.893485     2.520519    -3.233303
H        2.328555     4.228096    -3.559388
H        2.243805     3.516451    -1.924419
H       -0.177022     1.499449    -4.616032
H       -0.276817     3.243816    -5.012149
H        1.288725     2.397536    -5.199271
90
ex_0492 frame10 cis-2
C       -2.354971    -2.552539     2.255017
C       -3.726044    -2.008901     2.657362
C       -4.703299    -3.154183     2.602996
N       -4.328341    -0.915357     1.917537
C       -5.542185    -0.369685     2.316851
C       -5.906237     0.625934     1.432278
N       -4.925811     0.696886     0.433863
C       -5.044114     1.600605    -0.709197
C       -4.304359     2.995519    -0.588712
C       -3.071917     3.188603    -1.236655
C       -2.516632     2.205285    -2.043339
C       -1.292042     2.460723    -2.686541
C       -0.629949     3.669727    -2.498991
C       -1.170837     4.621849    -1.678896
C       -2.385303     4.421876    -1.057624
C       -2.912187     5.390185    -0.288656
C       -4.127528     5.266403     0.295563
C       -4.645014     6.316890     1.021970
C       -5.885237     6.216022     1.614640
C       -6.622302     5.047800     1.487930
C       -6.110800     3.959767     0.753675
C       -4.864406     4.075157     0.162706
C       -3.875694    -0.246109     0.756061
Se      -2.381394    -0.532216    -0.061684
Cu      -0.024898    -0.219033     0.268232
I        0.466712     2.198440     1.013016
Se       1.819907    -1.453889     1.180277
C        3.396742    -1.042730     1.773946
N        4.600396    -0.776051     1.034918
C        4.811259    -0.790090    -0.402658
C        5.132858    -2.228052    -0.933564
C        6.436638    -2.786947    -0.769649
C        7.458128    -2.048064    -0.215974
C        8.722542    -2.641403    -0.064438
C        8.957824    -3.932700    -0.460509
C        7.926791    -4.680856    -1.019238
C        6.671613    -4.115265    -1.184858
C        5.686903    -4.845527    -1.743314
C        4.465675    -4.329292    -1.979064
C        3.518617    -5.105620    -2.609332
C        2.268419    -4.606445    -2.891737
C        1.949229    -3.315274    -2.519692
C        2.884827    -2.497403    -1.856841
C        4.146994    -3.005754    -1.590210
C        5.622465    -0.476098     1.989982
C        5.056613    -0.551277     3.275417
N        3.704087    -0.907425     3.132017
C        2.812809    -1.092413     4.249127
C        1.680068    -0.053867     4.325971
C        2.234582    -2.477297     4.326618
H       -2.275433    -3.508932     2.744130
H       -2.331025    -2.763780     1.174055
H       -1.533174    -1.961967     2.675178
H       -3.638156    -1.664633     3.689642
H       -5.364128    -3.047590     1.753886
H       -5.301405    -3.173487     3.555455
H       -4.202280    -4.148705     2.490748
H       -6.094647    -0.711177     3.142996
H       -6.740397     1.150127     1.478480
H       -6.109673     1.800438    -0.783815
H       -4.841811     1.110678    -1.609021
H       -2.962424     1.311234    -2.235654
H       -0.868056     1.729541    -3.326033
H        0.301946     3.869251    -2.993058
H       -0.655384     5.549745    -1.558855
H       -2.364041     6.334303    -0.183516
H       -4.087631     7.214729     1.114894
H       -6.288662     7.047161     2.171896
H       -7.579705     4.966285     1.935727
H       -6.697768     3.137780     0.666016
H        5.641778    -0.124326    -0.654289
H        3.976095    -0.319132    -0.906994
H        7.350812    -1.071759     0.055667
H        9.518550    -2.068346     0.352133
H        9.940148    -4.351733    -0.345417
H        8.109662    -5.675041    -1.335536
H        5.900782    -5.859221    -2.069765
H        3.750977    -6.100092    -2.915030
H        1.558882    -5.227452    -3.403594
H        0.981305    -2.942502    -2.749966
H        2.597527    -1.549564    -1.626238
H        6.579929    -0.235339     1.832118
H        5.525747    -0.371059     4.189164
H        3.393004    -0.944321     5.158172
H        2.049721     0.969511     4.179367
H        1.325385    -0.118965     5.360865
H        0.816836    -0.324698     3.683661
H        1.980547    -2.878419     3.313627
H        1.330496    -2.421010     4.954968
H        2.937475    -3.137015     4.837719
90
ex_0492 frame11 T-shaped Se-Se-ax/I-eq-conf4
C        3.413372    -0.582308     3.410593
C        2.984258    -1.947937     2.578225
C        3.063747    -3.071728     3.538856
N        3.960223    -1.797876     1.533702
C        5.297626    -2.235393     1.621283
C        5.909497    -1.907448     0.414109
N        4.946227    -1.274248    -0.400176
C        5.202235    -0.778373    -1.752314
C        6.362980     0.289919    -1.610460
C        6.089017     1.681275    -1.361845
C        4.772483     2.183555    -1.282423
C        4.533853     3.534364    -1.013796
C        5.595646     4.413827    -0.826077
C        6.904627     3.949805    -0.916237
C        7.164378     2.595467    -1.187939
C        8.481229     2.160161    -1.284632
C        8.780902     0.831168    -1.560120
C       10.125179     0.436866    -1.668868
C       10.454003    -0.885819    -1.947321
C        9.447507    -1.831477    -2.120599
C        8.102235    -1.464555    -2.016629
C        7.740298    -0.122937    -1.730600
C        3.901161    -1.119330     0.407865
Se       2.400000     0.000000     0.000000
Cu       0.000000     0.000000     0.000000
I        0.019637     2.553908    -0.303740
Se      -2.400000     0.000000     0.000000
C       -3.900870     0.112712     1.147958
N       -5.039345    -0.610937     0.949529
C       -5.327360    -1.735108     0.063838
C       -6.444921    -1.251780    -0.915532
C       -6.121811    -0.600262    -2.158225
C       -4.788282    -0.389146    -2.568539
C       -4.501832     0.255309    -3.776023
C       -5.531324     0.702041    -4.599151
C       -6.855781     0.501696    -4.223041
C       -7.163789    -0.147464    -3.015311
C       -8.495472    -0.342114    -2.667646
C       -8.843139    -0.988281    -1.488261
C      -10.201844    -1.181589    -1.184840
C      -10.579622    -1.827670    -0.012855
C       -9.608583    -2.285814     0.873192
C       -8.249735    -2.103347     0.595831
C       -7.837928    -1.452301    -0.594047
C       -5.964394    -0.020721     1.834286
C       -5.291137     0.926800     2.608692
N       -3.954973     0.973265     2.174583
C       -2.886162     1.779359     2.726978
C       -3.467877     2.956253     3.530827
C       -1.743957     1.123095     3.501026
H        2.725462    -0.423523     4.266897
H        4.451659    -0.665990     3.798730
H        3.363887     0.313955     2.757312
H        1.970241    -1.717513     2.267607
H        2.360875    -2.936816     4.388697
H        2.774581    -3.982370     2.976166
H        4.081669    -3.216535     3.960453
H        5.758412    -2.725167     2.452152
H        6.921350    -2.106900     0.169655
H        4.295088    -0.342330    -2.205404
H        5.476584    -1.519904    -2.488421
H        3.913424     1.576957    -1.436350
H        3.517537     3.902356    -0.953921
H        5.405348     5.459223    -0.617916
H        7.718170     4.652812    -0.775353
H        9.289408     2.873294    -1.150375
H       10.925185     1.157202    -1.536959
H       11.493561    -1.177613    -2.028385
H        9.712184    -2.858477    -2.335875
H        7.387047    -2.256031    -2.156663
H       -5.647481    -2.672851     0.549428
H       -4.422923    -2.091766    -0.462272
H       -3.952616    -0.718598    -1.999368
H       -3.473508     0.406943    -4.077721
H       -5.304159     1.199268    -5.533970
H       -7.643631     0.850397    -4.882060
H       -9.277188     0.005425    -3.337413
H      -10.974709    -0.833199    -1.861764
H      -11.629733    -1.973056     0.208092
H       -9.911886    -2.786147     1.783367
H       -7.563481    -2.480387     1.333889
H       -7.014794    -0.264729     1.893621
H       -5.726043     1.549498     3.376484
H       -2.467651     2.217861     1.795918
H       -2.676808     3.706931     3.739986
H       -4.262003     3.467489     2.943620
H       -3.892517     2.605716     4.495429
H       -0.960427     1.879531     3.723824
H       -2.117131     0.690921     4.452226
H       -1.278822     0.320548     2.891683
90
ex_0492 frame12 T-shaped Se-Se-ax/I-eq
C        1.685088    -2.898270     1.983744
C        2.881442    -3.002374     1.210069
C        3.463457    -4.462230     1.120993
N        3.943025    -2.024074     1.320772
C        5.272269    -2.281438     1.741946
C        5.956375    -1.056805     1.700021
N        5.046220    -0.066433     1.256444
C        5.368481     1.352964     1.076095
C        6.486642     1.533513    -0.054820
C        6.146803     1.756632    -1.440344
C        4.807982     1.840667    -1.881475
C        4.510012     2.071839    -3.229066
C        5.530084     2.210192    -4.165497
C        6.857421     2.122272    -3.761304
C        7.179616     1.901638    -2.410728
C        8.514408     1.827121    -2.036096
C        8.878968     1.637525    -0.709567
C       10.242230     1.600868    -0.371695
C       10.637833     1.424024     0.949336
C        9.679155     1.273346     1.947738
C        8.315235     1.294776     1.635246
C        7.885136     1.487251     0.299387
C        3.909338    -0.740875     0.924895
Se       2.400000     0.000000     0.000000
Cu       0.000000     0.000000     0.000000
I        0.090875     2.210048     1.313792
Se      -2.400000     0.000000     0.000000
C       -3.816758     1.290165    -0.053507
N       -4.995232     1.269275     0.743051
C       -5.353586     0.235215     1.728413
C       -6.200331    -0.924834     1.138586
C       -7.598636    -0.735744     0.870541
C       -8.269983     0.453298     1.231303
C       -9.626413     0.625107     0.947069
C      -10.338614    -0.372556     0.288256
C       -9.703079    -1.558578    -0.071064
C       -8.344335    -1.758366     0.228600
C       -7.738851    -2.963177    -0.108391
C       -6.408472    -3.213215     0.214462
C       -5.850256    -4.465253    -0.092611
C       -4.528905    -4.750113     0.234800
C       -3.748557    -3.790143     0.871390
C       -4.277460    -2.532183     1.177457
C       -5.619384    -2.213365     0.850370
C       -5.767533     2.420966     0.422374
C       -5.078839     3.132219    -0.595829
N       -3.868537     2.432323    -0.878276
C       -2.847921     2.828139    -1.858359
C       -3.147238     4.215932    -2.441490
C       -1.465000     2.897941    -1.172685
H        1.250596    -1.881284     1.892709
H        1.971649    -3.066898     3.041623
H        0.907986    -3.629464     1.679294
H        2.610154    -2.839227     0.034621
H        2.688306    -5.169683     0.754545
H        4.341656    -4.558468     0.445340
H        3.755600    -4.752293     2.151300
H        5.690201    -3.228818     2.039533
H        6.984902    -0.919606     1.961800
H        5.706408     1.854367     1.962761
H        4.474500     1.929854     0.798292
H        3.974267     1.759434    -1.225206
H        3.479374     2.148099    -3.550113
H        5.293624     2.391905    -5.206833
H        7.637988     2.240788    -4.505790
H        9.287539     1.951422    -2.789985
H       11.005457     1.723958    -1.133394
H       11.691766     1.408788     1.198350
H        9.996709     1.140599     2.973360
H        7.636200     1.174499     2.461127
H       -4.419909    -0.078205     2.217413
H       -5.864302     0.692440     2.600072
H       -7.795001     1.241182     1.774998
H      -10.129696     1.535077     1.247753
H      -11.389876    -0.233882     0.070742
H      -10.280662    -2.331355    -0.565315
H       -8.325803    -3.737346    -0.593515
H       -6.443279    -5.230091    -0.581873
H       -4.111690    -5.721216    -0.000347
H       -2.724177    -4.023751     1.132342
H       -3.607079    -1.865156     1.679053
H       -6.688571     2.745657     0.870058
H       -5.408944     4.060496    -1.037544
H       -2.795679     2.106250    -2.703949
H       -3.179149     4.963833    -1.619968
H       -4.112945     4.213124    -2.987166
H       -2.350297     4.508184    -3.156737
H       -1.607364     3.494232    -0.258911
H       -1.061803     1.878518    -1.096378
H       -0.727093     3.396418    -1.832212
90
ex_0492 frame13 T-shaped Se-Se-ax/I-eq-conf3
C        2.567075    -3.120069     3.318016
C        2.921050    -2.641950     1.971042
C        3.517340    -3.844828     1.096228
N        3.928391    -1.611167     1.817435
C        5.267675    -1.729304     2.255506
C        5.914452    -0.535255     1.927238
N        4.976143     0.310277     1.291205
C        5.271700     1.660035     0.794238
C        6.345824     1.580712    -0.313650
C        5.971034     1.498638    -1.707408
C        4.622632     1.549851    -2.126433
C        4.298518     1.448860    -3.474632
C        5.286962     1.301326    -4.442308
C        6.621611     1.257400    -4.058020
C        6.980039     1.362286    -2.699500
C        8.321738     1.330732    -2.347555
C        8.718733     1.455118    -1.021995
C       10.089860     1.448842    -0.710680
C       10.516361     1.583356     0.605713
C        9.582816     1.724570     1.628710
C        8.212861     1.726164     1.345366
C        7.751022     1.588444     0.011858
C        3.890176    -0.469314     1.126864
Se       2.400000     0.000000     0.000000
Cu       0.000000     0.000000     0.000000
I        0.209026     2.467670    -0.683703
Se      -2.400000     0.000000     0.000000
C       -3.590457    -1.231369    -0.798581
N       -4.767042    -1.525893    -0.184448
C       -5.200620    -1.248037     1.172467
C       -6.064994     0.050055     1.409052
C       -6.492310     0.990324     0.372748
C       -6.144018     0.868820    -0.994976
C       -6.614636     1.782198    -1.946013
C       -7.427927     2.843409    -1.572261
C       -7.767083     3.009798    -0.238901
C       -7.309964     2.106851     0.739144
C       -7.667014     2.320552     2.061317
C       -7.247052     1.468512     3.068838
C       -7.609511     1.746477     4.399280
C       -7.204569     0.907216     5.431079
C       -6.444310    -0.222929     5.150895
C       -6.074124    -0.519197     3.836972
C       -6.459275     0.329967     2.766961
C       -5.533207    -2.190138    -1.166986
C       -4.710231    -2.378148    -2.287685
N       -3.417935    -1.851288    -1.999887
C       -2.233545    -1.993618    -2.859002
C       -1.708393    -0.573422    -3.150985
C       -2.594597    -2.623212    -4.217866
H        1.797106    -3.919649     3.260921
H        3.455114    -3.505295     3.860739
H        2.139543    -2.260448     3.875507
H        2.001740    -2.335379     1.419404
H        3.796914    -3.513243     0.073466
H        2.776212    -4.666927     1.012045
H        4.425307    -4.263337     1.584333
H        5.708213    -2.576723     2.748480
H        6.938065    -0.325419     2.132556
H        4.345719     2.175117     0.481879
H        5.607554     2.359223     1.603260
H        3.809064     1.681259    -1.457352
H        3.255384     1.492227    -3.786016
H        5.022730     1.225985    -5.489449
H        7.382772     1.152075    -4.824157
H        9.076053     1.230024    -3.123817
H       10.834047     1.345604    -1.493652
H       11.575404     1.582201     0.831919
H        9.923756     1.833084     2.649498
H        7.554571     1.840373     2.189258
H       -5.759241    -2.117441     1.581591
H       -4.306111    -1.099637     1.811982
H       -5.507345     0.138449    -1.396550
H       -6.341566     1.670353    -2.988660
H       -7.785769     3.547975    -2.313135
H       -8.388332     3.856332     0.036109
H       -8.272670     3.187566     2.316189
H       -8.200501     2.623992     4.640388
H       -7.482494     1.135484     6.452798
H       -6.134265    -0.873461     5.957499
H       -5.483085    -1.409597     3.697643
H       -6.565604    -2.491650    -1.068764
H       -5.000250    -2.854292    -3.212658
H       -1.417061    -2.609628    -2.424045
H       -0.927395    -0.596433    -3.939544
H       -2.538032     0.084052    -3.492753
H       -1.207536    -0.117122    -2.287538
H       -2.931690    -3.671305    -4.081147
H       -1.705112    -2.637474    -4.884277
H       -3.391025    -2.036719    -4.726621
90
ex_0492 frame14 T-shaped Se-Se-ax/I-eq-conf2
C        2.301052    -2.499166    -2.064518
C        2.686441    -3.311947    -0.837907
C        3.233110    -4.666743    -1.336169
N        3.696255    -2.569151    -0.061470
C        5.008724    -3.033012     0.187775
C        5.670865    -2.076333     0.946570
N        4.777694    -1.005331     1.178535
C        5.098314     0.214787     1.948363
C        6.093858     1.096995     1.133875
C        7.494516     0.774022     1.101125
C        8.046247    -0.260691     1.887638
C        9.403927    -0.582430     1.793577
C       10.242317     0.129556     0.941456
C        9.729159     1.169909     0.175926
C        8.366244     1.504447     0.248148
C        7.883575     2.553400    -0.521167
C        6.546403     2.923812    -0.475203
C        6.103829     3.986816    -1.279957
C        4.773169     4.382935    -1.258205
C        3.868011     3.724152    -0.434051
C        4.282422     2.663221     0.376666
C        5.627108     2.220254     0.355301
C        3.730262    -1.314062     0.397565
Se       2.400000     0.000000     0.000000
Cu       0.000000     0.000000     0.000000
I       -0.003591     2.546257     0.350852
Se      -2.400000     0.000000     0.000000
C       -3.732695    -1.290961    -0.334408
N       -4.817716    -1.424597     0.463554
C       -5.127919    -0.907499     1.802333
C       -6.005655     0.382359     1.575460
C       -7.399117     0.263908     1.245457
C       -8.061246    -0.980954     1.225780
C       -9.406479    -1.069059     0.853275
C      -10.124016     0.075064     0.518826
C       -9.501262     1.317196     0.554349
C       -8.148199     1.426798     0.917763
C       -7.553555     2.680504     0.952840
C       -6.221285     2.835207     1.314068
C       -5.661040     4.123303     1.326576
C       -4.331895     4.312884     1.682941
C       -3.544982     3.221378     2.031121
C       -4.076727     1.929469     2.027153
C       -5.423130     1.702442     1.643368
C       -5.657629    -2.235682    -0.334065
C       -4.940940    -2.676008    -1.441193
N       -3.700116    -2.052517    -1.414452
C       -2.642349    -2.221155    -2.364345
C       -3.214712    -1.282282    -3.443510
C       -2.355748    -3.603466    -2.950519
H        1.687348    -3.101900    -2.765806
H        3.220824    -2.169119    -2.598030
H        1.672077    -1.627764    -1.842373
H        1.769059    -3.562258    -0.221361
H        2.471890    -5.188631    -1.954294
H        4.128209    -4.505227    -1.977845
H        3.499603    -5.331460    -0.488613
H        5.443663    -3.958636    -0.140023
H        6.677555    -2.190077     1.266434
H        5.499161     0.020594     2.980146
H        4.159789     0.737874     2.193946
H        7.400898    -0.817315     2.551033
H        9.808697    -1.389765     2.385836
H       11.305810    -0.082614     0.918993
H       10.394534     1.697904    -0.499212
H        8.554380     3.060325    -1.210769
H        6.797374     4.524919    -1.917733
H        4.463475     5.263949    -1.813213
H        2.834603     4.037727    -0.422341
H        3.522929     2.252849     1.006904
H       -4.202133    -0.676606     2.340019
H       -5.631284    -1.601836     2.504364
H       -7.509687    -1.872785     1.484274
H       -9.895965    -2.031313     0.823751
H      -11.180659     0.008346     0.285071
H      -10.068209     2.194221     0.259282
H       -8.126830     3.550995     0.643088
H       -6.264645     4.992015     1.085478
H       -3.911540     5.307702     1.689094
H       -2.512423     3.376539     2.307068
H       -3.393219     1.164750     2.332728
H       -6.683136    -2.480545    -0.100018
H       -5.302600    -3.324220    -2.225683
H       -1.678312    -1.794798    -2.015010
H       -2.500100    -1.157847    -4.282011
H       -4.169775    -1.677977    -3.853597
H       -3.421048    -0.282025    -3.003906
H       -1.900152    -4.254422    -2.176498
H       -3.287434    -4.077734    -3.325260
H       -1.643404    -3.508864    -3.798621
90
ex_0492 frame15 T-shaped I-Se-ax/Se-eq-conf5
C        1.092251    -0.775092    -3.435280
C        2.209407    -1.645316    -2.924419
C        1.787251    -2.547373    -1.764587
N        3.401703    -0.890982    -2.561685
C        4.564550    -0.781760    -3.342429
C        5.497061    -0.016283    -2.608094
N        4.857601     0.395634    -1.434452
C        5.424635     1.242086    -0.454504
C        6.287834     0.855736     0.740298
C        6.643965    -0.505474     1.145318
C        6.219483    -1.625090     0.465961
C        6.594993    -2.895019     0.907465
C        7.393845    -3.053550     2.030380
C        7.822080    -1.943258     2.715460
C        7.477137    -0.670877     2.308403
C        7.923050     0.430156     3.004471
C        7.577715     1.698032     2.623368
C        8.038903     2.763566     3.367396
C        7.721673     4.060878     3.003068
C        6.929351     4.301396     1.894144
C        6.455458     3.248417     1.151735
C        6.769957     1.921288     1.498959
C        3.594718    -0.174581    -1.386708
Se       2.400000     0.000000     0.000000
Cu       0.000000     0.000000     0.000000
I       -2.485470    -0.659814    -0.036033
Se       0.000000     2.400000     0.000000
C       -0.810738     3.718428    -0.902039
N       -1.497694     4.838598    -0.386412
C       -1.693230     5.208594     1.009680
C       -0.610591     6.204631     1.489300
C       -0.704938     7.580291     1.157127
C       -1.813916     8.106118     0.489224
C       -1.852735     9.446292     0.140638
C       -0.805948    10.291560     0.467583
C        0.291798     9.798098     1.148958
C        0.349488     8.455939     1.498653
C        1.446129     7.997817     2.179805
C        1.543737     6.683273     2.552111
C        2.677418     6.270043     3.232145
C        2.816722     4.959329     3.624794
C        1.814500     4.041167     3.338478
C        0.666294     4.436131     2.655511
C        0.520979     5.760724     2.229245
C       -1.983018     5.570188    -1.482595
C       -1.581440     4.903461    -2.648827
N       -0.844093     3.784277    -2.276209
C       -0.223028     2.855459    -3.198689
C        0.107024     3.607054    -4.462112
C        1.093582     2.342445    -2.657617
H        1.148864    -0.497061    -4.495643
H        1.423835     0.095901    -3.048620
H        0.056747    -0.992284    -3.104010
H        2.455597    -2.259741    -3.786653
H        1.683157    -3.571170    -2.146125
H        2.597960    -2.575660    -1.011248
H        0.829350    -2.245430    -1.279228
H        4.696898    -1.189380    -4.314688
H        6.476232     0.288152    -2.916191
H        6.068517     1.917845    -1.047712
H        4.591767     1.823939    -0.008821
H        5.612821    -1.581457    -0.390800
H        6.262910    -3.757663     0.368754
H        7.681659    -4.038383     2.366146
H        8.448768    -2.057028     3.604823
H        8.526548     0.271545     3.881896
H        8.653451     2.581214     4.225252
H        8.098420     4.871779     3.589030
H        6.671951     5.300234     1.594121
H        5.846789     3.520671     0.304996
H       -2.709219     5.642543     1.101076
H       -1.790835     4.306046     1.635394
H       -2.683988     7.535815     0.271344
H       -2.707869     9.836151    -0.391486
H       -0.842888    11.335331     0.192670
H        1.112458    10.450871     1.406278
H        2.276926     8.666783     2.369890
H        3.457968     6.978699     3.455385
H        3.705283     4.649000     4.154469
H        1.926161     3.012464     3.647834
H       -0.087634     3.701090     2.513032
H       -2.544974     6.459976    -1.506578
H       -1.776315     5.175568    -3.654856
H       -0.903991     1.997018    -3.432245
H       -0.814636     3.714606    -5.059187
H        0.500437     4.599444    -4.170436
H        0.883557     3.093562    -5.050266
H        1.675270     3.015955    -2.016938
H        1.771435     2.015541    -3.466490
H        0.776994     1.506401    -2.030464
90
ex_0492 frame16 T-shaped Se-Se-ax/I-eq-conf6
C        3.191558     1.509502     2.540245
C        4.563223     1.803631     1.891058
C        5.578694     1.854769     3.050612
N        5.013792     0.865243     0.825399
C        6.378084     0.666813     0.475422
C        6.435260    -0.314432    -0.537396
N        5.105409    -0.737718    -0.824279
C        4.755642    -1.772437    -1.786646
C        5.221146    -3.127653    -1.223968
C        4.323302    -3.941157    -0.453026
C        2.977662    -3.561193    -0.220123
C        2.132487    -4.360898     0.547891
C        2.595100    -5.554200     1.090526
C        3.909993    -5.958031     0.867261
C        4.779931    -5.164116     0.100642
C        6.090330    -5.586990    -0.110264
C        6.977841    -4.828123    -0.869360
C        8.294747    -5.283267    -1.053961
C        9.198541    -4.544283    -1.812840
C        8.796120    -3.352248    -2.408868
C        7.488662    -2.883391    -2.244466
C        6.560023    -3.602460    -1.451380
C        4.208614     0.022086    -0.021484
Se       2.400000     0.000000     0.000000
Cu       0.000000     0.000000     0.000000
I       -0.024823     2.482210    -0.644002
Se      -2.400000     0.000000     0.000000
C       -4.232902    -0.015798    -0.025328
N       -5.137015     0.902454    -0.621614
C       -4.789906     2.091290    -1.386319
C       -5.201189     1.827688    -2.843173
C       -4.256923     1.281116    -3.776388
C       -2.911302     1.018681    -3.419662
C       -2.022268     0.466408    -4.340547
C       -2.442146     0.174574    -5.633543
C       -3.756289     0.435972    -6.015428
C       -4.670110     0.987883    -5.101112
C       -5.978340     1.243472    -5.503883
C       -6.908145     1.796203    -4.625112
C       -8.220983     2.034095    -5.063867
C       -9.164524     2.591798    -4.204169
C       -8.805425     2.933032    -2.903093
C       -7.503430     2.710840    -2.447281
C       -6.534170     2.114424    -3.293202
C       -6.468210     0.465123    -0.346088
C       -6.390857    -0.737277     0.396930
N       -5.013952    -1.029541     0.587716
C       -4.474264    -2.188229     1.300971
C       -3.911831    -1.785985     2.672084
C       -5.512199    -3.306647     1.473874
H        3.147249     0.464671     2.920111
H        3.010448     2.191197     3.399026
H        2.347113     1.738371     1.870284
H        4.533828     2.828692     1.462732
H        6.566740     2.217598     2.708696
H        5.688183     0.855515     3.522441
H        5.244798     2.580187     3.825612
H        7.234571     1.167492     0.902220
H        7.347972    -0.657930    -0.986328
H        3.678515    -1.752235    -2.008398
H        5.167169    -1.544103    -2.788676
H        2.533995    -2.667350    -0.598884
H        1.109926    -4.049391     0.721097
H        1.932033    -6.167568     1.685876
H        4.249802    -6.890458     1.301104
H        6.426920    -6.519487     0.331070
H        8.627143    -6.211327    -0.603152
H       10.213152    -4.900086    -1.942002
H        9.503381    -2.786308    -3.002026
H        7.249011    -1.959971    -2.742598
H       -5.243208     3.004274    -0.954966
H       -3.721687     2.329978    -1.277199
H       -2.499060     1.213567    -2.454564
H       -0.999942     0.264858    -4.045771
H       -1.745697    -0.255438    -6.340981
H       -4.062585     0.198860    -7.027115
H       -6.281701     0.999263    -6.516883
H       -8.520582     1.779883    -6.073996
H      -10.176225     2.762982    -4.549327
H       -9.542559     3.371055    -2.241808
H       -7.300062     3.005350    -1.431325
H       -7.389585     0.929667    -0.643792
H       -7.231807    -1.319250     0.747470
H       -3.661875    -2.620484     0.676328
H       -4.723116    -1.378508     3.313447
H       -3.122723    -1.014588     2.576949
H       -3.467676    -2.669114     3.179668
H       -6.354550    -2.984074     2.120255
H       -5.902583    -3.610767     0.478933
H       -5.034574    -4.195680     1.939445
90
ex_0492 frame17 T-shaped Se-Se-ax/I-eq-conf5
C        1.003757    -0.681936    -3.445882
C        2.155436    -1.531028    -3.049051
C        1.782283    -2.515328    -1.859691
N        3.364105    -0.855381    -2.617546
C        4.610482    -0.960263    -3.287623
C        5.531961    -0.171567    -2.578082
N        4.845953     0.403140    -1.490148
C        5.439334     1.287007    -0.510237
C        6.279110     0.947054     0.682364
C        6.608244    -0.419110     1.077967
C        6.159158    -1.568041     0.380321
C        6.518050    -2.855704     0.813741
C        7.321743    -3.034554     1.935325
C        7.772763    -1.930127     2.641229
C        7.429257    -0.629228     2.234721
C        7.900823     0.448472     2.975664
C        7.589581     1.752871     2.627552
C        8.073859     2.814279     3.413006
C        7.770731     4.133697     3.083364
C        6.985668     4.409914     1.969471
C        6.500053     3.373466     1.176302
C        6.787044     2.020489     1.491465
C        3.623999    -0.166719    -1.483199
Se       2.400000     0.000000     0.000000
Cu       0.000000     0.000000     0.000000
I        0.334678     2.479329    -0.593655
Se      -2.400000     0.000000     0.000000
C       -3.744148     0.946359    -0.928257
N       -4.831946     0.334775    -1.521845
C       -5.109024    -1.106382    -1.660785
C       -6.144373    -1.502781    -0.519356
C       -7.546271    -1.185345    -0.648164
C       -8.082164    -0.615393    -1.820200
C       -9.439376    -0.277280    -1.895791
C      -10.292338    -0.518908    -0.822947
C       -9.795343    -1.100961     0.335245
C       -8.435049    -1.441190     0.436040
C       -7.971961    -2.027910     1.602989
C       -6.640529    -2.388037     1.747297
C       -6.220390    -2.972256     2.953789
C       -4.895836    -3.345286     3.133772
C       -3.973986    -3.140602     2.113571
C       -4.364671    -2.561546     0.903355
C       -5.703661    -2.148473     0.698228
C       -5.653148     1.378928    -1.984316
C       -5.034000     2.583767    -1.676235
N       -3.806258     2.310082    -1.034128
C       -2.839156     3.332864    -0.595660
C       -3.602612     4.654561    -0.379651
C       -2.279231     2.975267     0.819838
H        1.254568    -0.174721    -4.400160
H        0.816146     0.095843    -2.675920
H        0.076250    -1.276292    -3.576278
H        2.443430    -2.248234    -3.859930
H        1.236653    -3.397563    -2.252545
H        2.692475    -2.885555    -1.336164
H        1.106202    -2.033589    -1.128292
H        4.808826    -1.541126    -4.179026
H        6.575895    -0.026617    -2.815500
H        6.022920     2.057873    -1.179188
H        4.574738     1.936217    -0.127389
H        5.530086    -1.546803    -0.472143
H        6.169023    -3.729643     0.278650
H        7.594032    -4.030921     2.266327
H        8.392186    -2.091686     3.519119
H        8.514448     0.265727     3.854368
H        8.685739     2.623434     4.287266
H        8.143637     4.945737     3.692867
H        6.747790     5.433923     1.714378
H        5.897329     3.668895     0.332969
H       -5.500495    -1.449584    -2.639892
H       -4.183686    -1.684829    -1.577507
H       -7.425226    -0.425398    -2.656104
H       -9.832388     0.175807    -2.793930
H      -11.357036    -0.325510    -0.913190
H      -10.471502    -1.261520     1.169870
H       -8.654317    -2.158847     2.440903
H       -6.928823    -3.164108     3.753689
H       -4.584141    -3.793597     4.065578
H       -2.944979    -3.433504     2.261059
H       -3.587646    -2.477839     0.175562
H       -6.649181     1.324611    -2.365564
H       -5.495524     3.552025    -1.795446
H       -2.017831     3.553366    -1.294411
H       -3.929911     5.090681    -1.342034
H       -4.489130     4.465611     0.270643
H       -2.965131     5.406886     0.130279
H       -3.144546     2.770020     1.489334
H       -1.719372     3.829223     1.250674
H       -1.637985     2.121301     1.027000
90
ex_0492 frame18 trans
C       -0.824449    -2.641104     2.162051
C        0.425151    -2.072978     2.752910
C        1.121525    -3.084146     3.693234
N        0.051821    -0.828461     3.407373
C       -0.129399    -0.646201     4.797186
C       -0.482802     0.694249     5.004082
N       -0.513056     1.315381     3.734829
C       -0.839109     2.711964     3.519401
C        0.209549     3.754462     3.935709
C        1.158463     4.239357     2.982259
C        1.123982     3.841695     1.623695
C        2.073512     4.311694     0.720205
C        3.071354     5.182423     1.139462
C        3.119277     5.600445     2.468087
C        2.167032     5.143372     3.394123
C        2.220898     5.583403     4.715410
C        1.280576     5.159804     5.653841
C        1.355124     5.634082     6.973816
C        0.417499     5.234779     7.923436
C       -0.608253     4.363458     7.566486
C       -0.699904     3.875224     6.259346
C        0.253859     4.254984     5.280168
C       -0.270496     0.333133     2.850449
Se      -0.379740     0.583726     0.935853
Cu       1.582238    -0.046670    -0.294287
I        3.835821     0.934871     0.456975
Se       1.326769    -0.474148    -2.642052
C       -0.299301     0.027506    -3.525811
N       -1.482879    -0.681728    -3.438779
C       -1.849405    -1.821788    -2.584591
C       -1.660588    -3.145031    -3.394417
C       -2.648157    -3.572018    -4.351698
C       -3.867706    -2.880667    -4.522015
C       -4.800499    -3.297772    -5.477334
C       -4.539423    -4.402222    -6.283649
C       -3.352612    -5.111212    -6.125396
C       -2.411031    -4.718483    -5.158135
C       -1.248601    -5.461592    -4.999345
C       -0.311799    -5.131264    -4.027139
C        0.820338    -5.947420    -3.860815
C        1.769243    -5.652328    -2.888452
C        1.604256    -4.537931    -2.074035
C        0.493874    -3.703365    -2.225984
C       -0.493607    -3.985233    -3.209773
C       -2.331111    -0.060618    -4.391454
C       -1.705778     1.099492    -4.851863
N       -0.411364     1.119597    -4.328465
C        0.606819     2.116084    -4.595755
C        0.109778     3.271923    -5.487402
C        1.432505     2.718212    -3.451020
H       -1.304456    -1.941139     1.452461
H       -1.563254    -2.876428     2.956632
H       -0.597886    -3.570156     1.595693
H        1.184237    -1.869151     1.925231
H        1.409128    -3.987598     3.116612
H        2.028291    -2.647372     4.159347
H        0.412808    -3.395209     4.491445
H       -0.017800    -1.396757     5.563592
H       -0.691698     1.160782     5.954407
H       -1.809798     2.845787     4.015054
H       -1.183115     2.822656     2.483855
H        0.391698     3.180120     1.214839
H        2.036148     3.993634    -0.311732
H        3.807333     5.534733     0.430002
H        3.904044     6.280418     2.773142
H        3.006010     6.267891     5.017324
H        2.143360     6.315449     7.271531
H        0.484565     5.606204     8.938267
H       -1.338526     4.065180     8.308722
H       -1.525538     3.216339     6.060373
H       -1.223131    -1.806948    -1.689258
H       -2.863784    -1.762582    -2.141656
H       -4.149652    -2.050452    -3.903396
H       -5.736322    -2.765745    -5.587963
H       -5.265983    -4.722614    -7.020185
H       -3.179229    -5.983826    -6.746201
H       -1.091359    -6.343414    -5.614169
H        0.966041    -6.825599    -4.480354
H        2.632522    -6.293609    -2.762794
H        2.342997    -4.318614    -1.313806
H        0.460166    -2.883440    -1.540631
H       -3.322269    -0.396459    -4.658317
H       -2.081363     1.719287    -5.654752
H        1.282077     1.493802    -5.229352
H       -0.610652     3.903444    -4.926438
H       -0.368478     2.890194    -6.413545
H        0.960796     3.904550    -5.820501
H        0.758080     3.136185    -2.678408
H        2.102625     1.973470    -2.993952
H        2.119112     3.506584    -3.822872
90
ex_0492 frame19 cis-1
C        0.519169    -3.990525    -3.332453
C        0.390444    -2.678134    -4.117882
C       -0.908030    -1.906796    -3.792642
N        1.547995    -1.809444    -3.949793
C        2.462817    -1.471977    -4.980594
C        3.453074    -0.636974    -4.404554
N        3.158892    -0.516373    -3.032741
C        3.964192     0.163838    -2.063139
C        3.879577     1.673342    -1.697569
C        2.977132     2.646191    -2.303334
C        2.027096     2.320404    -3.306183
C        1.197269     3.312451    -3.853541
C        1.284335     4.633161    -3.424941
C        2.197375     4.979232    -2.439692
C        3.042295     4.009982    -1.871678
C        3.942037     4.399094    -0.883623
C        4.795717     3.482644    -0.284982
C        5.685723     3.909561     0.714740
C        6.545881     2.999846     1.330409
C        6.527507     1.660757     0.958515
C        5.658154     1.222101    -0.030924
C        4.772961     2.125256    -0.676252
C        1.961986    -1.141509    -2.793687
Se       1.018519    -1.090192    -1.113134
Cu       1.335713    -2.941917     0.380353
I        3.798060    -3.551639     0.791704
Se      -0.014539    -3.297507     2.332372
C       -1.834145    -2.772809     2.403452
N       -2.440060    -2.010445     3.399801
C       -1.812131    -1.394134     4.563635
C       -1.703236     0.115205     4.404901
C       -0.512694     0.697001     3.865776
C        0.630516    -0.080122     3.558384
C        1.764511     0.506003     3.001486
C        1.791750     1.872486     2.748512
C        0.687199     2.663812     3.060447
C       -0.463015     2.090604     3.627264
C       -1.550936     2.898923     3.952223
C       -2.697338     2.360958     4.536822
C       -3.766304     3.205448     4.874604
C       -4.912898     2.689561     5.475143
C       -5.004487     1.327656     5.749462
C       -3.954875     0.468422     5.417494
C       -2.786160     0.969184     4.788746
C       -3.821677    -1.927498     3.086385
C       -4.020671    -2.590391     1.853797
N       -2.764676    -3.112037     1.454554
C       -2.472668    -3.879581     0.253288
C       -2.008363    -5.286997     0.720497
C       -3.661553    -4.002064    -0.693682
H        0.798834    -4.804388    -4.032836
H        1.318680    -3.929903    -2.563732
H       -0.429617    -4.271169    -2.833937
H        0.279850    -2.935924    -5.195484
H       -0.991821    -1.002457    -4.433036
H       -0.999818    -1.592312    -2.743009
H       -1.787577    -2.553070    -4.007258
H        2.424446    -1.818451    -6.004748
H        4.275876    -0.154957    -4.915937
H        3.778900    -0.371477    -1.107213
H        5.006783    -0.054266    -2.371025
H        1.868027     1.348056    -3.703313
H        0.476253     3.058345    -4.620475
H        0.641942     5.394324    -3.853931
H        2.247162     6.014977    -2.117192
H        3.974971     5.438929    -0.569644
H        5.716271     4.947355     1.022003
H        7.229397     3.330523     2.099053
H        7.189899     0.950034     1.434539
H        5.705795     0.169334    -0.259846
H       -2.365405    -1.725887     5.465416
H       -0.863034    -1.904823     4.800535
H        0.700112    -1.129835     3.736033
H        2.627001    -0.106796     2.769445
H        2.674031     2.320026     2.317114
H        0.731424     3.726271     2.858529
H       -1.502844     3.963234     3.751316
H       -3.713322     4.268139     4.671957
H       -5.730955     3.349223     5.732762
H       -5.894525     0.933805     6.224169
H       -4.097401    -0.567760     5.670695
H       -4.583073    -1.432070     3.670531
H       -4.974342    -2.764660     1.378734
H       -1.643244    -3.416802    -0.316825
H       -1.760862    -5.329334     1.800448
H       -1.103572    -5.594466     0.149835
H       -2.784419    -6.063687     0.552938
H       -3.399681    -4.662234    -1.545495
H       -4.533467    -4.437772    -0.160270
H       -3.922468    -2.994596    -1.077845
90
ex_0492 frame20 trans-conf4
C        3.642212    -0.421071     3.500051
C        3.289245    -1.692295     2.719913
C        3.347313    -2.929315     3.623313
N        4.196833    -1.662805     1.603691
C        5.462854    -2.274510     1.569179
C        6.004901    -2.021074     0.306057
N        5.067387    -1.229898    -0.399291
C        5.261045    -0.718724    -1.754775
C        6.416355     0.326519    -1.607452
C        6.141084     1.718678    -1.345940
C        4.821148     2.217467    -1.262496
C        4.581488     3.569672    -0.998437
C        5.643826     4.451840    -0.809564
C        6.950956     3.987177    -0.892732
C        7.212949     2.633511    -1.163703
C        8.530743     2.200429    -1.251275
C        8.835068     0.875889    -1.540603
C       10.180142     0.485681    -1.644076
C       10.508037    -0.833352    -1.945065
C        9.509077    -1.775001    -2.143700
C        8.163754    -1.411182    -2.040004
C        7.797652    -0.076285    -1.730686
C        3.988043    -1.027029     0.423986
Se       2.400000     0.000000     0.000000
Cu       0.000000     0.000000     0.000000
I       -1.283928     2.226615     0.034980
Se      -1.200026    -2.078446     0.000000
C       -1.443298    -3.767136     0.905170
N       -1.617828    -5.002126     0.300699
C       -1.613478    -5.296277    -1.132185
C       -3.057433    -5.751118    -1.530375
C       -4.043141    -4.802450    -1.993849
C       -3.753766    -3.428266    -2.135780
C       -4.726264    -2.535454    -2.594560
C       -6.004632    -2.985377    -2.911615
C       -6.318332    -4.333774    -2.774540
C       -5.352835    -5.248561    -2.322987
C       -5.689508    -6.590131    -2.201498
C       -4.761033    -7.533834    -1.784407
C       -5.138463    -8.883574    -1.701407
C       -4.224730    -9.850253    -1.294920
C       -2.924042    -9.480843    -0.961077
C       -2.528003    -8.141956    -1.027448
C       -3.439006    -7.140239    -1.444764
C       -1.805422    -5.951141     1.337314
C       -1.725261    -5.264314     2.564977
N       -1.481577    -3.905938     2.268464
C       -1.299913    -2.826839     3.220396
C       -1.780355    -3.182438     4.630650
C        0.100056    -2.306209     3.285159
H        2.865427    -0.256884     4.283466
H        4.633342    -0.491463     3.988531
H        3.617408     0.464243     2.828723
H        2.288713    -1.502248     2.366321
H        2.691790    -2.803081     4.508216
H        3.042153    -3.829830     3.048597
H        4.373209    -3.080467     4.014702
H        5.964644    -2.776665     2.383088
H        6.997102    -2.294495    -0.021325
H        4.333953    -0.277605    -2.157857
H        5.506264    -1.442267    -2.554368
H        3.955757     1.615098    -1.410481
H        3.563304     3.935779    -0.941749
H        5.447941     5.495570    -0.606876
H        7.761603     4.689413    -0.750759
H        9.334632     2.910550    -1.112464
H       10.976577     1.204280    -1.498798
H       11.553403    -1.119897    -2.024033
H        9.777215    -2.796998    -2.380004
H        7.445075    -2.196823    -2.211175
H       -0.885356    -6.055289    -1.470103
H       -1.286155    -4.426066    -1.724136
H       -2.797543    -3.008152    -1.925450
H       -4.487634    -1.486057    -2.709229
H       -6.753815    -2.289449    -3.268773
H       -7.318749    -4.664354    -3.032673
H       -6.695468    -6.912572    -2.466927
H       -6.144799    -9.194479    -1.964190
H       -4.525574   -10.889274    -1.243069
H       -2.218589   -10.239255    -0.649809
H       -1.505387    -7.936067    -0.756472
H       -1.984218    -7.008917     1.212650
H       -1.831530    -5.701442     3.546825
H       -1.963276    -2.022611     2.831654
H       -1.710845    -2.281078     5.279736
H       -2.840102    -3.506642     4.601293
H       -1.149517    -3.980942     5.074806
H        0.195109    -1.393187     3.906658
H        0.734712    -3.124837     3.667864
H        0.381607    -2.065777     2.249351
90
ex_0492 frame21 cis-conf3
C        2.545302    -3.080579     3.179473
C        3.055770    -2.736938     1.786886
C        3.676242    -3.963295     1.078628
N        4.051953    -1.684198     1.715397
C        5.339624    -1.730671     2.294437
C        5.967086    -0.504710     2.005976
N        5.055133     0.285084     1.259798
C        5.308434     1.651954     0.783953
C        6.387182     1.571872    -0.344976
C        6.006032     1.487060    -1.738172
C        4.658985     1.533169    -2.155952
C        4.322952     1.441290    -3.510420
C        5.314726     1.297633    -4.474829
C        6.650600     1.253072    -4.093764
C        7.012523     1.352295    -2.736473
C        8.354602     1.317052    -2.388851
C        8.758061     1.444416    -1.062525
C       10.128567     1.436245    -0.759143
C       10.560694     1.577975     0.556316
C        9.629947     1.727094     1.580835
C        8.259443     1.726618     1.303063
C        7.790928     1.581999    -0.027614
C        3.938302    -0.495919     1.060716
Se       2.400000     0.000000     0.000000
Cu       0.000000     0.000000     0.000000
I       -1.234333     2.133030    -0.727659
Se      -1.200026    -2.078446     0.000000
C       -0.960297    -3.596883    -1.093612
N       -1.174602    -4.856569    -0.597388
C       -1.391537    -5.291369     0.770023
C       -2.848599    -5.437615     1.355128
C       -4.094386    -5.236324     0.609945
C       -4.143449    -4.870262    -0.753089
C       -5.376091    -4.703916    -1.409260
C       -6.576901    -4.891047    -0.732071
C       -6.562133    -5.242383     0.607188
C       -5.344464    -5.418182     1.292666
C       -5.381471    -5.768578     2.633033
C       -4.215654    -5.952964     3.362798
C       -4.299990    -6.293124     4.722710
C       -3.142792    -6.482331     5.476284
C       -1.894661    -6.342368     4.879513
C       -1.790393    -6.011761     3.531057
C       -2.951031    -5.797840     2.738378
C       -1.146346    -5.717295    -1.719880
C       -0.732744    -4.957100    -2.823706
N       -0.586567    -3.605181    -2.404585
C       -0.125899    -2.493220    -3.248845
C       -1.163618    -1.360017    -3.093449
C       -0.155878    -2.911109    -4.730468
H        1.534516    -3.534089     3.092977
H        3.227682    -3.776766     3.706983
H        2.446957    -2.146308     3.773625
H        2.172019    -2.410092     1.205857
H        3.998656    -3.709919     0.045761
H        2.948454    -4.800555     1.027708
H        4.569514    -4.330837     1.632034
H        5.784790    -2.567359     2.812299
H        6.980731    -0.236765     2.265070
H        4.379857     2.124889     0.434873
H        5.629530     2.372305     1.560052
H        3.838765     1.659826    -1.490120
H        3.285017     1.485483    -3.813339
H        5.047306     1.227714    -5.521998
H        7.409148     1.149023    -4.862621
H        9.106974     1.217910    -3.166900
H       10.870915     1.331714    -1.543136
H       11.620637     1.579206     0.778205
H        9.975215     1.845781     2.599656
H        7.601319     1.855792     2.144810
H       -0.859979    -6.253448     0.931269
H       -0.923723    -4.536145     1.434782
H       -3.294691    -4.686040    -1.354787
H       -5.406027    -4.424288    -2.454302
H       -7.525237    -4.758876    -1.242160
H       -7.511023    -5.375933     1.120633
H       -6.341376    -5.889320     3.130541
H       -5.261674    -6.406308     5.210517
H       -3.213350    -6.737333     6.525078
H       -0.996497    -6.488760     5.464642
H       -0.789195    -5.920310     3.143464
H       -1.378466    -6.772056    -1.719827
H       -0.667698    -5.325097    -3.837749
H        0.884284    -2.080235    -3.036372
H       -1.056345    -0.601899    -3.896052
H       -2.199984    -1.763300    -3.118037
H       -1.002176    -0.771339    -2.180913
H        0.645082    -3.648914    -4.938952
H        0.008325    -2.033677    -5.391503
H       -1.147068    -3.346702    -4.989082
90
ex_0492 frame22 trans-conf2
C        2.854134    -2.227752    -2.006383
C        2.892686    -3.182288    -0.793700
C        3.414098    -4.544152    -1.284823
N        3.845346    -2.494450     0.051243
C        5.031348    -3.075494     0.539135
C        5.681727    -2.093167     1.268532
N        4.874953    -0.931619     1.281620
C        5.186895     0.317356     1.993171
C        6.174629     1.157979     1.105924
C        7.583478     0.841900     1.052970
C        8.157071    -0.159081     1.867106
C        9.519270    -0.468844     1.771857
C       10.336539     0.206612     0.869763
C        9.802483     1.211424     0.070945
C        8.440164     1.547405     0.161510
C        7.942194     2.573520    -0.627623
C        6.612760     2.964953    -0.543486
C        6.169885     4.051352    -1.316757
C        4.848993     4.476974    -1.248100
C        3.951842     3.820065    -0.413872
C        4.363378     2.729603     0.357440
C        5.706919     2.277051     0.315721
C        3.811699    -1.221869     0.484202
Se       2.400000     0.000000     0.000000
Cu       0.000000     0.000000     0.000000
I       -1.281851     2.227560    -0.000920
Se      -1.200026    -2.078446     0.000000
C       -0.966922    -3.851424    -0.695879
N       -1.146615    -5.012490     0.029594
C       -1.473063    -5.149337     1.461081
C       -3.049063    -5.244925     1.572991
C       -3.733288    -6.459543     1.225944
C       -3.040714    -7.632798     0.873511
C       -3.733679    -8.784139     0.485606
C       -5.124961    -8.802069     0.472563
C       -5.833727    -7.667354     0.847808
C       -5.155375    -6.497501     1.229958
C       -5.888242    -5.382733     1.610282
C       -5.260004    -4.207314     1.997005
C       -6.045985    -3.104329     2.370157
C       -5.451154    -1.915518     2.770074
C       -4.065374    -1.813411     2.811193
C       -3.258802    -2.897153     2.453462
C       -3.837461    -4.112895     2.008848
C       -0.951074    -6.072079    -0.893568
C       -0.583900    -5.517212    -2.128880
N       -0.617996    -4.129840    -1.983329
C       -0.336048    -3.151155    -3.006174
C       -1.727864    -2.987729    -3.626821
C        0.667867    -3.514368    -4.115074
H        2.807960    -2.752108    -2.963465
H        3.774752    -1.614083    -2.069219
H        1.960605    -1.580545    -1.975026
H        1.891745    -3.374665    -0.399994
H        2.711505    -4.971643    -2.028499
H        4.403783    -4.428780    -1.777295
H        3.482977    -5.263580    -0.444326
H        5.390905    -4.076120     0.349754
H        6.662685    -2.189938     1.709845
H        5.603385     0.184420     3.011980
H        4.260824     0.862068     2.200589
H        7.594554    -0.684649     2.615259
H        9.947504    -1.232863     2.407303
H       11.390863    -0.033371     0.801947
H       10.461696     1.744754    -0.606502
H        8.616130     3.112331    -1.288597
H        6.854600     4.582382    -1.969550
H        4.522110     5.322574    -1.839889
H        2.926366     4.161507    -0.360342
H        3.599240     2.306583     0.972699
H       -1.080967    -4.292652     2.017349
H       -0.986248    -5.993305     1.991807
H       -1.960772    -7.625078     0.881566
H       -3.188381    -9.669215     0.192878
H       -5.658318    -9.718794     0.242914
H       -6.918120    -7.691894     0.807576
H       -6.973775    -5.410714     1.543306
H       -7.129288    -3.170777     2.370994
H       -6.065673    -1.072170     3.048520
H       -3.609868    -0.885265     3.123377
H       -2.208012    -2.719696     2.546187
H       -1.084487    -7.123582    -0.686343
H       -0.348204    -6.061192    -3.031617
H       -0.057762    -2.175319    -2.566811
H       -1.704982    -2.180526    -4.389991
H       -2.047691    -3.932741    -4.119262
H       -2.473917    -2.724493    -2.849788
H        1.094300    -2.581192    -4.546215
H        1.474594    -4.165167    -3.735048
H        0.196517    -4.081139    -4.943131
90
ex_0492 frame23 trans-conf5
C        1.058215    -0.650199    -3.388657
C        2.214141    -1.586643    -3.011608
C        1.871966    -2.547997    -1.855664
N        3.420403    -0.897434    -2.613762
C        4.621207    -0.873494    -3.365395
C        5.543966    -0.093893    -2.635540
N        4.881869     0.391222    -1.492913
C        5.439741     1.301410    -0.532792
C        6.296700     0.900172     0.709012
C        6.631454    -0.459963     1.113820
C        6.191370    -1.615375     0.419828
C        6.561472    -2.897469     0.863014
C        7.363234    -3.062471     1.989565
C        7.801757    -1.950193     2.691572
C        7.449463    -0.655368     2.275022
C        7.909084     0.432841     3.010151
C        7.590497     1.732466     2.646015
C        8.069533     2.807353     3.414069
C        7.758020     4.120778     3.063129
C        6.964764     4.375994     1.950679
C        6.482363     3.326559     1.180232
C        6.788047     1.980863     1.508682
C        3.644137    -0.180279    -1.459702
Se       2.400000     0.000000     0.000000
Cu       0.000000     0.000000     0.000000
I       -1.339480     2.169029    -0.328257
Se      -1.200026    -2.078446     0.000000
C       -2.320904    -2.979576     1.193109
N       -3.560462    -3.528450     0.861330
C       -4.256308    -3.491668    -0.443931
C       -3.961573    -4.847252    -1.217774
C       -4.664120    -6.057173    -0.879358
C       -5.698293    -6.079048     0.075492
C       -6.326211    -7.280142     0.420566
C       -5.962156    -8.473995    -0.195975
C       -4.966042    -8.476085    -1.163668
C       -4.315477    -7.282510    -1.517627
C       -3.332353    -7.314157    -2.493979
C       -2.664913    -6.160944    -2.876904
C       -1.674200    -6.245515    -3.868599
C       -0.991681    -5.111078    -4.281377
C       -1.294016    -3.878705    -3.716278
C       -2.280111    -3.762287    -2.733125
C       -2.971437    -4.906725    -2.269413
C       -4.049853    -4.146583     2.032758
C       -3.122361    -3.920610     3.055787
N       -2.031784    -3.206670     2.510051
C       -0.815682    -2.793096     3.244388
C       -0.607786    -3.822707     4.365171
C        0.446741    -2.888518     2.339879
H        1.214642    -0.285974    -4.424310
H        1.037982     0.239680    -2.721115
H        0.072818    -1.142239    -3.310833
H        2.450986    -2.247273    -3.874466
H        1.527922    -3.532472    -2.241070
H        2.735710    -2.732027    -1.179356
H        1.065620    -2.133599    -1.251108
H        4.791798    -1.365274    -4.314290
H        6.567189     0.105168    -2.918010
H        6.052141     1.995160    -1.142986
H        4.586441     1.876850    -0.114555
H        5.570450    -1.599228    -0.444117
H        6.225101    -3.777612     0.330299
H        7.646796    -4.054011     2.325940
H        8.423299    -2.099675     3.570365
H        8.527334     0.263682     3.888036
H        8.688199     2.632046     4.285705
H        8.130775     4.945251     3.653445
H        6.717517     5.391986     1.674190
H        5.873806     3.609127     0.336383
H       -5.350539    -3.321952    -0.389618
H       -3.938225    -2.621971    -1.026184
H       -5.985309    -5.156188     0.557521
H       -7.101590    -7.285245     1.172339
H       -6.508253    -9.388042     0.015121
H       -4.686849    -9.417786    -1.626386
H       -3.036312    -8.269599    -2.923621
H       -1.430023    -7.197153    -4.329459
H       -0.227513    -5.189045    -5.040566
H       -0.757955    -2.999972    -4.043185
H       -2.464942    -2.766020    -2.392054
H       -4.980568    -4.686930     2.123282
H       -3.179938    -4.355839     4.042403
H       -0.794829    -1.778630     3.688714
H       -1.354496    -3.662345     5.165007
H       -0.698895    -4.853897     3.951420
H        0.398775    -3.723396     4.822067
H        0.429456    -3.765687     1.655649
H        1.381596    -2.944339     2.936239
H        0.605261    -1.940699     1.789423
90
ex_0492 frame24 trans-conf6
C        3.105330     1.441576     2.547853
C        4.470365     1.798390     1.903779
C        5.469088     1.905280     3.068379
N        4.976970     0.873411     0.845176
C        6.352607     0.697915     0.531754
C        6.448258    -0.279375    -0.487187
N        5.129999    -0.714996    -0.812994
C        4.816861    -1.740934    -1.793902
C        5.270382    -3.097286    -1.227119
C        4.356689    -3.908381    -0.477848
C        3.008672    -3.529020    -0.282726
C        2.146322    -4.327151     0.458943
C        2.592307    -5.513314     1.028715
C        3.913343    -5.916232     0.846754
C        4.800330    -5.129347     0.091332
C        6.112475    -5.555605    -0.093373
C        7.012520    -4.804996    -0.847005
C        8.325308    -5.271834    -1.023246
C        9.239857    -4.541547    -1.777519
C        8.854489    -3.341411    -2.369254
C        7.552316    -2.858698    -2.209941
C        6.608735    -3.575609    -1.433725
C        4.208612     0.022617    -0.021705
Se       2.400000     0.000000     0.000000
Cu       0.000000     0.000000     0.000000
I       -1.281347     2.227500     0.050961
Se      -1.200026    -2.078446     0.000000
C       -2.166505    -3.737430     0.090248
N       -2.971240    -4.244251    -0.903897
C       -3.363062    -3.640686    -2.175520
C       -2.655701    -4.499831    -3.270540
C       -1.349454    -4.147523    -3.766959
C       -0.666479    -2.989231    -3.333993
C        0.604397    -2.678814    -3.825567
C        1.223074    -3.508917    -4.754777
C        0.572072    -4.653602    -5.204211
C       -0.708759    -4.981169    -4.726134
C       -1.339946    -6.125633    -5.200134
C       -2.615783    -6.472930    -4.771211
C       -3.227013    -7.625656    -5.294308
C       -4.507534    -7.991151    -4.891590
C       -5.193452    -7.212782    -3.963612
C       -4.603673    -6.064557    -3.424594
C       -3.297925    -5.672068    -3.813588
C       -3.374612    -5.523050    -0.453081
C       -2.867813    -5.708928     0.836572
N       -2.114090    -4.569368     1.164743
C       -1.413236    -4.325305     2.411203
C       -1.992314    -3.359680     3.436194
C       -1.051313    -5.673834     3.064715
H        3.083443     0.380696     2.881816
H        2.895248     2.080603     3.431578
H        2.252271     1.685077     1.890433
H        4.385065     2.820707     1.474822
H        6.426760     2.344537     2.730881
H        5.642779     0.907614     3.523237
H        5.078534     2.592008     3.852661
H        7.187110     1.212290     0.985781
H        7.374452    -0.612694    -0.918915
H        3.748198    -1.722866    -2.055290
H        5.259954    -1.497256    -2.777830
H        2.570243    -2.640765    -0.681164
H        1.125159    -4.014785     0.581886
H        1.911191    -6.122534     1.607620
H        4.241762    -6.845702     1.295659
H        6.437396    -6.489458     0.354255
H        8.644463    -6.205440    -0.573987
H       10.249767    -4.909744    -1.905939
H        9.570271    -2.781019    -2.957049
H        7.326756    -1.929088    -2.703296
H       -4.446277    -3.580696    -2.383359
H       -3.083620    -2.575802    -2.222501
H       -1.076736    -2.293570    -2.640647
H        1.111556    -1.784832    -3.485978
H        2.206831    -3.261806    -5.133289
H        1.068666    -5.283473    -5.934145
H       -0.835270    -6.748382    -5.933032
H       -2.713181    -8.242841    -6.023130
H       -4.969933    -8.879132    -5.304754
H       -6.190895    -7.502264    -3.659415
H       -5.197855    -5.515522    -2.714295
H       -3.952555    -6.240482    -1.016706
H       -2.985064    -6.594122     1.444094
H       -0.452353    -3.910920     2.057431
H       -2.986133    -3.717626     3.774315
H       -2.098002    -2.352915     2.981404
H       -1.310775    -3.276885     4.309912
H       -1.945250    -6.171297     3.493537
H       -0.582218    -6.345968     2.311196
H       -0.305895    -5.521257     3.874445
90
ex_0492 frame25 T-shaped I-Se-ax/Se-eq-conf6
C        3.211874     1.283189     2.683488
C        4.556992     1.659153     2.022137
C        5.594351     1.702437     3.161122
N        5.014825     0.772193     0.914737
C        6.381839     0.570338     0.577406
C        6.440295    -0.355588    -0.485062
N        5.110151    -0.755090    -0.801711
C        4.763929    -1.756262    -1.798390
C        5.226436    -3.112394    -1.230929
C        4.323932    -3.923733    -0.462982
C        2.977964    -3.543653    -0.237108
C        2.129905    -4.339588     0.531877
C        2.590285    -5.531488     1.080148
C        3.904961    -5.937225     0.861242
C        4.777970    -5.146728     0.094386
C        6.087380    -5.572286    -0.113013
C        6.978825    -4.816205    -0.870142
C        8.294577    -5.274698    -1.051299
C        9.202389    -4.538621    -1.807992
C        8.804457    -3.346038    -2.406121
C        7.497473    -2.874740    -2.247148
C        6.564553    -3.589932    -1.455028
C        4.208858    -0.015818     0.014064
Se       2.400000     0.000000     0.000000
Cu       0.000000     0.000000     0.000000
I       -1.815619    -1.818580    -0.012203
Se       0.000000     2.400000     0.000000
C        0.040398     4.231425    -0.055456
N        0.927444     5.154746     0.556738
C        2.085123     4.845256     1.362329
C        3.333724     5.373871     0.621968
C        3.993587     4.554939    -0.346653
C        3.498922     3.289048    -0.703191
C        4.177538     2.491403    -1.621607
C        5.343690     2.938542    -2.219834
C        5.843168     4.195624    -1.901610
C        5.177212     5.012898    -0.971742
C        5.686721     6.270206    -0.670595
C        5.047748     7.102705     0.245562
C        5.592043     8.362982     0.525774
C        4.969243     9.213338     1.432436
C        3.793891     8.820766     2.066701
C        3.229553     7.573367     1.800377
C        3.858672     6.680064     0.896137
C        0.494686     6.478173     0.250318
C       -0.645844     6.383756    -0.577858
N       -0.899264     5.002725    -0.790390
C       -1.959395     4.448606    -1.632386
C       -3.142288     3.898649    -0.826298
C       -2.456924     5.470294    -2.666376
H        3.209106     0.222440     3.012947
H        3.021660     1.925801     3.570069
H        2.344068     1.504402     2.045516
H        4.485045     2.699655     1.653417
H        6.560467     2.117623     2.816383
H        5.747624     0.688521     3.587800
H        5.248306     2.380826     3.972483
H        7.240342     1.025109     1.048526
H        7.355527    -0.699397    -0.928646
H        3.688620    -1.732759    -2.029725
H        5.190537    -1.521050    -2.792076
H        2.536945    -2.651110    -0.622024
H        1.107161    -4.027006     0.701406
H        1.925365    -6.142394     1.676127
H        4.243106    -6.868642     1.299148
H        6.421874    -6.503901     0.332304
H        8.624025    -6.202607    -0.597618
H       10.216728    -4.896497    -1.933081
H        9.515348    -2.781602    -2.996291
H        7.262867    -1.949269    -2.744666
H        1.974690     5.268859     2.378098
H        2.161097     3.766260     1.577364
H        2.564891     2.923142    -0.344353
H        3.794865     1.513377    -1.873456
H        5.823737     2.332661    -2.978752
H        6.794823     4.497317    -2.323972
H        6.634804     6.575585    -1.103930
H        6.469321     8.713502    -0.008482
H        5.399214    10.181054     1.644686
H        3.315209     9.486153     2.769925
H        2.343293     7.326569     2.361766
H        0.957553     7.401239     0.555087
H       -1.189094     7.216483    -1.002311
H       -1.497155     3.626575    -2.222129
H       -3.626080     4.717103    -0.250842
H       -2.813621     3.114688    -0.115611
H       -3.895830     3.450646    -1.509486
H       -2.975645     6.322348    -2.180434
H       -1.596775     5.849744    -3.259602
H       -3.166602     4.983222    -3.369092
90
ex_0492 frame26 T-shaped I-Se-ax/Se-eq-conf3
C        2.563009    -2.974751     3.046720
C        3.107536    -2.763492     1.637791
C        3.774465    -4.014332     1.053183
N        4.074460    -1.688761     1.647513
C        5.325689    -1.712182     2.303219
C        5.955846    -0.470151     2.050853
N        5.075186     0.298890     1.242400
C        5.344732     1.650564     0.747389
C        6.416976     1.573376    -0.371462
C        6.035196     1.490521    -1.754687
C        4.685216     1.543506    -2.162232
C        4.341785     1.451684    -3.509741
C        5.327233     1.300948    -4.480203
C        6.666459     1.249168    -4.107944
C        7.032298     1.350906    -2.757125
C        8.375043     1.313675    -2.412958
C        8.777378     1.443017    -1.090902
C       10.144790     1.434120    -0.788713
C       10.576041     1.576905     0.524510
C        9.646834     1.726802     1.551314
C        8.278219     1.729810     1.274377
C        7.815444     1.583375    -0.052955
C        3.918650    -0.475979     1.004688
Se       2.400000     0.000000     0.000000
Cu       0.000000     0.000000     0.000000
I       -2.051167    -1.097792     1.093721
Se       0.000000     2.400000     0.000000
C       -1.372177     3.590428    -0.419500
N       -1.520244     4.815998     0.203718
C       -0.769870     5.334635     1.314229
C        0.538421     6.176156     1.225358
C        1.179659     6.636729     0.003005
C        0.678876     6.364758    -1.292256
C        1.350157     6.845405    -2.429804
C        2.518289     7.594389    -2.309582
C        3.031543     7.872879    -1.052492
C        2.384412     7.408512     0.103216
C        2.931007     7.709489     1.343031
C        2.333168     7.274087     2.514327
C        2.913876     7.592160     3.750321
C        2.325406     7.159444     4.938345
C        1.155483     6.410156     4.906977
C        0.566907     6.090677     3.695607
C        1.144312     6.512736     2.471621
C       -2.564618     5.519162    -0.437954
C       -3.157210     4.617004    -1.345862
N       -2.363933     3.432692    -1.349052
C       -2.568011     2.249070    -2.196264
C       -1.212434     1.749617    -2.760440
C       -3.452260     2.646768    -3.381347
H        1.452316    -2.972936     3.022768
H        2.944374    -3.912015     3.490022
H        2.861576    -2.126204     3.702400
H        2.239232    -2.510489     0.984351
H        4.046718    -3.848847    -0.012492
H        3.101406    -4.891358     1.131682
H        4.704218    -4.238329     1.615680
H        5.720090    -2.541201     2.867215
H        6.929770    -0.195073     2.402714
H        4.425672     2.153665     0.409469
H        5.641826     2.336139     1.561179
H        3.871201     1.671661    -1.488419
H        3.301011     1.501672    -3.798143
H        5.054375     1.230579    -5.523861
H        7.422922     1.137138    -4.876756
H        9.123870     1.205339    -3.192214
H       10.880350     1.325623    -1.577933
H       11.634978     1.577483     0.741410
H        9.987547     1.844852     2.570314
H        7.621657     1.863328     2.115553
H       -1.496149     5.909655     1.922560
H       -0.470038     4.435958     1.892325
H       -0.201346     5.801435    -1.491198
H        0.962382     6.636150    -3.417627
H        3.032932     7.962706    -3.189662
H        3.944286     8.457402    -0.975784
H        3.845624     8.293392     1.397642
H        3.825418     8.174154     3.794268
H        2.774891     7.403429     5.887730
H        0.690668     6.067999     5.820606
H       -0.337745     5.507078     3.760746
H       -2.888465     6.527475    -0.207731
H       -4.024069     4.823726    -1.955401
H       -3.023428     1.374713    -1.685755
H       -1.356840     1.098162    -3.647003
H       -0.525333     2.579628    -3.025577
H       -0.727342     1.046858    -2.056841
H       -4.507764     2.669574    -3.044964
H       -3.363591     1.925453    -4.217826
H       -3.145364     3.641435    -3.772751
90
ex_0492 frame27 T-shaped I-Se-ax/Se-eq-conf2
C        2.399981    -2.190773    -2.075290
C        2.759198    -3.120236    -0.875925
C        3.324305    -4.415437    -1.443657
N        3.769260    -2.484589    -0.011340
C        4.944388    -3.097206     0.491352
C        5.633344    -2.137224     1.252653
N        4.869189    -0.948272     1.240021
C        5.221957     0.302110     1.938197
C        6.220068     1.172016     1.075938
C        7.609683     0.843056     1.011099
C        8.163823    -0.194370     1.783201
C        9.509958    -0.530289     1.657141
C       10.338329     0.176514     0.789885
C        9.823982     1.226877     0.041028
C        8.472504     1.570799     0.146312
C        7.987241     2.630728    -0.604301
C        6.658591     3.004353    -0.527798
C        6.208707     4.080285    -1.307148
C        4.886344     4.480994    -1.244449
C        4.005728     3.816065    -0.397229
C        4.423604     2.753914     0.391663
C        5.753176     2.303836     0.322850
C        3.745667    -1.191011     0.435195
Se       2.400000     0.000000     0.000000
Cu       0.000000     0.000000     0.000000
I       -2.530124    -0.452373    -0.006701
Se       0.000000     2.400000     0.000000
C       -0.478141     3.768745    -1.192164
N       -1.256612     4.884943    -0.900667
C       -1.932551     5.229516     0.361900
C       -0.973005     6.092586     1.267456
C       -0.757286     7.480777     0.981013
C       -1.449564     8.145396    -0.044163
C       -1.181752     9.483925    -0.334049
C       -0.243223    10.193527     0.409624
C        0.433248     9.568487     1.447948
C        0.184732     8.221893     1.747083
C        0.866023     7.626935     2.793594
C        0.648637     6.298758     3.123651
C        1.363814     5.738313     4.189092
C        1.163828     4.413554     4.549301
C        0.242126     3.636110     3.854568
C       -0.488271     4.173501     2.794232
C       -0.282388     5.510605     2.386626
C       -1.286419     5.668547    -2.086854
C       -0.573661     4.971136    -3.076555
N       -0.080106     3.793323    -2.484983
C        0.718206     2.770543    -3.130665
C        2.137976     3.304403    -2.981806
C        0.371978     2.458687    -4.578359
H        2.098292    -2.759548    -2.979850
H        3.227268    -1.503767    -2.357351
H        1.481611    -1.606983    -1.844277
H        1.809476    -3.355257    -0.355075
H        2.622985    -4.846073    -2.186367
H        4.300296    -4.209183    -1.935929
H        3.448026    -5.143703    -0.618622
H        5.290254    -4.099378     0.292359
H        6.574875    -2.317082     1.733058
H        5.656620     0.115489     2.937795
H        4.320269     0.851228     2.230438
H        7.603003    -0.722146     2.526974
H        9.915392    -1.346220     2.237038
H       11.381044    -0.088967     0.696802
H       10.484977     1.784499    -0.613615
H        8.643577     3.130068    -1.314482
H        6.880041     4.583266    -1.997112
H        4.548444     5.306426    -1.853452
H        2.974253     4.132956    -0.352064
H        3.678166     2.341499     1.038763
H       -2.282129     4.313867     0.850883
H       -2.894552     5.754588     0.211540
H       -2.178781     7.599540    -0.624408
H       -1.705180     9.975291    -1.140884
H       -0.103392    11.255777     0.243881
H        1.166474    10.131304     2.015323
H        1.631672     8.191500     3.321909
H        2.081474     6.334160     4.743550
H        1.724811     3.989199     5.368826
H        0.091174     2.605510     4.140007
H       -1.199643     3.511520     2.345720
H       -1.738004     6.629604    -2.241875
H       -0.363995     5.318692    -4.078079
H        0.742391     1.818268    -2.556231
H        2.893485     2.520519    -3.233303
H        2.328555     4.228096    -3.559388
H        2.243805     3.516451    -1.924419
H       -0.177022     1.499449    -4.616032
H       -0.276817     3.243816    -5.012149
H        1.288725     2.397536    -5.199271
90
ex_0492 frame28 cis-2
C       -2.354971    -2.552539     2.255017
C       -3.726044    -2.008901     2.657362
C       -4.703299    -3.154183     2.602996
N       -4.330008    -0.917611     1.915579
C       -5.542185    -0.369685     2.316851
C       -5.906237     0.625934     1.432278
N       -4.927404     0.694512     0.432142
C       -5.044114     1.600605    -0.709197
C       -4.305426     2.996239    -0.590534
C       -3.072440     3.189021    -1.237526
C       -2.516632     2.205285    -2.043339
C       -1.292042     2.460723    -2.686541
C       -0.629949     3.669727    -2.498991
C       -1.170837     4.621849    -1.678896
C       -2.385470     4.422010    -1.057908
C       -2.912187     5.390185    -0.288656
C       -4.127974     5.266773     0.294712
C       -4.645014     6.316890     1.021970
C       -5.885237     6.216022     1.614640
C       -6.622302     5.047800     1.487930
C       -6.110800     3.959767     0.753675
C       -4.864863     4.075539     0.161818
C       -3.876688    -0.247656     0.754780
Se      -2.381394    -0.532216    -0.061684
Cu      -0.024898    -0.219033     0.268232
I        0.466712     2.198440     1.013016
Se       1.819907    -1.453889     1.180277
C        3.396283    -1.040865     1.773867
N        4.600246    -0.775447     1.034890
C        4.811259    -0.790090    -0.402658
C        5.133296    -2.227441    -0.934949
C        6.436857    -2.786666    -0.770426
C        7.458128    -2.048064    -0.215974
C        8.722542    -2.641403    -0.064438
C        8.957824    -3.932700    -0.460509
C        7.926791    -4.680856    -1.019238
C        6.671688    -4.115173    -1.185112
C        5.686903    -4.845527    -1.743314
C        4.465830    -4.329126    -1.979501
C        3.518617    -5.105620    -2.609332
C        2.268419    -4.606445    -2.891737
C        1.949229    -3.315274    -2.519692
C        2.884827    -2.497403    -1.856841
C        4.147214    -3.005524    -1.590814
C        5.622465    -0.476098     1.989982
C        5.056613    -0.551277     3.275417
N        3.703929    -0.906814     3.131992
C        2.812809    -1.092413     4.249127
C        1.680068    -0.053867     4.325971
C        2.234582    -2.477297     4.326618
H       -2.275433    -3.508932     2.744130
H       -2.331025    -2.763780     1.174055
H       -1.533174    -1.961967     2.675178
H       -3.638156    -1.664633     3.689642
H       -5.364128    -3.047590     1.753886
H       -5.301405    -3.173487     3.555455
H       -4.202280    -4.148705     2.490748
H       -6.094647    -0.711177     3.142996
H       -6.740397     1.150127     1.478480
H       -6.109673     1.800438    -0.783815
H       -4.841811     1.110678    -1.609021
H       -2.962424     1.311234    -2.235654
H       -0.868056     1.729541    -3.326033
H        0.301946     3.869251    -2.993058
H       -0.655384     5.549745    -1.558855
H       -2.364041     6.334303    -0.183516
H       -4.087631     7.214729     1.114894
H       -6.288662     7.047161     2.171896
H       -7.579705     4.966285     1.935727
H       -6.697768     3.137780     0.666016
H        5.641778    -0.124326    -0.654289
H        3.976095    -0.319132    -0.906994
H        7.350812    -1.071759     0.055667
H        9.518550    -2.068346     0.352133
H        9.940148    -4.351733    -0.345417
H        8.109662    -5.675041    -1.335536
H        5.900782    -5.859221    -2.069765
H        3.750977    -6.100092    -2.915030
H        1.558882    -5.227452    -3.403594
H        0.981305    -2.942502    -2.749966
H        2.597527    -1.549564    -1.626238
H        6.579929    -0.235339     1.832118
H        5.525747    -0.371059     4.189164
H        3.393004    -0.944321     5.158172
H        2.049721     0.969511     4.179367
H        1.325385    -0.118965     5.360865
H        0.816836    -0.324698     3.683661
H        1.980547    -2.878419     3.313627
H        1.330496    -2.421010     4.954968
H        2.937475    -3.137015     4.837719
90
ex_0492 frame29 T-shaped Se-Se-ax/I-eq-conf4
C        3.413372    -0.582308     3.410593
C        3.019365    -1.833335     2.627013
C        3.063747    -3.071728     3.538856
N        3.987169    -1.722730     1.564813
C        5.294749    -2.242971     1.617873
C        5.901832    -1.927641     0.405022
N        4.965787    -1.220759    -0.376211
C        5.225048    -0.712887    -1.723523
C        6.363234     0.288863    -1.604158
C        6.088998     1.680890    -1.359684
C        4.772483     2.183555    -1.282423
C        4.533853     3.534364    -1.013796
C        5.595646     4.413827    -0.826077
C        6.904627     3.949805    -0.916237
C        7.164384     2.595325    -1.187225
C        8.481229     2.160161    -1.284632
C        8.780909     0.831103    -1.559801
C       10.125179     0.436866    -1.668868
C       10.454003    -0.885819    -1.947321
C        9.447507    -1.831477    -2.120599
C        8.102235    -1.464555    -2.016629
C        7.740358    -0.123394    -1.728394
C        3.931123    -1.080849     0.430110
Se       2.400000     0.000000     0.000000
Cu       0.000000     0.000000     0.000000
I        0.019637     2.553908    -0.303740
Se      -2.400000     0.000000     0.000000
C       -3.912120     0.134002     1.130385
N       -5.042225    -0.604742     0.942494
C       -5.327360    -1.735108     0.063838
C       -6.444901    -1.252634    -0.915975
C       -6.121812    -0.600723    -2.158467
C       -4.788282    -0.389146    -2.568539
C       -4.501832     0.255309    -3.776023
C       -5.531324     0.702041    -4.599151
C       -6.855781     0.501696    -4.223041
C       -7.163788    -0.147616    -3.015392
C       -8.495472    -0.342114    -2.667646
C       -8.843133    -0.988576    -1.488421
C      -10.201844    -1.181589    -1.184840
C      -10.579622    -1.827670    -0.012855
C       -9.608583    -2.285814     0.873192
C       -8.249735    -2.103347     0.595831
C       -7.837921    -1.452682    -0.594253
C       -5.964394    -0.020721     1.834286
C       -5.291137     0.926800     2.608692
N       -3.957235     0.980475     2.168606
C       -2.886162     1.779359     2.726978
C       -3.467877     2.956253     3.530827
C       -1.743957     1.123095     3.501026
H        2.725462    -0.423523     4.266897
H        4.451659    -0.665990     3.798730
H        3.363887     0.313955     2.757312
H        1.970241    -1.717513     2.267607
H        2.360875    -2.936816     4.388697
H        2.774581    -3.982370     2.976166
H        4.081669    -3.216535     3.960453
H        5.743073    -2.782081     2.437706
H        6.909449    -2.180577     0.117108
H        4.295088    -0.342330    -2.205404
H        5.476584    -1.519904    -2.488421
H        3.913424     1.576957    -1.436350
H        3.517537     3.902356    -0.953921
H        5.405348     5.459223    -0.617916
H        7.718170     4.652812    -0.775353
H        9.289408     2.873294    -1.150375
H       10.925185     1.157202    -1.536959
H       11.493561    -1.177613    -2.028385
H        9.712184    -2.858477    -2.335875
H        7.387047    -2.256031    -2.156663
H       -5.647481    -2.672851     0.549428
H       -4.422923    -2.091766    -0.462272
H       -3.952616    -0.718598    -1.999368
H       -3.473508     0.406943    -4.077721
H       -5.304159     1.199268    -5.533970
H       -7.643631     0.850397    -4.882060
H       -9.277188     0.005425    -3.337413
H      -10.974709    -0.833199    -1.861764
H      -11.629733    -1.973056     0.208092
H       -9.911886    -2.786147     1.783367
H       -7.563481    -2.480387     1.333889
H       -7.014794    -0.264729     1.893621
H       -5.726043     1.549498     3.376484
H       -2.467651     2.217861     1.795918
H       -2.676808     3.706931     3.739986
H       -4.262003     3.467489     2.943620
H       -3.892517     2.605716     4.495429
H       -0.960427     1.879531     3.723824
H       -2.117131     0.690921     4.452226
H       -1.278822     0.320548     2.891683
90
ex_0492 frame30 T-shaped Se-Se-ax/I-eq
C        1.685088    -2.898270     1.983744
C        2.915267    -3.025406     1.089243
C        3.463457    -4.462230     1.120993
N        3.973791    -2.041777     1.229848
C        5.272269    -2.281438     1.741946
C        5.956375    -1.056805     1.700021
N        5.067408    -0.078404     1.194518
C        5.379130     1.345713     1.038057
C        6.486598     1.532398    -0.054946
C        6.146807     1.756795    -1.440307
C        4.807982     1.840667    -1.881475
C        4.510012     2.071839    -3.229066
C        5.530084     2.210192    -4.165497
C        6.857421     2.122272    -3.761304
C        7.179616     1.901693    -2.410719
C        8.514408     1.827121    -2.036096
C        8.878958     1.638870    -0.709373
C       10.242230     1.600868    -0.371695
C       10.637833     1.424024     0.949336
C        9.679155     1.273346     1.947738
C        8.315235     1.294776     1.635246
C        7.885126     1.487318     0.299395
C        3.932237    -0.752416     0.872296
Se       2.400000     0.000000     0.000000
Cu       0.000000     0.000000     0.000000
I        0.090875     2.210048     1.313792
Se      -2.400000     0.000000     0.000000
C       -3.814592     1.292663    -0.050210
N       -4.994530     1.270045     0.744116
C       -5.353586     0.235215     1.728413
C       -6.200766    -0.925442     1.140413
C       -7.598896    -0.736201     0.871569
C       -8.269983     0.453298     1.231303
C       -9.626413     0.625107     0.947069
C      -10.338614    -0.372556     0.288256
C       -9.703079    -1.558578    -0.071064
C       -8.344432    -1.758510     0.228941
C       -7.738851    -2.963177    -0.108391
C       -6.408596    -3.213367     0.214854
C       -5.850256    -4.465253    -0.092611
C       -4.528905    -4.750113     0.234800
C       -3.748557    -3.790143     0.871390
C       -4.277460    -2.532183     1.177457
C       -5.619623    -2.213635     0.851090
C       -5.767533     2.420966     0.422374
C       -5.078839     3.132219    -0.595829
N       -3.867833     2.433119    -0.877224
C       -2.847921     2.828139    -1.858359
C       -3.147238     4.215932    -2.441490
C       -1.465000     2.897941    -1.172685
H        1.250596    -1.881284     1.892709
H        1.971649    -3.066898     3.041623
H        0.907986    -3.629464     1.679294
H        2.610154    -2.839227     0.034621
H        2.688306    -5.169683     0.754545
H        4.341656    -4.558468     0.445340
H        3.755600    -4.752293     2.151300
H        5.685854    -3.233778     2.039261
H        6.992992    -0.902468     1.960798
H        5.706408     1.854367     1.962761
H        4.474500     1.929854     0.798292
H        3.974267     1.759434    -1.225206
H        3.479374     2.148099    -3.550113
H        5.293624     2.391905    -5.206833
H        7.637988     2.240788    -4.505790
H        9.287539     1.951422    -2.789985
H       11.005457     1.723958    -1.133394
H       11.691766     1.408788     1.198350
H        9.996709     1.140599     2.973360
H        7.636200     1.174499     2.461127
H       -4.419909    -0.078205     2.217413
H       -5.864302     0.692440     2.600072
H       -7.795001     1.241182     1.774998
H      -10.129696     1.535077     1.247753
H      -11.389876    -0.233882     0.070742
H      -10.280662    -2.331355    -0.565315
H       -8.325803    -3.737346    -0.593515
H       -6.443279    -5.230091    -0.581873
H       -4.111690    -5.721216    -0.000347
H       -2.724177    -4.023751     1.132342
H       -3.607079    -1.865156     1.679053
H       -6.688571     2.745657     0.870058
H       -5.408944     4.060496    -1.037544
H       -2.795679     2.106250    -2.703949
H       -3.179149     4.963833    -1.619968
H       -4.112945     4.213124    -2.987166
H       -2.350297     4.508184    -3.156737
H       -1.607364     3.494232    -0.258911
H       -1.061803     1.878518    -1.096378
H       -0.727093     3.396418    -1.832212
90
ex_0492 frame31 T-shaped Se-Se-ax/I-eq-conf3
C        2.567075    -3.120069     3.318016
C        2.952396    -2.685606     1.872059
C        3.517340    -3.844828     1.096228
N        3.950250    -1.639134     1.753726
C        5.264211    -1.724912     2.265142
C        5.906562    -0.525249     1.949189
N        4.991923     0.290603     1.248518
C        5.291398     1.636172     0.742806
C        6.345828     1.575081    -0.313360
C        5.970930     1.496972    -1.707291
C        4.622632     1.549851    -2.126433
C        4.298518     1.448860    -3.474632
C        5.286962     1.301326    -4.442308
C        6.621611     1.257400    -4.058020
C        6.980013     1.361733    -2.699451
C        8.321738     1.330732    -2.347555
C        8.718747     1.455618    -1.022046
C       10.089860     1.448842    -0.710680
C       10.516361     1.583356     0.605713
C        9.582816     1.724570     1.628710
C        8.212861     1.726164     1.345366
C        7.750996     1.586727     0.012048
C        3.917546    -0.489117     1.097174
Se       2.400000     0.000000     0.000000
Cu       0.000000     0.000000     0.000000
I        0.209026     2.467670    -0.683703
Se      -2.400000     0.000000     0.000000
C       -3.621875    -1.195909    -0.828115
N       -4.797423    -1.451478    -0.217987
C       -5.265148    -1.076189     1.094358
C       -6.055671     0.056132     1.410599
C       -6.488897     0.992625     0.373400
C       -6.144018     0.868820    -0.994976
C       -6.614636     1.782198    -1.946013
C       -7.427927     2.843409    -1.572261
C       -7.767083     3.009798    -0.238901
C       -7.308831     2.107624     0.739326
C       -7.667014     2.320552     2.061317
C       -7.246447     1.468909     3.068920
C       -7.609511     1.746477     4.399280
C       -7.204569     0.907216     5.431079
C       -6.444310    -0.222929     5.150895
C       -6.074124    -0.519197     3.836972
C       -6.455942     0.332141     2.767502
C       -5.529155    -2.200930    -1.162081
C       -4.702737    -2.398105    -2.278614
N       -3.448466    -1.771902    -2.038563
C       -2.305682    -1.801508    -2.946321
C       -1.708393    -0.573422    -3.150985
C       -2.594597    -2.623212    -4.217866
H        1.797106    -3.919649     3.260921
H        3.455114    -3.505295     3.860739
H        2.139543    -2.260448     3.875507
H        2.001740    -2.335379     1.419404
H        3.796914    -3.513243     0.073466
H        2.776212    -4.666927     1.012045
H        4.425307    -4.263337     1.584333
H        5.692821    -2.558779     2.799317
H        6.924013    -0.268349     2.197816
H        4.345719     2.175117     0.481879
H        5.607554     2.359223     1.603260
H        3.809064     1.681259    -1.457352
H        3.255384     1.492227    -3.786016
H        5.022730     1.225985    -5.489449
H        7.382772     1.152075    -4.824157
H        9.076053     1.230024    -3.123817
H       10.834047     1.345604    -1.493652
H       11.575404     1.582201     0.831919
H        9.923756     1.833084     2.649498
H        7.554571     1.840373     2.189258
H       -5.759241    -2.117441     1.581591
H       -4.306111    -1.099637     1.811982
H       -5.507345     0.138449    -1.396550
H       -6.341566     1.670353    -2.988660
H       -7.785769     3.547975    -2.313135
H       -8.388332     3.856332     0.036109
H       -8.272670     3.187566     2.316189
H       -8.200501     2.623992     4.640388
H       -7.482494     1.135484     6.452798
H       -6.134265    -0.873461     5.957499
H       -5.483085    -1.409597     3.697643
H       -6.549987    -2.533241    -1.049860
H       -4.977938    -2.913712    -3.185650
H       -1.417061    -2.609628    -2.424045
H       -0.927395    -0.596433    -3.939544
H       -2.538032     0.084052    -3.492753
H       -1.207536    -0.117122    -2.287538
H       -2.931690    -3.671305    -4.081147
H       -1.705112    -2.637474    -4.884277
H       -3.391025    -2.036719    -4.726621
90
ex_0492 frame32 T-shaped Se-Se-ax/I-eq-conf2
C        2.301052    -2.499166    -2.064518
C        2.715516    -3.281368    -0.901948
C        3.233110    -4.666743    -1.336169
N        3.716464    -2.547137    -0.106717
C        5.000623    -3.042205     0.206460
C        5.663070    -2.085180     0.964550
N        4.798219    -0.982781     1.131990
C        5.128740     0.247406     1.880572
C        6.090002     1.080670     1.111875
C        7.492589     0.766085     1.092205
C        8.046247    -0.260691     1.887638
C        9.403927    -0.582430     1.793577
C       10.242317     0.129556     0.941456
C        9.729159     1.169909     0.175926
C        8.365472     1.501903     0.245147
C        7.883575     2.553400    -0.521167
C        6.544705     2.918281    -0.481669
C        6.103829     3.986816    -1.279957
C        4.773169     4.382935    -1.258205
C        3.868011     3.724152    -0.434051
C        4.282422     2.663221     0.376666
C        5.624437     2.212894     0.346084
C        3.761569    -1.313177     0.368790
Se       2.400000     0.000000     0.000000
Cu       0.000000     0.000000     0.000000
I       -0.003591     2.546257     0.350852
Se      -2.400000     0.000000     0.000000
C       -3.765402    -1.255447    -0.366748
N       -4.850955    -1.360099     0.422148
C       -5.205438    -0.748737     1.699478
C       -5.996774     0.382155     1.532096
C       -7.395251     0.261873     1.228456
C       -8.061246    -0.980954     1.225780
C       -9.406479    -1.069059     0.853275
C      -10.124016     0.075064     0.518826
C       -9.501262     1.317196     0.554349
C       -8.146680     1.426261     0.912175
C       -7.553555     2.680504     0.952840
C       -6.219031     2.834362     1.305919
C       -5.661040     4.123303     1.326576
C       -4.331895     4.312884     1.682941
C       -3.544982     3.221378     2.031121
C       -4.076727     1.929469     2.027153
C       -5.417943     1.701367     1.626612
C       -5.642527    -2.266611    -0.314028
C       -4.947337    -2.662906    -1.449681
N       -3.719297    -2.014954    -1.440801
C       -2.669188    -2.166188    -2.399956
C       -3.214712    -1.282282    -3.443510
C       -2.355748    -3.603466    -2.950519
H        1.687348    -3.101900    -2.765806
H        3.220824    -2.169119    -2.598030
H        1.672077    -1.627764    -1.842373
H        1.769059    -3.562258    -0.221361
H        2.471890    -5.188631    -1.954294
H        4.128209    -4.505227    -1.977845
H        3.499603    -5.331460    -0.488613
H        5.396429    -4.000018    -0.093201
H        6.664059    -2.165887     1.358830
H        5.499161     0.020594     2.980146
H        4.159789     0.737874     2.193946
H        7.400898    -0.817315     2.551033
H        9.808697    -1.389765     2.385836
H       11.305810    -0.082614     0.918993
H       10.394534     1.697904    -0.499212
H        8.554380     3.060325    -1.210769
H        6.797374     4.524919    -1.917733
H        4.463475     5.263949    -1.813213
H        2.834603     4.037727    -0.422341
H        3.522929     2.252849     1.006904
H       -4.202133    -0.676606     2.340019
H       -5.631284    -1.601836     2.504364
H       -7.509687    -1.872785     1.484274
H       -9.895965    -2.031313     0.823751
H      -11.180659     0.008346     0.285071
H      -10.068209     2.194221     0.259282
H       -8.126830     3.550995     0.643088
H       -6.264645     4.992015     1.085478
H       -3.911540     5.307702     1.689094
H       -2.512423     3.376539     2.307068
H       -3.393219     1.164750     2.332728
H       -6.637340    -2.574337    -0.039255
H       -5.298217    -3.333197    -2.219867
H       -1.678312    -1.794798    -2.015010
H       -2.500100    -1.157847    -4.282011
H       -4.169775    -1.677977    -3.853597
H       -3.421048    -0.282025    -3.003906
H       -1.900152    -4.254422    -2.176498
H       -3.287434    -4.077734    -3.325260
H       -1.643404    -3.508864    -3.798621
90
ex_0492 frame33 T-shaped I-Se-ax/Se-eq-conf5
C        1.092251    -0.775092    -3.435280
C        2.209407    -1.645316    -2.924419
C        1.787251    -2.547373    -1.764587
N        3.403891    -0.895712    -2.559132
C        4.564550    -0.781760    -3.342429
C        5.497061    -0.016283    -2.608094
N        4.859745     0.391058    -1.431706
C        5.424635     1.242086    -0.454504
C        6.288204     0.855755     0.740037
C        6.644227    -0.505461     1.145132
C        6.219483    -1.625090     0.465961
C        6.594993    -2.895019     0.907465
C        7.393845    -3.053550     2.030380
C        7.822080    -1.943258     2.715460
C        7.477221    -0.670873     2.308343
C        7.923050     0.430156     3.004471
C        7.577607     1.698026     2.623444
C        8.038903     2.763566     3.367396
C        7.721673     4.060878     3.003068
C        6.929351     4.301396     1.894144
C        6.455458     3.248417     1.151735
C        6.770047     1.921293     1.498895
C        3.596250    -0.177840    -1.384967
Se       2.400000     0.000000     0.000000
Cu       0.000000     0.000000     0.000000
I       -2.485470    -0.659814    -0.036033
Se       0.000000     2.400000     0.000000
C       -0.808519     3.719792    -0.902032
N       -1.496979     4.839046    -0.386430
C       -1.693230     5.208594     1.009680
C       -0.602475     6.202094     1.475714
C       -0.701451     7.578889     1.150139
C       -1.813916     8.106118     0.489224
C       -1.852735     9.446292     0.140638
C       -0.805948    10.291560     0.467583
C        0.291798     9.798098     1.148958
C        0.350686     8.455401     1.496372
C        1.446129     7.997817     2.179805
C        1.547285     6.681655     2.545303
C        2.677418     6.270043     3.232145
C        2.816722     4.959329     3.624794
C        1.814500     4.041167     3.338478
C        0.666294     4.436131     2.655511
C        0.524736     5.758919     2.222504
C       -1.983018     5.570188    -1.482595
C       -1.581440     4.903461    -2.648827
N       -0.843385     3.784746    -2.276205
C       -0.223028     2.855459    -3.198689
C        0.107024     3.607054    -4.462112
C        1.093582     2.342445    -2.657617
H        1.148864    -0.497061    -4.495643
H        1.423835     0.095901    -3.048620
H        0.056747    -0.992284    -3.104010
H        2.455597    -2.259741    -3.786653
H        1.683157    -3.571170    -2.146125
H        2.597960    -2.575660    -1.011248
H        0.829350    -2.245430    -1.279228
H        4.696898    -1.189380    -4.314688
H        6.476232     0.288152    -2.916191
H        6.068517     1.917845    -1.047712
H        4.591767     1.823939    -0.008821
H        5.612821    -1.581457    -0.390800
H        6.262910    -3.757663     0.368754
H        7.681659    -4.038383     2.366146
H        8.448768    -2.057028     3.604823
H        8.526548     0.271545     3.881896
H        8.653451     2.581214     4.225252
H        8.098420     4.871779     3.589030
H        6.671951     5.300234     1.594121
H        5.846789     3.520671     0.304996
H       -2.709219     5.642543     1.101076
H       -1.790835     4.306046     1.635394
H       -2.683988     7.535815     0.271344
H       -2.707869     9.836151    -0.391486
H       -0.842888    11.335331     0.192670
H        1.112458    10.450871     1.406278
H        2.276926     8.666783     2.369890
H        3.457968     6.978699     3.455385
H        3.705283     4.649000     4.154469
H        1.926161     3.012464     3.647834
H       -0.087634     3.701090     2.513032
H       -2.544974     6.459976    -1.506578
H       -1.776315     5.175568    -3.654856
H       -0.903991     1.997018    -3.432245
H       -0.814636     3.714606    -5.059187
H        0.500437     4.599444    -4.170436
H        0.883557     3.093562    -5.050266
H        1.675270     3.015955    -2.016938
H        1.771435     2.015541    -3.466490
H        0.776994     1.506401    -2.030464
90
ex_0492 frame34 T-shaped Se-Se-ax/I-eq-conf6
C        3.191558     1.509502     2.540245
C        4.563223     1.803631     1.891058
C        5.578694     1.854769     3.050612
N        5.013675     0.866577     0.824178
C        6.378084     0.666813     0.475422
C        6.435260    -0.314432    -0.537396
N        5.105297    -0.736483    -0.825569
C        4.755642    -1.772437    -1.786646
C        5.221846    -3.126611    -1.222047
C        4.323637    -3.940580    -0.452025
C        2.977662    -3.561193    -0.220123
C        2.132487    -4.360898     0.547891
C        2.595100    -5.554200     1.090526
C        3.909993    -5.958031     0.867261
C        4.780046    -5.163924     0.100972
C        6.090330    -5.586990    -0.110264
C        6.978108    -4.827666    -0.868590
C        8.294747    -5.283267    -1.053961
C        9.198541    -4.544283    -1.812840
C        8.796120    -3.352248    -2.408868
C        7.488662    -2.883391    -2.244466
C        6.560360    -3.601931    -1.450507
C        4.208592     0.022961    -0.022336
Se       2.400000     0.000000     0.000000
Cu       0.000000     0.000000     0.000000
I       -0.024823     2.482210    -0.644002
Se      -2.400000     0.000000     0.000000
C       -4.232847    -0.017418    -0.027921
N       -5.137012     0.901921    -0.622442
C       -4.789906     2.091290    -1.386319
C       -5.201995     1.825076    -2.842467
C       -4.257296     1.279759    -3.775973
C       -2.911302     1.018681    -3.419662
C       -2.022268     0.466408    -4.340547
C       -2.442146     0.174574    -5.633543
C       -3.756289     0.435972    -6.015428
C       -4.670240     0.987436    -5.100973
C       -5.978340     1.243472    -5.503883
C       -6.908459     1.795119    -4.624764
C       -8.220983     2.034095    -5.063867
C       -9.164524     2.591798    -4.204169
C       -8.805425     2.933032    -2.903093
C       -7.503430     2.710840    -2.447281
C       -6.534567     2.113214    -3.292802
C       -6.468210     0.465123    -0.346088
C       -6.390857    -0.737277     0.396930
N       -5.013946    -1.030050     0.586886
C       -4.474264    -2.188229     1.300971
C       -3.911831    -1.785985     2.672084
C       -5.512199    -3.306647     1.473874
H        3.147249     0.464671     2.920111
H        3.010448     2.191197     3.399026
H        2.347113     1.738371     1.870284
H        4.533828     2.828692     1.462732
H        6.566740     2.217598     2.708696
H        5.688183     0.855515     3.522441
H        5.244798     2.580187     3.825612
H        7.234571     1.167492     0.902220
H        7.347972    -0.657930    -0.986328
H        3.678515    -1.752235    -2.008398
H        5.167169    -1.544103    -2.788676
H        2.533995    -2.667350    -0.598884
H        1.109926    -4.049391     0.721097
H        1.932033    -6.167568     1.685876
H        4.249802    -6.890458     1.301104
H        6.426920    -6.519487     0.331070
H        8.627143    -6.211327    -0.603152
H       10.213152    -4.900086    -1.942002
H        9.503381    -2.786308    -3.002026
H        7.249011    -1.959971    -2.742598
H       -5.243208     3.004274    -0.954966
H       -3.721687     2.329978    -1.277199
H       -2.499060     1.213567    -2.454564
H       -0.999942     0.264858    -4.045771
H       -1.745697    -0.255438    -6.340981
H       -4.062585     0.198860    -7.027115
H       -6.281701     0.999263    -6.516883
H       -8.520582     1.779883    -6.073996
H      -10.176225     2.762982    -4.549327
H       -9.542559     3.371055    -2.241808
H       -7.300062     3.005350    -1.431325
H       -7.389585     0.929667    -0.643792
H       -7.231807    -1.319250     0.747470
H       -3.661875    -2.620484     0.676328
H       -4.723116    -1.378508     3.313447
H       -3.122723    -1.014588     2.576949
H       -3.467676    -2.669114     3.179668
H       -6.354550    -2.984074     2.120255
H       -5.902583    -3.610767     0.478933
H       -5.034574    -4.195680     1.939445
90
ex_0492 frame35 T-shaped Se-Se-ax/I-eq-conf5
C        1.003757    -0.681936    -3.445882
C        2.184906    -1.619733    -2.986816
C        1.782283    -2.515328    -1.859691
N        3.382943    -0.908781    -2.580150
C        4.608243    -0.954060    -3.291872
C        5.522974    -0.146668    -2.595138
N        4.855376     0.378961    -1.476009
C        5.451738     1.264558    -0.497352
C        6.278501     0.947035     0.682747
C        6.607820    -0.419122     1.078262
C        6.159158    -1.568041     0.380321
C        6.518050    -2.855704     0.813741
C        7.321743    -3.034554     1.935325
C        7.772763    -1.930127     2.641229
C        7.429117    -0.629234     2.234819
C        7.900823     0.448472     2.975664
C        7.589127     1.752846     2.627866
C        8.073859     2.814279     3.413006
C        7.770731     4.133697     3.083364
C        6.985668     4.409914     1.969471
C        6.500053     3.373466     1.176302
C        6.786694     2.020469     1.491705
C        3.647125    -0.193924    -1.474508
Se       2.400000     0.000000     0.000000
Cu       0.000000     0.000000     0.000000
I        0.334678     2.479329    -0.593655
Se      -2.400000     0.000000     0.000000
C       -3.758240     0.948026    -0.905371
N       -4.836280     0.334819    -1.514215
C       -5.109024    -1.106382    -1.660785
C       -6.141915    -1.488223    -0.512305
C       -7.544909    -1.177932    -0.645238
C       -8.082164    -0.615393    -1.820200
C       -9.439376    -0.277280    -1.895791
C      -10.292338    -0.518908    -0.822947
C       -9.795343    -1.100961     0.335245
C       -8.434523    -1.438766     0.437056
C       -7.971961    -2.027910     1.602989
C       -6.638944    -2.380795     1.750305
C       -6.220390    -2.972256     2.953789
C       -4.895836    -3.345286     3.133772
C       -3.973986    -3.140602     2.113571
C       -4.364671    -2.561546     0.903355
C       -5.701885    -2.141269     0.701460
C       -5.653148     1.378928    -1.984316
C       -5.034000     2.583767    -1.676235
N       -3.810355     2.310629    -1.026187
C       -2.839156     3.332864    -0.595660
C       -3.602612     4.654561    -0.379651
C       -2.279231     2.975267     0.819838
H        1.254568    -0.174721    -4.400160
H        0.816146     0.095843    -2.675920
H        0.076250    -1.276292    -3.576278
H        2.443430    -2.248234    -3.859930
H        1.236653    -3.397563    -2.252545
H        2.692475    -2.885555    -1.336164
H        1.106202    -2.033589    -1.128292
H        4.795333    -1.508712    -4.200190
H        6.549555     0.033866    -2.872489
H        6.022920     2.057873    -1.179188
H        4.574738     1.936217    -0.127389
H        5.530086    -1.546803    -0.472143
H        6.169023    -3.729643     0.278650
H        7.594032    -4.030921     2.266327
H        8.392186    -2.091686     3.519119
H        8.514448     0.265727     3.854368
H        8.685739     2.623434     4.287266
H        8.143637     4.945737     3.692867
H        6.747790     5.433923     1.714378
H        5.897329     3.668895     0.332969
H       -5.500495    -1.449584    -2.639892
H       -4.183686    -1.684829    -1.577507
H       -7.425226    -0.425398    -2.656104
H       -9.832388     0.175807    -2.793930
H      -11.357036    -0.325510    -0.913190
H      -10.471502    -1.261520     1.169870
H       -8.654317    -2.158847     2.440903
H       -6.928823    -3.164108     3.753689
H       -4.584141    -3.793597     4.065578
H       -2.944979    -3.433504     2.261059
H       -3.587646    -2.477839     0.175562
H       -6.599764     1.258826    -2.490175
H       -5.418979     3.567048    -1.902841
H       -2.017831     3.553366    -1.294411
H       -3.929911     5.090681    -1.342034
H       -4.489130     4.465611     0.270643
H       -2.965131     5.406886     0.130279
H       -3.144546     2.770020     1.489334
H       -1.719372     3.829223     1.250674
H       -1.637985     2.121301     1.027000
