42
ex_0258 frame0 Λ-conf2
C        1.809393    -1.657780     1.760728
N        1.053676    -0.431486     1.641248
C        1.275999     0.794302     2.321254
C        2.554039     1.027303     2.865512
C        2.860280     2.233313     3.476585
C        1.885707     3.216292     3.599962
C        0.587681     2.999056     3.117921
C        0.229445     1.802617     2.468132
N       -1.156050     1.693928     2.007029
N       -1.482493     1.035059     0.841418
C       -2.642511     0.266252     0.488765
C       -3.914354     0.636752     0.929479
C       -5.034403    -0.097070     0.523148
C       -4.897120    -1.212814    -0.311526
C       -3.637104    -1.627063    -0.746743
C       -2.493457    -0.931969    -0.349418
N       -1.193298    -1.402788    -0.768504
C       -0.760491    -1.698438    -2.122628
C        0.782843    -1.554996    -2.330180
C        1.509888    -2.669093    -2.799039
C        2.892137    -2.588694    -3.039232
C        3.582253    -1.395793    -2.826404
C        2.901629    -0.279383    -2.360615
C        1.536622    -0.356638    -2.074663
O        0.960988     0.727269    -1.554678
Cu       0.000000     0.000000     0.000000
H        2.885571    -1.496772     1.556159
H        1.665708    -2.081466     2.777694
H        1.423753    -2.390242     1.020957
H        3.347518     0.297627     2.772163
H        3.865434     2.405450     3.845020
H        2.143920     4.154474     4.073096
H       -0.142941     3.786897     3.236113
H       -4.041554     1.508852     1.557519
H       -6.020167     0.205650     0.849029
H       -5.773988    -1.766944    -0.619332
H       -3.548567    -2.503163    -1.377461
H       -1.157218    -2.684489    -2.442722
H        1.009202    -3.608065    -2.988441
H        3.435657    -3.453418    -3.396149
H        4.648960    -1.335056    -3.009061
H        3.445956     0.639979    -2.170694
42
ex_0258 frame1 Δ-conf5
C        2.195834     1.500335     1.434028
N        0.863968     0.947255     1.531484
C       -0.181021     1.351261     2.402975
C       -0.118516     2.644253     2.957879
C       -1.142775     3.127859     3.757179
C       -2.229946     2.316548     4.059271
C       -2.300569     1.005720     3.568308
C       -1.300474     0.473165     2.732820
N       -1.486436    -0.906763     2.280872
N       -1.090841    -1.318206     1.027400
C       -0.580525    -2.578836     0.568112
C       -1.058185    -3.783505     1.088240
C       -0.584474    -4.998678     0.580614
C        0.376842    -5.025302    -0.437139
C        0.895793    -3.839124    -0.958810
C        0.462571    -2.606825    -0.466092
N        1.045193    -1.389457    -0.979922
C        1.170829    -0.995505    -2.371355
C        1.250291     0.551820    -2.573139
C        2.372083     1.091172    -3.236186
C        2.482366     2.471040    -3.476286
C        1.475475     3.345736    -3.069286
C        0.357427     2.851990    -2.410909
C        0.253622     1.488317    -2.126549
O       -0.807966     1.090959    -1.423824
Cu       0.000000     0.000000     0.000000
H        2.726376     1.011684     0.590111
H        2.173164     2.590435     1.241409
H        2.754424     1.282202     2.369356
H        0.699137     3.315485     2.730735
H       -1.092925     4.143708     4.132967
H       -3.023818     2.712325     4.678815
H       -3.160886     0.405083     3.828389
H       -1.816602    -3.782311     1.860228
H       -0.971550    -5.929951     0.971151
H        0.729440    -5.973413    -0.821242
H        1.652272    -3.879097    -1.732994
H        2.008341    -1.545672    -2.849035
H        3.168081     0.444627    -3.577850
H        3.351150     2.869083    -3.983562
H        1.563116     4.410615    -3.251352
H       -0.412193     3.538132    -2.072771
42
ex_0258 frame2 Δ-conf3
C        2.185797     1.505637     1.441748
N        0.855156     0.948690     1.535832
C       -0.190465     1.343349     2.410993
C       -0.131390     2.631987     2.976152
C       -1.155948     3.107305     3.779730
C       -2.241014     2.291044     4.077271
C       -2.308587     0.984399     3.576293
C       -1.308769     0.460559     2.735592
N       -1.494218    -0.915197     2.274031
N       -1.094732    -1.319764     1.019413
C       -0.589548    -2.581406     0.557751
C       -1.073107    -3.785454     1.073427
C       -0.603677    -5.001024     0.562682
C        0.358991    -5.027686    -0.454048
C        0.883500    -3.841970    -0.970568
C        0.454324    -2.608967    -0.474111
N        1.041100    -1.391250    -0.981234
C        1.170755    -0.995352    -2.371762
C        1.259095     0.551426    -2.567874
C        2.385778     1.087042    -3.225317
C        2.504633     2.467189    -3.458554
C        1.501287     3.345704    -3.050772
C        0.377828     2.855207    -2.398978
C        0.265708     1.491064    -2.121057
O       -0.800555     1.095635    -1.424214
Cu       0.000000     0.000000     0.000000
H        2.160475     2.598097     1.263604
H        2.747699     1.276193     2.372284
H        2.714364     1.029798     0.589378
H        0.684174     3.307445     2.753316
H       -1.108859     4.120359     4.163027
H       -3.035227     2.679885     4.700551
H       -3.167346     0.379337     3.832762
H       -1.832523    -3.783825     1.844547
H       -0.995089    -5.931955     0.949558
H        0.707936    -5.976114    -0.840973
H        1.640799    -3.882023    -1.743980
H        2.005769    -1.549153    -2.849510
H        3.179284     0.437275    -3.566772
H        3.377596     2.862513    -3.960713
H        1.595864     4.410885    -3.227038
H       -0.389044     3.544009    -2.060111
42
ex_0258 frame3 Λ-conf3
C        1.808080    -1.618189     1.795636
N        1.045677    -0.398229     1.654164
C        1.259250     0.839691     2.317107
C        2.532819     1.086387     2.866798
C        2.829947     2.302616     3.462348
C        1.850918     3.283173     3.566126
C        0.557399     3.053955     3.078188
C        0.210101     1.847533     2.442315
N       -1.171416     1.729449     1.971577
N       -1.487040     1.044042     0.819913
C       -2.651289     0.277269     0.476993
C       -3.922162     0.655311     0.913996
C       -5.043779    -0.080454     0.514552
C       -4.908090    -1.203523    -0.310604
C       -3.648204    -1.624112    -0.741142
C       -2.503294    -0.927516    -0.348107
N       -1.201984    -1.401597    -0.757674
C       -0.771119    -1.718260    -2.106935
C        0.773373    -1.599696    -2.306386
C        1.486276    -2.729501    -2.757129
C        2.871329    -2.673254    -2.985242
C        3.577861    -1.488709    -2.778567
C        2.910104    -0.356037    -2.333608
C        1.541573    -0.408250    -2.060040
O        0.976484     0.691612    -1.561183
Cu       0.000000     0.000000     0.000000
H        2.884571    -1.452979     1.596327
H        1.660041    -2.029342     2.817066
H        1.432652    -2.362623     1.062638
H        3.329883     0.359077     2.789234
H        3.831879     2.484671     3.834681
H        2.101253     4.229053     4.027927
H       -0.177391     3.840078     3.180285
H       -4.047965     1.532609     1.535053
H       -6.029154     0.226401     0.838220
H       -5.786111    -1.758634    -0.613945
H       -3.560983    -2.505948    -1.363791
H       -1.181758    -2.701935    -2.416964
H        0.972281    -3.662767    -2.939866
H        3.404186    -3.550539    -3.326863
H        4.647174    -1.447279    -2.950326
H        3.466822     0.556985    -2.148849
42
ex_0258 frame4 conf3
C        1.793888     1.810162    -1.616933
N        1.655283     1.045839    -0.398407
C        2.319069     1.257355     0.839382
C        2.869519     2.530032     1.086894
C        3.466014     2.825692     2.303235
C        3.569498     1.845532     3.282897
C        3.080852     0.552988     3.052631
C        2.444230     0.206646     1.846260
N        1.973626    -1.173039     1.727533
N        0.821637    -1.489539     1.043505
C        0.477413    -2.651541     0.276294
C        0.914370    -3.922680     0.654805
C        0.515041    -5.044285    -0.080534
C       -0.309971    -4.908804    -1.203838
C       -0.740610    -3.648899    -1.624667
C       -0.347707    -2.504015    -0.928154
N       -0.757219    -1.202554    -1.401621
C       -2.106555    -0.772332    -1.718842
C       -2.307037     0.771944    -1.600906
C       -2.758509     1.483775    -2.731224
C       -2.987524     2.868657    -2.675625
C       -2.781001     3.576010    -1.491657
C       -2.335284     2.909280    -0.358488
C       -2.061150     1.540789    -0.410209
O       -1.561977     0.976737     0.690264
Cu       0.000000     0.000000     0.000000
H        1.593383     2.886120    -1.449689
H        2.814867     1.663572    -2.029872
H        1.060434     1.434939    -2.361120
H        2.792109     3.327842     0.360355
H        3.839029     3.827076     2.486032
H        4.031774     2.094711     4.228863
H        3.182678    -0.183045     3.837962
H        1.535178    -4.047905     1.532400
H        0.838732    -6.029477     0.226799
H       -0.613069    -5.786936    -1.758691
H       -1.363358    -3.561896    -2.506490
H       -2.416489    -1.183835    -2.702167
H       -2.941167     0.969030    -3.664007
H       -3.329799     3.400684    -3.553224
H       -2.953453     4.645211    -1.450757
H       -2.150775     3.466561     0.554094
42
ex_0258 frame5 see-saw N2-O-ax-conf2
C        2.140152    -2.127131     0.298369
N        1.792293    -0.736959     0.483762
C        2.667564     0.341748     0.773068
C        3.996468     0.251235     0.319268
C        4.885860     1.299512     0.502440
C        4.481159     2.444172     1.179164
C        3.180780     2.548147     1.688495
C        2.235106     1.520962     1.516008
N        0.915617     1.746228     2.101913
N       -0.237287     1.236437     1.548938
C       -1.422488     0.744304     2.187868
C       -1.906586     1.329598     3.360001
C       -3.094415     0.862939     3.932942
C       -3.803235    -0.194833     3.350170
C       -3.331896    -0.817027     2.191306
C       -2.138092    -0.392114     1.602767
N       -1.626780    -1.070394     0.435606
C       -2.337279    -1.370439    -0.792953
C       -1.383470    -1.549334    -2.016997
C       -1.410407    -2.769155    -2.722244
C       -0.595501    -2.977043    -3.847298
C        0.254563    -1.970569    -4.305395
C        0.306128    -0.754334    -3.638525
C       -0.460369    -0.551781    -2.489662
O       -0.302155     0.604999    -1.847355
Cu       0.000000     0.000000     0.000000
H        2.877928    -2.257790    -0.516295
H        2.545330    -2.534539     1.249521
H        1.224140    -2.696319     0.035261
H        4.342879    -0.613808    -0.230459
H        5.891450     1.222659     0.105514
H        5.184608     3.255820     1.308776
H        2.904379     3.450669     2.216014
H       -1.381349     2.160649     3.813019
H       -3.475025     1.329464     4.831729
H       -4.721964    -0.541278     3.804970
H       -3.883548    -1.646018     1.765794
H       -3.019686    -2.231682    -0.635839
H       -2.063075    -3.569528    -2.403305
H       -0.620820    -3.923019    -4.371056
H        0.887242    -2.133806    -5.169825
H        0.989010     0.017038    -3.979440
42
ex_0258 frame6 see-saw N2-O-ax-conf5
C        2.143838    -2.127456     0.310853
N        1.794208    -0.735940     0.480503
C        2.669029     0.345657     0.756901
C        3.994036     0.255652     0.291627
C        4.883057     1.306000     0.462983
C        4.481778     2.452665     1.138452
C        3.185083     2.556689     1.658143
C        2.239574     1.527001     1.498191
N        0.923233     1.750854     2.093571
N       -0.232456     1.237718     1.548632
C       -1.416435     0.745110     2.191077
C       -1.897910     1.328560     3.365223
C       -3.085186     0.861405     3.939858
C       -3.795958    -0.195057     3.357005
C       -3.327097    -0.816008     2.196897
C       -2.134307    -0.391067     1.606795
N       -1.626501    -1.069575     0.438560
C       -2.338803    -1.366658    -0.789567
C       -1.382478    -1.558102    -2.008923
C       -1.410636    -2.782902    -2.704956
C       -0.590906    -3.002027    -3.824216
C        0.264402    -2.001587    -4.286043
C        0.315792    -0.779735    -3.629060
C       -0.455542    -0.566065    -2.485364
O       -0.299060     0.595589    -1.850916
Cu       0.000000     0.000000     0.000000
H        1.228132    -2.702857     0.061093
H        2.877642    -2.266625    -0.506119
H        2.556738    -2.520710     1.264725
H        4.337212    -0.611229    -0.257464
H        5.885547     1.228984     0.058039
H        5.185274     3.265714     1.258835
H        2.911878     3.460997     2.184109
H       -1.371679     2.158688     3.818681
H       -3.464251     1.326529     4.839956
H       -4.714271    -0.541722     3.812583
H       -3.879948    -1.644210     1.771176
H       -3.029093    -2.221146    -0.630660
H       -2.066790    -3.578835    -2.382061
H       -0.616208    -3.952315    -4.340102
H        0.901185    -2.173980    -5.145666
H        1.002599    -0.013133    -3.972797
42
ex_0258 frame7 see-saw N2-O-ax-conf4
C        2.142168     2.124524     0.331152
N        1.790759     0.731603     0.497415
C        2.656593    -0.358217     0.771669
C        3.979929    -0.278984     0.301229
C        4.862009    -1.335585     0.472824
C        4.455202    -2.476593     1.155280
C        3.159246    -2.569817     1.678216
C        2.220747    -1.534947     1.513914
N        0.903529    -1.748547     2.106179
N       -0.245420    -1.232832     1.550570
C       -1.425817    -0.734858     2.192734
C       -1.908193    -1.314759     3.368412
C       -3.090514    -0.839443     3.945707
C       -3.796032     0.220426     3.362681
C       -3.326796     0.835391     2.198952
C       -2.137696     0.401645     1.607051
N       -1.626652     1.070891     0.435330
C       -2.342361     1.364440    -0.791041
C       -1.392214     1.555581    -2.013776
C       -1.430981     2.777572    -2.713997
C       -0.618352     2.997168    -3.837965
C        0.241326     2.000351    -4.299277
C        0.304039     0.781695    -3.637140
C       -0.461332     0.566746    -2.489626
O       -0.294559    -0.592756    -1.852174
Cu       0.000000     0.000000     0.000000
H        1.964652     2.435495    -0.718124
H        1.497156     2.733997     0.999326
H        3.195714     2.321033     0.615751
H        4.321059     0.583293    -0.258827
H        5.862458    -1.268835     0.061574
H        5.152102    -3.295305     1.275446
H        2.878974    -3.471522     2.205229
H       -1.384855    -2.146604     3.822149
H       -3.468948    -1.300315     4.848360
H       -4.710137     0.574248     3.821148
H       -3.875425     1.666286     1.773331
H       -3.036843     2.215497    -0.631514
H       -2.091526     3.570269    -2.391830
H       -0.653092     3.944829    -4.358114
H        0.872335     2.173055    -5.162999
H        0.993669     0.017980    -3.981427
42
ex_0258 frame8 see-saw N2-O-ax-conf3
C        2.154940    -2.112878     0.313318
N        1.796377    -0.724038     0.488273
C        2.665337     0.361805     0.771356
C        3.994062     0.278701     0.314861
C        4.877390     1.332945     0.493600
C        4.467006     2.476674     1.168408
C        3.166668     2.574210     1.679221
C        2.226793     1.540943     1.510678
N        0.906329     1.759934     2.096480
N       -0.242779     1.238718     1.546299
C       -1.428820     0.748531     2.185418
C       -1.914205     1.334323     3.357061
C       -3.103937     0.868700     3.927614
C       -3.813343    -0.187642     3.342872
C       -3.339978    -0.810625     2.185339
C       -2.144022    -0.387309     1.600034
N       -1.629458    -1.066565     0.435370
C       -2.337798    -1.368016    -0.793697
C       -1.376290    -1.567123    -2.006767
C       -1.402533    -2.795545    -2.696025
C       -0.576724    -3.021923    -3.809165
C        0.282423    -2.025022    -4.271661
C        0.331198    -0.799247    -3.621643
C       -0.446241    -0.578354    -2.483553
O       -0.292756     0.586898    -1.854710
Cu       0.000000     0.000000     0.000000
H        2.895579    -2.243915    -0.498762
H        2.562265    -2.509642     1.268076
H        1.244163    -2.691366     0.052879
H        4.345156    -0.585411    -0.233345
H        5.882806     1.261332     0.095077
H        5.165952     3.292714     1.295115
H        2.885774     3.476428     2.204860
H       -1.388806     2.164230     3.811577
H       -3.485851     1.335141     4.825944
H       -4.733886    -0.532659     3.795193
H       -3.891940    -1.638733     1.758390
H       -3.030774    -2.220048    -0.633267
H       -2.061360    -3.588811    -2.371928
H       -0.600122    -3.975229    -4.319470
H        0.924166    -2.203232    -5.126323
H        1.020852    -0.035378    -3.965683
42
ex_0258 frame9 conf2
C        1.763601     1.805351    -1.660768
N        1.640317     1.054479    -0.431812
C        2.318839     1.279331     0.794117
C        2.860778     2.558547     1.025791
C        3.470437     2.867418     2.231701
C        3.594375     1.894375     3.216122
C        3.114379     0.595107     3.000368
C        2.466318     0.233877     1.803635
N        2.007310    -1.152864     1.695308
N        0.843487    -1.482580     1.036037
C        0.489570    -2.641411     0.266085
C        0.930207    -3.913541     0.635967
C        0.522643    -5.033288    -0.097812
C       -0.312627    -4.895480    -1.213055
C       -0.747374    -3.635414    -1.627032
C       -0.349512    -2.491757    -0.932371
N       -0.768821    -1.192167    -1.403810
C       -2.122907    -0.757781    -1.697998
C       -2.329012     0.785886    -1.553432
C       -2.796743     1.514672    -2.666958
C       -3.035745     2.897127    -2.585166
C       -2.822895     3.585787    -1.391430
C       -2.358037     2.903544    -0.275622
C       -2.073139     1.538341    -0.354312
O       -1.553758     0.960921     0.728919
Cu       0.000000     0.000000     0.000000
H        1.561318     2.882636    -1.504221
H        2.781085     1.658081    -2.081900
H        1.024251     1.418687    -2.393086
H        2.766741     3.350825     0.294891
H        3.837358     3.873408     2.402490
H        4.066519     2.154889     4.154189
H        3.233253    -0.133942     3.789535
H        1.558570    -4.041378     1.507719
H        0.847914    -6.019328     0.204589
H       -0.621415    -5.772073    -1.767048
H       -1.378631    -3.546391    -2.502747
H       -2.444152    -1.153701    -2.683969
H       -2.986174     1.015256    -3.606580
H       -3.391812     3.442000    -3.449418
H       -3.004768     4.652604    -1.329596
H       -2.168020     3.446793     0.644370
42
ex_0258 frame10 Δ-conf2
C        2.199975     1.501715     1.425609
N        0.867067     0.951912     1.526841
C       -0.173358     1.353478     2.404344
C       -0.107402     2.645136     2.961787
C       -1.127595     3.127716     3.766591
C       -2.214135     2.316606     4.071301
C       -2.287730     1.006595     3.578119
C       -1.291316     0.474466     2.737679
N       -1.479559    -0.905508     2.284994
N       -1.091143    -1.316783     1.028990
C       -0.580568    -2.575733     0.564970
C       -1.060495    -3.781410     1.080405
C       -0.588397    -4.995525     0.569098
C        0.374774    -5.020462    -0.446808
C        0.896816    -3.833572    -0.963681
C        0.464476    -2.602418    -0.468431
N        1.050781    -1.384419    -0.979764
C        1.176931    -0.985652    -2.370320
C        1.240767     0.563927    -2.571156
C        2.357807     1.115846    -3.232572
C        2.453011     2.496956    -3.473775
C        1.435615     3.360714    -3.069670
C        0.322874     2.855093    -2.411764
C        0.234627     1.490732    -2.125590
O       -0.821663     1.083200    -1.421852
Cu       0.000000     0.000000     0.000000
H        2.179441     2.593060     1.240080
H        2.763273     1.275987     2.356242
H        2.724111     1.017262     0.575271
H        0.709742     3.316277     2.732522
H       -1.075098     4.142713     4.144408
H       -3.005025     2.711958     4.694918
H       -3.147434     0.406289     3.840834
H       -1.820742    -3.781556     1.850610
H       -0.978396    -5.927374     0.955252
H        0.726191    -5.967846    -0.833651
H        1.654372    -3.872408    -1.736829
H        2.022314    -1.525137    -2.846288
H        3.161671     0.478370    -3.572702
H        3.317918     2.904640    -3.980074
H        1.510996     4.426359    -3.253150
H       -0.454893     3.532835    -2.075176
42
ex_0258 frame11 conf5
C        1.784136     1.781447    -1.667179
N        1.647023     1.044093    -0.431546
C        2.311611     1.284900     0.799129
C        2.848493     2.567852     1.022314
C        3.445130     2.891256     2.231013
C        3.561027     1.929279     3.227263
C        3.085345     0.626831     3.021077
C        2.449883     0.251457     1.821906
N        1.993047    -1.136593     1.723758
N        0.836415    -1.473000     1.055329
C        0.488978    -2.640562     0.295431
C        0.930999    -3.908520     0.678397
C        0.528762    -5.035670    -0.047371
C       -0.303312    -4.909606    -1.166451
C       -0.739291    -3.654237    -1.592910
C       -0.345391    -2.503746    -0.907265
N       -0.764059    -1.209130    -1.391837
C       -2.117020    -0.779692    -1.697262
C       -2.319139     0.766153    -1.582276
C       -2.780760     1.474863    -2.710961
C       -3.013308     2.859555    -2.656874
C       -2.799786     3.570421    -1.476337
C       -2.342599     2.907711    -0.345486
C       -2.065209     1.539569    -0.396048
O       -1.555051     0.979918     0.701310
Cu       0.000000     0.000000     0.000000
H        1.057304     1.383030    -2.405599
H        1.575468     2.859615    -1.525676
H        2.808324     1.633947    -2.071831
H        2.760499     3.351836     0.281763
H        3.808392     3.899810     2.394516
H        4.023339     2.201002     4.167076
H        3.197469    -0.093264     3.819393
H        1.557108    -4.027362     1.552985
H        0.855641    -6.018360     0.264109
H       -0.608297    -5.791594    -1.714029
H       -1.367568    -3.574143    -2.471603
H       -2.435856    -1.193422    -2.676714
H       -2.969703     0.957897    -3.641180
H       -3.364273     3.388879    -3.532784
H       -2.975701     4.639239    -1.436410
H       -2.152693     3.467993     0.564216
42
ex_0258 frame12 Λ-conf5
C        1.785475    -1.665137     1.782511
N        1.047238    -0.430290     1.646416
C        1.285999     0.800200     2.311807
C        2.568649     1.024208     2.849264
C        2.890758     2.232729     3.446960
C        1.927890     3.228050     3.563199
C        0.625806     3.021046     3.086949
C        0.251582     1.822001     2.450613
N       -1.136410     1.723287     1.993609
N       -1.472810     1.055142     0.836751
C       -2.640262     0.295033     0.489397
C       -3.908212     0.677900     0.931375
C       -5.035331    -0.047810     0.529167
C       -4.909289    -1.166978    -0.302798
C       -3.653876    -1.593550    -0.738629
C       -2.503610    -0.907779    -0.344815
N       -1.208878    -1.392423    -0.763511
C       -0.780109    -1.697749    -2.116696
C        0.765546    -1.582872    -2.319424
C        1.474061    -2.711572    -2.781262
C        2.858685    -2.657528    -3.014109
C        3.569621    -1.477010    -2.800671
C        2.907009    -0.346096    -2.343409
C        1.538894    -0.396600    -2.065808
O        0.979161     0.700813    -1.555759
Cu       0.000000     0.000000     0.000000
H        1.388823    -2.403189     1.054356
H        2.863829    -1.522418     1.575516
H        1.636890    -2.071192     2.806037
H        3.353416     0.284509     2.761022
H        3.899037     2.396862     3.810712
H        2.198613     4.167785     4.026244
H       -0.095012     3.818663     3.199392
H       -4.027013     1.552624     1.557347
H       -6.017994     0.263816     0.855925
H       -5.791285    -1.714477    -0.607830
H       -3.573823    -2.472290    -1.366873
H       -1.194080    -2.677113    -2.435506
H        0.956991    -3.641763    -2.970094
H        3.387884    -3.533466    -3.365198
H        4.638411    -1.437151    -2.976756
H        3.467348     0.563594    -2.153643
42
ex_0258 frame13 Δ-conf4
C       -1.644908     1.781993     1.815367
N       -0.405409     1.055833     1.646199
C        0.835200     1.274496     2.298296
C        1.086719     2.557250     2.820443
C        2.305087     2.861705     3.407141
C        3.281622     1.879928     3.528612
C        3.046648     0.577656     3.065868
C        1.837605     0.222402     2.438136
N        1.709535    -1.165177     1.990098
N        1.032472    -1.489769     0.835249
C        0.255603    -2.646681     0.492535
C        0.621453    -3.919150     0.936093
C       -0.122498    -5.036211     0.539477
C       -1.242544    -4.895150    -0.288921
C       -1.651006    -3.634268    -0.727049
C       -0.946104    -2.493610    -0.338333
N       -1.409740    -1.191897    -0.758530
C       -1.710190    -0.764944    -2.113128
C       -1.579965     0.777889    -2.320840
C       -2.701778     1.495162    -2.785436
C       -2.634826     2.878273    -3.022357
C       -1.447965     3.578815    -2.809825
C       -0.323190     2.907047    -2.350138
C       -0.385924     1.539956    -2.069286
O        0.706900     0.970661    -1.558348
Cu       0.000000     0.000000     0.000000
H       -1.828002     2.426152     0.931236
H       -2.475021     1.049250     1.900202
H       -1.644783     2.388958     2.743146
H        0.362440     3.355974     2.716684
H        2.492428     3.871060     3.755812
H        4.230163     2.136914     3.981232
H        3.831995    -0.156903     3.176623
H        1.496348    -4.049362     1.559601
H        0.175292    -6.022584     0.868114
H       -1.804636    -5.769561    -0.589273
H       -2.530457    -3.542477    -1.352611
H       -2.692644    -1.171559    -2.431948
H       -3.636478     0.985901    -2.973520
H       -3.505710     3.414204    -3.375842
H       -1.398452     4.646670    -2.988930
H        0.591421     3.459668    -2.161703
42
ex_0258 frame14 conf4
C        1.453631     1.474394     2.212129
N        1.527487     0.954375     0.864630
C        2.392897     1.355650    -0.184762
C        2.932861     2.654428    -0.131108
C        3.728536     3.138345    -1.157712
C        4.042070     2.320696    -2.237275
C        3.563988     1.004261    -2.298868
C        2.730356     0.472255    -1.296881
N        2.287507    -0.911829    -1.472850
N        1.031671    -1.321787    -1.082344
C        0.569959    -2.580763    -0.570532
C        1.091264    -3.786877    -1.043174
C        0.582150    -5.000581    -0.567310
C       -0.438285    -5.024216     0.391209
C       -0.961806    -3.836404     0.904514
C       -0.467960    -2.605449     0.468687
N       -0.984507    -1.386313     1.045107
C       -2.377168    -0.993051     1.159238
C       -2.580294     0.553658     1.238269
C       -3.250760     1.091867     2.356137
C       -3.491826     2.471482     2.466000
C       -3.077957     3.347041     1.462677
C       -2.412253     2.854252     0.348289
C       -2.127685     1.490367     0.244564
O       -1.419164     1.092827    -0.813684
Cu       0.000000     0.000000     0.000000
H        0.541499     2.094676     2.327726
H        1.394441     0.619303     2.918229
H        2.356545     2.059987     2.478698
H        2.685638     3.330684     0.678148
H        4.090168     4.159619    -1.116830
H        4.657021     2.717295    -3.034229
H        3.828107     0.400847    -3.156025
H        1.865413    -3.787970    -1.799360
H        0.973821    -5.933031    -0.950367
H       -0.823194    -5.971212     0.745914
H       -1.738324    -3.874002     1.658715
H       -2.862318    -1.544852     1.991323
H       -3.597722     0.444493     3.149192
H       -4.005166     2.868563     3.331713
H       -3.260815     4.411812     1.550320
H       -2.069437     3.541303    -0.418402
42
ex_0258 frame15 Λ-conf4
C        1.475847     2.210524     1.453322
N        0.954118     0.863759     1.528169
C        1.353620    -0.185583     2.394720
C        2.651667    -0.132668     2.936421
C        3.133746    -1.159357     3.733232
C        2.314900    -2.238147     4.046331
C        0.999185    -2.298925     3.566615
C        0.469285    -1.297052     2.731741
N       -0.913978    -1.472729     2.287363
N       -1.322576    -1.081554     1.031451
C       -2.581802    -0.570485     0.570416
C       -3.787558    -1.043552     1.092340
C       -5.001604    -0.568027     0.583857
C       -5.025838     0.390427    -0.436627
C       -3.838170     0.903946    -0.960751
C       -2.607059     0.468174    -0.467229
N       -1.387543     1.044138    -0.983837
C       -0.995648     1.159156    -2.376662
C        0.550694     1.238740    -2.581056
C        1.087618     2.356741    -3.252228
C        2.466901     2.467327    -3.494559
C        3.343384     1.464585    -3.081251
C        2.851826     0.350028    -2.414919
C        1.488311     0.245576    -2.129038
O        1.091889    -0.812787    -1.419849
Cu       0.000000     0.000000     0.000000
H        2.096902     2.324321     0.541495
H        0.621647     2.917603     1.392492
H        2.060951     2.477458     2.356417
H        3.328846     0.675921     2.689679
H        4.154556    -1.119211     4.096123
H        2.709905    -3.035198     4.662153
H        0.394571    -3.155415     3.830286
H       -3.788059    -1.799646     1.866622
H       -5.933782    -0.951292     0.976085
H       -5.973140     0.744885    -0.821055
H       -3.876345     1.658043    -1.737275
H       -1.548246     1.991273    -2.860874
H        0.439436     3.149331    -3.598771
H        2.862969     3.333167    -4.008441
H        4.407926     1.552814    -3.265052
H        3.539611    -0.416204    -2.072566
42
ex_0258 frame16 Isomer 1
C       -0.449099     2.067488     0.932785
N       -0.331930     1.381591    -0.336551
C       -0.301616     1.940302    -1.640036
C        0.168771     3.261101    -1.763792
C        0.293449     3.862647    -3.004775
C       -0.090810     3.176168    -4.149467
C       -0.607227     1.876917    -4.062764
C       -0.732446     1.207967    -2.831099
N       -1.281676    -0.148111    -2.887931
N       -0.908949    -1.138970    -2.006537
C       -1.645210    -2.255581    -1.489424
C       -2.451325    -3.032410    -2.323618
C       -3.086795    -4.169910    -1.812618
C       -2.962216    -4.514245    -0.460793
C       -2.209786    -3.722796     0.410313
C       -1.550199    -2.587548    -0.066572
N       -0.788784    -1.759278     0.834563
C        0.041982    -2.131165     1.961697
C        1.388418    -1.323339     2.079542
C        1.761872    -0.859988     3.363173
C        2.982827    -0.199467     3.580374
C        3.872921     0.009479     2.530012
C        3.533732    -0.401662     1.251492
C        2.295220    -0.995154     1.008402
O        2.003023    -1.238724    -0.265154
Cu       0.168105    -0.550293    -0.432409
H        0.492547     1.962107     1.508602
H       -0.708669     3.137548     0.809583
H       -1.271778     1.595802     1.512289
H        0.505724     3.818600    -0.898453
H        0.703150     4.863733    -3.073161
H        0.019305     3.657311    -5.111730
H       -0.894257     1.376250    -4.976875
H       -2.530436    -2.800340    -3.377856
H       -3.666310    -4.801857    -2.472230
H       -3.451046    -5.403383    -0.084532
H       -2.129587    -4.000529     1.454084
H       -0.542568    -2.005990     2.899547
H        1.114742    -1.017978     4.214898
H        3.249914     0.146020     4.570174
H        4.818245     0.512189     2.695875
H        4.208690    -0.199570     0.426438
42
ex_0258 frame17 see-saw N0-N1-ax-conf2
C       -0.059134     2.310447     1.951401
N        0.349421     0.942899     1.726627
C        0.706390    -0.022788     2.700711
C        0.190607     0.135181     4.001816
C        0.436660    -0.807425     4.986725
C        1.236745    -1.908497     4.707588
C        1.808855    -2.072723     3.437282
C        1.578186    -1.153040     2.394494
N        2.236439    -1.426242     1.112683
N        1.657861    -1.107235    -0.097894
C        2.240035    -0.661150    -1.333118
C        3.453349    -1.188794    -1.775383
C        3.973021    -0.799170    -3.012960
C        3.295897     0.127121    -3.815808
C        2.095771     0.702889    -3.389387
C        1.557323     0.363569    -2.146590
N        0.350278     1.015854    -1.680856
C       -0.903471     1.356498    -2.345231
C       -2.159315     1.329710    -1.395085
C       -3.014752     2.453121    -1.428018
C       -4.179925     2.516269    -0.641397
C       -4.529998     1.459202     0.195851
C       -3.719119     0.335568     0.258032
C       -2.534463     0.276203    -0.483418
O       -1.771191    -0.799727    -0.306120
Cu       0.000000     0.000000     0.000000
H       -0.941001     2.368744     2.617957
H        0.790134     2.880549     2.385626
H       -0.328821     2.770804     0.978203
H       -0.454029     0.966625     4.254590
H       -0.008118    -0.682619     5.968006
H        1.412219    -2.638103     5.487273
H        2.430097    -2.939984     3.264081
H        3.977804    -1.924399    -1.178636
H        4.903885    -1.227647    -3.359392
H        3.711374     0.409746    -4.773817
H        1.599587     1.434235    -4.015024
H       -1.041802     0.777095    -3.279158
H       -2.786569     3.292307    -2.069741
H       -4.820408     3.388447    -0.676729
H       -5.422341     1.512133     0.810785
H       -3.978651    -0.471038     0.936562
42
ex_0258 frame18 see-saw N0-N1-ax-conf3
C       -0.044248     2.294626     1.971617
N        0.352405     0.925481     1.735331
C        0.705421    -0.048321     2.703254
C        0.189546     0.102032     4.005379
C        0.433712    -0.846939     4.984735
C        1.231888    -1.947683     4.699000
C        1.802748    -2.105718     3.427360
C        1.573588    -1.179524     2.389736
N        2.229171    -1.447077     1.105705
N        1.651543    -1.116046    -0.102389
C        2.235280    -0.669573    -1.336626
C        3.445843    -1.201352    -1.781804
C        3.965201    -0.811227    -3.019508
C        3.291064     0.119910    -3.819190
C        2.094931     0.700491    -3.388992
C        1.556896     0.360356    -2.146568
N        0.353934     1.018194    -1.679245
C       -0.899061     1.347213    -2.349619
C       -2.147190     1.347212    -1.391464
C       -2.984853     2.483453    -1.422724
C       -4.141584     2.567994    -0.626043
C       -4.500127     1.519943     0.219273
C       -3.706503     0.383486     0.278715
C       -2.529686     0.303220    -0.473116
O       -1.778962    -0.782624    -0.301068
Cu       0.000000     0.000000     0.000000
H       -0.922897     2.355459     2.642232
H        0.811281     2.853950     2.407561
H       -0.313706     2.764639     1.003110
H       -0.453337     0.933149     4.263737
H       -0.010502    -0.727127     5.966944
H        1.406590    -2.681859     5.474652
H        2.422333    -2.973209     3.249077
H        3.967743    -1.940912    -1.187820
H        4.893219    -1.243279    -3.368915
H        3.705376     0.402567    -4.777655
H        1.600594     1.435347    -4.012073
H       -1.043992     0.723647    -3.253817
H       -2.748745     3.315899    -2.070341
H       -4.768431     3.450069    -0.659607
H       -5.385516     1.590011     0.842410
H       -3.971957    -0.415935     0.963348
42
ex_0258 frame19 see-saw N0-N1-ax-conf5
C       -0.045685     2.308319     1.956704
N        0.352138     0.938151     1.728587
C        0.698965    -0.032158     2.701601
C        0.177761     0.124362     4.000641
C        0.414836    -0.821982     4.984124
C        1.211123    -1.926018     4.705499
C        1.787932    -2.089612     3.437105
C        1.566397    -1.165968     2.395569
N        2.228036    -1.437931     1.115240
N        1.654838    -1.111720    -0.096310
C        2.241540    -0.664887    -1.329370
C        3.456167    -1.192068    -1.768903
C        3.979124    -0.801174    -3.004864
C        3.303987     0.125438    -3.809029
C        2.102956     0.700824    -3.385234
C        1.561758     0.360807    -2.144130
N        0.354319     1.013907    -1.681711
C       -0.896995     1.350908    -2.351661
C       -2.150969     1.340327    -1.400093
C       -2.997133     2.470297    -1.438405
C       -4.159511     2.547990    -0.649278
C       -4.515675     1.499253     0.195927
C       -3.714186     0.368870     0.262652
C       -2.532250     0.294774    -0.482029
O       -1.776817    -0.786905    -0.302424
Cu       0.000000     0.000000     0.000000
H       -0.306801     2.775009     0.984277
H       -0.929828     2.371628     2.619833
H        0.806514     2.868977     2.397488
H       -0.464077     0.958235     4.252858
H       -0.033679    -0.697624     5.963791
H        1.379765    -2.658277     5.484259
H        2.405864    -2.959405     3.264499
H        3.979286    -1.927859    -1.171307
H        4.911045    -1.228895    -3.349262
H        3.721588     0.408892    -4.765854
H        1.608191     1.432643    -4.011521
H       -1.037406     0.753466    -3.273960
H       -2.763495     3.303317    -2.086191
H       -4.792758     3.425270    -0.688715
H       -5.405624     1.563973     0.813182
H       -3.978638    -0.431142     0.947018
42
ex_0258 frame20 see-saw N0-N1-ax-conf4
C       -0.018125    -2.312857     1.955953
N        0.356687    -0.934585     1.728866
C        0.701209     0.044779     2.693440
C        0.167521    -0.096532     3.988485
C        0.404743     0.856239     4.965970
C        1.214858     1.950035     4.685080
C        1.801527     2.098891     3.419388
C        1.576121     1.170139     2.383571
N        2.241499     1.428129     1.103808
N        1.659770     1.103909    -0.103904
C        2.243979     0.651845    -1.335100
C        3.459798     1.174296    -1.776789
C        3.982349     0.776138    -3.010447
C        3.305252    -0.153155    -3.809775
C        2.102025    -0.722291    -3.383636
C        1.560741    -0.373327    -2.144730
N        0.349698    -1.017363    -1.680131
C       -0.901942    -1.332725    -2.358659
C       -2.155269    -1.326392    -1.408574
C       -3.002763    -2.454680    -1.453619
C       -4.166387    -2.533521    -0.666891
C       -4.521428    -1.487868     0.182779
C       -3.717052    -0.359759     0.256988
C       -2.533928    -0.284834    -0.485497
O       -1.774545     0.793372    -0.299400
Cu       0.000000     0.000000     0.000000
H       -1.093377    -2.453618     1.724731
H        0.581394    -2.957809     1.279326
H        0.197223    -2.634542     2.994866
H       -0.491930    -0.919939     4.235117
H       -0.055647     0.746109     5.941667
H        1.383073     2.688287     5.458216
H        2.425164     2.963809     3.242357
H        3.984442     1.911609    -1.182390
H        4.915506     1.199868    -3.356395
H        3.722827    -0.443128    -4.764629
H        1.605221    -1.455846    -4.006256
H       -1.037234    -0.701052    -3.258758
H       -2.769825    -3.284528    -2.105812
H       -4.801582    -3.409062    -0.712187
H       -5.412823    -1.553413     0.797682
H       -3.980674     0.437601     0.944637
42
ex_0258 frame21 Δ
C        2.344530     1.376213     1.287818
N        0.995040     0.892469     1.485970
C        0.100855     1.196746     2.545026
C        0.305467     2.409514     3.233807
C       -0.551588     2.814975     4.242006
C       -1.612049     2.001182     4.616776
C       -1.825375     0.767702     3.983858
C       -0.998852     0.314397     2.935394
N       -1.336245    -0.991350     2.355159
N       -1.136055    -1.283509     1.021555
C       -0.846961    -2.513009     0.339627
C       -1.536649    -3.679470     0.667985
C       -1.320967    -4.845234    -0.073119
C       -0.381039    -4.872583    -1.110608
C        0.375096    -3.740085    -1.420832
C        0.182146    -2.551217    -0.715644
N        0.988481    -1.392380    -1.032111
C        1.425817    -0.856399    -2.311618
C        1.296804     0.715201    -2.454537
C        2.397576     1.427672    -2.993046
C        2.338714     2.814772    -3.224190
C        1.181213     3.534053    -2.938129
C        0.090907     2.883326    -2.385714
C        0.161328     1.521840    -2.086688
O       -0.877896     1.008383    -1.442842
Cu       0.000000     0.000000     0.000000
H        2.376472     2.062868     0.417639
H        2.749423     1.876259     2.189620
H        3.001465     0.505906     1.076533
H        1.102010     3.088017     2.954783
H       -0.392528     3.773722     4.723667
H       -2.275376     2.337614     5.402568
H       -2.664352     0.167655     4.306040
H       -2.294553    -3.665474     1.440936
H       -1.902414    -5.730942     0.143701
H       -0.238218    -5.779738    -1.682221
H        1.102082    -3.782662    -2.222428
H        2.491457    -1.133876    -2.468494
H        3.313094     0.914380    -3.251264
H        3.190426     3.340690    -3.635961
H        1.130997     4.601944    -3.119287
H       -0.794249     3.452688    -2.120985
42
ex_0258 frame22 Λ
C        1.456420    -2.200355     1.445009
N        0.930802    -0.855658     1.547055
C        1.206184     0.117699     2.542160
C        2.427019     0.002469     3.237386
C        2.804566     0.938168     4.184435
C        1.954996     1.992540     4.490830
C        0.713271     2.120235     3.850161
C        0.285872     1.209622     2.861468
N       -1.032561     1.459747     2.264971
N       -1.320704     1.156247     0.949821
C       -2.537463     0.780606     0.287513
C       -3.727016     1.451145     0.568824
C       -4.882178     1.149607    -0.158631
C       -4.875388     0.143290    -1.132196
C       -3.718362    -0.595099    -1.389910
C       -2.538811    -0.317832    -0.697853
N       -1.354100    -1.107067    -0.960082
C       -0.796050    -1.608689    -2.206787
C        0.770337    -1.425212    -2.359548
C        1.529671    -2.529863    -2.821356
C        2.913761    -2.429011    -3.057734
C        3.583508    -1.225361    -2.853614
C        2.886766    -0.127945    -2.376907
C        1.529066    -0.234992    -2.071549
O        0.971905     0.822821    -1.499224
Cu       0.000000     0.000000     0.000000
H        2.143646    -2.273266     0.577768
H        1.969487    -2.523344     2.372270
H        0.606791    -2.897303     1.284380
H        3.132320    -0.787250     3.009405
H        3.769159     0.844483     4.671825
H        2.270159     2.717786     5.229447
H        0.085422     2.957749     4.118731
H       -3.740216     2.258679     1.289770
H       -5.786754     1.715473     0.017521
H       -5.775032    -0.065477    -1.695242
H       -3.734563    -1.373955    -2.142233
H       -1.027105    -2.693722    -2.288414
H        1.056024    -3.481927    -3.014914
H        3.475944    -3.284243    -3.410116
H        4.648707    -1.142893    -3.039203
H        3.418153     0.796421    -2.174378
42
ex_0258 frame23 Isomer 2
C        1.445280     1.455786    -2.200590
N        1.547195     0.930485    -0.855773
C        2.542301     1.205820     0.117587
C        3.237652     2.426562     0.002347
C        4.184685     2.804041     0.938108
C        4.490962     1.954454     1.992512
C        3.850187     0.712801     2.120184
C        2.861490     0.285512     1.209556
N        2.264870    -1.032812     1.459713
N        0.949714    -1.320833     1.156196
C        0.287488    -2.537623     0.780594
C        0.568900    -3.727181     1.451089
C       -0.158444    -4.882399     1.149495
C       -1.132026    -4.875634     0.143192
C       -1.389874    -3.718566    -0.595100
C       -0.697896    -2.538975    -0.317765
N       -0.960203    -1.354193    -1.106848
C       -2.207025    -0.796316    -1.608311
C       -2.359768     0.770068    -1.425087
C       -2.821689     1.529180    -2.529824
C       -3.058022     2.913287    -2.429201
C       -2.853748     3.583255    -1.225697
C       -2.376938     2.886719    -0.128193
C       -2.071650     1.528992    -0.235023
O       -1.499294     0.972132     0.822886
Cu       0.000000     0.000000     0.000000
H        0.578005     2.142942    -2.273734
H        2.372549     1.968830    -2.523581
H        1.284723     0.605985    -2.897352
H        3.009753     3.131842    -0.787419
H        4.672161     3.768587     0.844459
H        5.229564     2.269538     2.717804
H        4.118650     0.084907     2.957706
H        1.289886    -3.740362     2.258589
H        0.017823    -5.786998     1.715290
H       -1.694972    -5.775327    -0.065640
H       -2.142200    -3.734786    -1.373950
H       -2.288933    -1.027651    -2.693261
H       -3.015358     1.055345    -3.481771
H       -3.410486     3.475306    -3.284504
H       -3.039298     4.648469    -1.143410
H       -2.174283     3.418264     0.796045
42
ex_0258 frame24 see-saw N0-N1-ax
C        0.072962     2.415783     1.606796
N        0.705246     1.112655     1.508498
C        1.002391     0.297388     2.637278
C        0.474366     0.650812     3.905686
C        0.799555    -0.072725     5.043858
C        1.631371    -1.181045     4.937252
C        2.130332    -1.585596     3.683226
C        1.830734    -0.871992     2.496085
N        2.359128    -1.338814     1.216986
N        1.716167    -1.020750     0.032954
C        2.064940    -0.975007    -1.358144
C        3.115580    -1.747351    -1.839298
C        3.396180    -1.754603    -3.205849
C        2.662785    -0.958954    -4.097117
C        1.630603    -0.130178    -3.645741
C        1.301727    -0.099578    -2.293951
N        0.235386     0.772350    -1.823269
C       -1.043779     1.325560    -2.269452
C       -2.244637     1.219940    -1.211990
C       -3.136056     2.324105    -1.086349
C       -4.261190     2.288480    -0.235044
C       -4.544181     1.155524     0.520729
C       -3.692292     0.062373     0.455645
C       -2.536149     0.104551    -0.341483
O       -1.711298    -0.936174    -0.261243
Cu       0.000000     0.000000     0.000000
H       -1.017812     2.319051     1.796615
H        0.543239     3.009533     2.422403
H        0.237463     2.970878     0.662897
H       -0.163673     1.517691     4.040552
H        0.414934     0.241297     6.011889
H        1.885737    -1.723539     5.840910
H        2.768059    -2.455788     3.650135
H        3.671588    -2.388469    -1.165715
H        4.181578    -2.396020    -3.580019
H        2.895903    -0.987343    -5.151637
H        1.079873     0.480940    -4.348990
H       -0.883896     2.414799    -2.448001
H       -2.979400     3.228679    -1.655777
H       -4.929141     3.140166    -0.159191
H       -5.411860     1.129402     1.175983
H       -3.896481    -0.796963     1.087022
42
ex_0258 frame25 see-saw N2-O-ax
C        2.784239    -1.206835    -0.242283
N        1.953910    -0.201607     0.373489
C        2.461222     0.773170     1.286920
C        3.654574     1.463153     0.997233
C        4.140629     2.443918     1.868519
C        3.462797     2.727663     3.053560
C        2.291319     2.039361     3.368771
C        1.777289     1.064756     2.501613
N        0.577919     0.406847     2.888194
N       -0.247317    -0.192399     1.974993
C       -1.380062    -0.948643     2.295991
C       -1.647218    -1.431528     3.581080
C       -2.807680    -2.180871     3.798006
C       -3.696673    -2.423460     2.740025
C       -3.420779    -1.930958     1.455324
C       -2.248165    -1.196554     1.235403
N       -1.881513    -0.675242    -0.039805
C       -2.827485     0.292000    -0.592155
C       -2.339449     1.203311    -1.728999
C       -3.271621     2.156897    -2.195335
C       -2.964962     3.018710    -3.255257
C       -1.731172     2.929804    -3.893484
C       -0.786915     2.011123    -3.445876
C       -1.059701     1.183994    -2.349431
O       -0.071594     0.391745    -1.926813
Cu       0.000000     0.000000     0.000000
H        2.776517    -1.089710    -1.342083
H        2.387886    -2.206286     0.034108
H        3.828175    -1.143955     0.136413
H        4.191946     1.268552     0.078411
H        5.044254     2.988446     1.624906
H        3.844503     3.482658     3.730316
H        1.778829     2.265192     4.296558
H       -0.964968    -1.236803     4.399450
H       -3.020237    -2.567788     4.786251
H       -4.598306    -2.993958     2.917732
H       -4.112055    -2.115890     0.643937
H       -3.165902     0.966825     0.229262
H       -4.244978     2.245593    -1.728071
H       -3.687723     3.752740    -3.589492
H       -1.496889     3.584396    -4.724081
H        0.181213     1.966088    -3.930106
42
ex_0258 frame26 square-planar cis
C        2.776906    -0.358139     1.214293
N        1.957372     0.323430     0.242257
C        2.469440     1.229879    -0.730432
C        3.645471     0.910944    -1.435540
C        4.135576     1.766839    -2.424637
C        3.484092     2.969448    -2.695064
C        2.333578     3.318596    -1.983608
C        1.807605     2.463297    -1.003473
N        0.622998     2.877911    -0.322752
N       -0.232487     1.967678     0.245271
C       -1.385520     2.274080     0.987997
C       -1.651687     3.535406     1.526900
C       -2.821279     3.720854     2.274031
C       -3.726608     2.661423     2.445290
C       -3.464511     1.406776     1.877226
C       -2.277884     1.214442     1.162309
N       -1.911484    -0.030354     0.583937
C       -2.685494    -0.504447    -0.545697
C       -2.368108    -1.604172    -1.279641
C       -3.383950    -2.111596    -2.282056
C       -3.016394    -3.330538    -3.086563
C       -1.837838    -3.940592    -2.921196
C       -0.849780    -3.445320    -1.944761
C       -1.062021    -2.338385    -1.215805
O       -0.059224    -1.918936    -0.430799
Cu       0.000000     0.000000     0.000000
H        2.732416    -1.451807     1.050366
H        2.399623    -0.113692     2.228817
H        3.832362    -0.013101     1.153689
H        4.158338    -0.024958    -1.253735
H        5.020106     1.494675    -2.987477
H        3.869690     3.631581    -3.460561
H        1.842067     4.258000    -2.205099
H       -0.952593     4.351728     1.396483
H       -3.024808     4.684190     2.722578
H       -4.627955     2.811958     3.024025
H       -4.161192     0.589962     2.013917
H       -3.760873    -0.202060    -0.536989
H       -4.367738    -1.622209    -2.436614
H       -3.719513    -3.722921    -3.814649
H       -1.595854    -4.818385    -3.513509
H        0.091680    -3.979651    -1.851780
42
ex_0258 frame27 Λ-conf2
C        1.809393    -1.657780     1.760728
N        1.053676    -0.431486     1.641248
C        1.275967     0.794255     2.321348
C        2.554039     1.027303     2.865512
C        2.860280     2.233313     3.476585
C        1.885707     3.216292     3.599962
C        0.587681     2.999056     3.117921
C        0.229435     1.802602     2.468165
N       -1.156050     1.693928     2.007029
N       -1.482493     1.035059     0.841418
C       -2.642484     0.266125     0.488951
C       -3.914354     0.636752     0.929479
C       -5.034403    -0.097070     0.523148
C       -4.897120    -1.212814    -0.311526
C       -3.637104    -1.627063    -0.746743
C       -2.493453    -0.932011    -0.349357
N       -1.193298    -1.402788    -0.768504
C       -0.760491    -1.698438    -2.122628
C        0.782971    -1.555244    -2.329393
C        1.509888    -2.669093    -2.799039
C        2.892137    -2.588694    -3.039232
C        3.582253    -1.395793    -2.826404
C        2.901629    -0.279383    -2.360615
C        1.536680    -0.356729    -2.074410
O        0.960988     0.727269    -1.554678
Cu       0.000000     0.000000     0.000000
H        2.885571    -1.496772     1.556159
H        1.665708    -2.081466     2.777694
H        1.423753    -2.390242     1.020957
H        3.347518     0.297627     2.772163
H        3.865434     2.405450     3.845020
H        2.143920     4.154474     4.073096
H       -0.142941     3.786897     3.236113
H       -4.041554     1.508852     1.557519
H       -6.020167     0.205650     0.849029
H       -5.773988    -1.766944    -0.619332
H       -3.548567    -2.503163    -1.377461
H       -1.157218    -2.684489    -2.442722
H        1.009202    -3.608065    -2.988441
H        3.435657    -3.453418    -3.396149
H        4.648960    -1.335056    -3.009061
H        3.445956     0.639979    -2.170694
42
ex_0258 frame28 Δ-conf5
C        2.195834     1.500335     1.434028
N        0.863968     0.947255     1.531484
C       -0.180968     1.351224     2.403055
C       -0.118516     2.644253     2.957879
C       -1.142775     3.127859     3.757179
C       -2.229946     2.316548     4.059271
C       -2.300569     1.005720     3.568308
C       -1.300456     0.473153     2.732849
N       -1.486436    -0.906763     2.280872
N       -1.090841    -1.318206     1.027400
C       -0.580359    -2.578830     0.568279
C       -1.058185    -3.783505     1.088240
C       -0.584474    -4.998678     0.580614
C        0.376842    -5.025302    -0.437139
C        0.895793    -3.839124    -0.958810
C        0.462625    -2.606828    -0.466038
N        1.045193    -1.389457    -0.979922
C        1.170829    -0.995505    -2.371355
C        1.250684     0.551894    -2.572416
C        2.372083     1.091172    -3.236186
C        2.482366     2.471040    -3.476286
C        1.475475     3.345736    -3.069286
C        0.357427     2.851990    -2.410909
C        0.253761     1.488355    -2.126317
O       -0.807966     1.090959    -1.423824
Cu       0.000000     0.000000     0.000000
H        2.726376     1.011684     0.590111
H        2.173164     2.590435     1.241409
H        2.754424     1.282202     2.369356
H        0.699137     3.315485     2.730735
H       -1.092925     4.143708     4.132967
H       -3.023818     2.712325     4.678815
H       -3.160886     0.405083     3.828389
H       -1.816602    -3.782311     1.860228
H       -0.971550    -5.929951     0.971151
H        0.729440    -5.973413    -0.821242
H        1.652272    -3.879097    -1.732994
H        2.008341    -1.545672    -2.849035
H        3.168081     0.444627    -3.577850
H        3.351150     2.869083    -3.983562
H        1.563116     4.410615    -3.251352
H       -0.412193     3.538132    -2.072771
42
ex_0258 frame29 Δ-conf3
C        2.185797     1.505637     1.441748
N        0.855156     0.948690     1.535832
C       -0.190416     1.343314     2.411067
C       -0.131390     2.631987     2.976152
C       -1.155948     3.107305     3.779730
C       -2.241014     2.291044     4.077271
C       -2.308587     0.984399     3.576293
C       -1.308753     0.460548     2.735618
N       -1.494218    -0.915197     2.274031
N       -1.094732    -1.319764     1.019413
C       -0.589390    -2.581401     0.557911
C       -1.073107    -3.785454     1.073427
C       -0.603677    -5.001024     0.562682
C        0.358991    -5.027686    -0.454048
C        0.883500    -3.841970    -0.970568
C        0.454376    -2.608970    -0.474059
N        1.041100    -1.391250    -0.981234
C        1.170755    -0.995352    -2.371762
C        1.259496     0.551497    -2.567131
C        2.385778     1.087042    -3.225317
C        2.504633     2.467189    -3.458554
C        1.501287     3.345704    -3.050772
C        0.377828     2.855207    -2.398978
C        0.265850     1.491101    -2.120819
O       -0.800555     1.095635    -1.424214
Cu       0.000000     0.000000     0.000000
H        2.160475     2.598097     1.263604
H        2.747699     1.276193     2.372284
H        2.714364     1.029798     0.589378
H        0.684174     3.307445     2.753316
H       -1.108859     4.120359     4.163027
H       -3.035227     2.679885     4.700551
H       -3.167346     0.379337     3.832762
H       -1.832523    -3.783825     1.844547
H       -0.995089    -5.931955     0.949558
H        0.707936    -5.976114    -0.840973
H        1.640799    -3.882023    -1.743980
H        2.005769    -1.549153    -2.849510
H        3.179284     0.437275    -3.566772
H        3.377596     2.862513    -3.960713
H        1.595864     4.410885    -3.227038
H       -0.389044     3.544009    -2.060111
42
ex_0258 frame30 see-saw N2-O-ax-conf2
C        2.140152    -2.127131     0.298369
N        1.792293    -0.736959     0.483762
C        2.667651     0.341602     0.773351
C        3.996468     0.251235     0.319268
C        4.885860     1.299512     0.502440
C        4.481159     2.444172     1.179164
C        3.180780     2.548147     1.688495
C        2.235141     1.520914     1.516104
N        0.915617     1.746228     2.101913
N       -0.237287     1.236437     1.548938
C       -1.422326     0.744121     2.188026
C       -1.906586     1.329598     3.360001
C       -3.094415     0.862939     3.932942
C       -3.803235    -0.194833     3.350170
C       -3.331896    -0.817027     2.191306
C       -2.138044    -0.392173     1.602823
N       -1.626780    -1.070394     0.435606
C       -2.337279    -1.370439    -0.792953
C       -1.382749    -1.549708    -2.016380
C       -1.410407    -2.769155    -2.722244
C       -0.595501    -2.977043    -3.847298
C        0.254563    -1.970569    -4.305395
C        0.306128    -0.754334    -3.638525
C       -0.460125    -0.551918    -2.489475
O       -0.302155     0.604999    -1.847355
Cu       0.000000     0.000000     0.000000
H        2.877928    -2.257790    -0.516295
H        2.545330    -2.534539     1.249521
H        1.224140    -2.696319     0.035261
H        4.342879    -0.613808    -0.230459
H        5.891450     1.222659     0.105514
H        5.184608     3.255820     1.308776
H        2.904379     3.450669     2.216014
H       -1.381349     2.160649     3.813019
H       -3.475025     1.329464     4.831729
H       -4.721964    -0.541278     3.804970
H       -3.883548    -1.646018     1.765794
H       -3.019686    -2.231682    -0.635839
H       -2.063075    -3.569528    -2.403305
H       -0.620820    -3.923019    -4.371056
H        0.887242    -2.133806    -5.169825
H        0.989010     0.017038    -3.979440
42
ex_0258 frame31 see-saw N2-O-ax-conf5
C        2.143838    -2.127456     0.310853
N        1.794208    -0.735940     0.480503
C        2.669122     0.345507     0.757193
C        3.994036     0.255652     0.291627
C        4.883057     1.306000     0.462983
C        4.481778     2.452665     1.138452
C        3.185083     2.556689     1.658143
C        2.239611     1.526952     1.498290
N        0.923233     1.750854     2.093571
N       -0.232456     1.237718     1.548632
C       -1.416275     0.744928     2.191233
C       -1.897910     1.328560     3.365223
C       -3.085186     0.861405     3.939858
C       -3.795958    -0.195057     3.357005
C       -3.327097    -0.816008     2.196897
C       -2.134259    -0.391126     1.606850
N       -1.626501    -1.069575     0.438560
C       -2.338803    -1.366658    -0.789567
C       -1.381746    -1.558480    -2.008289
C       -1.410636    -2.782902    -2.704956
C       -0.590906    -3.002027    -3.824216
C        0.264402    -2.001587    -4.286043
C        0.315792    -0.779735    -3.629060
C       -0.455295    -0.566203    -2.485172
O       -0.299060     0.595589    -1.850916
Cu       0.000000     0.000000     0.000000
H        1.228132    -2.702857     0.061093
H        2.877642    -2.266625    -0.506119
H        2.556738    -2.520710     1.264725
H        4.337212    -0.611229    -0.257464
H        5.885547     1.228984     0.058039
H        5.185274     3.265714     1.258835
H        2.911878     3.460997     2.184109
H       -1.371679     2.158688     3.818681
H       -3.464251     1.326529     4.839956
H       -4.714271    -0.541722     3.812583
H       -3.879948    -1.644210     1.771176
H       -3.029093    -2.221146    -0.630660
H       -2.066790    -3.578835    -2.382061
H       -0.616208    -3.952315    -4.340102
H        0.901185    -2.173980    -5.145666
H        1.002599    -0.013133    -3.972797
42
ex_0258 frame32 see-saw N2-O-ax-conf4
C        2.142168     2.124524     0.331152
N        1.790759     0.731603     0.497415
C        2.656647    -0.358133     0.771834
C        3.979929    -0.278984     0.301229
C        4.862009    -1.335585     0.472824
C        4.455202    -2.476593     1.155280
C        3.159246    -2.569817     1.678216
C        2.220768    -1.534919     1.513970
N        0.903529    -1.748547     2.106179
N       -0.245420    -1.232832     1.550570
C       -1.425640    -0.734659     2.192905
C       -1.908193    -1.314759     3.368412
C       -3.090514    -0.839443     3.945707
C       -3.796032     0.220426     3.362681
C       -3.326796     0.835391     2.198952
C       -2.137643     0.401709     1.607111
N       -1.626652     1.070891     0.435330
C       -2.342361     1.364440    -0.791041
C       -1.391517     1.555947    -2.013177
C       -1.430981     2.777572    -2.713997
C       -0.618352     2.997168    -3.837965
C        0.241326     2.000351    -4.299277
C        0.304039     0.781695    -3.637140
C       -0.461097     0.566880    -2.489444
O       -0.294559    -0.592756    -1.852174
Cu       0.000000     0.000000     0.000000
H        1.964652     2.435495    -0.718124
H        1.497156     2.733997     0.999326
H        3.195714     2.321033     0.615751
H        4.321059     0.583293    -0.258827
H        5.862458    -1.268835     0.061574
H        5.152102    -3.295305     1.275446
H        2.878974    -3.471522     2.205229
H       -1.384855    -2.146604     3.822149
H       -3.468948    -1.300315     4.848360
H       -4.710137     0.574248     3.821148
H       -3.875425     1.666286     1.773331
H       -3.036843     2.215497    -0.631514
H       -2.091526     3.570269    -2.391830
H       -0.653092     3.944829    -4.358114
H        0.872335     2.173055    -5.162999
H        0.993669     0.017980    -3.981427
42
ex_0258 frame33 see-saw N2-O-ax-conf3
C        2.154940    -2.112878     0.313318
N        1.796377    -0.724038     0.488273
C        2.665426     0.361660     0.771640
C        3.994062     0.278701     0.314861
C        4.877390     1.332945     0.493600
C        4.467006     2.476674     1.168408
C        3.166668     2.574210     1.679221
C        2.226828     1.540896     1.510774
N        0.906329     1.759934     2.096480
N       -0.242779     1.238718     1.546299
C       -1.428663     0.748352     2.185573
C       -1.914205     1.334323     3.357061
C       -3.103937     0.868700     3.927614
C       -3.813343    -0.187642     3.342872
C       -3.339978    -0.810625     2.185339
C       -2.143975    -0.387367     1.600088
N       -1.629458    -1.066565     0.435370
C       -2.337798    -1.368016    -0.793697
C       -1.375552    -1.567503    -2.006119
C       -1.402533    -2.795545    -2.696025
C       -0.576724    -3.021923    -3.809165
C        0.282423    -2.025022    -4.271661
C        0.331198    -0.799247    -3.621643
C       -0.445992    -0.578493    -2.483356
O       -0.292756     0.586898    -1.854710
Cu       0.000000     0.000000     0.000000
H        2.895579    -2.243915    -0.498762
H        2.562265    -2.509642     1.268076
H        1.244163    -2.691366     0.052879
H        4.345156    -0.585411    -0.233345
H        5.882806     1.261332     0.095077
H        5.165952     3.292714     1.295115
H        2.885774     3.476428     2.204860
H       -1.388806     2.164230     3.811577
H       -3.485851     1.335141     4.825944
H       -4.733886    -0.532659     3.795193
H       -3.891940    -1.638733     1.758390
H       -3.030774    -2.220048    -0.633267
H       -2.061360    -3.588811    -2.371928
H       -0.600122    -3.975229    -4.319470
H        0.924166    -2.203232    -5.126323
H        1.020852    -0.035378    -3.965683
42
ex_0258 frame34 conf2
C        1.763601     1.805351    -1.660768
N        1.640317     1.054479    -0.431812
C        2.318938     1.279298     0.794068
C        2.860778     2.558547     1.025791
C        3.470437     2.867418     2.231701
C        3.594375     1.894375     3.216122
C        3.114379     0.595107     3.000368
C        2.466352     0.233867     1.803620
N        2.007310    -1.152864     1.695308
N        0.843487    -1.482580     1.036037
C        0.489754    -2.641384     0.265959
C        0.930207    -3.913541     0.635967
C        0.522643    -5.033288    -0.097812
C       -0.312627    -4.895480    -1.213055
C       -0.747374    -3.635414    -1.627032
C       -0.349452    -2.491753    -0.932413
N       -0.768821    -1.192167    -1.403810
C       -2.122907    -0.757781    -1.697998
C       -2.328224     0.786014    -1.553680
C       -2.796743     1.514672    -2.666958
C       -3.035745     2.897127    -2.585166
C       -2.822895     3.585787    -1.391430
C       -2.358037     2.903544    -0.275622
C       -2.072885     1.538399    -0.354402
O       -1.553758     0.960921     0.728919
Cu       0.000000     0.000000     0.000000
H        1.561318     2.882636    -1.504221
H        2.781085     1.658081    -2.081900
H        1.024251     1.418687    -2.393086
H        2.766741     3.350825     0.294891
H        3.837358     3.873408     2.402490
H        4.066519     2.154889     4.154189
H        3.233253    -0.133942     3.789535
H        1.558570    -4.041378     1.507719
H        0.847914    -6.019328     0.204589
H       -0.621415    -5.772073    -1.767048
H       -1.378631    -3.546391    -2.502747
H       -2.444152    -1.153701    -2.683969
H       -2.986174     1.015256    -3.606580
H       -3.391812     3.442000    -3.449418
H       -3.004768     4.652604    -1.329596
H       -2.168020     3.446793     0.644370
42
ex_0258 frame35 Δ-conf2
C        2.199975     1.501715     1.425609
N        0.867067     0.951912     1.526841
C       -0.173300     1.353438     2.404431
C       -0.107402     2.645136     2.961787
C       -1.127595     3.127716     3.766591
C       -2.214135     2.316606     4.071301
C       -2.287730     1.006595     3.578119
C       -1.291297     0.474453     2.737710
N       -1.479559    -0.905508     2.284994
N       -1.091143    -1.316783     1.028990
C       -0.580413    -2.575728     0.565127
C       -1.060495    -3.781410     1.080405
C       -0.588397    -4.995525     0.569098
C        0.374774    -5.020462    -0.446808
C        0.896816    -3.833572    -0.963681
C        0.464527    -2.602421    -0.468380
N        1.050781    -1.384419    -0.979764
C        1.176931    -0.985652    -2.370320
C        1.241161     0.564005    -2.570428
C        2.357807     1.115846    -3.232572
C        2.453011     2.496956    -3.473775
C        1.435615     3.360714    -3.069670
C        0.322874     2.855093    -2.411764
C        0.234767     1.490772    -2.125357
O       -0.821663     1.083200    -1.421852
Cu       0.000000     0.000000     0.000000
H        2.179441     2.593060     1.240080
H        2.763273     1.275987     2.356242
H        2.724111     1.017262     0.575271
H        0.709742     3.316277     2.732522
H       -1.075098     4.142713     4.144408
H       -3.005025     2.711958     4.694918
H       -3.147434     0.406289     3.840834
H       -1.820742    -3.781556     1.850610
H       -0.978396    -5.927374     0.955252
H        0.726191    -5.967846    -0.833651
H        1.654372    -3.872408    -1.736829
H        2.022314    -1.525137    -2.846288
H        3.161671     0.478370    -3.572702
H        3.317918     2.904640    -3.980074
H        1.510996     4.426359    -3.253150
H       -0.454893     3.532835    -2.075176
42
ex_0258 frame36 conf5
C        1.784136     1.781447    -1.667179
N        1.647023     1.044093    -0.431546
C        2.311708     1.284867     0.799083
C        2.848493     2.567852     1.022314
C        3.445130     2.891256     2.231013
C        3.561027     1.929279     3.227263
C        3.085345     0.626831     3.021077
C        2.449917     0.251447     1.821891
N        1.993047    -1.136593     1.723758
N        0.836415    -1.473000     1.055329
C        0.489173    -2.640534     0.295299
C        0.930999    -3.908520     0.678397
C        0.528762    -5.035670    -0.047371
C       -0.303312    -4.909606    -1.166451
C       -0.739291    -3.654237    -1.592910
C       -0.345327    -2.503742    -0.907309
N       -0.764059    -1.209130    -1.391837
C       -2.117020    -0.779692    -1.697262
C       -2.318352     0.766274    -1.582523
C       -2.780760     1.474863    -2.710961
C       -3.013308     2.859555    -2.656874
C       -2.799786     3.570421    -1.476337
C       -2.342599     2.907711    -0.345486
C       -2.064954     1.539624    -0.396138
O       -1.555051     0.979918     0.701310
Cu       0.000000     0.000000     0.000000
H        1.057304     1.383030    -2.405599
H        1.575468     2.859615    -1.525676
H        2.808324     1.633947    -2.071831
H        2.760499     3.351836     0.281763
H        3.808392     3.899810     2.394516
H        4.023339     2.201002     4.167076
H        3.197469    -0.093264     3.819393
H        1.557108    -4.027362     1.552985
H        0.855641    -6.018360     0.264109
H       -0.608297    -5.791594    -1.714029
H       -1.367568    -3.574143    -2.471603
H       -2.435856    -1.193422    -2.676714
H       -2.969703     0.957897    -3.641180
H       -3.364273     3.388879    -3.532784
H       -2.975701     4.639239    -1.436410
H       -2.152693     3.467993     0.564216
42
ex_0258 frame37 Λ-conf5
C        1.785475    -1.665137     1.782511
N        1.047238    -0.430290     1.646416
C        1.285965     0.800152     2.311908
C        2.568649     1.024208     2.849264
C        2.890758     2.232729     3.446960
C        1.927890     3.228050     3.563199
C        0.625806     3.021046     3.086949
C        0.251571     1.821986     2.450648
N       -1.136410     1.723287     1.993609
N       -1.472810     1.055142     0.836751
C       -2.640234     0.294903     0.489590
C       -3.908212     0.677900     0.931375
C       -5.035331    -0.047810     0.529167
C       -4.909289    -1.166978    -0.302798
C       -3.653876    -1.593550    -0.738629
C       -2.503606    -0.907822    -0.344752
N       -1.208878    -1.392423    -0.763511
C       -0.780109    -1.697749    -2.116696
C        0.765667    -1.583118    -2.318637
C        1.474061    -2.711572    -2.781262
C        2.858685    -2.657528    -3.014109
C        3.569621    -1.477010    -2.800671
C        2.907009    -0.346096    -2.343409
C        1.538949    -0.396690    -2.065554
O        0.979161     0.700813    -1.555759
Cu       0.000000     0.000000     0.000000
H        1.388823    -2.403189     1.054356
H        2.863829    -1.522418     1.575516
H        1.636890    -2.071192     2.806037
H        3.353416     0.284509     2.761022
H        3.899037     2.396862     3.810712
H        2.198613     4.167785     4.026244
H       -0.095012     3.818663     3.199392
H       -4.027013     1.552624     1.557347
H       -6.017994     0.263816     0.855925
H       -5.791285    -1.714477    -0.607830
H       -3.573823    -2.472290    -1.366873
H       -1.194080    -2.677113    -2.435506
H        0.956991    -3.641763    -2.970094
H        3.387884    -3.533466    -3.365198
H        4.638411    -1.437151    -2.976756
H        3.467348     0.563594    -2.153643
42
ex_0258 frame38 Δ-conf4
C       -1.644908     1.781993     1.815367
N       -0.405409     1.055833     1.646199
C        0.835217     1.274508     2.298259
C        1.086719     2.557250     2.820443
C        2.305087     2.861705     3.407141
C        3.281622     1.879928     3.528612
C        3.046648     0.577656     3.065868
C        1.837611     0.222406     2.438123
N        1.709535    -1.165177     1.990098
N        1.032472    -1.489769     0.835249
C        0.255473    -2.646651     0.492729
C        0.621453    -3.919150     0.936093
C       -0.122498    -5.036211     0.539477
C       -1.242544    -4.895150    -0.288921
C       -1.651006    -3.634268    -0.727049
C       -0.946147    -2.493605    -0.338269
N       -1.409740    -1.191897    -0.758530
C       -1.710190    -0.764944    -2.113128
C       -1.580206     0.778013    -2.320069
C       -2.701778     1.495162    -2.785436
C       -2.634826     2.878273    -3.022357
C       -1.447965     3.578815    -2.809825
C       -0.323190     2.907047    -2.350138
C       -0.386012     1.540011    -2.069037
O        0.706900     0.970661    -1.558348
Cu       0.000000     0.000000     0.000000
H       -1.828002     2.426152     0.931236
H       -2.475021     1.049250     1.900202
H       -1.644783     2.388958     2.743146
H        0.362440     3.355974     2.716684
H        2.492428     3.871060     3.755812
H        4.230163     2.136914     3.981232
H        3.831995    -0.156903     3.176623
H        1.496348    -4.049362     1.559601
H        0.175292    -6.022584     0.868114
H       -1.804636    -5.769561    -0.589273
H       -2.530457    -3.542477    -1.352611
H       -2.692644    -1.171559    -2.431948
H       -3.636478     0.985901    -2.973520
H       -3.505710     3.414204    -3.375842
H       -1.398452     4.646670    -2.988930
H        0.591421     3.459668    -2.161703
42
ex_0258 frame39 conf4
C        1.453631     1.474394     2.212129
N        1.527487     0.954375     0.864630
C        2.392860     1.355666    -0.184786
C        2.932861     2.654428    -0.131108
C        3.728536     3.138345    -1.157712
C        4.042070     2.320696    -2.237275
C        3.563988     1.004261    -2.298868
C        2.730343     0.472260    -1.296889
N        2.287507    -0.911829    -1.472850
N        1.031671    -1.321787    -1.082344
C        0.570124    -2.580756    -0.570367
C        1.091264    -3.786877    -1.043174
C        0.582150    -5.000581    -0.567310
C       -0.438285    -5.024216     0.391209
C       -0.961806    -3.836404     0.904514
C       -0.467906    -2.605452     0.468741
N       -0.984507    -1.386313     1.045107
C       -2.377168    -0.993051     1.159238
C       -2.579588     0.553730     1.238658
C       -3.250760     1.091867     2.356137
C       -3.491826     2.471482     2.466000
C       -3.077957     3.347041     1.462677
C       -2.412253     2.854252     0.348289
C       -2.127459     1.490404     0.244701
O       -1.419164     1.092827    -0.813684
Cu       0.000000     0.000000     0.000000
H        0.541499     2.094676     2.327726
H        1.394441     0.619303     2.918229
H        2.356545     2.059987     2.478698
H        2.685638     3.330684     0.678148
H        4.090168     4.159619    -1.116830
H        4.657021     2.717295    -3.034229
H        3.828107     0.400847    -3.156025
H        1.865413    -3.787970    -1.799360
H        0.973821    -5.933031    -0.950367
H       -0.823194    -5.971212     0.745914
H       -1.738324    -3.874002     1.658715
H       -2.862318    -1.544852     1.991323
H       -3.597722     0.444493     3.149192
H       -4.005166     2.868563     3.331713
H       -3.260815     4.411812     1.550320
H       -2.069437     3.541303    -0.418402
42
ex_0258 frame40 Λ-conf4
C        1.475847     2.210524     1.453322
N        0.954118     0.863759     1.528169
C        1.353637    -0.185608     2.394681
C        2.651667    -0.132668     2.936421
C        3.133746    -1.159357     3.733232
C        2.314900    -2.238147     4.046331
C        0.999185    -2.298925     3.566615
C        0.469290    -1.297060     2.731728
N       -0.913978    -1.472729     2.287363
N       -1.322576    -1.081554     1.031451
C       -2.581795    -0.570321     0.570580
C       -3.787558    -1.043552     1.092340
C       -5.001604    -0.568027     0.583857
C       -5.025838     0.390427    -0.436627
C       -3.838170     0.903946    -0.960751
C       -2.607062     0.468227    -0.467176
N       -1.387543     1.044138    -0.983837
C       -0.995648     1.159156    -2.376662
C        0.550767     1.239131    -2.580348
C        1.087618     2.356741    -3.252228
C        2.466901     2.467327    -3.494559
C        3.343384     1.464585    -3.081251
C        2.851826     0.350028    -2.414919
C        1.488348     0.245714    -2.128811
O        1.091889    -0.812787    -1.419849
Cu       0.000000     0.000000     0.000000
H        2.096902     2.324321     0.541495
H        0.621647     2.917603     1.392492
H        2.060951     2.477458     2.356417
H        3.328846     0.675921     2.689679
H        4.154556    -1.119211     4.096123
H        2.709905    -3.035198     4.662153
H        0.394571    -3.155415     3.830286
H       -3.788059    -1.799646     1.866622
H       -5.933782    -0.951292     0.976085
H       -5.973140     0.744885    -0.821055
H       -3.876345     1.658043    -1.737275
H       -1.548246     1.991273    -2.860874
H        0.439436     3.149331    -3.598771
H        2.862969     3.333167    -4.008441
H        4.407926     1.552814    -3.265052
H        3.539611    -0.416204    -2.072566
42
ex_0258 frame41 Isomer 1
C       -0.449099     2.067488     0.932785
N       -0.331930     1.381591    -0.336551
C       -0.301674     1.940324    -1.640028
C        0.168771     3.261101    -1.763792
C        0.293449     3.862647    -3.004775
C       -0.090810     3.176168    -4.149467
C       -0.607227     1.876917    -4.062764
C       -0.732466     1.207975    -2.831097
N       -1.281676    -0.148111    -2.887931
N       -0.908949    -1.138970    -2.006537
C       -1.644918    -2.255807    -1.489496
C       -2.451325    -3.032410    -2.323618
C       -3.086795    -4.169910    -1.812618
C       -2.962216    -4.514245    -0.460793
C       -2.209786    -3.722796     0.410313
C       -1.550099    -2.587615    -0.066594
N       -0.788784    -1.759278     0.834563
C        0.041982    -2.131165     1.961697
C        1.387792    -1.322268     2.079339
C        1.761872    -0.859988     3.363173
C        2.982827    -0.199467     3.580374
C        3.872921     0.009479     2.530012
C        3.533732    -0.401662     1.251492
C        2.295046    -0.994778     1.008370
O        2.003023    -1.238724    -0.265154
Cu       0.168105    -0.550293    -0.432409
H        0.492547     1.962107     1.508602
H       -0.708669     3.137548     0.809583
H       -1.271778     1.595802     1.512289
H        0.505724     3.818600    -0.898453
H        0.703150     4.863733    -3.073161
H        0.019305     3.657311    -5.111730
H       -0.894257     1.376250    -4.976875
H       -2.530436    -2.800340    -3.377856
H       -3.666310    -4.801857    -2.472230
H       -3.451046    -5.403383    -0.084532
H       -2.129587    -4.000529     1.454084
H       -0.542568    -2.005990     2.899547
H        1.114742    -1.017978     4.214898
H        3.249914     0.146020     4.570174
H        4.818245     0.512189     2.695875
H        4.208690    -0.199570     0.426438
42
ex_0258 frame42 see-saw N0-N1-ax-conf2
C       -0.059134     2.310447     1.951401
N        0.349421     0.942899     1.726627
C        0.706611    -0.022637     2.700780
C        0.190607     0.135181     4.001816
C        0.436660    -0.807425     4.986725
C        1.236745    -1.908497     4.707588
C        1.808855    -2.072723     3.437282
C        1.578261    -1.152990     2.394522
N        2.236439    -1.426242     1.112683
N        1.657861    -1.107235    -0.097894
C        2.240228    -0.660868    -1.332925
C        3.453349    -1.188794    -1.775383
C        3.973021    -0.799170    -3.012960
C        3.295897     0.127121    -3.815808
C        2.095771     0.702889    -3.389387
C        1.557394     0.363660    -2.146535
N        0.350278     1.015854    -1.680856
C       -0.903471     1.356498    -2.345231
C       -2.158631     1.330259    -1.394168
C       -3.014752     2.453121    -1.428018
C       -4.179925     2.516269    -0.641397
C       -4.529998     1.459202     0.195851
C       -3.719119     0.335568     0.258032
C       -2.534259     0.276399    -0.483108
O       -1.771191    -0.799727    -0.306120
Cu       0.000000     0.000000     0.000000
H       -0.941001     2.368744     2.617957
H        0.790134     2.880549     2.385626
H       -0.328821     2.770804     0.978203
H       -0.454029     0.966625     4.254590
H       -0.008118    -0.682619     5.968006
H        1.412219    -2.638103     5.487273
H        2.430097    -2.939984     3.264081
H        3.977804    -1.924399    -1.178636
H        4.903885    -1.227647    -3.359392
H        3.711374     0.409746    -4.773817
H        1.599587     1.434235    -4.015024
H       -1.041802     0.777095    -3.279158
H       -2.786569     3.292307    -2.069741
H       -4.820408     3.388447    -0.676729
H       -5.422341     1.512133     0.810785
H       -3.978651    -0.471038     0.936562
42
ex_0258 frame43 see-saw N0-N1-ax-conf3
C       -0.044248     2.294626     1.971617
N        0.352405     0.925481     1.735331
C        0.705649    -0.048166     2.703327
C        0.189546     0.102032     4.005379
C        0.433712    -0.846939     4.984735
C        1.231888    -1.947683     4.699000
C        1.802748    -2.105718     3.427360
C        1.573665    -1.179473     2.389765
N        2.229171    -1.447077     1.105705
N        1.651543    -1.116046    -0.102389
C        2.235458    -0.669316    -1.336449
C        3.445843    -1.201352    -1.781804
C        3.965201    -0.811227    -3.019508
C        3.291064     0.119910    -3.819190
C        2.094931     0.700491    -3.388992
C        1.556961     0.360439    -2.146517
N        0.353934     1.018194    -1.679245
C       -0.899061     1.347213    -2.349619
C       -2.146474     1.347767    -1.390533
C       -2.984853     2.483453    -1.422724
C       -4.141584     2.567994    -0.626043
C       -4.500127     1.519943     0.219273
C       -3.706503     0.383486     0.278715
C       -2.529471     0.303418    -0.472801
O       -1.778962    -0.782624    -0.301068
Cu       0.000000     0.000000     0.000000
H       -0.922897     2.355459     2.642232
H        0.811281     2.853950     2.407561
H       -0.313706     2.764639     1.003110
H       -0.453337     0.933149     4.263737
H       -0.010502    -0.727127     5.966944
H        1.406590    -2.681859     5.474652
H        2.422333    -2.973209     3.249077
H        3.967743    -1.940912    -1.187820
H        4.893219    -1.243279    -3.368915
H        3.705376     0.402567    -4.777655
H        1.600594     1.435347    -4.012073
H       -1.043992     0.723647    -3.253817
H       -2.748745     3.315899    -2.070341
H       -4.768431     3.450069    -0.659607
H       -5.385516     1.590011     0.842410
H       -3.971957    -0.415935     0.963348
42
ex_0258 frame44 see-saw N0-N1-ax-conf5
C       -0.045685     2.308319     1.956704
N        0.352138     0.938151     1.728587
C        0.699191    -0.032005     2.701673
C        0.177761     0.124362     4.000641
C        0.414836    -0.821982     4.984124
C        1.211123    -1.926018     4.705499
C        1.787932    -2.089612     3.437105
C        1.566474    -1.165917     2.395598
N        2.228036    -1.437931     1.115240
N        1.654838    -1.111720    -0.096310
C        2.241731    -0.664607    -1.329177
C        3.456167    -1.192068    -1.768903
C        3.979124    -0.801174    -3.004864
C        3.303987     0.125438    -3.809029
C        2.102956     0.700824    -3.385234
C        1.561828     0.360897    -2.144075
N        0.354319     1.013907    -1.681711
C       -0.896995     1.350908    -2.351661
C       -2.150277     1.340878    -1.399177
C       -2.997133     2.470297    -1.438405
C       -4.159511     2.547990    -0.649278
C       -4.515675     1.499253     0.195927
C       -3.714186     0.368870     0.262652
C       -2.532043     0.294970    -0.481719
O       -1.776817    -0.786905    -0.302424
Cu       0.000000     0.000000     0.000000
H       -0.306801     2.775009     0.984277
H       -0.929828     2.371628     2.619833
H        0.806514     2.868977     2.397488
H       -0.464077     0.958235     4.252858
H       -0.033679    -0.697624     5.963791
H        1.379765    -2.658277     5.484259
H        2.405864    -2.959405     3.264499
H        3.979286    -1.927859    -1.171307
H        4.911045    -1.228895    -3.349262
H        3.721588     0.408892    -4.765854
H        1.608191     1.432643    -4.011521
H       -1.037406     0.753466    -3.273960
H       -2.763495     3.303317    -2.086191
H       -4.792758     3.425270    -0.688715
H       -5.405624     1.563973     0.813182
H       -3.978638    -0.431142     0.947018
42
ex_0258 frame45 see-saw N0-N1-ax-conf4
C       -0.018125    -2.312857     1.955953
N        0.356687    -0.934585     1.728866
C        0.701304     0.044714     2.693472
C        0.167521    -0.096532     3.988485
C        0.404743     0.856239     4.965970
C        1.214858     1.950035     4.685080
C        1.801527     2.098891     3.419388
C        1.576153     1.170117     2.383583
N        2.241499     1.428129     1.103808
N        1.659770     1.103909    -0.103904
C        2.244165     0.651572    -1.334911
C        3.459798     1.174296    -1.776789
C        3.982349     0.776138    -3.010447
C        3.305252    -0.153155    -3.809775
C        2.102025    -0.722291    -3.383636
C        1.560809    -0.373415    -2.144675
N        0.349698    -1.017363    -1.680131
C       -0.901942    -1.332725    -2.358659
C       -2.154590    -1.326939    -1.407677
C       -3.002763    -2.454680    -1.453619
C       -4.166387    -2.533521    -0.666891
C       -4.521428    -1.487868     0.182779
C       -3.717052    -0.359759     0.256988
C       -2.533725    -0.285029    -0.485194
O       -1.774545     0.793372    -0.299400
Cu       0.000000     0.000000     0.000000
H       -1.093377    -2.453618     1.724731
H        0.581394    -2.957809     1.279326
H        0.197223    -2.634542     2.994866
H       -0.491930    -0.919939     4.235117
H       -0.055647     0.746109     5.941667
H        1.383073     2.688287     5.458216
H        2.425164     2.963809     3.242357
H        3.984442     1.911609    -1.182390
H        4.915506     1.199868    -3.356395
H        3.722827    -0.443128    -4.764629
H        1.605221    -1.455846    -4.006256
H       -1.037234    -0.701052    -3.258758
H       -2.769825    -3.284528    -2.105812
H       -4.801582    -3.409062    -0.712187
H       -5.412823    -1.553413     0.797682
H       -3.980674     0.437601     0.944637
42
ex_0258 frame46 Δ
C        2.344530     1.376213     1.287818
N        0.995040     0.892469     1.485970
C        0.100889     1.196720     2.545062
C        0.305467     2.409514     3.233807
C       -0.551588     2.814975     4.242006
C       -1.612049     2.001182     4.616776
C       -1.825375     0.767702     3.983858
C       -0.998841     0.314388     2.935407
N       -1.336245    -0.991350     2.355159
N       -1.136055    -1.283509     1.021555
C       -0.847258    -2.512916     0.339333
C       -1.536649    -3.679470     0.667985
C       -1.320967    -4.845234    -0.073119
C       -0.381039    -4.872583    -1.110608
C        0.375096    -3.740085    -1.420832
C        0.182051    -2.551177    -0.715738
N        0.988481    -1.392380    -1.032111
C        1.425817    -0.856399    -2.311618
C        1.297322     0.715357    -2.453275
C        2.397576     1.427672    -2.993046
C        2.338714     2.814772    -3.224190
C        1.181213     3.534053    -2.938129
C        0.090907     2.883326    -2.385714
C        0.161525     1.521937    -2.086292
O       -0.877896     1.008383    -1.442842
Cu       0.000000     0.000000     0.000000
H        2.376472     2.062868     0.417639
H        2.749423     1.876259     2.189620
H        3.001465     0.505906     1.076533
H        1.102010     3.088017     2.954783
H       -0.392528     3.773722     4.723667
H       -2.275376     2.337614     5.402568
H       -2.664352     0.167655     4.306040
H       -2.294553    -3.665474     1.440936
H       -1.902414    -5.730942     0.143701
H       -0.238218    -5.779738    -1.682221
H        1.102082    -3.782662    -2.222428
H        2.491457    -1.133876    -2.468494
H        3.313094     0.914380    -3.251264
H        3.190426     3.340690    -3.635961
H        1.130997     4.601944    -3.119287
H       -0.794249     3.452688    -2.120985
42
ex_0258 frame47 Λ
C        1.456420    -2.200355     1.445009
N        0.930802    -0.855658     1.547055
C        1.206151     0.117656     2.542211
C        2.427019     0.002469     3.237386
C        2.804566     0.938168     4.184435
C        1.954996     1.992540     4.490830
C        0.713271     2.120235     3.850161
C        0.285861     1.209608     2.861486
N       -1.032561     1.459747     2.264971
N       -1.320704     1.156247     0.949821
C       -2.537375     0.780901     0.287184
C       -3.727016     1.451145     0.568824
C       -4.882178     1.149607    -0.158631
C       -4.875388     0.143290    -1.132196
C       -3.718362    -0.595099    -1.389910
C       -2.538771    -0.317738    -0.697958
N       -1.354100    -1.107067    -0.960082
C       -0.796050    -1.608689    -2.206787
C        0.770514    -1.425640    -2.358238
C        1.529671    -2.529863    -2.821356
C        2.913761    -2.429011    -3.057734
C        3.583508    -1.225361    -2.853614
C        2.886766    -0.127945    -2.376907
C        1.529172    -0.235159    -2.071136
O        0.971905     0.822821    -1.499224
Cu       0.000000     0.000000     0.000000
H        2.143646    -2.273266     0.577768
H        1.969487    -2.523344     2.372270
H        0.606791    -2.897303     1.284380
H        3.132320    -0.787250     3.009405
H        3.769159     0.844483     4.671825
H        2.270159     2.717786     5.229447
H        0.085422     2.957749     4.118731
H       -3.740216     2.258679     1.289770
H       -5.786754     1.715473     0.017521
H       -5.775032    -0.065477    -1.695242
H       -3.734563    -1.373955    -2.142233
H       -1.027105    -2.693722    -2.288414
H        1.056024    -3.481927    -3.014914
H        3.475944    -3.284243    -3.410116
H        4.648707    -1.142893    -3.039203
H        3.418153     0.796421    -2.174378
42
ex_0258 frame48 Isomer 2
C        1.445280     1.455786    -2.200590
N        1.547195     0.930485    -0.855773
C        2.542352     1.205787     0.117544
C        3.237652     2.426562     0.002347
C        4.184685     2.804041     0.938108
C        4.490962     1.954454     1.992512
C        3.850187     0.712801     2.120184
C        2.861507     0.285501     1.209542
N        2.264870    -1.032812     1.459713
N        0.949714    -1.320833     1.156196
C        0.287160    -2.537535     0.780888
C        0.568900    -3.727181     1.451089
C       -0.158444    -4.882399     1.149495
C       -1.132026    -4.875634     0.143192
C       -1.389874    -3.718566    -0.595100
C       -0.698001    -2.538936    -0.317671
N       -0.960203    -1.354193    -1.106848
C       -2.207025    -0.796316    -1.608311
C       -2.358459     0.770244    -1.425515
C       -2.821689     1.529180    -2.529824
C       -3.058022     2.913287    -2.429201
C       -2.853748     3.583255    -1.225697
C       -2.376938     2.886719    -0.128193
C       -2.071237     1.529098    -0.235190
O       -1.499294     0.972132     0.822886
Cu       0.000000     0.000000     0.000000
H        0.578005     2.142942    -2.273734
H        2.372549     1.968830    -2.523581
H        1.284723     0.605985    -2.897352
H        3.009753     3.131842    -0.787419
H        4.672161     3.768587     0.844459
H        5.229564     2.269538     2.717804
H        4.118650     0.084907     2.957706
H        1.289886    -3.740362     2.258589
H        0.017823    -5.786998     1.715290
H       -1.694972    -5.775327    -0.065640
H       -2.142200    -3.734786    -1.373950
H       -2.288933    -1.027651    -2.693261
H       -3.015358     1.055345    -3.481771
H       -3.410486     3.475306    -3.284504
H       -3.039298     4.648469    -1.143410
H       -2.174283     3.418264     0.796045
42
ex_0258 frame49 see-saw N0-N1-ax
C        0.072962     2.415783     1.606796
N        0.705246     1.112655     1.508498
C        1.002908     0.297740     2.637396
C        0.474366     0.650812     3.905686
C        0.799555    -0.072725     5.043858
C        1.631371    -1.181045     4.937252
C        2.130332    -1.585596     3.683226
C        1.830908    -0.871872     2.496113
N        2.359128    -1.338814     1.216986
N        1.716167    -1.020750     0.032954
C        2.064788    -0.975186    -1.358188
C        3.115580    -1.747351    -1.839298
C        3.396180    -1.754603    -3.205849
C        2.662785    -0.958954    -4.097117
C        1.630603    -0.130178    -3.645741
C        1.301676    -0.099634    -2.293962
N        0.235386     0.772350    -1.823269
C       -1.043779     1.325560    -2.269452
C       -2.243731     1.220550    -1.210902
C       -3.136056     2.324105    -1.086349
C       -4.261190     2.288480    -0.235044
C       -4.544181     1.155524     0.520729
C       -3.692292     0.062373     0.455645
C       -2.535898     0.104779    -0.341106
O       -1.711298    -0.936174    -0.261243
Cu       0.000000     0.000000     0.000000
H       -1.017812     2.319051     1.796615
H        0.543239     3.009533     2.422403
H        0.237463     2.970878     0.662897
H       -0.163673     1.517691     4.040552
H        0.414934     0.241297     6.011889
H        1.885737    -1.723539     5.840910
H        2.768059    -2.455788     3.650135
H        3.671588    -2.388469    -1.165715
H        4.181578    -2.396020    -3.580019
H        2.895903    -0.987343    -5.151637
H        1.079873     0.480940    -4.348990
H       -0.883896     2.414799    -2.448001
H       -2.979400     3.228679    -1.655777
H       -4.929141     3.140166    -0.159191
H       -5.411860     1.129402     1.175983
H       -3.896481    -0.796963     1.087022
42
ex_0258 frame50 see-saw N2-O-ax
C        2.784239    -1.206835    -0.242283
N        1.953910    -0.201607     0.373489
C        2.461516     0.772772     1.287181
C        3.654574     1.463153     0.997233
C        4.140629     2.443918     1.868519
C        3.462797     2.727663     3.053560
C        2.291319     2.039361     3.368771
C        1.777391     1.064623     2.501702
N        0.577919     0.406847     2.888194
N       -0.247317    -0.192399     1.974993
C       -1.380420    -0.948041     2.296143
C       -1.647218    -1.431528     3.581080
C       -2.807680    -2.180871     3.798006
C       -3.696673    -2.423460     2.740025
C       -3.420779    -1.930958     1.455324
C       -2.248280    -1.196357     1.235451
N       -1.881513    -0.675242    -0.039805
C       -2.827485     0.292000    -0.592155
C       -2.339276     1.203650    -1.728653
C       -3.271621     2.156897    -2.195335
C       -2.964962     3.018710    -3.255257
C       -1.731172     2.929804    -3.893484
C       -0.786915     2.011123    -3.445876
C       -1.059648     1.184117    -2.349325
O       -0.071594     0.391745    -1.926813
Cu       0.000000     0.000000     0.000000
H        2.776517    -1.089710    -1.342083
H        2.387886    -2.206286     0.034108
H        3.828175    -1.143955     0.136413
H        4.191946     1.268552     0.078411
H        5.044254     2.988446     1.624906
H        3.844503     3.482658     3.730316
H        1.778829     2.265192     4.296558
H       -0.964968    -1.236803     4.399450
H       -3.020237    -2.567788     4.786251
H       -4.598306    -2.993958     2.917732
H       -4.112055    -2.115890     0.643937
H       -3.165902     0.966825     0.229262
H       -4.244978     2.245593    -1.728071
H       -3.687723     3.752740    -3.589492
H       -1.496889     3.584396    -4.724081
H        0.181213     1.966088    -3.930106
42
ex_0258 frame51 Λ-conf2_mirror
C        1.809393    -1.657780    -1.760728
N        1.053676    -0.431486    -1.641248
C        1.275967     0.794255    -2.321348
C        2.554039     1.027303    -2.865512
C        2.860280     2.233313    -3.476585
C        1.885707     3.216292    -3.599962
C        0.587681     2.999056    -3.117921
C        0.229435     1.802602    -2.468165
N       -1.156050     1.693928    -2.007029
N       -1.482493     1.035059    -0.841418
C       -2.642484     0.266125    -0.488951
C       -3.914354     0.636752    -0.929479
C       -5.034403    -0.097070    -0.523148
C       -4.897120    -1.212814     0.311526
C       -3.637104    -1.627063     0.746743
C       -2.493453    -0.932011     0.349357
N       -1.193298    -1.402788     0.768504
C       -0.760491    -1.698438     2.122628
C        0.782971    -1.555244     2.329393
C        1.509888    -2.669093     2.799039
C        2.892137    -2.588694     3.039232
C        3.582253    -1.395793     2.826404
C        2.901629    -0.279383     2.360615
C        1.536680    -0.356729     2.074410
O        0.960988     0.727269     1.554678
Cu       0.000000     0.000000     0.000000
H        2.885571    -1.496772    -1.556159
H        1.665708    -2.081466    -2.777694
H        1.423753    -2.390242    -1.020957
H        3.347518     0.297627    -2.772163
H        3.865434     2.405450    -3.845020
H        2.143920     4.154474    -4.073096
H       -0.142941     3.786897    -3.236113
H       -4.041554     1.508852    -1.557519
H       -6.020167     0.205650    -0.849029
H       -5.773988    -1.766944     0.619332
H       -3.548567    -2.503163     1.377461
H       -1.157218    -2.684489     2.442722
H        1.009202    -3.608065     2.988441
H        3.435657    -3.453418     3.396149
H        4.648960    -1.335056     3.009061
H        3.445956     0.639979     2.170694
