47
ex_0392 frame0 T-4-1
Zn       0.000000     0.000000     0.000000
Br       1.397188     1.397188     1.397188
Br       1.397188    -1.397188    -1.397188
C       -5.721208     0.954516    -3.346583
C       -4.471740     1.003396    -2.495804
C       -4.845031     1.027532    -1.017067
N       -3.717397     2.192155    -2.848455
C       -4.132684     3.225069    -3.615614
C       -3.118649     4.150883    -3.706734
N       -2.094144     3.658295    -2.985258
C       -0.787193     4.293457    -2.784736
C       -2.481575     2.481575    -2.481575
Se      -1.397188     1.397188    -1.397188
H       -6.353908     1.790653    -3.002939
H       -6.259457     0.006912    -3.176155
H       -5.430300     1.162110    -4.378719
H       -3.823668     0.126955    -2.697907
H       -4.774787    -0.004329    -0.624260
H       -5.856175     1.412425    -0.854911
H       -4.142430     1.688230    -0.449981
H       -5.132962     3.265687    -4.069170
H       -3.138508     5.091871    -4.251361
H       -0.780344     4.802729    -1.777497
H        0.015850     3.528130    -2.772764
H       -0.644857     5.038193    -3.581332
C       -5.411864    -3.874709     0.735735
C       -4.054765    -3.207681     0.708494
C       -3.107552    -3.983363    -0.201284
N       -3.534026    -3.161514     2.062467
C       -4.023571    -3.801897     3.147899
C       -3.242759    -3.494848     4.238659
N       -2.282197    -2.664206     3.791294
C       -1.208730    -2.065071     4.591585
C       -2.481575    -2.481575     2.481575
Se      -1.397188    -1.397188     1.397188
H       -5.224273    -4.931497     0.991730
H       -5.878071    -3.827273    -0.262820
H       -5.984491    -3.432582     1.554057
H       -4.137391    -2.162306     0.348833
H       -3.095929    -3.490475    -1.191686
H       -3.411904    -5.027872    -0.316264
H       -2.072971    -3.983048     0.224623
H       -4.908477    -4.452420     3.106922
H       -3.373355    -3.850419     5.257964
H       -0.262812    -2.661049     4.436709
H       -1.005422    -1.029206     4.250416
H       -1.508359    -2.107125     5.648898
47
ex_0392 frame1 T-4-1-conf2
Zn       0.000000     0.000000     0.000000
Br       1.397188     1.397188     1.397188
Br       1.397188    -1.397188    -1.397188
C       -5.721208     0.954516    -3.346583
C       -4.471740     1.003396    -2.495804
C       -4.845031     1.027532    -1.017067
N       -3.717397     2.192155    -2.848455
C       -4.132684     3.225069    -3.615614
C       -3.118649     4.150883    -3.706734
N       -2.094144     3.658295    -2.985258
C       -0.787193     4.293457    -2.784736
C       -2.481575     2.481575    -2.481575
Se      -1.397188     1.397188    -1.397188
H       -6.353908     1.790653    -3.002939
H       -6.259457     0.006912    -3.176155
H       -5.430300     1.162110    -4.378719
H       -3.823668     0.126955    -2.697907
H       -4.774787    -0.004329    -0.624260
H       -5.856175     1.412425    -0.854911
H       -4.142430     1.688230    -0.449981
H       -5.132962     3.265687    -4.069170
H       -3.138508     5.091871    -4.251361
H       -0.780344     4.802729    -1.777497
H        0.015850     3.528130    -2.772764
H       -0.644857     5.038193    -3.581332
C       -1.586257    -0.020856     3.939242
C       -2.690160    -0.894841     4.418838
C       -3.987472    -0.107043     4.520471
N       -2.879328    -2.096218     3.633421
C       -3.619873    -3.137769     4.084246
C       -3.607790    -4.112822     3.121684
N       -2.869507    -3.663081     2.105464
C       -2.606345    -4.404479     0.874949
C       -2.413248    -2.413248     2.413248
Se      -1.397188    -1.397188     1.397188
H       -0.657367    -0.572773     3.802600
H       -1.880509     0.595439     3.067734
H       -1.376779     0.706666     4.777961
H       -2.460238    -1.221453     5.455515
H       -4.801062    -0.882004     4.630806
H       -4.039999     0.493027     5.453313
H       -4.176780     0.524439     3.619767
H       -4.142216    -3.212828     5.037312
H       -4.096565    -5.071665     3.157838
H       -3.423077    -4.259006     0.125045
H       -2.552157    -5.489733     1.041067
H       -1.666137    -4.038267     0.447413
47
ex_0392 frame2 T-4-1-conf3
Zn       0.000000     0.000000     0.000000
Br       1.397188     1.397188     1.397188
Br       1.397188    -1.397188    -1.397188
C       -4.118002     0.546496    -0.881856
C       -4.700911     1.724267    -1.578662
C       -5.384651     2.648136    -0.582199
N       -3.756456     2.457998    -2.394513
C       -4.159979     3.360460    -3.321450
C       -3.042321     3.879458    -3.920516
N       -1.980775     3.296438    -3.360840
C       -0.592434     3.573755    -3.719584
C       -2.413248     2.413248    -2.413248
Se      -1.397188     1.397188    -1.397188
H       -3.572480    -0.103890    -1.564150
H       -3.551830     0.828028     0.027053
H       -4.994467    -0.070038    -0.523645
H       -5.506944     1.372679    -2.257583
H       -5.559883     3.613924    -1.140065
H       -6.400010     2.290705    -0.309570
H       -4.762296     2.835129     0.325316
H       -5.183317     3.642152    -3.566888
H       -3.004620     4.621133    -4.700314
H       -0.191783     4.455245    -3.160101
H       -0.474859     3.824817    -4.783281
H        0.009926     2.693476    -3.468268
C       -5.411864    -3.874709     0.735735
C       -4.054765    -3.207681     0.708494
C       -3.107552    -3.983363    -0.201284
N       -3.534026    -3.161514     2.062467
C       -4.023571    -3.801897     3.147899
C       -3.242759    -3.494848     4.238659
N       -2.282197    -2.664206     3.791294
C       -1.208730    -2.065071     4.591585
C       -2.481575    -2.481575     2.481575
Se      -1.397188    -1.397188     1.397188
H       -5.224273    -4.931497     0.991730
H       -5.878071    -3.827273    -0.262820
H       -5.984491    -3.432582     1.554057
H       -4.137391    -2.162306     0.348833
H       -3.095929    -3.490475    -1.191686
H       -3.411904    -5.027872    -0.316264
H       -2.072971    -3.983048     0.224623
H       -4.908477    -4.452420     3.106922
H       -3.373355    -3.850419     5.257964
H       -0.262812    -2.661049     4.436709
H       -1.005422    -1.029206     4.250416
H       -1.508359    -2.107125     5.648898
47
ex_0392 frame3 T-4-1-conf4
Zn       0.000000     0.000000     0.000000
Br       1.397188     1.397188     1.397188
Br       1.397188    -1.397188    -1.397188
C       -5.721208     0.954516    -3.346583
C       -4.471740     1.003396    -2.495804
C       -4.845031     1.027532    -1.017067
N       -3.717397     2.192155    -2.848455
C       -4.132684     3.225069    -3.615614
C       -3.118649     4.150883    -3.706734
N       -2.094144     3.658295    -2.985258
C       -0.787193     4.293457    -2.784736
C       -2.481575     2.481575    -2.481575
Se      -1.397188     1.397188    -1.397188
H       -6.353908     1.790653    -3.002939
H       -6.259457     0.006912    -3.176155
H       -5.430300     1.162110    -4.378719
H       -3.823668     0.126955    -2.697907
H       -4.774787    -0.004329    -0.624260
H       -5.856175     1.412425    -0.854911
H       -4.142430     1.688230    -0.449981
H       -5.132962     3.265687    -4.069170
H       -3.138508     5.091871    -4.251361
H       -0.780344     4.802729    -1.777497
H        0.015850     3.528130    -2.772764
H       -0.644857     5.038193    -3.581332
C       -4.717869    -3.588974     0.040630
C       -4.531512    -2.440217     1.002410
C       -5.900969    -1.973146     1.444783
N       -3.747630    -2.812195     2.169066
C       -4.189990    -3.594653     3.185327
C       -3.148151    -3.717258     4.108490
N       -2.100023    -3.011589     3.638279
C       -0.790257    -2.848462     4.263525
C       -2.481925    -2.481925     2.481925
Se      -1.397188    -1.397188     1.397188
H       -5.636244    -3.317555    -0.556237
H       -4.863165    -4.525410     0.618895
H       -3.827523    -3.661898    -0.641118
H       -4.011297    -1.581282     0.486040
H       -6.591326    -2.814808     1.363073
H       -5.845806    -1.721182     2.533568
H       -6.220105    -1.041222     0.937670
H       -5.167809    -4.054495     3.289087
H       -3.194993    -4.288396     5.040114
H       -0.613834    -1.764547     4.476839
H       -0.774169    -3.358936     5.244461
H       -0.004841    -3.163710     3.558991
47
ex_0392 frame4 T-4-1-conf5
Zn       0.000000     0.000000     0.000000
Br       1.397188     1.397188     1.397188
Br       1.397188    -1.397188    -1.397188
C       -4.118002     0.546496    -0.881856
C       -4.700911     1.724267    -1.578662
C       -5.384651     2.648136    -0.582199
N       -3.756456     2.457998    -2.394513
C       -4.159979     3.360460    -3.321450
C       -3.042321     3.879458    -3.920516
N       -1.980775     3.296438    -3.360840
C       -0.592434     3.573755    -3.719584
C       -2.413248     2.413248    -2.413248
Se      -1.397188     1.397188    -1.397188
H       -3.572480    -0.103890    -1.564150
H       -3.551830     0.828028     0.027053
H       -4.994467    -0.070038    -0.523645
H       -5.506944     1.372679    -2.257583
H       -5.559883     3.613924    -1.140065
H       -6.400010     2.290705    -0.309570
H       -4.762296     2.835129     0.325316
H       -5.183317     3.642152    -3.566888
H       -3.004620     4.621133    -4.700314
H       -0.191783     4.455245    -3.160101
H       -0.474859     3.824817    -4.783281
H        0.009926     2.693476    -3.468268
C       -1.586257    -0.020856     3.939242
C       -2.690160    -0.894841     4.418838
C       -3.987472    -0.107043     4.520471
N       -2.879328    -2.096218     3.633421
C       -3.619873    -3.137769     4.084246
C       -3.607790    -4.112822     3.121684
N       -2.869507    -3.663081     2.105464
C       -2.606345    -4.404479     0.874949
C       -2.413248    -2.413248     2.413248
Se      -1.397188    -1.397188     1.397188
H       -0.657367    -0.572773     3.802600
H       -1.880509     0.595439     3.067734
H       -1.376779     0.706666     4.777961
H       -2.460238    -1.221453     5.455515
H       -4.801062    -0.882004     4.630806
H       -4.039999     0.493027     5.453313
H       -4.176780     0.524439     3.619767
H       -4.142216    -3.212828     5.037312
H       -4.096565    -5.071665     3.157838
H       -3.423077    -4.259006     0.125045
H       -2.552157    -5.489733     1.041067
H       -1.666137    -4.038267     0.447413
47
ex_0392 frame5 T-4-1-conf6
Zn       0.000000     0.000000     0.000000
Br       1.397188     1.397188     1.397188
Br       1.397188    -1.397188    -1.397188
C       -5.394763     0.560396    -2.392315
C       -4.112743     0.680850    -3.180547
C       -4.406964     0.297582    -4.614353
N       -3.560314     2.025232    -3.143345
C       -4.070784     3.093792    -3.805394
C       -3.262124     4.196007    -3.515768
N       -2.282568     3.778450    -2.688873
C       -1.202398     4.579996    -2.119850
C       -2.481925     2.481925    -2.481925
Se      -1.397188     1.397188    -1.397188
H       -5.914455    -0.342608    -2.825714
H       -5.992305     1.485928    -2.529237
H       -5.158823     0.381147    -1.308333
H       -3.337271    -0.031524    -2.772872
H       -5.462257     0.496095    -4.810856
H       -3.831620     0.986936    -5.282000
H       -4.057059    -0.723268    -4.865206
H       -4.944869     3.117898    -4.448624
H       -3.413946     5.208241    -3.901315
H       -0.218510     4.173281    -2.463429
H       -1.256430     5.614776    -2.506360
H       -1.216019     4.489018    -1.022506
C       -5.411864    -3.874709     0.735735
C       -4.054765    -3.207681     0.708494
C       -3.107552    -3.983363    -0.201284
N       -3.534026    -3.161514     2.062467
C       -4.023571    -3.801897     3.147899
C       -3.242759    -3.494848     4.238659
N       -2.282197    -2.664206     3.791294
C       -1.208730    -2.065071     4.591585
C       -2.481575    -2.481575     2.481575
Se      -1.397188    -1.397188     1.397188
H       -5.224273    -4.931497     0.991730
H       -5.878071    -3.827273    -0.262820
H       -5.984491    -3.432582     1.554057
H       -4.137391    -2.162306     0.348833
H       -3.095929    -3.490475    -1.191686
H       -3.411904    -5.027872    -0.316264
H       -2.072971    -3.983048     0.224623
H       -4.908477    -4.452420     3.106922
H       -3.373355    -3.850419     5.257964
H       -0.262812    -2.661049     4.436709
H       -1.005422    -1.029206     4.250416
H       -1.508359    -2.107125     5.648898
47
ex_0392 frame6 T-4-1-conf7
Zn       0.000000     0.000000     0.000000
Br       1.397188     1.397188     1.397188
Br       1.397188    -1.397188    -1.397188
C       -5.721208     0.954516    -3.346583
C       -4.471740     1.003396    -2.495804
C       -4.845031     1.027532    -1.017067
N       -3.722062     2.176868    -2.841753
C       -4.193380     3.241191    -3.650916
C       -3.130869     4.196295    -3.737864
N       -2.059927     3.665507    -2.974643
C       -0.787193     4.293457    -2.784736
C       -2.423435     2.424079    -2.423801
Se      -1.397188     1.397188    -1.397188
H       -6.353908     1.790653    -3.002939
H       -6.259457     0.006912    -3.176155
H       -5.430300     1.162110    -4.378719
H       -3.823668     0.126955    -2.697907
H       -4.774787    -0.004329    -0.624260
H       -5.856175     1.412425    -0.854911
H       -4.142430     1.688230    -0.449981
H       -5.132962     3.265687    -4.069170
H       -3.138508     5.091871    -4.251361
H       -0.780344     4.802729    -1.777497
H        0.015850     3.528130    -2.772764
H       -0.644857     5.038193    -3.581332
C       -4.246530    -0.327515     4.799576
C       -2.876399    -0.778089     4.281219
C       -1.843008    -0.743712     5.359064
N       -2.990360    -2.033400     3.631023
C       -3.749858    -3.111522     4.177092
C       -3.611838    -4.184837     3.228047
N       -2.798663    -3.730370     2.174812
C       -2.406229    -4.490169     1.010943
C       -2.401869    -2.400814     2.402582
Se      -1.397188    -1.397188     1.397188
H       -4.162064     0.695838     5.176620
H       -4.903580    -0.399506     3.906769
H       -4.619066    -1.017224     5.608857
H       -2.598615     0.023192     3.536988
H       -1.553720    -1.746106     5.735740
H       -0.907690    -0.194785     5.043516
H       -2.257736    -0.100051     6.179223
H       -4.287881    -3.134146     5.060158
H       -4.000393    -5.126750     3.246047
H       -1.364142    -4.220972     0.767425
H       -2.491424    -5.571771     1.168292
H       -2.992874    -4.223647     0.110434
47
ex_0392 frame7 T-4-1-conf8
Zn       0.000000     0.000000     0.000000
Br       1.397188     1.397188     1.397188
Br       1.397188    -1.397188    -1.397188
C       -4.118002     0.546496    -0.881856
C       -4.700911     1.724267    -1.578662
C       -5.384651     2.648136    -0.582199
N       -3.756456     2.457998    -2.394513
C       -4.159979     3.360460    -3.321450
C       -3.042321     3.879458    -3.920516
N       -1.980775     3.296438    -3.360840
C       -0.592434     3.573755    -3.719584
C       -2.413248     2.413248    -2.413248
Se      -1.397188     1.397188    -1.397188
H       -3.572480    -0.103890    -1.564150
H       -3.551830     0.828028     0.027053
H       -4.994467    -0.070038    -0.523645
H       -5.506944     1.372679    -2.257583
H       -5.559883     3.613924    -1.140065
H       -6.400010     2.290705    -0.309570
H       -4.762296     2.835129     0.325316
H       -5.183317     3.642152    -3.566888
H       -3.004620     4.621133    -4.700314
H       -0.191783     4.455245    -3.160101
H       -0.474859     3.824817    -4.783281
H        0.009926     2.693476    -3.468268
C       -4.717869    -3.588974     0.040630
C       -4.531512    -2.440217     1.002410
C       -5.900969    -1.973146     1.444783
N       -3.747630    -2.812195     2.169066
C       -4.189990    -3.594653     3.185327
C       -3.148151    -3.717258     4.108490
N       -2.100023    -3.011589     3.638279
C       -0.790257    -2.848462     4.263525
C       -2.481925    -2.481925     2.481925
Se      -1.397188    -1.397188     1.397188
H       -5.636244    -3.317555    -0.556237
H       -4.863165    -4.525410     0.618895
H       -3.827523    -3.661898    -0.641118
H       -4.011297    -1.581282     0.486040
H       -6.591326    -2.814808     1.363073
H       -5.845806    -1.721182     2.533568
H       -6.220105    -1.041222     0.937670
H       -5.167809    -4.054495     3.289087
H       -3.194993    -4.288396     5.040114
H       -0.613834    -1.764547     4.476839
H       -0.774169    -3.358936     5.244461
H       -0.004841    -3.163710     3.558991
47
ex_0392 frame8 T-4-1-conf9
Zn       0.000000     0.000000     0.000000
Br       1.397188     1.397188     1.397188
Br       1.397188    -1.397188    -1.397188
C       -5.394763     0.560396    -2.392315
C       -4.112743     0.680850    -3.180547
C       -4.406964     0.297582    -4.614353
N       -3.560314     2.025232    -3.143345
C       -4.070784     3.093792    -3.805394
C       -3.262124     4.196007    -3.515768
N       -2.282568     3.778450    -2.688873
C       -1.202398     4.579996    -2.119850
C       -2.481925     2.481925    -2.481925
Se      -1.397188     1.397188    -1.397188
H       -5.914455    -0.342608    -2.825714
H       -5.992305     1.485928    -2.529237
H       -5.158823     0.381147    -1.308333
H       -3.337271    -0.031524    -2.772872
H       -5.462257     0.496095    -4.810856
H       -3.831620     0.986936    -5.282000
H       -4.057059    -0.723268    -4.865206
H       -4.944869     3.117898    -4.448624
H       -3.413946     5.208241    -3.901315
H       -0.218510     4.173281    -2.463429
H       -1.256430     5.614776    -2.506360
H       -1.216019     4.489018    -1.022506
C       -1.586257    -0.020856     3.939242
C       -2.690160    -0.894841     4.418838
C       -3.987472    -0.107043     4.520471
N       -2.879328    -2.096218     3.633421
C       -3.619873    -3.137769     4.084246
C       -3.607790    -4.112822     3.121684
N       -2.869507    -3.663081     2.105464
C       -2.606345    -4.404479     0.874949
C       -2.413248    -2.413248     2.413248
Se      -1.397188    -1.397188     1.397188
H       -0.657367    -0.572773     3.802600
H       -1.880509     0.595439     3.067734
H       -1.376779     0.706666     4.777961
H       -2.460238    -1.221453     5.455515
H       -4.801062    -0.882004     4.630806
H       -4.039999     0.493027     5.453313
H       -4.176780     0.524439     3.619767
H       -4.142216    -3.212828     5.037312
H       -4.096565    -5.071665     3.157838
H       -3.423077    -4.259006     0.125045
H       -2.552157    -5.489733     1.041067
H       -1.666137    -4.038267     0.447413
47
ex_0392 frame9 T-4-1-conf10
Zn       0.000000     0.000000     0.000000
Br       1.397188     1.397188     1.397188
Br       1.397188    -1.397188    -1.397188
C       -5.523643     3.200611    -0.649368
C       -4.615370     2.103999    -1.216338
C       -5.399906     0.905770    -1.640107
N       -3.783418     2.638102    -2.233263
C       -4.278752     3.514908    -3.244812
C       -3.136807     3.822794    -4.065122
N       -2.026443     3.141643    -3.535759
C       -0.679085     3.173356    -4.054900
C       -2.402750     2.401480    -2.401036
Se      -1.397188     1.397188    -1.397188
H       -6.058268     2.802541     0.217964
H       -4.817741     4.014241    -0.377873
H       -6.251077     3.565552    -1.428517
H       -3.993945     1.790012    -0.328454
H       -5.496981     0.798712    -2.739871
H       -4.980414    -0.055601    -1.221177
H       -6.403247     0.988977    -1.144786
H       -5.243895     3.863213    -3.375077
H       -3.066690     4.415059    -4.891442
H       -0.248950     2.163664    -3.939926
H       -0.642068     3.483715    -5.105703
H       -0.013815     3.840264    -3.472876
C       -5.411864    -3.874709     0.735735
C       -4.054765    -3.207681     0.708494
C       -3.107552    -3.983363    -0.201284
N       -3.536292    -3.158908     2.045484
C       -4.078908    -3.846347     3.160231
C       -3.258969    -3.519165     4.286893
N       -2.252961    -2.645088     3.802029
C       -1.208730    -2.065071     4.591585
C       -2.423512    -2.423670     2.424133
Se      -1.397188    -1.397188     1.397188
H       -5.224273    -4.931497     0.991730
H       -5.878071    -3.827273    -0.262820
H       -5.984491    -3.432582     1.554057
H       -4.137391    -2.162306     0.348833
H       -3.095929    -3.490475    -1.191686
H       -3.411904    -5.027872    -0.316264
H       -2.072971    -3.983048     0.224623
H       -4.908477    -4.452420     3.106922
H       -3.373355    -3.850419     5.257964
H       -0.262812    -2.661049     4.436709
H       -1.005422    -1.029206     4.250416
H       -1.508359    -2.107125     5.648898
47
ex_0392 frame10 T-4-1-reembed1
Zn       0.000000     0.000000     0.000000
Br       1.397188     1.397188     1.397188
Br       1.397188    -1.397188    -1.397188
C       -0.550838     4.423562    -4.830904
C       -0.675373     3.957396    -3.389892
C       -0.421024     5.115557    -2.475370
N       -2.019406     3.448630    -3.201500
C       -3.120258     3.942985    -3.800745
C       -4.235988     3.232964    -3.406433
N       -3.769561     2.288916    -2.544957
C       -4.632507     1.319658    -1.892541
C       -2.425249     2.425249    -2.425249
Se      -1.397188     1.397188    -1.397188
H       -1.187171     3.759301    -5.472280
H        0.489552     4.375095    -5.181102
H       -1.001665     5.429986    -4.877610
H        0.053816     3.148880    -3.218975
H        0.497226     4.895976    -1.856680
H       -1.277392     5.367505    -1.826316
H       -0.164446     6.027935    -3.060832
H       -3.194592     4.775744    -4.502410
H       -5.271746     3.370607    -3.699374
H       -4.214726     1.017767    -0.911785
H       -4.760855     0.437195    -2.572485
H       -5.632905     1.762830    -1.761496
C       -5.745712    -3.018637     1.040956
C       -4.665887    -1.997773     1.359001
C       -5.303619    -0.772043     1.936289
N       -3.757157    -2.595274     2.317105
C       -4.120596    -3.451771     3.291622
C       -3.016456    -3.831875     4.027054
N       -1.969297    -3.172992     3.461145
C       -0.604535    -3.297727     3.942444
C       -2.425249    -2.425249     2.425249
Se      -1.397188    -1.397188     1.397188
H       -5.288534    -4.041491     1.088727
H       -6.168748    -2.858308     0.039590
H       -6.482227    -2.965677     1.861356
H       -4.121862    -1.762261     0.429916
H       -5.109237     0.099174     1.245366
H       -4.971208    -0.537703     2.962302
H       -6.412011    -0.881326     1.959876
H       -5.117098    -3.831731     3.523917
H       -2.960224    -4.505764     4.875739
H       -0.030271    -2.371561     3.742446
H       -0.130233    -4.187909     3.452392
H       -0.624728    -3.508633     5.023870
47
ex_0392 frame11 T-4-1-reembed2
Zn       0.000000     0.000000     0.000000
Br       1.397188     1.397188     1.397188
Br       1.397188    -1.397188    -1.397188
C       -4.423562     4.830904    -0.550838
C       -3.957396     3.389892    -0.675373
C       -5.115557     2.475370    -0.421024
N       -3.448630     3.201500    -2.019406
C       -3.942985     3.800745    -3.120258
C       -3.232964     3.406433    -4.235988
N       -2.288916     2.544957    -3.769561
C       -1.319658     1.892541    -4.632507
C       -2.425249     2.425249    -2.425249
Se      -1.397188     1.397188    -1.397188
H       -3.759301     5.472280    -1.187171
H       -4.375095     5.181102     0.489552
H       -5.429986     4.877610    -1.001665
H       -3.148880     3.218975     0.053816
H       -4.895976     1.856680     0.497226
H       -5.367505     1.826316    -1.277392
H       -6.027935     3.060832    -0.164446
H       -4.775744     4.502410    -3.194592
H       -3.370607     3.699374    -5.271746
H       -1.017767     0.911785    -4.214726
H       -0.437195     2.572485    -4.760855
H       -1.762830     1.761496    -5.632905
C       -5.745712    -3.018637     1.040956
C       -4.665887    -1.997773     1.359001
C       -5.303619    -0.772043     1.936289
N       -3.757157    -2.595274     2.317105
C       -4.120596    -3.451771     3.291622
C       -3.016456    -3.831875     4.027054
N       -1.969297    -3.172992     3.461145
C       -0.604535    -3.297727     3.942444
C       -2.425249    -2.425249     2.425249
Se      -1.397188    -1.397188     1.397188
H       -5.288534    -4.041491     1.088727
H       -6.168748    -2.858308     0.039590
H       -6.482227    -2.965677     1.861356
H       -4.121862    -1.762261     0.429916
H       -5.109237     0.099174     1.245366
H       -4.971208    -0.537703     2.962302
H       -6.412011    -0.881326     1.959876
H       -5.117098    -3.831731     3.523917
H       -2.960224    -4.505764     4.875739
H       -0.030271    -2.371561     3.742446
H       -0.130233    -4.187909     3.452392
H       -0.624728    -3.508633     5.023870
47
ex_0392 frame12 T-4-1-reembed3
Zn       0.000000     0.000000     0.000000
Br       1.397188     1.397188     1.397188
Br       1.397188    -1.397188    -1.397188
C       -4.830904     0.550838    -4.423562
C       -3.389892     0.675373    -3.957396
C       -2.475370     0.421024    -5.115557
N       -3.201500     2.019406    -3.448630
C       -3.800745     3.120258    -3.942985
C       -3.406433     4.235988    -3.232964
N       -2.544957     3.769561    -2.288916
C       -1.892541     4.632507    -1.319658
C       -2.425249     2.425249    -2.425249
Se      -1.397188     1.397188    -1.397188
H       -5.472280     1.187171    -3.759301
H       -5.181102    -0.489552    -4.375095
H       -4.877610     1.001665    -5.429986
H       -3.218975    -0.053816    -3.148880
H       -1.856680    -0.497226    -4.895976
H       -1.826316     1.277392    -5.367505
H       -3.060832     0.164446    -6.027935
H       -4.502410     3.194592    -4.775744
H       -3.699374     5.271746    -3.370607
H       -0.911785     4.214726    -1.017767
H       -2.572485     4.760855    -0.437195
H       -1.761496     5.632905    -1.762830
C       -5.745712    -3.018637     1.040956
C       -4.665887    -1.997773     1.359001
C       -5.303619    -0.772043     1.936289
N       -3.757157    -2.595274     2.317105
C       -4.120596    -3.451771     3.291622
C       -3.016456    -3.831875     4.027054
N       -1.969297    -3.172992     3.461145
C       -0.604535    -3.297727     3.942444
C       -2.425249    -2.425249     2.425249
Se      -1.397188    -1.397188     1.397188
H       -5.288534    -4.041491     1.088727
H       -6.168748    -2.858308     0.039590
H       -6.482227    -2.965677     1.861356
H       -4.121862    -1.762261     0.429916
H       -5.109237     0.099174     1.245366
H       -4.971208    -0.537703     2.962302
H       -6.412011    -0.881326     1.959876
H       -5.117098    -3.831731     3.523917
H       -2.960224    -4.505764     4.875739
H       -0.030271    -2.371561     3.742446
H       -0.130233    -4.187909     3.452392
H       -0.624728    -3.508633     5.023870
47
ex_0392 frame13 T-4-1-reembed7
Zn       0.000000     0.000000     0.000000
Br       1.397188     1.397188     1.397188
Br       1.397188    -1.397188    -1.397188
C       -4.231119     0.943382    -0.597719
C       -4.687624     1.564643    -1.863100
C       -5.113431     0.433232    -2.798811
N       -3.748500     2.402710    -2.531342
C       -4.108916     3.358223    -3.430006
C       -2.973170     3.975906    -3.880110
N       -1.941462     3.386084    -3.248031
C       -0.543901     3.748207    -3.441985
C       -2.425393     2.425393    -2.425393
Se      -1.397188     1.397188    -1.397188
H       -3.850742     1.602813     0.178386
H       -3.587551     0.050874    -0.820199
H       -5.151567     0.473507    -0.137698
H       -5.601499     2.167388    -1.640913
H       -6.193398     0.238227    -2.745495
H       -4.841126     0.717964    -3.846526
H       -4.520782    -0.494858    -2.602965
H       -5.141963     3.586379    -3.735093
H       -2.964044     4.779285    -4.605856
H       -0.355201     4.815311    -3.284542
H        0.065905     3.203620    -2.679572
H       -0.204967     3.370455    -4.426456
C       -5.745712    -3.018637     1.040956
C       -4.665887    -1.997773     1.359001
C       -5.303619    -0.772043     1.936289
N       -3.757157    -2.595274     2.317105
C       -4.120596    -3.451771     3.291622
C       -3.016456    -3.831875     4.027054
N       -1.969297    -3.172992     3.461145
C       -0.604535    -3.297727     3.942444
C       -2.425249    -2.425249     2.425249
Se      -1.397188    -1.397188     1.397188
H       -5.288534    -4.041491     1.088727
H       -6.168748    -2.858308     0.039590
H       -6.482227    -2.965677     1.861356
H       -4.121862    -1.762261     0.429916
H       -6.064581    -0.377395     1.201873
H       -4.583260     0.016970     2.213157
H       -5.888013    -1.027734     2.849601
H       -5.117098    -3.831731     3.523917
H       -2.960224    -4.505764     4.875739
H       -0.030271    -2.371561     3.742446
H       -0.130233    -4.187909     3.452392
H       -0.624728    -3.508633     5.023870
47
ex_0392 frame14 T-4-1-reembed8
Zn       0.000000     0.000000     0.000000
Br       1.397188     1.397188     1.397188
Br       1.397188    -1.397188    -1.397188
C       -0.943382     0.597719    -4.231119
C       -1.564643     1.863100    -4.687624
C       -0.433232     2.798811    -5.113431
N       -2.402710     2.531342    -3.748500
C       -3.358223     3.430006    -4.108916
C       -3.975906     3.880110    -2.973170
N       -3.386084     3.248031    -1.941462
C       -3.748207     3.441985    -0.543901
C       -2.425393     2.425393    -2.425393
Se      -1.397188     1.397188    -1.397188
H       -1.550962    -0.072732    -3.628445
H        0.084165     0.800159    -3.826876
H       -0.725268     0.007109    -5.170923
H       -2.167388     1.640913    -5.601499
H       -0.238227     2.745495    -6.193398
H       -0.717964     3.846526    -4.841126
H        0.494858     2.602965    -4.520782
H       -3.586379     3.735093    -5.141963
H       -4.779285     4.605856    -2.964044
H       -4.815311     3.284542    -0.355201
H       -3.203620     2.679572     0.065905
H       -3.370455     4.426456    -0.204967
C       -5.745712    -3.018637     1.040956
C       -4.665887    -1.997773     1.359001
C       -5.303619    -0.772043     1.936289
N       -3.757157    -2.595274     2.317105
C       -4.120596    -3.451771     3.291622
C       -3.016456    -3.831875     4.027054
N       -1.969297    -3.172992     3.461145
C       -0.604535    -3.297727     3.942444
C       -2.425249    -2.425249     2.425249
Se      -1.397188    -1.397188     1.397188
H       -5.288534    -4.041491     1.088727
H       -6.168748    -2.858308     0.039590
H       -6.482227    -2.965677     1.861356
H       -4.121862    -1.762261     0.429916
H       -5.109237     0.099174     1.245366
H       -4.971208    -0.537703     2.962302
H       -6.412011    -0.881326     1.959876
H       -5.117098    -3.831731     3.523917
H       -2.960224    -4.505764     4.875739
H       -0.030271    -2.371561     3.742446
H       -0.130233    -4.187909     3.452392
H       -0.624728    -3.508633     5.023870
47
ex_0392 frame15 SP-4-1
Zn       0.000000     0.000000     0.000000
Br       2.420000     0.000000     0.000000
Br       0.000000     2.420000     0.000000
C       -5.786382    -1.393534     3.069004
C       -4.602149    -0.829385     2.316314
C       -4.113457     0.264827     3.054618
N       -5.046436    -0.369477     1.032005
C       -6.400209    -0.227685     0.635946
C       -6.388396     0.254748    -0.711582
N       -5.022992     0.383912    -1.072337
C       -4.541083     0.838397    -2.341764
C       -4.198096     0.000154    -0.000430
Se      -2.420000     0.000000     0.000000
H       -6.436012    -0.532089     3.300129
H       -5.451644    -1.851385     4.015067
H       -6.334185    -2.047547     2.386944
H       -3.838531    -1.613419     2.139584
H       -3.249498    -0.281820     3.681620
H       -4.690112     0.775228     3.797694
H       -3.629021     1.121343     2.406765
H       -7.198299    -0.446497     1.247113
H       -7.206335     0.467070    -1.304615
H       -4.249627     1.925065    -2.251540
H       -3.628671     0.274724    -2.625536
H       -5.348793     0.727871    -3.079900
C       -1.335918    -5.786382     3.094519
C       -1.157861    -4.602024     2.170951
C       -2.496061    -3.987523     1.869128
N       -0.515845    -5.046436     0.967187
C       -0.317873    -6.400209     0.596008
C        0.355690    -6.388396    -0.666881
N        0.536008    -5.022992    -1.004983
C        1.170523    -4.541083    -2.194685
C        0.000214    -4.198096    -0.000403
Se       0.000000    -2.420000     0.000000
H       -2.086028    -6.436012     2.611983
H       -1.728730    -5.451644     4.069384
H       -0.391318    -6.334185     3.120388
H       -0.499929    -3.838531     2.632681
H       -2.664810    -3.114642     2.527074
H       -3.333096    -4.690112     1.978365
H       -2.398441    -3.649061     0.910797
H       -0.623361    -7.198299     1.168791
H        0.652113    -7.206335    -1.222671
H        0.373375    -4.249627    -2.938690
H        1.759487    -3.628671    -1.968024
H        1.791372    -5.348793    -2.608939
47
ex_0392 frame16 SP-4-2
Zn       0.000000     0.000000     0.000000
Br       2.420000     0.000000     0.000000
C       -3.283589     5.786382    -0.760768
C       -2.434515     4.602024    -0.356101
C       -2.981470     3.977730     0.923621
N       -1.070605     5.056438    -0.156597
C       -0.637077     6.335476    -0.093190
C        0.724554     6.337150     0.105969
N        1.097917     5.044712     0.160588
C        2.461133     4.541083     0.359991
C       -0.000000     4.298214     0.000000
Se       0.000000     2.420000     0.000000
H       -3.340246     6.436012     0.129343
H       -4.301378     5.451644    -1.023003
H       -2.743939     6.334185    -1.536472
H       -2.415805     3.838531    -1.159667
H       -3.615314     3.114642     0.645613
H       -3.570156     4.690112     1.509122
H       -2.141620     3.626130     1.573841
H       -1.310684     7.198299    -0.191721
H        1.371115     7.206335     0.200547
H        2.587036     4.249627     1.443106
H        2.628140     3.628671    -0.248583
H        3.162963     5.348793     0.106034
Br      -2.420000     0.000000     0.000000
C       -1.335918    -5.786382     3.094519
C       -1.157861    -4.602024     2.170951
C       -2.512505    -3.977730     1.851907
N       -0.509184    -5.056438     0.954699
C       -0.302993    -6.335476     0.568108
C        0.344609    -6.337150    -0.646105
N        0.522178    -5.044712    -0.979051
C        1.170523    -4.541083    -2.194685
C       -0.000000    -4.298214     0.000000
Se       0.000000    -2.420000     0.000000
H       -2.086028    -6.436012     2.611983
H       -1.728730    -5.451644     4.069384
H       -0.391318    -6.334185     3.120388
H       -0.499929    -3.838531     2.632681
H       -2.664810    -3.114642     2.527074
H       -3.333096    -4.690112     1.978365
H       -2.537579    -3.626130     0.790067
H       -0.623361    -7.198299     1.168791
H        0.652113    -7.206335    -1.222671
H        0.373375    -4.249627    -2.938690
H        1.759487    -3.628671    -1.968024
H        1.791372    -5.348793    -2.608939
