104
ex_0409 frame0 tetrahedral-conf2
C        3.457124     5.656610     2.428890
C        3.339963     4.388674     1.635600
C        4.343202     4.069027     0.729166
C        4.249565     2.906306    -0.024168
C        5.385655     2.563695    -0.957772
C        3.106349     2.083785     0.101517
C        2.086587     2.318765     1.061748
N        0.938803     1.415645     1.319145
C        0.061258     1.668618     2.461043
C        0.560419     1.197054     3.885107
C       -0.547571     1.579063     4.886597
C        1.884244     1.836576     4.356208
C        0.755716    -0.325757     3.947277
Nb       0.000000     0.000000     0.000000
Se      -1.472243    -1.472243     1.472243
N       -1.471363     1.156690    -1.058999
C       -2.853668     0.896336    -0.628626
C       -3.749906     0.041377    -1.590878
C       -3.036268    -1.242638    -1.969314
C       -4.116748     0.753619    -2.911477
C       -5.045300    -0.312742    -0.837408
C       -1.173403     2.414506    -1.732624
C        0.144075     2.826567    -2.040401
C        0.380376     4.090009    -2.652627
C        1.770765     4.562167    -2.976995
C       -0.697034     4.931576    -2.969788
C       -1.999801     4.537903    -2.697880
C       -3.154078     5.447964    -3.032122
C       -2.226833     3.293443    -2.113261
N        1.417113    -1.223992    -1.057712
C        2.713478    -1.097417    -0.431984
C        3.398082    -2.345629     0.156128
C        2.530154    -2.952870     1.266312
C        4.728569    -1.824323     0.754290
C        3.712294    -3.430869    -0.885886
C        1.338491    -1.715907    -2.439567
C        0.134598    -2.151283    -3.014518
C        0.058474    -2.587224    -4.365831
C       -1.231593    -3.004918    -5.017685
C        1.216689    -2.639286    -5.143792
C        2.438362    -2.259784    -4.600380
C        3.701336    -2.360313    -5.413840
C        2.490105    -1.780275    -3.284229
C        2.238560     3.529056     1.796832
H        4.388193     5.633940     3.034106
H        3.496867     6.523889     1.736116
H        2.594210     5.792095     3.113243
H        5.208553     4.717275     0.624788
H        5.451934     3.294426    -1.789100
H        6.346953     2.594171    -0.392266
H        5.287484     1.538191    -1.371555
H        3.076331     1.276310    -0.548658
H       -0.877625     1.123222     2.259418
H       -0.256895     2.727909     2.463475
H       -1.516423     1.121181     4.587526
H       -0.680589     2.682418     4.908240
H       -0.303674     1.233369     5.913263
H        2.150524     1.463197     5.370635
H        1.803338     2.935212     4.449463
H        2.723115     1.564582     3.680648
H       -0.182477    -0.863964     3.736856
H        1.541206    -0.627076     3.237250
H        1.070630    -0.645185     4.966005
H       -3.363751     1.817032    -0.286107
H       -2.790172     0.370121     0.320763
H       -2.672813    -1.796950    -1.080580
H       -3.688390    -1.923453    -2.557346
H       -2.215332    -0.919055    -2.626267
H       -4.714536     0.072643    -3.558723
H       -4.731158     1.656283    -2.733404
H       -3.202798     1.028656    -3.482511
H       -4.813186    -0.843646     0.112212
H       -5.694446    -0.973793    -1.450444
H       -5.610736     0.611286    -0.592522
H        0.981526     2.191858    -1.788922
H        1.758081     5.578471    -3.435932
H        2.380420     4.617864    -2.053041
H        2.244992     3.873695    -3.704957
H       -0.528832     5.901756    -3.426384
H       -4.133838     4.980476    -2.790076
H       -3.069913     6.384180    -2.440588
H       -3.151529     5.698850    -4.113089
H       -3.254340     3.064494    -1.928115
H        2.539782    -0.452725     0.446726
H        3.416997    -0.610225    -1.123926
H        3.059592    -3.794843     1.757755
H        1.561585    -3.312710     0.859836
H        2.323509    -2.197351     2.040112
H        5.348959    -1.348568    -0.041336
H        5.320290    -2.636149     1.217139
H        4.534898    -1.041434     1.523229
H        4.386918    -3.047574    -1.677451
H        4.235382    -4.279724    -0.396437
H        2.780240    -3.822702    -1.343892
H       -0.752703    -2.122082    -2.399502
H       -1.156559    -4.051045    -5.385692
H       -1.424417    -2.347326    -5.896625
H       -2.093493    -2.922235    -4.328709
H        1.167667    -2.990806    -6.170783
H        4.157408    -1.357446    -5.542766
H        3.515146    -2.797529    -6.418953
H        4.423432    -3.020976    -4.886427
H        3.466757    -1.483066    -2.958458
H        1.509736     3.839565     2.516088
104
ex_0409 frame1 Isomer 1
C       -1.639270    -2.946501    -3.191064
C       -1.105169    -3.362247    -1.853600
C       -1.098765    -4.718608    -1.504514
C       -0.621947    -5.121745    -0.256604
C       -0.623611    -6.577336     0.114982
C       -0.144847    -4.161180     0.640117
C       -0.134693    -2.784099     0.313953
N        0.346297    -1.788242     1.235645
C        0.888432    -2.143255     2.536567
C       -0.186925    -2.171639     3.676678
C       -1.342674    -3.167363     3.414366
C        0.525259    -2.612934     4.969407
C       -0.786816    -0.754527     3.887182
Nb       0.633952     0.249267     0.616381
Se       2.373090     1.379659     2.169411
N        1.288640     0.366556    -1.426328
C        0.427879     1.300744    -2.169732
C        0.622948     1.706547    -3.658276
C        2.042079     2.291943    -3.914046
C       -0.395694     2.852411    -3.925506
C        0.240462     0.553157    -4.625441
C        2.399538    -0.490619    -1.760993
C        2.978617    -1.204325    -0.693379
C        4.036514    -2.102448    -0.886900
C        4.617428    -2.854798     0.277068
C        4.547017    -2.292716    -2.171928
C        4.008709    -1.586170    -3.252485
C        4.549534    -1.789644    -4.637293
C        2.955967    -0.680324    -3.043877
N       -1.287381     1.204599     0.705467
C       -2.347348     0.185005     0.616457
C       -3.851862     0.414920     0.931536
C       -4.056583     0.896453     2.395447
C       -4.537251     1.308781    -0.137761
C       -4.543024    -0.974576     0.823879
C       -1.280778     2.636453     0.933518
C       -2.392504     3.457657     1.236766
C       -2.241714     4.835877     1.474722
C       -3.431310     5.697510     1.783087
C       -0.973171     5.418034     1.425456
C        0.136349     4.641438     1.094223
C        1.506551     5.250956     1.004212
C       -0.033722     3.275765     0.843007
C       -0.611827    -2.404573    -0.948865
H       -1.147283    -2.019762    -3.548405
H       -1.476079    -3.744529    -3.947031
H       -2.731119    -2.766966    -3.097187
H       -1.475715    -5.461524    -2.198056
H        0.066378    -7.134369    -0.552159
H       -1.648882    -6.990245     0.010305
H       -0.296382    -6.732395     1.166019
H        0.226780    -4.519099     1.582316
H        1.635979    -1.371461     2.810449
H        1.494814    -3.069610     2.473454
H       -2.090300    -3.124468     4.234444
H       -1.877287    -2.916056     2.472705
H       -0.982702    -4.213664     3.359487
H        0.973703    -3.622345     4.837133
H       -0.201413    -2.676019     5.809719
H        1.326993    -1.898579     5.247635
H       -0.114799     0.044957     3.511615
H       -1.763291    -0.643278     3.386298
H       -0.987731    -0.550491     4.959498
H        0.500517     2.244543    -1.601815
H       -0.615335     0.935207    -2.055009
H        2.061057     3.396088    -3.782939
H        2.800465     1.912648    -3.204515
H        2.379305     2.096573    -4.954488
H       -0.204335     3.714194    -3.244346
H       -0.347762     3.220994    -4.969585
H       -1.435521     2.515073    -3.712202
H        0.586877     0.780006    -5.658314
H       -0.863702     0.435640    -4.680234
H        0.607042    -0.439065    -4.320960
H        2.598575    -1.076451     0.306342
H        4.557877    -2.249886     1.206991
H        4.056677    -3.801586     0.423808
H        5.688320    -3.092850     0.098740
H        5.359145    -2.992924    -2.329844
H        3.731949    -2.127517    -5.309213
H        4.964306    -0.833705    -5.018531
H        5.353147    -2.556456    -4.653734
H        2.601993    -0.177782    -3.909631
H       -2.017377    -0.625809     1.282897
H       -2.294789    -0.230776    -0.406952
H       -4.048978     0.042260     3.106473
H       -5.038014     1.403509     2.513521
H       -3.249513     1.553898     2.763208
H       -5.575477     1.553144     0.178758
H       -4.609937     0.766592    -1.104808
H       -4.009487     2.235372    -0.399869
H       -4.427332    -1.399020    -0.198752
H       -4.072994    -1.705364     1.521314
H       -5.624634    -0.918092     1.064134
H       -3.381931     3.090580     1.330908
H       -3.437373     6.575071     1.101441
H       -4.383869     5.145697     1.635205
H       -3.378145     6.051805     2.832961
H       -0.857312     6.478281     1.618450
H        2.193982     4.738251     1.710341
H        1.491882     6.332637     1.256872
H        1.897942     5.135625    -0.028370
H        0.829071     2.707396     0.568062
H       -0.608907    -1.367239    -1.231343
104
ex_0409 frame2 tetrahedral
C        1.288394    -0.424383     5.694899
C        1.936585     0.312219     4.553159
C        3.192072     0.881060     4.794417
C        3.856954     1.569362     3.787107
C        5.223284     2.143768     4.048992
C        3.246457     1.720055     2.539341
C        1.971639     1.172024     2.236444
N        1.383238     1.367615     0.916331
C        1.980570     2.263222    -0.070934
C        1.684642     3.789895     0.057890
C        2.205247     4.435549     1.358546
C        2.367247     4.468559    -1.145804
C        0.188420     4.051567    -0.025033
Nb       0.000000     0.000000     0.000000
Se      -1.472243    -1.472243     1.472243
N       -1.493470     1.189501    -0.987783
C       -2.277767     1.653087     0.155194
C       -3.431356     2.685511     0.185945
C       -3.040783     4.093003    -0.344723
C       -3.754167     2.894010     1.692942
C       -4.708234     2.082723    -0.452384
C       -1.503428     1.481544    -2.424128
C       -0.486483     0.962212    -3.271691
C       -0.457507     1.247947    -4.662516
C        0.619709     0.704551    -5.565280
C       -1.449086     2.054449    -5.225145
C       -2.468341     2.562843    -4.430166
C       -3.549861     3.420866    -5.030162
C       -2.489175     2.274434    -3.059958
N        0.969510    -1.458839    -1.246585
C       -0.190707    -2.233743    -1.669661
C       -0.210732    -3.345990    -2.720314
C        0.180018    -2.782207    -4.111686
C        0.568806    -4.593292    -2.220271
C       -1.692939    -3.792445    -2.840834
C        2.412001    -1.510277    -1.558694
C        3.020588    -2.379741    -2.508072
C        4.397918    -2.353404    -2.794658
C        5.003741    -3.298619    -3.796788
C        5.222163    -1.442729    -2.146751
C        4.689903    -0.585653    -1.187441
C        5.602534     0.390132    -0.487786
C        3.308174    -0.648135    -0.890205
C        1.328342     0.443921     3.271847
H        0.357970    -0.939858     5.387408
H        1.993477    -1.179002     6.111469
H        1.049655     0.296853     6.508204
H        3.664083     0.774260     5.767099
H        5.929995     1.322677     4.295323
H        5.185215     2.856108     4.899388
H        5.619625     2.681911     3.161159
H        3.813365     2.253670     1.803496
H        1.580078     1.935608    -1.053842
H        3.071699     2.110989    -0.145064
H        1.956889     5.519319     1.373787
H        1.724096     3.979261     2.250661
H        3.306025     4.354793     1.442884
H        3.465397     4.299221    -1.109352
H        2.178517     5.561768    -1.149483
H        1.983506     4.043793    -2.100123
H       -0.242370     3.558017    -0.919511
H       -0.292465     3.687607     0.900394
H       -0.019649     5.140370    -0.097212
H       -1.517155     1.990100     0.877084
H       -2.699515     0.739779     0.605527
H       -2.330704     4.585133     0.346027
H       -2.545498     4.138672    -1.322543
H       -3.934876     4.748017    -0.378124
H       -2.862797     3.289869     2.234760
H       -4.587070     3.609900     1.838683
H       -4.018346     1.931600     2.184903
H       -5.523536     2.834609    -0.460688
H       -5.050279     1.214634     0.151554
H       -4.597364     1.656358    -1.458022
H        0.302200     0.354780    -2.862719
H        1.624337     0.900799    -5.140813
H        0.478090    -0.383126    -5.714501
H        0.580985     1.176175    -6.574127
H       -1.437405     2.277556    -6.287506
H       -4.540881     2.951600    -4.853402
H       -3.535990     4.424876    -4.555976
H       -3.418152     3.550722    -6.126051
H       -3.298119     2.707343    -2.546999
H       -0.927158    -1.474407    -2.002989
H       -0.598201    -2.679396    -0.746669
H       -0.607911    -2.083601    -4.465654
H        0.275406    -3.601247    -4.852494
H        1.077831    -2.149317    -4.143240
H        0.562185    -5.384829    -2.997226
H        0.071063    -5.001874    -1.313452
H        1.598833    -4.437482    -1.874521
H       -2.079367    -4.159309    -1.863238
H       -2.342814    -2.936520    -3.135541
H       -1.813368    -4.595526    -3.594352
H        2.491221    -3.094667    -3.071950
H        5.804127    -3.895407    -3.308240
H        4.251232    -4.005029    -4.205925
H        5.445952    -2.726431    -4.639167
H        6.281628    -1.415223    -2.383456
H        5.270984     1.429933    -0.688114
H        6.651398     0.306660    -0.854050
H        5.605324     0.206221     0.605287
H        2.942796    -0.025189    -0.127730
H        0.359065     0.003069     3.103859
104
ex_0409 frame3 tetrahedral-conf4
C        2.087743     5.549260    -0.831627
C        2.538701     4.406482     0.043096
C        3.757210     4.527933     0.715414
C        4.211980     3.501502     1.531665
C        5.546066     3.631051     2.211456
C        3.424350     2.359657     1.711988
C        2.170305     2.178836     1.070849
N        1.384807     0.963191     1.333268
C        1.730456     0.052117     2.413342
C        1.301415     0.483709     3.864141
C        1.927588     1.809108     4.341863
C       -0.229179     0.626896     4.002517
C        1.772607    -0.647136     4.799481
Nb       0.000000     0.000000     0.000000
Se      -1.472243    -1.472243     1.472243
N       -1.311922     1.385518    -0.989774
C       -1.695101     2.195837     0.159778
C       -2.431961     3.547107     0.115380
C       -2.237753     4.178257     1.523167
C       -3.946073     3.294856    -0.067188
C       -1.809218     4.562860    -0.882252
C       -1.664392     1.361311    -2.416478
C       -2.649139     2.196300    -3.005174
C       -3.002033     2.120995    -4.360664
C       -4.083061     3.015583    -4.906438
C       -2.350614     1.219417    -5.193629
C       -1.382672     0.362605    -4.671466
C       -0.769549    -0.649959    -5.603235
C       -1.010661     0.466987    -3.305410
N        1.033105    -1.412842    -1.249724
C        0.526736    -2.733599    -1.744886
C       -0.898596    -3.377676    -1.664887
C       -0.802925    -4.786334    -2.332732
C       -1.369125    -3.629399    -0.226580
C       -1.916980    -2.566586    -2.481491
C        2.428538    -1.169689    -1.670157
C        3.182533    -2.160592    -2.392836
C        4.504415    -1.965102    -2.803107
C        5.240603    -3.025953    -3.581928
C        5.145104    -0.778047    -2.488049
C        4.465912     0.228040    -1.793289
C        5.207552     1.500407    -1.486000
C        3.113062     0.033426    -1.397867
C        1.760870     3.226764     0.194754
H        2.824458     6.385162    -0.830915
H        1.139014     5.969862    -0.443018
H        1.952352     5.213380    -1.878654
H        4.365513     5.419373     0.596831
H        6.339120     3.765151     1.444941
H        5.544613     4.508955     2.890475
H        5.792713     2.725957     2.806160
H        3.836770     1.603238     2.348949
H        2.802826    -0.213917     2.354648
H        1.209970    -0.899974     2.195192
H        1.607175     2.031565     5.383307
H        3.032482     1.756774     4.360737
H        1.589853     2.659661     3.712491
H       -0.737959    -0.326833     3.785963
H       -0.627370     1.423083     3.337658
H       -0.500899     0.883087     5.051053
H        1.523433    -0.430394     5.858476
H        2.873909    -0.778900     4.715914
H        1.291626    -1.609563     4.515402
H       -2.210584     1.520776     0.872859
H       -0.741961     2.390932     0.666961
H       -2.577257     3.479576     2.320147
H       -1.156730     4.375898     1.720208
H       -2.783643     5.136153     1.625065
H       -4.190817     2.486793    -0.776126
H       -4.474584     4.230751    -0.337377
H       -4.378875     2.907099     0.879029
H       -0.772730     4.802963    -0.585365
H       -2.385133     5.512506    -0.858446
H       -1.728396     4.254950    -1.930419
H       -3.204280     2.907104    -2.460424
H       -4.216875     2.884614    -6.002084
H       -3.838319     4.079988    -4.709758
H       -5.045916     2.767927    -4.409878
H       -2.637961     1.144244    -6.238460
H       -0.160253    -1.396517    -5.056701
H       -0.145473    -0.159569    -6.378967
H       -1.589580    -1.200986    -6.120758
H       -0.244931    -0.189089    -2.939160
H        0.693444    -2.719399    -2.847435
H        1.188047    -3.499170    -1.278237
H       -0.439577    -4.738301    -3.380904
H       -1.799064    -5.283619    -2.341646
H       -0.108635    -5.445285    -1.762420
H       -2.381336    -3.198169    -0.074874
H       -0.506255    -3.600666     0.474335
H       -1.665720    -4.689613    -0.073688
H       -1.623400    -2.550687    -3.555796
H       -1.976056    -1.538627    -2.091968
H       -2.930295    -3.014393    -2.426170
H        2.778630    -3.117457    -2.672963
H        6.139022    -3.359771    -3.022035
H        4.603667    -3.915143    -3.778761
H        5.560272    -2.614670    -4.563598
H        6.175109    -0.637863    -2.801554
H        6.264024     1.452904    -1.839447
H        4.721274     2.360133    -1.988282
H        5.238498     1.664426    -0.391950
H        2.604443     0.819591    -0.897386
H        0.853573     3.169258    -0.371015
104
ex_0409 frame4 see-saw N-Se-ax
C       -3.483021    -2.867352     4.394692
C       -2.162843    -2.101655     4.268912
C       -1.348907    -2.259883     5.379172
C       -0.166694    -1.578236     5.492762
C        0.614580    -1.775939     6.767585
C        0.264055    -0.741892     4.445812
C       -0.455491    -0.569264     3.218110
N        0.112648     0.288910     2.128439
C        1.271166     1.143460     2.430440
C        1.077909     2.498318     3.156826
C        0.515631     2.381270     4.587336
C        2.482111     3.141768     3.239385
C        0.162086     3.394628     2.328956
Nb       0.000000     0.000000     0.000000
Se       0.000000     0.000000    -2.550000
N        2.127835    -0.300861    -0.094647
C        2.516249     0.637937    -1.147044
C        3.831083     1.342811    -1.528793
C        4.374609     2.270221    -0.404871
C        3.447168     2.290069    -2.710513
C        4.836771     0.310689    -2.124283
C        2.994858    -0.869401     0.979534
C        2.498074    -1.710610     2.028144
C        3.347493    -2.141569     3.103088
C        2.872135    -2.956853     4.273642
C        4.697135    -1.810754     3.107545
C        5.229852    -1.060255     2.085949
C        6.700688    -0.724973     2.099540
C        4.398694    -0.618871     1.048839
N       -2.131431    -0.276814    -0.043846
C       -2.213933    -1.693891    -0.369952
C       -3.433869    -2.639058    -0.261811
C       -3.935520    -2.808499     1.174946
C       -4.538976    -2.278577    -1.270527
C       -2.887540    -4.045785    -0.636878
C       -3.076499     0.747097     0.448678
C       -4.445006     0.504805     0.746687
C       -5.302241     1.488932     1.273740
C       -6.737876     1.184854     1.620529
C       -4.828951     2.773688     1.484558
C       -3.512153     3.100807     1.163572
C       -3.084312     4.538170     1.376607
C       -2.637762     2.088421     0.657292
C       -1.705411    -1.274578     3.166683
H       -3.850504    -3.473317     3.568289
H       -3.401479    -3.670955     5.163989
H       -4.268876    -2.181765     4.767826
H       -1.658419    -2.890174     6.209732
H        0.900444    -2.849452     6.855373
H       -0.013242    -1.518443     7.647225
H        1.536286    -1.162184     6.792810
H        1.208296    -0.271658     4.620245
H        1.707853     1.425213     1.460799
H        2.057537     0.576396     2.951104
H        0.406552     3.390601     5.038682
H       -0.486740     1.903754     4.585368
H        1.200429     1.810437     5.246246
H        3.175181     2.482687     3.810721
H        2.447020     4.127026     3.745933
H        2.913061     3.284556     2.224621
H        0.469565     3.408318     1.259654
H       -0.862547     2.998830     2.415746
H        0.180201     4.438369     2.707338
H        1.776436     1.461432    -1.024225
H        2.372829     0.049905    -2.056478
H        3.797173     3.218351    -0.354518
H        4.279481     1.880164     0.620475
H        5.433671     2.531980    -0.609239
H        2.692629     3.045555    -2.384703
H        4.321927     2.831256    -3.116631
H        2.961596     1.724419    -3.539399
H        5.804559     0.796277    -2.353687
H        4.429308    -0.093353    -3.078208
H        5.007239    -0.608407    -1.543652
H        1.455401    -1.981569     2.054750
H        2.117773    -2.394235     4.802388
H        2.468871    -3.937599     3.968323
H        3.673296    -3.122646     5.033128
H        5.343109    -2.130912     3.920763
H        7.186431    -1.140279     1.192647
H        6.843190     0.375630     2.123213
H        7.217128    -1.155050     2.987171
H        4.919808    -0.037860     0.357660
H       -1.427518    -2.142027     0.277514
H       -1.835512    -1.781614    -1.404781
H       -3.069010    -3.212011     1.730058
H       -4.762433    -3.547281     1.225528
H       -4.276417    -1.933379     1.739491
H       -5.412595    -2.948065    -1.125421
H       -4.154567    -2.411777    -2.301531
H       -4.883032    -1.236487    -1.236176
H       -2.468923    -4.054032    -1.663399
H       -2.055355    -4.340175     0.049174
H       -3.673255    -4.823115    -0.552152
H       -4.901424    -0.428993     0.614191
H       -7.415403     1.862793     1.058204
H       -7.010564     0.137284     1.377285
H       -6.906974     1.343898     2.708498
H       -5.503714     3.525959     1.886977
H       -2.278923     4.632252     2.124513
H       -3.922580     5.166906     1.759598
H       -2.757254     4.981643     0.415469
H       -1.619188     2.350012     0.416425
H       -2.314567    -1.144280     2.308816
104
ex_0409 frame5 see-saw N-N-ax
C       -3.481997    -2.968247     4.519751
C       -2.115283    -2.330367     4.365893
C       -1.214506    -2.559245     5.404067
C        0.018663    -1.936496     5.416907
C        0.913920    -2.141779     6.606069
C        0.402051    -1.137705     4.334756
C       -0.455424    -0.885810     3.222805
N        0.000000     0.000000     2.150000
C        0.969524     1.075068     2.512323
C        0.837574     2.390472     3.343974
C        0.398662     2.179230     4.791967
C        2.271148     3.018664     3.347109
C       -0.092904     3.403412     2.664652
Nb       0.000000     0.000000     0.000000
Se       2.500481     0.000000     0.500096
N        0.000000     0.000000    -2.150000
C       -0.953536     1.128493    -2.258635
C       -1.633890     1.843072    -3.453099
C       -0.595965     2.579473    -4.330505
C       -2.549883     2.954584    -2.835419
C       -2.615633     0.896127    -4.204228
C        0.709629    -0.762275    -3.142932
C        1.687555    -1.697757    -2.773137
C        2.415456    -2.399966    -3.760582
C        3.496198    -3.357283    -3.367547
C        2.129186    -2.204038    -5.121467
C        1.131131    -1.312678    -5.501616
C        0.765717    -1.097553    -6.946821
C        0.452342    -0.600774    -4.519259
N       -2.117400    -0.349640     0.184008
C       -2.205365    -1.750593    -0.212423
C       -3.446537    -2.680622    -0.194742
C       -3.995886    -2.923534     1.221791
C       -4.514314    -2.247373    -1.220154
C       -2.916944    -4.072143    -0.640799
C       -3.066187     0.686711     0.620019
C       -4.437205     0.453042     0.891662
C       -5.311103     1.462859     1.331194
C       -6.759019     1.176437     1.629001
C       -4.843154     2.756637     1.498804
C       -3.516611     3.069790     1.207948
C       -3.099287     4.520076     1.351359
C       -2.625553     2.031938     0.795662
C       -1.713704    -1.531328     3.247243
H       -3.755202    -3.684632     3.735241
H       -3.548845    -3.570970     5.452806
H       -4.246648    -2.168869     4.591148
H       -1.497727    -3.171275     6.254061
H        1.175327    -3.215216     6.713095
H        0.370812    -1.814547     7.520254
H        1.847396    -1.547214     6.530291
H        1.374838    -0.691977     4.418384
H        1.123837     1.606789     1.562964
H        1.882048     0.585848     2.905673
H        0.387682     3.160937     5.318647
H       -0.623016     1.750965     4.823374
H        1.105187     1.513615     5.326177
H        2.999760     2.343024     3.850424
H        2.304731     3.997163     3.867038
H        2.646800     3.175948     2.308250
H        0.186063     3.572909     1.596900
H       -1.118086     3.015806     2.732771
H       -0.031501     4.397080     3.159859
H       -0.484380     1.934256    -1.652468
H       -1.834491     0.791071    -1.723065
H       -0.221379     3.482785    -3.799813
H        0.318720     2.006425    -4.540990
H       -1.060794     2.913112    -5.280764
H       -1.962408     3.669308    -2.215192
H       -3.085087     3.534256    -3.615138
H       -3.316421     2.518496    -2.152408
H       -3.056260     1.420233    -5.078151
H       -3.457860     0.616409    -3.530986
H       -2.226446    -0.076030    -4.531294
H        1.911914    -1.853986    -1.727962
H        4.186944    -2.865259    -2.651888
H        3.046334    -4.256568    -2.901560
H        4.091236    -3.672033    -4.253048
H        2.670943    -2.751065    -5.883523
H       -0.309273    -1.343950    -7.095521
H        0.923025    -0.034004    -7.226704
H        1.364436    -1.739024    -7.625532
H       -0.267208     0.071324    -4.887112
H       -1.441161    -2.247301     0.423589
H       -1.802332    -1.780508    -1.246217
H       -3.163876    -3.372151     1.791915
H       -4.833604    -3.649361     1.205704
H       -4.342291    -2.071805     1.816342
H       -5.393787    -2.922046    -1.154005
H       -4.095987    -2.318353    -2.245979
H       -4.861223    -1.209319    -1.130877
H       -2.476118    -4.030211    -1.658337
H       -2.109372    -4.424061     0.045500
H       -3.721261    -4.835264    -0.624433
H       -4.886982    -0.485687     0.773624
H       -7.407241     1.830912     1.007256
H       -7.023833     0.119798     1.417844
H       -6.971481     1.383062     2.700439
H       -5.532116     3.528663     1.831508
H       -2.325936     4.678198     2.118384
H       -3.952769     5.164752     1.664588
H       -2.736200     4.904074     0.377599
H       -1.598852     2.282110     0.575426
H       -2.402835    -1.320291     2.467722
104
ex_0409 frame6 trans-conf2
C        6.717499     1.397064    -1.464732
C        5.394215     0.750368    -1.796047
C        5.135433     0.285031    -3.072543
C        3.883516    -0.261721    -3.377651
C        3.659376    -0.757443    -4.773452
C        2.873864    -0.336387    -2.388907
C        3.125654     0.083200    -1.076541
N        2.150000     0.000000     0.000000
C        2.528296     0.274187     1.422131
C        3.344039    -0.745381     2.305055
C        3.507280    -0.097404     3.708326
C        4.751986    -1.070428     1.776895
C        2.585042    -2.047902     2.495601
Nb       0.000000     0.000000     0.000000
Se      -2.550000     0.000000     0.000000
N        0.000000     2.150000     0.000000
C       -1.370988     2.707041    -0.159507
C       -1.843681     3.037044    -1.605674
C       -1.510414     1.944509    -2.634912
C       -1.172071     4.354547    -2.053032
C       -3.375912     3.262383    -1.567193
C        0.970425     3.196933     0.447283
C        2.354521     3.104451     0.291899
C        3.262966     4.060613     0.806873
C        4.744634     3.841954     0.720816
C        2.790499     5.224515     1.404110
C        1.432904     5.429964     1.523291
C        0.924967     6.725175     2.109095
C        0.552019     4.430409     1.097382
N        0.000000    -2.150000     0.000000
C       -0.548799    -2.536743     1.327645
C       -1.790059    -3.509934     1.497875
C       -3.100977    -2.946578     0.935279
C       -1.998299    -3.692209     3.025951
C       -1.579062    -4.903804     0.882972
C        0.683221    -3.127267    -0.813788
C        0.840112    -3.000428    -2.200432
C        1.516193    -4.006594    -2.937667
C        1.707840    -3.908604    -4.415597
C        2.029933    -5.135601    -2.291072
C        1.871630    -5.285543    -0.912283
C        2.374822    -6.504595    -0.171952
C        1.231295    -4.283645    -0.194515
C        4.415581     0.615200    -0.814257
H        7.553795     0.692040    -1.646708
H        6.851882     2.297962    -2.101376
H        6.765906     1.727882    -0.403257
H        5.902894     0.365289    -3.834773
H        3.813445     0.068274    -5.497926
H        4.392697    -1.566528    -4.989226
H        2.638853    -1.161241    -4.900335
H        1.914416    -0.714919    -2.645486
H        1.566548     0.436194     1.956642
H        3.071972     1.213621     1.534514
H        2.515146     0.130542     4.159744
H        4.071194     0.858679     3.641670
H        4.051941    -0.768513     4.406817
H        5.262264    -1.784737     2.459342
H        5.393205    -0.167036     1.759259
H        4.702284    -1.540649     0.773786
H        1.625485    -1.823986     3.003076
H        2.437870    -2.537524     1.516246
H        3.145276    -2.744674     3.157098
H       -1.618551     3.610737     0.358394
H       -2.058313     2.253975     0.539150
H       -2.014996     0.988832    -2.419856
H       -1.853988     2.261662    -3.643376
H       -0.415241     1.771272    -2.678751
H       -1.537335     4.658950    -3.057883
H       -1.416352     5.180734    -1.347273
H       -0.068593     4.245357    -2.091226
H       -3.901059     2.337520    -1.247201
H       -3.767493     3.551079    -2.564848
H       -3.645820     4.065527    -0.844701
H        2.714535     2.216048    -0.205625
H        5.309385     4.684029     1.179628
H        5.000481     2.934410     1.308529
H        5.066115     3.722924    -0.331093
H        3.479291     5.978243     1.771737
H       -0.185598     6.783515     2.106776
H        1.279012     6.844281     3.152378
H        1.296809     7.577746     1.499037
H       -0.445806     4.727532     1.321809
H       -0.810253    -1.589579     1.845162
H        0.242702    -2.972751     1.936334
H       -3.941667    -3.653815     1.108517
H       -3.021856    -2.774107    -0.157460
H       -3.383392    -2.023269     1.479096
H       -1.098090    -4.142082     3.499067
H       -2.865631    -4.351179     3.245461
H       -2.182386    -2.711509     3.519424
H       -0.723021    -5.427197     1.351531
H       -2.469723    -5.543606     1.069727
H       -1.443318    -4.834801    -0.215216
H        0.405646    -2.155376    -2.710783
H        1.242456    -4.791029    -4.903996
H        2.795938    -3.905151    -4.646838
H        1.244743    -2.991303    -4.825956
H        2.542386    -5.910576    -2.849111
H        3.098342    -6.202014     0.611081
H        2.861468    -7.226650    -0.857396
H        1.513405    -7.007788     0.314119
H        1.165650    -4.453108     0.862167
H        4.665419     0.996720     0.149697
