106
ex_0360 frame0 tetrahedral-conf5
N        2.314178     2.923095     2.118466
C        2.088143     1.810145     1.882145
S        1.806713     0.085860     1.578004
Ag       0.000000     0.000000     0.000000
Sb      -1.639675    -1.639675     1.639675
C       -1.774919    -3.722272     1.108573
C       -0.915031    -4.175907     0.120093
C       -0.955678    -5.491968    -0.326071
C       -1.875589    -6.377445     0.225139
C       -2.729780    -5.944654     1.246784
C       -2.673488    -4.617497     1.705065
C       -0.861436    -1.711194     3.638788
C       -0.878445    -2.895618     4.384270
C       -0.292648    -2.923076     5.657063
C        0.286057    -1.765804     6.191130
C        0.267857    -0.575637     5.460427
C       -0.328514    -0.543611     4.198223
C       -3.645710    -0.859533     1.770277
C       -4.748111    -1.687324     2.019215
C       -6.037440    -1.146563     2.054237
C       -6.228605     0.222302     1.857866
C       -5.129826     1.051626     1.634974
C       -3.840993     0.514789     1.599921
Sb      -1.639675     1.639675    -1.639675
C       -2.892011     3.134789    -0.701588
C       -2.307373     4.115874     0.111738
C       -3.101457     5.080410     0.737469
C       -4.485918     5.069823     0.554525
C       -5.074722     4.098198    -0.260530
C       -4.279792     3.135709    -0.896043
C       -3.125921     0.545191    -2.775985
C       -3.146101     0.573322    -4.176946
C       -4.088004    -0.188340    -4.878503
C       -5.031083    -0.952915    -4.185412
C       -5.033550    -0.957566    -2.788951
C       -4.086979    -0.206672    -2.088462
C       -0.517376     2.914036    -3.030329
C       -0.094287     2.416441    -4.267519
C        0.672932     3.209870    -5.128766
C        1.004505     4.515219    -4.768854
C        0.560171     5.032421    -3.551294
C       -0.212801     4.242192    -2.691661
Sb       1.639675    -1.639675    -1.639675
C        2.532693    -0.846626    -3.430652
C        3.923437    -0.762943    -3.598362
C        4.450699    -0.164297    -4.749206
C        3.595513     0.319293    -5.743805
C        2.213836     0.186350    -5.596666
C        1.689943    -0.406393    -4.446810
C        0.650728    -3.275662    -2.633453
C        1.352559    -4.417894    -3.033806
C        0.660100    -5.485500    -3.624542
C       -0.723151    -5.401077    -3.833225
C       -1.415870    -4.245400    -3.464279
C       -0.727768    -3.181236    -2.878710
C        3.351409    -2.444358    -0.608510
C        3.370798    -3.779300    -0.189537
C        4.482639    -4.275749     0.503635
C        5.584003    -3.448478     0.752865
C        5.570233    -2.119988     0.322773
C        4.457119    -1.620397    -0.355218
H       -0.211326    -3.480346    -0.288321
H       -0.278604    -5.820952    -1.098388
H       -1.914847    -7.396449    -0.136130
H       -3.434041    -6.640767     1.679241
H       -3.327527    -4.316476     2.500883
H       -1.298504    -3.800709     3.973644
H       -0.271995    -3.844003     6.224532
H        0.756166    -1.791881     7.165939
H        0.728305     0.317800     5.863682
H       -0.318730     0.375524     3.626959
H       -4.640121    -2.739494     2.160633
H       -6.889716    -1.790190     2.227242
H       -7.226203     0.640841     1.875270
H       -5.281150     2.107568     1.484570
H       -2.993728     1.160097     1.409023
H       -1.238808     4.123589     0.277178
H       -2.643870     5.831026     1.369547
H       -5.101745     5.809738     1.049611
H       -6.149029     4.083638    -0.389515
H       -4.753594     2.387736    -1.511695
H       -2.435380     1.148835    -4.736407
H       -4.083648    -0.190468    -5.960780
H       -5.757357    -1.542813    -4.729465
H       -5.762336    -1.548379    -2.248906
H       -4.086078    -0.227721    -1.010480
H       -0.321272     1.411446    -4.554514
H        1.022464     2.813931    -6.072164
H        1.610390     5.121491    -5.430715
H        0.825224     6.043198    -3.269377
H       -0.521979     4.663692    -1.754953
H        4.607250    -1.117629    -2.851840
H        5.522076    -0.065820    -4.866051
H        4.001412     0.794648    -6.627158
H        1.547483     0.551687    -6.365644
H        0.622955    -0.507092    -4.318310
H        2.415974    -4.497293    -2.859287
H        1.189322    -6.386341    -3.904621
H       -1.260668    -6.232811    -4.270661
H       -2.486406    -4.178885    -3.615706
H       -1.272052    -2.294768    -2.576240
H        2.518257    -4.420357    -0.365573
H        4.490590    -5.299443     0.853196
H        6.444272    -3.832032     1.286177
H        6.417529    -1.474782     0.519192
H        4.447832    -0.583905    -0.666948
106
ex_0360 frame1 tetrahedral-conf3
N        2.920208     2.586271     1.986199
C        1.922207     1.996804     1.988710
S        0.382906     1.119489     2.088967
Ag       0.000000     0.000000     0.000000
Sb      -1.639675    -1.639675     1.639675
C       -0.700781    -2.530117     3.348350
C        0.579170    -3.074793     3.197971
C        1.233181    -3.658148     4.281821
C        0.605795    -3.700031     5.528571
C       -0.676773    -3.159773     5.685480
C       -1.334970    -2.576497     4.594711
C       -2.347886    -3.470313     0.715533
C       -3.559126    -3.473686     0.052795
C       -3.988504    -4.608817    -0.637898
C       -3.214293    -5.767376    -0.616741
C       -2.012851    -5.786849     0.095334
C       -1.590052    -4.642832     0.785480
C       -3.212132    -0.352802     2.411494
C       -3.063801     0.258603     3.662109
C       -4.028646     1.164601     4.118522
C       -5.166213     1.426077     3.349396
C       -5.340787     0.780634     2.124741
C       -4.379958    -0.125305     1.669530
Sb      -1.639675     1.639675    -1.639675
C       -0.738625     2.405953    -3.420501
C       -0.580827     1.571929    -4.528043
C        0.066985     2.040743    -5.674315
C        0.532845     3.358343    -5.722482
C        0.343245     4.207118    -4.626620
C       -0.307349     3.736781    -3.480620
C       -2.281877     3.442389    -0.700547
C       -1.393981     4.098370     0.160125
C       -1.779210     5.266411     0.816109
C       -3.053632     5.794468     0.599548
C       -3.941040     5.149057    -0.272051
C       -3.555750     3.970934    -0.927481
C       -3.365506     0.584529    -2.375689
C       -4.158941     1.072226    -3.420042
C       -5.271053     0.323652    -3.850778
C       -5.595348    -0.884843    -3.228968
C       -4.805833    -1.359151    -2.196531
C       -3.689093    -0.630789    -1.775280
Sb       1.639675    -1.639675    -1.639675
C        0.544401    -2.481970    -3.307373
C       -0.089743    -3.726271    -3.190338
C       -0.859100    -4.223511    -4.247917
C       -0.963525    -3.500519    -5.439423
C       -0.299646    -2.278753    -5.573223
C        0.466485    -1.780444    -4.515505
C        2.556789    -3.295666    -0.617131
C        3.945933    -3.381884    -0.467424
C        4.499784    -4.447026     0.259061
C        3.670577    -5.434517     0.806485
C        2.288874    -5.360623     0.625356
C        1.744366    -4.298583    -0.096220
C        3.355941    -0.646814    -2.491505
C        3.686441    -0.794851    -3.845303
C        4.773042    -0.092934    -4.379800
C        5.545257     0.736584    -3.560692
C        5.236188     0.860457    -2.203627
C        4.151120     0.160504    -1.668099
H        1.069440    -3.034535     2.236055
H        2.224992    -4.073120     4.152609
H        1.114356    -4.150571     6.370553
H       -1.159386    -3.194540     6.652735
H       -2.326600    -2.171355     4.726502
H       -4.139098    -2.583147     0.045595
H       -4.919081    -4.590114    -1.188053
H       -3.547214    -6.644557    -1.151147
H       -1.412305    -6.686499     0.111375
H       -0.661444    -4.672010     1.330456
H       -2.169328     0.100270     4.246477
H       -3.885175     1.680477     5.058442
H       -5.904525     2.139122     3.693139
H       -6.211587     0.995461     1.517398
H       -4.531710    -0.575386     0.712085
H       -0.934777     0.553364    -4.482966
H        0.216301     1.380667    -6.518974
H        1.044646     3.719330    -6.605169
H        0.711787     5.224224    -4.660627
H       -0.428093     4.392510    -2.629583
H       -0.408052     3.685825     0.334939
H       -1.090440     5.756355     1.493195
H       -3.351516     6.700919     1.110011
H       -4.927319     5.561809    -0.434325
H       -4.245504     3.471918    -1.593657
H       -3.912170     2.001630    -3.908163
H       -5.888535     0.668884    -4.665286
H       -6.452747    -1.468653    -3.540435
H       -5.085488    -2.292993    -1.746814
H       -3.056599    -0.993875    -0.979817
H       -0.047427    -4.287835    -2.275054
H       -1.386398    -5.162517    -4.138508
H       -1.567355    -3.880587    -6.253459
H       -0.390859    -1.710043    -6.489807
H        0.949745    -0.821053    -4.620052
H        4.592417    -2.615131    -0.867534
H        5.569318    -4.503239     0.409334
H        4.094705    -6.251923     1.375423
H        1.638683    -6.115059     1.051555
H        0.685909    -4.221270    -0.224955
H        3.105549    -1.427356    -4.494766
H        5.013005    -0.186251    -5.431004
H        6.380432     1.284925    -3.977436
H        5.830439     1.506112    -1.569586
H        3.904777     0.274237    -0.620159
106
ex_0360 frame2 see-saw S-Sb-ax-conf2
N        0.482825     0.050568     4.639149
C        0.348318    -0.443420     3.593745
S        0.135053    -1.297917     2.015490
Ag       0.000000     0.000000     0.000000
Sb       0.000000     0.000000    -2.840000
C       -0.846650     1.853426    -3.561988
C       -2.020273     1.897948    -4.324607
C       -2.536117     3.132673    -4.738459
C       -1.874521     4.320116    -4.408880
C       -0.695514     4.276340    -3.663946
C       -0.184136     3.047581    -3.246524
C        1.719832    -0.103393    -4.174332
C        1.917829    -1.189962    -5.045794
C        3.080026    -1.258914    -5.826500
C        4.028336    -0.235840    -5.764596
C        3.803572     0.866384    -4.942647
C        2.646113     0.934332    -4.162621
C       -0.952926    -1.851191    -3.449601
C       -2.249285    -1.871979    -3.955042
C       -2.853484    -3.085256    -4.300064
C       -2.150620    -4.282946    -4.167290
C       -0.839053    -4.268297    -3.690151
C       -0.242586    -3.056095    -3.330360
Sb       2.784849     0.000000     0.556970
C        3.521077    -2.000919     0.881409
C        4.223237    -2.671566    -0.129756
C        4.634999    -3.993973     0.061003
C        4.370429    -4.641159     1.270890
C        3.698051    -3.963808     2.292440
C        3.297870    -2.636148     2.108098
C        3.357895     1.224193     2.249949
C        4.702499     1.440559     2.574464
C        5.030284     2.223592     3.694205
C        4.019797     2.766012     4.498780
C        2.681626     2.559351     4.165721
C        2.358216     1.809723     3.033783
C        4.174210     0.939314    -0.786071
C        5.425423     0.372392    -1.061910
C        6.276659     0.980202    -1.991209
C        5.891083     2.163957    -2.626474
C        4.660393     2.750241    -2.321275
C        3.810538     2.143593    -1.392839
Sb      -2.784849     0.000000     0.556970
C       -3.630233     1.970118     0.842484
C       -3.123205     2.784464     1.860975
C       -3.609446     4.085056     2.029644
C       -4.617925     4.569606     1.191761
C       -5.149722     3.749002     0.194987
C       -4.671736     2.446256     0.031279
C       -4.026602    -0.912302    -0.966576
C       -4.470803    -2.233238    -0.814485
C       -5.274931    -2.824750    -1.791398
C       -5.650309    -2.095679    -2.921766
C       -5.203380    -0.781878    -3.084594
C       -4.392591    -0.191373    -2.109372
C       -3.563491    -0.981537     2.378052
C       -2.826614    -0.870485     3.546858
C       -3.158994    -1.586275     4.695140
C       -4.308076    -2.371847     4.704332
C       -5.125651    -2.415588     3.567812
C       -4.766323    -1.709416     2.403181
H       -2.551093     1.011104    -4.594872
H       -3.451875     3.170314    -5.313077
H       -2.274933     5.273490    -4.727557
H       -0.179867     5.192153    -3.403661
H        0.722070     3.025297    -2.656971
H        1.214327    -1.998149    -5.116763
H        3.253007    -2.109221    -6.473341
H        4.934905    -0.292063    -6.353690
H        4.532797     1.661667    -4.906220
H        2.472595     1.778681    -3.525934
H       -2.802706    -0.970425    -4.053035
H       -3.869829    -3.100441    -4.665766
H       -2.624043    -5.219103    -4.432378
H       -0.288093    -5.194717    -3.595042
H        0.772444    -3.053000    -2.953998
H        4.395239    -2.204057    -1.087909
H        5.141872    -4.523034    -0.735968
H        4.673438    -5.670817     1.410904
H        3.474273    -4.472345     3.221146
H        2.759152    -2.128449     2.895306
H        5.487502     1.021946     1.961640
H        6.065680     2.408603     3.945463
H        4.269430     3.352982     5.374232
H        1.893955     2.978362     4.781499
H        1.322980     1.680846     2.766558
H        5.744804    -0.535756    -0.580172
H        7.230880     0.528515    -2.227323
H        6.538756     2.621707    -3.362698
H        4.350236     3.657496    -2.824155
H        2.844376     2.583946    -1.180623
H       -2.328814     2.420390     2.499237
H       -3.197040     4.720959     2.801517
H       -4.986210     5.579973     1.312247
H       -5.928191     4.123905    -0.457663
H       -5.106153     1.848368    -0.742888
H       -4.171226    -2.819882     0.041174
H       -5.598551    -3.851024    -1.676094
H       -6.262814    -2.557858    -3.684502
H       -5.463871    -0.228235    -3.976985
H       -4.023063     0.810668    -2.269222
H       -1.971568    -0.255234     3.532491
H       -2.517273    -1.538310     5.567527
H       -4.563321    -2.936580     5.593184
H       -6.026985    -3.013390     3.589853
H       -5.409206    -1.775292     1.544009
106
ex_0360 frame3 trans
N        4.391520    -0.185770    -0.515614
C        3.443737    -0.068545     0.143267
S        2.051669     0.121227     1.240895
Ag       0.000000     0.000000     0.000000
Sb      -2.840000     0.000000     0.000000
C       -3.863094    -1.380586    -1.296189
C       -3.213440    -1.828405    -2.451338
C       -3.810671    -2.798038    -3.259044
C       -5.072106    -3.298720    -2.933854
C       -5.748154    -2.812095    -1.810954
C       -5.157184    -1.833433    -1.003871
C       -3.749524    -0.322159     1.920770
C       -2.951441    -0.782237     2.976637
C       -3.502254    -0.976297     4.244728
C       -4.860080    -0.727555     4.458125
C       -5.664249    -0.281855     3.402377
C       -5.111555    -0.082104     2.130679
C       -4.010111     1.799337    -0.778193
C       -5.112365     1.666308    -1.639231
C       -5.733250     2.826737    -2.162515
C       -5.294786     4.107416    -1.795891
C       -4.242614     4.236142    -0.909806
C       -3.642884     3.093731    -0.403816
Sb       0.000000     2.840000     0.000000
C        2.024849     3.427211     0.382649
C        2.984430     3.251258    -0.620710
C        4.321518     3.572167    -0.380113
C        4.700240     4.091988     0.860102
C        3.738663     4.295568     1.856583
C        2.395876     3.979975     1.613807
C       -1.246098     3.662067     1.685370
C       -1.068088     4.952316     2.188152
C       -1.961115     5.434736     3.168882
C       -2.979109     4.615607     3.675188
C       -3.115851     3.313893     3.210781
C       -2.236956     2.839294     2.245656
C       -0.477712     3.795307    -1.920140
C       -1.629426     3.400073    -2.609075
C       -2.009878     3.999239    -3.805163
C       -1.213084     4.997419    -4.354713
C       -0.028228     5.376112    -3.707643
C        0.335593     4.790143    -2.478789
Sb       0.000000    -2.840000     0.000000
C       -1.537658    -3.952547     1.094048
C       -2.862805    -3.749567     0.753117
C       -3.907176    -4.352736     1.442480
C       -3.617223    -5.223587     2.487443
C       -2.280818    -5.483873     2.823435
C       -1.232840    -4.857561     2.120934
C        1.802325    -3.524803     0.948539
C        2.876186    -4.005516     0.191752
C        4.058920    -4.396103     0.832405
C        4.154101    -4.343714     2.227731
C        3.070762    -3.891885     2.984667
C        1.897428    -3.486843     2.345995
C       -0.108642    -3.684077    -1.980173
C        0.911278    -3.431194    -2.906516
C        0.807280    -3.919433    -4.214267
C       -0.303651    -4.679399    -4.591557
C       -1.302361    -4.964754    -3.657499
C       -1.195734    -4.486104    -2.347503
H       -2.217595    -1.473476    -2.685897
H       -3.285463    -3.178226    -4.123918
H       -5.519004    -4.070553    -3.546794
H       -6.721835    -3.208107    -1.555975
H       -5.679134    -1.491611    -0.127248
H       -1.896395    -0.967664     2.816989
H       -2.875711    -1.313599     5.061180
H       -5.286153    -0.875086     5.442252
H       -6.714059    -0.085103     3.573432
H       -5.735952     0.278396     1.325957
H       -5.453735     0.702915    -1.969430
H       -6.540990     2.745586    -2.873409
H       -5.742124     5.003266    -2.209554
H       -3.851790     5.214199    -0.639708
H       -2.810531     3.258092     0.154987
H        2.697237     2.830147    -1.575725
H        5.063426     3.405941    -1.150698
H        5.739156     4.328039     1.050390
H        4.037728     4.685411     2.820609
H        1.667023     4.116349     2.398887
H       -0.289929     5.594203     1.808162
H       -1.870285     6.444256     3.542083
H       -3.663395     4.982867     4.425605
H       -3.897651     2.667883     3.592049
H       -2.354221     1.842113     1.900618
H       -2.216326     2.590087    -2.249789
H       -2.917571     3.677359    -4.304574
H       -1.508416     5.457345    -5.289757
H        0.602208     6.125922    -4.164053
H        1.251078     5.090793    -1.993453
H       -3.061848    -3.094200    -0.032762
H       -4.932814    -4.134445     1.167033
H       -4.428355    -5.691184     3.030694
H       -2.063886    -6.163517     3.635145
H       -0.215786    -5.063629     2.404339
H        2.820322    -4.035065    -0.885142
H        4.905537    -4.731453     0.248359
H        5.068198    -4.645186     2.722600
H        3.141864    -3.846129     4.064144
H        1.068204    -3.119306     2.937198
H        1.761338    -2.822064    -2.631058
H        1.578561    -3.696193    -4.940088
H       -0.396338    -5.038546    -5.608722
H       -2.171551    -5.538183    -3.954045
H       -1.990697    -4.691013    -1.647784
106
ex_0360 frame4 tetrahedral-conf4
N        2.815983     3.097054     3.083894
C        2.353101     2.282321     2.388740
S        1.782310     0.919201     1.316293
Ag       0.000000     0.000000     0.000000
Sb      -1.639675    -1.639675     1.639675
C       -2.498839    -0.793168     3.425633
C       -3.364993    -1.531882     4.238439
C       -3.915230    -0.943286     5.385352
C       -3.591882     0.375813     5.726045
C       -2.718722     1.110215     4.920558
C       -2.176693     0.527526     3.772195
C       -0.542087    -3.279235     2.475311
C       -0.609482    -4.562368     1.923235
C        0.211601    -5.580610     2.419429
C        1.029412    -5.337875     3.527333
C        1.037979    -4.073916     4.124701
C        0.254391    -3.047915     3.595957
C       -3.338110    -2.344660     0.521650
C       -3.146839    -2.798220    -0.781954
C       -4.231691    -3.249973    -1.534442
C       -5.514637    -3.226460    -1.005886
C       -5.714231    -2.784105     0.300979
C       -4.625404    -2.357185     1.073871
Sb      -1.639675     1.639675    -1.639675
C       -0.528916     2.737299    -3.127864
C       -0.092597     4.043890    -2.867817
C        0.654187     4.738882    -3.829077
C        0.947737     4.139033    -5.056524
C        0.499647     2.844970    -5.321147
C       -0.240777     2.144384    -4.360672
C       -2.728866     3.178890    -0.631591
C       -2.849648     3.144114     0.769288
C       -3.552627     4.152400     1.438653
C       -4.132405     5.193937     0.708310
C       -4.012114     5.222761    -0.686165
C       -3.316899     4.211801    -1.354206
C       -3.129575     0.553210    -2.711544
C       -4.395486     1.093950    -2.941990
C       -5.368399     0.332017    -3.601209
C       -5.063648    -0.952958    -4.060067
C       -3.782169    -1.469905    -3.869436
C       -2.819875    -0.724670    -3.187537
Sb       1.639675    -1.639675    -1.639675
C        2.208988    -0.591984    -3.420879
C        3.333463     0.236809    -3.395096
C        3.710499     0.949855    -4.532623
C        2.975291     0.818628    -5.712339
C        1.850617    -0.013913    -5.746658
C        1.470659    -0.727730    -4.604609
C        3.484324    -2.312865    -0.751985
C        3.472039    -2.827545     0.553125
C        4.666468    -3.229890     1.161435
C        5.871687    -3.143525     0.458101
C        5.882964    -2.650165    -0.850404
C        4.690574    -2.243291    -1.458845
C        0.688682    -3.466082    -2.252850
C        0.768741    -3.958259    -3.557018
C        0.098517    -5.147194    -3.890410
C       -0.636284    -5.842926    -2.920909
C       -0.704092    -5.348675    -1.620379
C       -0.026548    -4.166763    -1.301544
H       -3.616114    -2.551690     3.984368
H       -4.592537    -1.508145     6.011473
H       -4.014350     0.828778     6.614262
H       -2.462211     2.129226     5.185277
H       -1.498029     1.101842     3.155031
H       -1.243659    -4.760275     1.078116
H        0.219192    -6.553066     1.941938
H        1.655455    -6.126172     3.922874
H        1.660934    -3.881121     4.986654
H        0.286145    -2.059177     4.034012
H       -2.165013    -2.762879    -1.222435
H       -4.093496    -3.613866    -2.535085
H       -6.347042    -3.550262    -1.616934
H       -6.713786    -2.777693     0.709650
H       -4.800719    -2.020035     2.077693
H       -0.303408     4.510694    -1.915920
H        1.008938     5.740610    -3.624889
H        1.524942     4.671711    -5.802669
H        0.735506     2.387678    -6.272017
H       -0.569002     1.134556    -4.563217
H       -2.400583     2.341457     1.340321
H       -3.647507     4.130794     2.519093
H       -4.672696     5.979269     1.220706
H       -4.454099     6.029121    -1.252508
H       -3.216376     4.234202    -2.429065
H       -4.635551     2.083621    -2.591027
H       -6.358482     0.735677    -3.755856
H       -5.818004    -1.550643    -4.556859
H       -3.540111    -2.461822    -4.226878
H       -1.844810    -1.157772    -2.993233
H        3.892466     0.358737    -2.477621
H        4.567003     1.609350    -4.493319
H        3.262425     1.380329    -6.591475
H        1.260644    -0.083870    -6.652097
H        0.573982    -1.331786    -4.635188
H        2.545097    -2.879699     1.111073
H        4.660347    -3.601134     2.179056
H        6.796919    -3.454060     0.927202
H        6.817021    -2.577955    -1.392044
H        4.718314    -1.859617    -2.465836
H        1.328239    -3.431588    -4.309088
H        0.145085    -5.529406    -4.899253
H       -1.155709    -6.759546    -3.173123
H       -1.285798    -5.880063    -0.876447
H       -0.058878    -3.721602    -0.332143
106
ex_0360 frame5 
N        1.175007    -0.299194     4.372099
C        1.216758    -0.994251     3.453014
S        1.297073    -2.070400     2.090535
Ag       0.399305    -0.564091     0.451442
Sb       1.639273     1.963893     0.822086
C        3.738190     1.549199     1.094575
C        4.601224     1.663796     0.013388
C        5.928011     1.254422     0.147437
C        6.396253     0.803610     1.381330
C        5.542463     0.760757     2.481452
C        4.214145     1.170710     2.346834
C        1.397859     3.318516    -0.783579
C        0.254014     3.238085    -1.592457
C        0.028837     4.204586    -2.574939
C        0.966684     5.220654    -2.771315
C        2.141926     5.245937    -2.013366
C        2.365540     4.280096    -1.034081
C        0.823330     3.282102     2.259778
C        1.496763     3.581383     3.444958
C        0.865570     4.376465     4.409985
C       -0.410144     4.901493     4.165619
C       -1.043891     4.655325     2.947196
C       -0.420624     3.855516     1.996048
Sb      -2.334917    -0.676800     1.211000
C       -3.555115     0.757280     0.211906
C       -4.171200     1.797765     0.909031
C       -5.013589     2.685413     0.251199
C       -5.194148     2.575985    -1.127151
C       -4.539837     1.568057    -1.840644
C       -3.737107     0.647053    -1.167951
C       -3.268241    -2.521510     0.866028
C       -4.529059    -2.548707     0.296685
C       -5.248666    -3.737839     0.311927
C       -4.652889    -4.904828     0.775915
C       -3.337504    -4.882686     1.224661
C       -2.617897    -3.693554     1.209420
C       -2.726285    -0.778904     3.313393
C       -3.611399     0.086416     3.933903
C       -3.721907     0.072572     5.321670
C       -2.997636    -0.856188     6.067982
C       -2.165923    -1.767861     5.430028
C       -2.061689    -1.747407     4.049646
Sb       0.958417    -1.675793    -2.101422
C        2.151784    -3.415868    -2.111097
C        2.936037    -3.736208    -3.207749
C        3.649390    -4.938796    -3.198947
C        3.687568    -5.736435    -2.046097
C        2.943391    -5.377666    -0.929353
C        2.145712    -4.250064    -0.994463
C        1.888764    -0.341786    -3.508935
C        3.274785    -0.193887    -3.503722
C        3.882439     0.714436    -4.375684
C        3.116321     1.385943    -5.332198
C        1.736065     1.202695    -5.372885
C        1.122548     0.381140    -4.431388
C       -0.647325    -2.622781    -3.158326
C       -1.090351    -2.126799    -4.372183
C       -2.220854    -2.658708    -4.968872
C       -2.866175    -3.740701    -4.381888
C       -2.377107    -4.288075    -3.197213
C       -1.237583    -3.746433    -2.602303
H        4.247261     2.010220    -0.941198
H        6.590812     1.287287    -0.705034
H        7.420775     0.487394     1.485247
H        5.907921     0.410760     3.437303
H        3.565518     1.132621     3.204037
H       -0.487707     2.468699    -1.425059
H       -0.878390     4.183010    -3.166113
H        0.778487     5.995139    -3.500458
H        2.869765     6.027844    -2.162414
H        3.257116     4.312780    -0.427711
H        2.475269     3.173434     3.640618
H        1.360523     4.583736     5.347936
H       -0.905792     5.505889     4.912156
H       -2.017090     5.077010     2.736209
H       -0.913536     3.656278     1.055391
H       -4.017845     1.895576     1.973604
H       -5.515171     3.461079     0.814280
H       -5.825649     3.282232    -1.643125
H       -4.659468     1.496422    -2.911130
H       -3.238526    -0.140139    -1.718106
H       -4.991966    -1.641982    -0.063824
H       -6.266796    -3.703785    -0.046751
H       -5.220101    -5.823853     0.783879
H       -2.867636    -5.785233     1.586645
H       -1.598098    -3.709286     1.564614
H       -4.170538     0.799396     3.396596
H       -4.368937     0.782200     5.814163
H       -3.081339    -0.869052     7.142089
H       -1.598413    -2.493335     5.992941
H       -1.415554    -2.457423     3.571051
H        2.939278    -3.094009    -4.076585
H        4.219519    -5.222106    -4.071351
H        4.261638    -6.648356    -2.025457
H        2.942647    -5.986152    -0.031858
H        1.537480    -3.993818    -0.139599
H        3.873535    -0.738607    -2.786929
H        4.951803     0.861530    -4.340695
H        3.586282     2.063543    -6.029081
H        1.138078     1.714372    -6.116287
H        0.048373     0.269426    -4.439622
H       -0.590752    -1.287358    -4.828734
H       -2.587067    -2.222879    -5.886886
H       -3.745814    -4.156490    -4.843890
H       -2.876544    -5.128309    -2.739540
H       -0.852282    -4.163559    -1.685799
106
ex_0360 frame6 tetrahedral-conf2
N        3.082527     3.028691     3.065725
C        2.420583     2.374433     2.388527
S        1.282327     1.484555     1.381792
Ag       0.000000     0.000000     0.000000
Sb      -1.639675    -1.639675     1.639675
C       -3.534145    -1.958177     0.687664
C       -4.738336    -1.462868     1.216642
C       -5.933675    -1.665759     0.514137
C       -5.940026    -2.359107    -0.679088
C       -4.753601    -2.872261    -1.162055
C       -3.554927    -2.679965    -0.490264
C       -1.124433    -3.672215     2.129582
C       -1.063755    -4.120496     3.448199
C       -0.711421    -5.442182     3.743977
C       -0.447221    -6.334290     2.724872
C       -0.570654    -5.901214     1.425090
C       -0.845425    -4.560064     1.110557
C       -1.691727    -0.616833     3.522856
C       -2.706524     0.296930     3.868896
C       -2.644369     0.938200     5.107040
C       -1.618474     0.658390     5.999753
C       -0.626453    -0.250888     5.657043
C       -0.670449    -0.885640     4.418502
Sb      -1.639675     1.639675    -1.639675
C       -2.902597     2.882396    -0.399894
C       -2.619521     4.242970    -0.205258
C       -3.452541     5.019847     0.614153
C       -4.566353     4.441742     1.224329
C       -4.841260     3.091074     1.029205
C       -4.018931     2.313715     0.215377
C       -2.829229     0.492453    -2.991756
C       -3.450921     1.084599    -4.037808
C       -4.234112     0.325441    -4.914358
C       -4.402745    -1.040695    -4.721733
C       -3.753538    -1.651405    -3.680468
C       -2.970986    -0.880085    -2.800896
C       -0.556184     3.009207    -2.940024
C       -1.122714     4.211808    -3.290387
C       -0.439630     5.087518    -4.131181
C        0.803263     4.741584    -4.660106
C        1.388272     3.538051    -4.315877
C        0.727023     2.686727    -3.435947
Sb       1.639675    -1.639675    -1.639675
C        3.713420    -1.078249    -1.582396
C        4.066784     0.197826    -2.011554
C        5.403188     0.606291    -1.983792
C        6.390892    -0.273633    -1.530763
C        6.038434    -1.545346    -1.100631
C        4.703365    -1.957856    -1.128328
C        1.562753    -3.713313    -1.053308
C        0.803363    -4.628025    -1.794143
C        0.772485    -5.974367    -1.426773
C        1.536331    -6.401106    -0.339134
C        2.245407    -5.510447     0.436698
C        2.275967    -4.152074     0.075804
C        1.114746    -1.619868    -3.747814
C        0.547855    -0.479914    -4.326866
C        0.239836    -0.416709    -5.686784
C        0.461355    -1.531018    -6.468696
C        0.987342    -2.682042    -5.887475
C        1.331334    -2.721328    -4.537240
H       -4.758727    -0.930447     2.124843
H       -6.860904    -1.307954     0.915225
H       -6.848152    -2.535921    -1.241615
H       -4.787953    -3.432840    -2.049324
H       -2.630771    -3.055775    -0.923523
H       -1.312556    -3.472364     4.247622
H       -0.696741    -5.789928     4.753045
H       -0.183800    -7.368090     2.915422
H       -0.394096    -6.610199     0.629749
H       -0.870619    -4.217568     0.091379
H       -3.504087     0.561848     3.204212
H       -3.397574     1.650062     5.392258
H       -1.594803     1.150322     6.962014
H        0.163175    -0.468117     6.344844
H        0.102502    -1.582020     4.156941
H       -1.755830     4.692958    -0.647843
H       -3.237825     6.059805     0.771336
H       -5.220599     5.037908     1.851472
H       -5.695965     2.638999     1.495933
H       -4.238207     1.276595     0.082349
H       -3.296612     2.131523    -4.191148
H       -4.689286     0.801437    -5.744095
H       -5.007506    -1.638735    -5.390019
H       -3.852167    -2.713580    -3.611364
H       -2.447915    -1.325122    -2.015442
H       -2.078982     4.496709    -2.904198
H       -0.876964     6.028712    -4.377530
H        1.321964     5.422056    -5.318049
H        2.345455     3.254744    -4.716939
H        1.191734     1.753349    -3.154436
H        3.292199     0.857270    -2.347181
H        5.675417     1.590154    -2.316948
H        7.435696     0.024328    -1.515952
H        6.803250    -2.212798    -0.755798
H        4.460536    -2.935979    -0.787008
H        0.165685    -4.312277    -2.599221
H        0.186114    -6.677137    -2.000082
H        1.435952    -7.447587    -0.036084
H        2.794814    -5.855209     1.300232
H        2.795454    -3.463838     0.706283
H        0.301774     0.321154    -3.748767
H       -0.177715     0.490093    -6.111177
H        0.207528    -1.525405    -7.511427
H        1.137318    -3.544988    -6.493348
H        1.740951    -3.611657    -4.115408
106
ex_0360 frame7 
N        1.175007    -0.299194     4.372099
C        1.216758    -0.994251     3.453014
S        1.297073    -2.070400     2.090535
Ag       0.399305    -0.564091     0.451442
Sb       1.639273     1.963893     0.822086
C        3.738190     1.549199     1.094575
C        4.601224     1.663796     0.013388
C        5.928011     1.254422     0.147437
C        6.396253     0.803610     1.381330
C        5.542463     0.760757     2.481452
C        4.214145     1.170710     2.346834
C        1.397859     3.318516    -0.783579
C        0.254014     3.238085    -1.592457
C        0.028837     4.204586    -2.574939
C        0.966684     5.220654    -2.771315
C        2.141926     5.245937    -2.013366
C        2.365540     4.280096    -1.034081
C        0.823330     3.282102     2.259778
C        1.496763     3.581383     3.444958
C        0.865570     4.376465     4.409985
C       -0.410144     4.901493     4.165619
C       -1.043891     4.655325     2.947196
C       -0.420624     3.855516     1.996048
Sb      -2.334917    -0.676800     1.211000
C       -3.555115     0.757280     0.211906
C       -4.171200     1.797765     0.909031
C       -5.013589     2.685413     0.251199
C       -5.194148     2.575985    -1.127151
C       -4.539837     1.568057    -1.840644
C       -3.737107     0.647053    -1.167951
C       -3.294418    -2.517182     0.926268
C       -4.559833    -2.535489     0.377702
C       -5.248761    -3.737798     0.312177
C       -4.637645    -4.911376     0.735782
C       -3.337599    -4.882645     1.224912
C       -2.648671    -3.680336     1.290437
C       -2.726285    -0.778904     3.313393
C       -3.611399     0.086416     3.933903
C       -3.721907     0.072572     5.321670
C       -2.997636    -0.856188     6.067982
C       -2.165923    -1.767861     5.430028
C       -2.061689    -1.747407     4.049646
Sb       0.958417    -1.675793    -2.101422
C        2.151784    -3.415868    -2.111097
C        2.936037    -3.736208    -3.207749
C        3.649390    -4.938796    -3.198947
C        3.687568    -5.736435    -2.046097
C        2.943391    -5.377666    -0.929353
C        2.145712    -4.250064    -0.994463
C        1.888764    -0.341786    -3.508935
C        3.274785    -0.193887    -3.503722
C        3.882439     0.714436    -4.375684
C        3.116321     1.385943    -5.332198
C        1.736065     1.202695    -5.372885
C        1.122548     0.381140    -4.431388
C       -0.647325    -2.622781    -3.158326
C       -1.090351    -2.126799    -4.372183
C       -2.220854    -2.658708    -4.968872
C       -2.866175    -3.740701    -4.381888
C       -2.377107    -4.288075    -3.197213
C       -1.237583    -3.746433    -2.602303
H        4.247261     2.010220    -0.941198
H        6.590812     1.287287    -0.705034
H        7.420775     0.487394     1.485247
H        5.907921     0.410760     3.437303
H        3.565518     1.132621     3.204037
H       -0.487707     2.468699    -1.425059
H       -0.878390     4.183010    -3.166113
H        0.778487     5.995139    -3.500458
H        2.869765     6.027844    -2.162414
H        3.257116     4.312780    -0.427711
H        2.475269     3.173434     3.640618
H        1.360523     4.583736     5.347936
H       -0.905792     5.505889     4.912156
H       -2.017090     5.077010     2.736209
H       -0.913536     3.656278     1.055391
H       -4.017845     1.895576     1.973604
H       -5.515171     3.461079     0.814280
H       -5.825649     3.282232    -1.643125
H       -4.659468     1.496422    -2.911130
H       -3.238526    -0.140139    -1.718106
H       -5.034659    -1.623644     0.048570
H       -6.255987    -3.708428    -0.075206
H       -5.181021    -5.840639     0.680995
H       -2.855971    -5.790243     1.555935
H       -1.640142    -3.691227     1.675300
H       -4.170538     0.799396     3.396596
H       -4.368937     0.782200     5.814163
H       -3.081339    -0.869052     7.142089
H       -1.598413    -2.493335     5.992941
H       -1.415554    -2.457423     3.571051
H        2.939278    -3.094009    -4.076585
H        4.219519    -5.222106    -4.071351
H        4.261638    -6.648356    -2.025457
H        2.942647    -5.986152    -0.031858
H        1.537480    -3.993818    -0.139599
H        3.873535    -0.738607    -2.786929
H        4.951803     0.861530    -4.340695
H        3.586282     2.063543    -6.029081
H        1.138078     1.714372    -6.116287
H        0.048373     0.269426    -4.439622
H       -0.590752    -1.287358    -4.828734
H       -2.587067    -2.222879    -5.886886
H       -3.745814    -4.156490    -4.843890
H       -2.876544    -5.128309    -2.739540
H       -0.852282    -4.163559    -1.685799
