101
ex_0242 frame0 trans-DD H0+H0|H0+H0|H1+H1|H1+H1
H        2.132657    -1.540166    -0.362076
B        2.961302    -0.829088     0.117986
H        2.410157     0.026714     0.728574
Zr       0.000000     0.000000     0.000000
H       -1.632710     2.023336    -0.242075
B       -1.027653     2.845377    -0.859994
H       -0.136474     2.297484    -1.431045
C       -2.016228     3.622650    -1.895986
C       -1.276547     4.760522    -2.679497
C        0.167367     5.012726    -2.195034
C        0.267664     5.151152    -0.661195
C       -0.476917     4.020721     0.125330
C       -1.691876     4.566341     0.921697
C       -2.766130     5.180012     0.006402
C       -3.211128     4.175678    -1.072400
H        0.796554     1.576258     1.754573
B        0.033851     1.165435     2.572027
H       -1.004799     0.907923     2.043478
C        0.653331    -0.132532     3.297795
C        2.037252     0.251231     3.897118
C        2.021456     1.451671     4.866623
C        1.202733     2.634801     4.311651
C       -0.188804     2.244813     3.740091
C       -1.250157     1.676271     4.727837
C       -0.901877     0.299700     5.335786
C       -0.415386    -0.702167     4.268639
H       -1.706135    -1.875630    -0.171772
B       -0.980148    -2.720278    -0.601067
H       -0.202578    -2.201987    -1.340660
C       -0.225273    -3.506760     0.613219
C        0.667080    -4.687281     0.097676
C        0.552882    -4.927991    -1.419904
C       -0.915754    -5.024037    -1.893142
C       -1.835576    -3.872646    -1.359604
C       -2.907383    -4.386717    -0.359523
C       -2.290256    -4.997583     0.912355
C       -1.318610    -4.010145     1.590136
C        3.973367    -1.682726     1.063956
C        5.105807    -0.787126     1.672622
C        5.141260     0.650808     1.107354
C        5.058333     0.699323    -0.432284
C        3.917885    -0.192284    -1.034376
C        4.491129    -1.369504    -1.865510
C        5.347034    -2.324445    -1.012373
C        4.555096    -2.836271     0.203083
H       -2.434225     2.896120    -2.626148
H       -1.864737     5.702024    -2.653134
H       -1.208211     4.482564    -3.755176
H        0.771379     4.125806    -2.486971
H        0.621548     5.885595    -2.709544
H       -0.083030     6.151333    -0.330623
H        1.351159     5.116409    -0.412586
H        0.226701     3.596681     0.868097
H       -1.354200     5.330335     1.655098
H       -2.151883     3.733212     1.499117
H       -3.641515     5.494774     0.613417
H       -2.363029     6.092878    -0.475177
H       -3.734958     3.326145    -0.578172
H       -3.943960     4.666556    -1.747968
H        0.838803    -0.911026     2.529147
H        2.519382    -0.625222     4.378449
H        2.681215     0.546634     3.044161
H        1.648123     1.156618     5.849365
H        3.062612     1.780228     5.073224
H        1.786710     3.076267     3.470917
H        1.103448     3.423186     5.086902
H       -0.620371     3.165175     3.294689
H       -2.191607     1.546086     4.146453
H       -1.464774     2.405778     5.536387
H       -0.158895     0.400480     6.129063
H       -1.787848    -0.114229     5.862952
H       -1.298121    -0.986514     3.651550
H       -0.047928    -1.629778     4.757507
H        0.415444    -2.791387     1.169354
H        0.446887    -5.623827     0.650444
H        1.729762    -4.467692     0.322533
H        1.016423    -4.053437    -1.928304
H        1.136161    -5.819311    -1.734376
H       -1.348347    -6.013563    -1.633875
H       -0.889617    -4.985816    -3.003990
H       -2.385198    -3.427546    -2.217376
H       -3.555067    -5.143778    -0.851781
H       -3.561281    -3.535546    -0.063593
H       -3.094982    -5.281037     1.623716
H       -1.755676    -5.930391     0.645820
H       -1.894889    -3.137279     1.971476
H       -0.847071    -4.502793     2.468069
H        3.400768    -2.154247     1.892956
H        6.094363    -1.278983     1.555715
H        4.949360    -0.693237     2.769458
H        4.246025     1.182862     1.491645
H        6.021582     1.212411     1.485917
H        6.038396     0.440482    -0.884558
H        4.875915     1.761502    -0.706039
H        3.303282     0.426115    -1.724364
H        5.105754    -0.978219    -2.704428
H        3.647287    -1.942782    -2.312225
H        5.681864    -3.183673    -1.631699
H        6.260217    -1.801377    -0.666213
H        3.722983    -3.471991    -0.165894
H        5.212214    -3.481852     0.824985
101
ex_0242 frame1 dodecahedral A1/B1-trans-Λ
H        1.999697     1.635747     0.051887
B        2.796151     0.887486     0.511772
H        2.223150     0.125660     1.226656
Zr       0.000000     0.000000     0.000000
H       -0.233026     2.181052    -1.221767
B       -0.936045     2.815805    -0.495969
H       -1.677355     2.068480     0.052450
C       -0.052358     3.658299     0.582449
C       -0.940283     4.560406     1.504326
C       -2.426205     4.595190     1.093726
C       -2.633877     4.844849    -0.414984
C       -1.739674     3.950116    -1.339210
C       -0.685355     4.788719    -2.111021
C        0.304319     5.499898    -1.169552
C        0.978031     4.495588    -0.219630
H       -2.192676    -0.134979     1.177746
B       -2.826730    -0.872591     0.487124
H       -2.071712    -1.578037    -0.097858
C       -3.872970    -1.725599     1.392593
C       -4.772729    -2.669441     0.524255
C       -4.609375    -2.464121    -0.997661
C       -4.666153    -0.981089    -1.419822
C       -3.765986    -0.040189    -0.550174
C       -4.614217     0.952778     0.286188
C       -5.530296     0.237287     1.294926
C       -4.720874    -0.707307     2.203012
H        0.206942    -2.173353    -1.240460
B        0.932788    -2.776235    -0.509911
H        1.674552    -2.006312     0.006481
C        0.087239    -3.596115     0.612428
C        1.017166    -4.441991     1.546735
C        2.496335    -4.461764     1.103634
C        2.667976    -4.773626    -0.399040
C        1.741583    -3.922620    -1.332294
C        0.688273    -4.801931    -2.056943
C       -0.268475    -5.502738    -1.072904
C       -0.941002    -4.483432    -0.136818
C        3.584911     0.122205    -0.687670
C        4.685650    -0.847797    -0.138535
C        4.908633    -0.738742     1.386378
C        5.061331     0.720417     1.869757
C        3.958373     1.688880     1.320780
C        4.554070     2.752490     0.360596
C        5.183242     2.122645    -0.895865
C        4.178419     1.209782    -1.621237
H        0.518680     2.956944     1.226903
H       -0.525161     5.587548     1.565050
H       -0.909188     4.164168     2.543609
H       -2.845594     3.593373     1.321135
H       -3.001898     5.318681     1.708204
H       -2.489806     5.919506    -0.658670
H       -3.704650     4.631407    -0.627113
H       -2.384794     3.461785    -2.101776
H       -1.191472     5.545794    -2.747451
H       -0.113060     4.116237    -2.789674
H        1.078503     6.027985    -1.766152
H       -0.230226     6.270257    -0.580066
H        1.609590     3.811775    -0.827638
H        1.650183     5.040004     0.477966
H       -3.312605    -2.340712     2.130830
H       -5.837915    -2.573267     0.820734
H       -4.498355    -3.727295     0.731686
H       -3.602163    -2.837691    -1.274003
H       -5.336413    -3.077952    -1.569959
H       -5.714675    -0.616561    -1.432671
H       -4.322554    -0.940820    -2.476768
H       -3.125611     0.566405    -1.227233
H       -5.229007     1.588726    -0.386345
H       -3.933917     1.626523     0.846850
H       -6.064115     0.989035     1.914550
H       -6.302867    -0.340434     0.750407
H       -4.041733    -0.097494     2.841008
H       -5.415565    -1.245505     2.882701
H       -0.490862    -2.882364     1.238305
H        0.625643    -5.475314     1.652667
H        0.998692    -4.008313     2.570553
H        2.906272    -3.443048     1.277692
H        3.097385    -5.152116     1.732325
H        2.525865    -5.857593    -0.590452
H        3.731497    -4.563648    -0.648266
H        2.364472    -3.443500    -2.119043
H        1.195727    -5.568227    -2.681730
H        0.090346    -4.160226    -2.743339
H       -1.044807    -6.062229    -1.637247
H        0.292046    -6.244828    -0.471384
H       -1.601617    -3.833757    -0.746856
H       -1.585801    -5.019307     0.592438
H        2.865765    -0.457483    -1.304874
H        5.640144    -0.702891    -0.686251
H        4.381080    -1.897995    -0.339788
H        4.003892    -1.154826     1.881870
H        5.762646    -1.366851     1.717294
H        6.073988     1.107367     1.630738
H        5.005546     0.695714     2.980006
H        3.504725     2.240166     2.173144
H        5.320317     3.357919     0.890343
H        3.749808     3.450460     0.046023
H        5.528621     2.923158    -1.584671
H        6.077037     1.534692    -0.608896
H        3.347993     1.834897    -2.021931
H        4.678930     0.731507    -2.490684
101
ex_0242 frame2 trans-DD H0+H0|H0+H0|H1+H1|H1+H1
H        2.032654    -1.743641    -0.053228
B        2.819709    -1.009637     0.457481
H        2.226358    -0.246202     1.152244
Zr       0.000000     0.000000     0.000000
H       -2.032118     1.743792    -0.055864
B       -2.820245     1.010512     0.453464
H       -2.227236     0.246800     1.150139
C       -3.917786     1.846786     1.310358
C       -4.995174     0.905533     1.950455
C       -4.914092    -0.562372     1.471500
C       -4.803940    -0.680167    -0.061817
C       -3.696172     0.237318    -0.684507
C       -4.311601     1.317547    -1.610109
C       -5.259988     2.263364    -0.847642
C       -4.551110     2.899420     0.359592
H        1.767916     1.994280    -0.015837
B        1.005047     2.795080    -0.456651
H        0.235489     2.228441    -1.168337
C        0.246810     3.581563     0.754292
C       -0.703489     4.711377     0.228859
C       -0.636141     4.914069    -1.297317
C        0.816022     5.053636    -1.811874
C        1.795759     3.960650    -1.263898
C        2.862594     4.553151    -0.302120
C        2.249131     5.168236     0.966353
C        1.339988     4.155385     1.690700
H       -1.768180    -1.990658    -0.011137
B       -1.005967    -2.791450    -0.453331
H       -0.236406    -2.224158    -1.164883
C       -0.246633    -3.578976     0.756617
C        0.703202    -4.708912     0.230104
C        0.635152    -4.909273    -1.296493
C       -0.817264    -5.047896    -1.810427
C       -1.797239    -3.955296    -1.261643
C       -2.863079    -4.549508    -0.300059
C       -2.248523    -5.166230     0.967816
C       -1.339162    -4.153863     1.693121
C        3.919211    -1.846003     1.313036
C        4.994259    -0.904078     1.954942
C        4.912239     0.564111     1.475628
C        4.802803     0.681602    -0.057867
C        3.696020    -0.236652    -0.680758
C        4.312473    -1.316107    -1.606080
C        5.260745    -2.261335    -0.842728
C        4.551948    -2.898353     0.364181
H       -3.407691     2.412249     2.120722
H       -6.012825     1.317682     1.784762
H       -4.853318     0.883555     3.053037
H       -3.989742    -1.006640     1.902578
H       -5.762678    -1.161364     1.865097
H       -5.789642    -0.489153    -0.533924
H       -4.576717    -1.738543    -0.297096
H       -3.020357    -0.383079    -1.311941
H       -4.867379     0.832894    -2.441479
H       -3.489840     1.915759    -2.065471
H       -5.625807     3.058736    -1.531209
H       -6.150409     1.706047    -0.497324
H       -3.755028     3.570590    -0.023558
H       -5.273396     3.532199     0.919049
H       -0.347145     2.853598     1.347965
H       -0.508467     5.671488     0.750012
H       -1.749367     4.458300     0.489757
H       -1.077255     4.008146    -1.769167
H       -1.261599     5.772813    -1.622073
H        1.214071     6.067667    -1.596657
H        0.763493     4.975983    -2.919811
H        2.349144     3.514186    -2.119406
H        3.465339     5.322898    -0.830179
H        3.559117     3.746601     0.005998
H        3.056692     5.503902     1.650761
H        1.668223     6.069219     0.688599
H        1.963730     3.317765     2.076753
H        0.868110     4.648170     2.567907
H        0.347713    -2.851597     1.351023
H        0.507905    -5.669260     0.749807
H        1.749217    -4.456130     0.490493
H        1.076194    -4.003018    -1.767474
H        1.259929    -5.767767    -1.622400
H       -1.215693    -6.061946    -1.596871
H       -0.765123    -4.968909    -2.918373
H       -2.351154    -3.508300    -2.116181
H       -3.466536    -5.318659    -0.828166
H       -3.559391    -3.742881     0.010243
H       -3.055727    -5.502252     1.652578
H       -1.668021    -6.067200     0.688969
H       -1.962985    -3.316435     2.080541
H       -0.867049    -4.647428     2.569669
H        3.406742    -2.410883     2.124781
H        6.012222    -1.315591     1.790131
H        4.851842    -0.881883     3.057591
H        3.987444     1.007490     1.906593
H        5.760270     1.163647     1.870000
H        5.788875     0.491314    -0.528756
H        4.574459     1.739131    -0.293830
H        3.020743     0.382978    -1.309119
H        4.868910    -0.831934    -2.437169
H        3.491404    -1.915260    -2.061798
H        5.626948    -3.057292    -1.525821
H        6.150651    -1.703965    -0.491651
H        3.755708    -3.569341    -0.019167
H        5.273585    -3.530669     0.924178
101
ex_0242 frame3 dodecahedral A2/B2-trans-Λ
H        2.031569    -1.751701    -0.060573
B        2.818478    -1.019283     0.452468
H        2.223422    -0.258525     1.150791
Zr       0.000000     0.000000     0.000000
H        1.769480     1.991279    -0.011895
B        1.006205     2.791599    -0.452474
H        0.236289     2.224615    -1.163696
C        0.247622     3.577940     0.758674
C       -0.704698     4.706516     0.234055
C       -0.638050     4.908800    -1.293106
C        0.813225     5.048123    -1.808713
C        1.795484     3.956555    -1.261419
C        2.861552     4.551835    -0.301007
C        2.248210     5.166672     0.968085
C        1.341826     4.154003     1.693958
H       -2.032876     1.755795    -0.058492
B       -2.818497     1.021774     0.454275
H       -2.223000     0.261057     1.150874
C       -3.916146     1.858269     1.311277
C       -4.990923     0.916562     1.955033
C       -4.907429    -0.552278     1.479568
C       -4.799275    -0.673647    -0.053669
C       -3.694512     0.244849    -0.680379
C       -4.312876     1.321299    -1.607236
C       -5.262739     2.266916    -0.845126
C       -4.553676     2.907561     0.359186
H       -1.771970    -1.990247    -0.014835
B       -1.007649    -2.790165    -0.455096
H       -0.238651    -2.222323    -1.166659
C       -0.248298    -3.574918     0.756274
C        0.703956    -4.703938     0.232565
C        0.638826    -4.905443    -1.294149
C       -0.813227    -5.048504    -1.809561
C       -1.795422    -3.956206    -1.263437
C       -2.862190    -4.551526    -0.302892
C       -2.247669    -5.165429     0.967071
C       -1.341024    -4.150873     1.692175
C        3.915372    -1.857373     1.308029
C        4.991258    -0.917533     1.952619
C        4.908757     0.552207     1.478687
C        4.800095     0.675595    -0.054173
C        3.694055    -0.241256    -0.681571
C        4.312985    -1.317856    -1.610178
C        5.260739    -2.264554    -0.849440
C        4.552118    -2.906035     0.354597
H       -0.345273     2.849892     1.353271
H       -0.509437     5.667479     0.754010
H       -1.749160     4.452909     0.495156
H       -1.079346     4.001740    -1.763812
H       -1.263845     5.766388    -1.617045
H        1.209948     6.063285    -1.593914
H        0.760038     4.970691    -2.916387
H        2.348610     3.511003    -2.116724
H        3.463587     5.322063    -0.829345
H        3.559764     3.745682     0.007969
H        3.056002     5.503754     1.652271
H        1.666491     6.067233     0.690695
H        1.965675     3.316389     2.080142
H        0.869029     4.646043     2.571297
H       -3.405865     2.426543     2.119374
H       -6.009424     1.326121     1.790407
H       -4.847233     0.897244     3.057905
H       -3.981701    -0.993597     1.910227
H       -5.754263    -1.152309     1.875746
H       -5.786201    -0.486474    -0.525188
H       -4.569083    -1.731815    -0.286017
H       -3.018980    -0.375236    -1.308198
H       -4.870428     0.834474    -2.436787
H       -3.494427     1.920874    -2.065783
H       -5.631345     3.060361    -1.530085
H       -6.151277     1.708378    -0.492111
H       -3.759331     3.579318    -0.027047
H       -5.275955     3.540021     0.918372
H        0.343968    -2.845773     1.350434
H        0.509331    -5.664334     0.752088
H        1.749096    -4.449405     0.494744
H        1.078570    -3.998882    -1.765246
H        1.265906    -5.763127    -1.618638
H       -1.209034    -6.062572    -1.595714
H       -0.759178    -4.969488    -2.917829
H       -2.349118    -3.511710    -2.118895
H       -3.462823    -5.323085    -0.830601
H       -3.560153    -3.746115     0.005499
H       -3.055239    -5.501991     1.651170
H       -1.665551    -6.065507     0.690198
H       -1.966537    -3.313788     2.077922
H       -0.868893    -4.642351     2.569801
H        3.405110    -2.426015     2.115774
H        6.009686    -1.327342     1.786486
H        4.848390    -0.899250     3.055081
H        3.983617     0.993452     1.910488
H        5.756295     1.151145     1.875263
H        5.786171     0.488313    -0.526597
H        4.570220     1.734292    -0.285051
H        3.018779     0.379815    -1.308299
H        4.868971    -0.829658    -2.438887
H        3.492363    -1.915688    -2.068613
H        5.628883    -3.057177    -1.535279
H        6.149954    -1.707025    -0.495615
H        3.756702    -3.576836    -0.032400
H        5.273569    -3.540064     0.912588
101
ex_0242 frame4 trans-DD H0+H0|H0+H0|H1+H1|H1+H1
H        2.032703    -1.750850    -0.062882
B        2.819048    -1.017155     0.449035
H        2.224059    -0.256990     1.147670
Zr       0.000000     0.000000     0.000000
H        1.768695     1.995080    -0.010443
B        1.005631     2.795261    -0.452672
H        0.237058     2.227174    -1.164356
C        0.245547     3.582333     0.756985
C       -0.705534     4.710963     0.229823
C       -0.636732     4.912108    -1.296668
C        0.815453     5.052110    -1.810225
C        1.796032     3.960013    -1.261151
C        2.861380     4.554928    -0.299851
C        2.246033     5.171760     0.967825
C        1.337479     4.158856     1.693036
H       -1.765742    -1.994095    -0.012441
B       -1.002680    -2.793886    -0.455298
H       -0.233490    -2.225410    -1.165995
C       -0.243680    -3.582774     0.753676
C        0.707566    -4.710997     0.225691
C        0.639450    -4.910272    -1.301185
C       -0.812346    -5.049141    -1.815586
C       -1.792693    -3.957459    -1.265751
C       -2.858711    -4.553669    -0.305888
C       -2.244012    -5.171407     0.960889
C       -1.336326    -4.160133     1.688386
H       -2.033748     1.750907    -0.061219
B       -2.820646     1.017542     0.452285
H       -2.224798     0.257446     1.149684
C       -3.919369     1.854205     1.305507
C       -4.995050     0.913221     1.948775
C       -4.909927    -0.556251     1.475686
C       -4.800325    -0.680280    -0.057158
C       -3.694977     0.239312    -0.683325
C       -4.313109     1.314004    -1.612574
C       -5.263265     2.260055    -0.852924
C       -4.555385     2.902323     0.351486
C        3.918191    -1.853882     1.303495
C        4.993635    -0.912428     1.946433
C        4.909035     0.556901     1.472375
C        4.798471     0.679426    -0.060613
C        3.693064    -0.238742    -0.686404
C        4.311174    -1.314579    -1.615285
C        5.261254    -2.260532    -0.855577
C        4.553957    -2.902196     0.349525
H       -0.348104     2.854564     1.351672
H       -0.512017     5.671439     0.750014
H       -1.751490     4.456121     0.489024
H       -1.076427     4.005408    -1.767947
H       -1.262667     5.769787    -1.622578
H        1.212714     6.066682    -1.596141
H        0.763872     4.973626    -2.918433
H        2.350260     3.513446    -2.115595
H        3.464219     5.324561    -0.827883
H        3.558169     3.749115     0.010835
H        3.053028     5.508917     1.652772
H        1.664777     6.072177     0.688791
H        1.961863     3.322117     2.080864
H        0.864464     4.652094     2.569571
H        0.349857    -2.855937     1.349608
H        0.514032    -5.671875     0.744934
H        1.753289    -4.456449     0.486019
H        1.079908    -4.003207    -1.771293
H        1.265041    -5.767887    -1.627735
H       -1.210139    -6.063637    -1.603143
H       -0.760171    -4.968861    -2.923567
H       -2.346784    -3.509630    -2.119593
H       -3.460479    -5.323270    -0.835043
H       -3.555810    -3.748639     0.005591
H       -3.051288    -5.510197     1.645145
H       -1.662796    -6.071765     0.681413
H       -1.960586    -3.323894     2.077386
H       -0.863853    -4.654719     2.564336
H       -3.410334     2.423326     2.113766
H       -6.013917     1.321901     1.780904
H       -4.853880     0.896071     3.051609
H       -3.984299    -0.995966     1.908687
H       -5.756685    -1.156199     1.871516
H       -5.785256    -0.494269    -0.530551
H       -4.567634    -1.738327    -0.287255
H       -3.017952    -0.381592    -1.310105
H       -4.868569     0.825230    -2.442026
H       -3.493459     1.912782    -2.070702
H       -5.631385     3.052212    -1.539053
H       -6.152102     1.701548    -0.499957
H       -3.760492     3.573651    -0.034472
H       -5.278513     3.535316     0.908932
H        3.409123    -2.422717     2.112129
H        6.012319    -1.321492     1.779184
H        4.852155    -0.894338     3.049238
H        3.983610     0.997377     1.905038
H        5.756087     1.156805     1.867886
H        5.784548     0.492687    -0.533472
H        4.567897     1.737947    -0.291963
H        3.015999     0.381868    -1.312173
H        4.866222    -0.826334    -2.444960
H        3.490981    -1.913453    -2.072686
H        5.628964    -3.053074    -1.541580
H        6.150242    -1.702138    -0.503082
H        3.759248    -3.573832    -0.036056
H        5.277450    -3.535095     0.906783
101
ex_0242 frame5 trans-DD H0+H0|H1+H1|H0+H0|H1+H1
H        1.886213    -1.709368     0.127458
B        2.706625    -0.983308     0.588265
H        2.157659    -0.191088     1.289181
Zr       0.000000     0.000000     0.000000
H        0.163361     2.096088    -1.285993
B        0.972008     2.720014    -0.669402
H        1.622103     1.966048    -0.019893
C        1.898142     3.590842    -1.683215
C        2.938277     4.477241    -0.917145
C        2.758880     4.464125     0.615907
C        1.296725     4.709366     1.047735
C        0.253612     3.825288     0.283189
C       -0.679700     4.674558    -0.619290
C        0.092582     5.420108    -1.723506
C        0.944137     4.445901    -2.559874
H       -0.161798    -2.097741    -1.285521
B       -0.971231    -2.720158    -0.668585
H       -1.621120    -1.965113    -0.020401
C       -1.897356    -3.592063    -1.681877
C       -2.938657    -4.476365    -0.915110
C       -2.760154    -4.460815     0.618319
C       -1.298563    -4.706837     1.051302
C       -0.253793    -3.825020     0.285847
C        0.679144    -4.676400    -0.614843
C       -0.093126    -5.422818    -1.718525
C       -0.943152    -4.448526    -2.556832
H       -1.886883     1.708379     0.127576
B       -2.707697     0.983203     0.588892
H       -2.159484     0.191454     1.290611
C       -3.819354     1.830230     1.418526
C       -4.956420     0.909866     1.980745
C       -4.878274    -0.552615     1.488729
C       -4.688360    -0.661053    -0.039788
C       -3.549828     0.257301    -0.601353
C       -4.106956     1.372528    -1.523565
C       -5.054735     2.330093    -0.778750
C       -4.374877     2.924342     0.468633
C        3.818149    -1.828723     1.419020
C        4.954122    -0.907142     1.981153
C        4.876328     0.554793     1.487112
C        4.687521     0.660587    -0.041819
C        3.548714    -0.258633    -0.602587
C        4.107374    -1.374855    -1.522449
C        5.054943    -2.330461    -0.776999
C        4.375054    -2.923626     0.470587
H        2.444293     2.904745    -2.367476
H        2.920976     5.518586    -1.301931
H        3.963259     4.100305    -1.123900
H        3.043697     3.450989     0.975016
H        3.451835     5.177253     1.110618
H        1.037360     5.784744     0.957501
H        1.244485     4.478635     2.134397
H       -0.390995     3.314130     1.030074
H       -1.240412     5.409430    -0.002280
H       -1.429205     4.004957    -1.098241
H       -0.621319     5.957594    -2.383492
H        0.747712     6.186679    -1.264836
H        0.263369     3.768209    -3.121704
H        1.528632     5.020938    -3.310127
H       -2.442363    -2.906421    -2.367119
H       -2.922092    -5.518215    -1.297915
H       -3.963464    -4.099059    -1.123007
H       -3.044398    -3.446665     0.975449
H       -3.454183    -5.172290     1.113646
H       -1.039843    -5.782603     0.962445
H       -1.246618    -4.474890     2.137589
H        0.390754    -3.313612     1.032690
H        1.238566    -5.410946     0.003684
H        1.429394    -4.008072    -1.094193
H        0.620611    -5.962006    -2.377195
H       -0.749285    -6.187872    -1.259147
H       -0.261438    -3.771300    -3.119577
H       -1.527699    -5.024181    -3.306519
H       -3.328054     2.355760     2.266303
H       -5.953818     1.344275     1.759534
H       -4.883909     0.876191     3.089783
H       -3.985217    -1.014266     1.964986
H       -5.754841    -1.142283     1.831180
H       -5.644923    -0.464618    -0.567536
H       -4.442379    -1.722623    -0.256166
H       -2.867988    -0.354656    -1.229137
H       -4.645071     0.919957    -2.384363
H       -3.255167     1.958367    -1.937580
H       -5.373156     3.147747    -1.459821
H       -5.971108     1.785271    -0.477644
H       -3.537075     3.579929     0.142846
H       -5.101855     3.566164     1.011114
H        3.326773    -2.353775     2.266940
H        5.952118    -1.341502     1.761606
H        4.880396    -0.871948     3.089981
H        3.983081     1.017004     1.962253
H        5.752573     1.145278     1.829410
H        5.643548     0.464679    -0.568915
H        4.439982     1.722354    -0.258863
H        2.866582     0.352584    -1.230692
H        4.645053    -0.922078    -2.384253
H        3.255549    -1.961060    -1.937014
H        5.374292    -3.148837    -1.456916
H        5.970919    -1.784864    -0.475743
H        3.537497    -3.580175     0.145241
H        5.101805    -3.564315     1.014355
101
ex_0242 frame6 trans-DD H0+H0|H1+H1|H0+H0|H1+H1
H        1.885591    -1.710059     0.129269
B        2.706086    -0.984298     0.590489
H        2.157633    -0.192625     1.291999
Zr       0.000000     0.000000     0.000000
H        0.164850     2.094438    -1.284520
B        0.974043     2.718681    -0.668938
H        1.624834     1.965432    -0.019592
C        1.898542     3.589572    -1.684342
C        2.939592     4.476768    -0.919811
C        2.761731     4.463875     0.613644
C        1.300064     4.708961     1.047044
C        0.256138     3.823939     0.284238
C       -0.679429     4.672392    -0.617353
C        0.092109     5.418194    -1.723213
C        0.942953     4.444011    -2.560142
H       -1.886446     1.710563     0.127197
B       -2.706775     0.984738     0.588486
H       -2.158010     0.193223     1.290018
C       -3.818785     1.830822     1.418308
C       -4.955138     0.909541     1.980706
C       -4.876222    -0.552814     1.488333
C       -4.686526    -0.660506    -0.040204
C       -3.548622     0.258686    -0.601811
C       -4.106698     1.373633    -1.523903
C       -5.054892     2.330597    -0.778845
C       -4.375036     2.924860     0.468629
H       -0.161350    -2.094594    -1.285881
B       -0.971406    -2.718074    -0.670650
H       -1.622340    -1.964300    -0.022063
C       -1.895907    -3.588805    -1.686159
C       -2.937463    -4.475283    -0.922080
C       -2.760616    -4.461441     0.611430
C       -1.300210    -4.706934     1.046321
C       -0.254623    -3.823623     0.283316
C        0.679955    -4.673413    -0.617162
C       -0.090501    -5.418415    -1.723015
C       -0.940215    -4.443771    -2.561129
C        3.818238    -1.830136     1.420282
C        4.954815    -0.909589     1.982373
C        4.876130     0.552638     1.489933
C        4.686267     0.660353    -0.038473
C        3.548027    -0.258732    -0.599839
C        4.105456    -1.374025    -1.521780
C        5.053793    -2.330896    -0.776766
C        4.374212    -2.924867     0.470971
H        2.443854     2.903543    -2.368768
H        2.922384     5.517777    -1.304956
H        3.964260     4.099527    -1.127097
H        3.047008     3.450821     0.972464
H        3.455153     5.177146     1.107214
H        1.039981     5.784218     0.956306
H        1.249071     4.478809     2.133799
H       -0.387275     3.313025     1.031996
H       -1.238630     5.407705    -0.000323
H       -1.428973     4.003160    -1.095921
H       -0.622362     5.955659    -2.382346
H        0.747627     6.184674    -1.265503
H        0.261715     3.764569    -3.121342
H        1.526475     5.018596    -3.311005
H       -3.327797     2.356459     2.266121
H       -5.952826     1.343458     1.759889
H       -4.882270     0.875611     3.089644
H       -3.982822    -1.014180     1.964299
H       -5.752357    -1.143237     1.830825
H       -5.643353    -0.464314    -0.567492
H       -4.439948    -1.721795    -0.257031
H       -2.866227    -0.352833    -1.229450
H       -4.644608     0.920597    -2.384738
H       -3.255215     1.960024    -1.938089
H       -5.373909     3.148263    -1.459648
H       -5.970873     1.785202    -0.477513
H       -3.537578     3.581125     0.142956
H       -5.102296     3.566012     1.011349
H       -2.440738    -2.902725    -2.371176
H       -2.919910    -5.516648    -1.306338
H       -3.962312    -4.098334    -1.130836
H       -3.046571    -3.448326     0.969425
H       -3.454935    -5.174736     1.104661
H       -1.040258    -5.782618     0.957133
H       -1.250160    -4.475741     2.132851
H        0.388744    -3.313067     1.031698
H        1.238672    -5.408621     0.001242
H        1.430913    -4.004238    -1.094316
H        0.624342    -5.956499    -2.381359
H       -0.746771    -6.184468    -1.265381
H       -0.258453    -3.765109    -3.122252
H       -1.523593    -5.018608    -3.312216
H        3.326924    -2.356193     2.268291
H        5.952195    -1.343758     1.760971
H        4.882357    -0.876224     3.091385
H        3.983038     1.014111     1.966170
H        5.752516     1.142702     1.832436
H        5.642622     0.464201    -0.565917
H        4.439819     1.721637    -0.255165
H        2.865829     0.352766    -1.227718
H        4.643218    -0.921325    -2.382791
H        3.253668    -1.960329    -1.935639
H        5.372484    -3.148680    -1.457525
H        5.969848    -1.785553    -0.475829
H        3.536623    -3.581176     0.145451
H        5.101421    -3.566012     1.013701
101
ex_0242 frame7 trans-DD H0+H0|H1+H1|H0+H0|H1+H1
H        1.886712    -1.712445     0.127479
B        2.707246    -0.985639     0.586823
H        2.158565    -0.193943     1.288455
Zr       0.000000     0.000000     0.000000
H       -1.886934     1.710726     0.129563
B       -2.707055     0.983642     0.589329
H       -2.157935     0.191038     1.289446
C       -3.820067     1.827647     1.420185
C       -4.956081     0.904607     1.980331
C       -4.876054    -0.556904     1.485368
C       -4.685526    -0.661904    -0.043120
C       -3.548087     0.259550    -0.602302
C       -4.107316     1.375308    -1.522590
C       -5.055632     2.330397    -0.776690
C       -4.376735     2.923094     0.472341
H        0.164023     2.097253    -1.282869
B        0.973233     2.721422    -0.667410
H        1.624267     1.968033    -0.018470
C        1.897615     3.592557    -1.682698
C        2.938336     4.479673    -0.918648
C        2.760702     4.467173     0.615092
C        1.299119     4.712225     1.048360
C        0.255004     3.827154     0.285485
C       -0.679817     4.675830    -0.616427
C        0.090929     5.421029    -1.721866
C        0.941747     4.446344    -2.558737
H       -0.162211    -2.098529    -1.285745
B       -0.971847    -2.722420    -0.670352
H       -1.623019    -1.968461    -0.022214
C       -1.895981    -3.594194    -1.685547
C       -2.937186    -4.480695    -0.920768
C       -2.760119    -4.466666     0.612589
C       -1.298808    -4.711339     1.047241
C       -0.253635    -3.827583     0.283749
C        0.680369    -4.676957    -0.616795
C       -0.089654    -5.423473    -1.722071
C       -0.940049    -4.449180    -2.560386
C        3.820955    -1.829987     1.415984
C        4.956716    -0.906656     1.976227
C        4.876380     0.554855     1.482156
C        4.684977     0.660714    -0.046245
C        3.547036    -0.259821    -0.605432
C        4.104681    -1.375230    -1.527067
C        5.054497    -2.330854    -0.782271
C        4.376927    -2.924429     0.466989
H       -3.329427     2.351911     2.269267
H       -5.954124     1.337878     1.759804
H       -4.883735     0.868698     3.089305
H       -3.982584    -1.018634     1.960841
H       -5.751901    -1.148410     1.826539
H       -5.642237    -0.465448    -0.570641
H       -4.437998    -1.722635    -0.261605
H       -2.864999    -0.350795    -1.231129
H       -4.643581     0.923574    -2.384345
H       -3.255232     1.963033    -1.935591
H       -5.375011     3.148726    -1.455768
H       -5.971294     1.783481    -0.476316
H       -3.539628     3.580268     0.148133
H       -5.104747     3.562555     1.016199
H        2.442958     2.906354    -2.367322
H        2.920679     5.520713    -1.303827
H        3.963335     4.102654    -1.125867
H        3.046273     3.454500     0.974023
H        3.454070     5.180991     1.108308
H        1.038976     5.787473     0.957684
H        1.248094     4.482581     2.135183
H       -0.388012     3.316215     1.033848
H       -1.239156     5.411184     0.001647
H       -1.430749     4.007454    -1.094178
H       -0.623740     5.958214    -2.380767
H        0.746622     6.187862    -1.264136
H        0.260508     3.767252    -3.119897
H        1.525090     5.021287    -3.309769
H       -2.440833    -2.908671    -2.370729
H       -2.919086    -5.522090    -1.304906
H       -3.962098    -4.104115    -1.129429
H       -3.045947    -3.453248     0.970057
H       -3.453911    -5.179480     1.106230
H       -1.038592    -5.786806     0.958210
H       -1.248656    -4.479617     2.133578
H        0.389013    -3.315994     1.031513
H        1.239556    -5.411796     0.001386
H        1.430464    -4.007785    -1.094694
H        0.625097    -5.961269    -2.380334
H       -0.745792    -6.189461    -1.263967
H       -0.258370    -3.770764    -3.121895
H       -1.523228    -5.024805    -3.311019
H        3.331454    -2.355123     2.265123
H        5.954894    -1.340024     1.754685
H        4.885144    -0.871648     3.084982
H        3.983175     1.016183     1.958436
H        5.752487     1.146331     1.822968
H        5.641369     0.464422    -0.574454
H        4.437382     1.721646    -0.263829
H        2.863019     0.350704    -1.232160
H        4.641336    -0.922840    -2.389127
H        3.252990    -1.962540    -1.939479
H        5.373586    -3.148906    -1.462282
H        5.970351    -1.784530    -0.482561
H        3.539681    -3.581790     0.143247
H        5.105444    -3.564358     1.009610
101
ex_0242 frame8 trans-DD H0+H0|H1+H1|H0+H0|H1+H1
H        1.437613    -1.772098    -0.960432
B        2.489181    -1.237247    -0.781903
H        2.514232    -0.828253     0.338538
Zr       0.000000     0.000000     0.000000
H       -0.082199     2.269267    -1.100054
B        0.770217     2.877859    -0.535254
H        1.412374     2.108520     0.106961
C        1.689211     3.697464    -1.602724
C        2.787480     4.561759    -0.894197
C        2.662558     4.585913     0.643955
C        1.225775     4.888137     1.123652
C        0.123678     4.027208     0.414519
C       -0.808165     4.892437    -0.474859
C       -0.049224     5.587839    -1.620109
C        0.736922     4.566947    -2.463950
H       -2.322570     1.087540    -0.721899
B       -2.508719     0.015163    -1.212610
H       -2.291781    -0.820158    -0.387174
C       -4.017653    -0.116642    -1.748583
C       -4.285145     1.050695    -2.741914
C       -3.318791     1.112507    -3.944272
C       -1.846441     0.964136    -3.511800
C       -1.574633    -0.198835    -2.517743
C       -1.778031    -1.653060    -3.026249
C       -3.238222    -2.013628    -3.369461
C       -4.222901    -1.571154    -2.264508
H        0.453730    -1.664241     1.320168
B       -0.355516    -1.985655     2.104036
H       -1.227721    -1.170820     2.153492
C        0.376943    -2.178353     3.533801
C       -0.707987    -2.574710     4.566378
C       -1.409669    -3.894686     4.201548
C       -1.997779    -3.832874     2.780243
C       -0.930029    -3.457660     1.720577
C        0.213450    -4.525213     1.641647
C        1.592866    -4.003306     2.108019
C        1.532793    -3.234390     3.449385
C        3.721891    -2.248594    -1.077724
C        5.103280    -1.479048    -1.181243
C        5.030866    -0.046755    -0.613740
C        3.947965     0.805859    -1.348596
C        2.748730    -0.048388    -1.862722
C        3.054937    -0.617033    -3.307997
C        2.655939    -2.097584    -3.453833
C        3.402408    -2.994582    -2.410251
H        2.185011     2.987422    -2.298367
H        2.794999     5.594537    -1.301076
H        3.791027     4.142924    -1.126771
H        2.927758     3.570213     1.011817
H        3.397157     5.284329     1.098565
H        0.998907     5.969842     1.022790
H        1.206395     4.678273     2.215637
H       -0.515435     3.551176     1.189185
H       -1.318955     5.660466     0.145058
H       -1.598783     4.240344    -0.911486
H       -0.764911     6.137782    -2.267037
H        0.649120     6.338336    -1.200208
H        0.015006     3.901873    -2.988708
H        1.315854     5.105116    -3.245258
H       -4.707630     0.023960    -0.887604
H       -5.334581     1.027344    -3.103157
H       -4.156732     1.998347    -2.170094
H       -3.580699     0.358834    -4.689352
H       -3.454461     2.071956    -4.487296
H       -1.564687     1.906919    -2.991973
H       -1.193667     0.878479    -4.406436
H       -0.507525    -0.116979    -2.234740
H       -1.453099    -2.331815    -2.204383
H       -1.121180    -1.861415    -3.897725
H       -3.521419    -1.587478    -4.333484
H       -3.324976    -3.108819    -3.535082
H       -4.062515    -2.248866    -1.395017
H       -5.267948    -1.724055    -2.607477
H        0.800336    -1.205450     3.867429
H       -0.253759    -2.664241     5.576232
H       -1.471222    -1.763996     4.617806
H       -2.217672    -4.104462     4.933725
H       -0.683188    -4.728534     4.270451
H       -2.452785    -4.814046     2.527242
H       -2.811111    -3.073391     2.758241
H       -1.448365    -3.409603     0.737439
H        0.341152    -4.846748     0.583606
H       -0.065975    -5.440589     2.200607
H        2.351697    -4.813497     2.134226
H        1.944172    -3.287465     1.336512
H        2.509493    -2.709863     3.548091
H        1.477683    -3.935358     4.306410
H        3.812598    -2.962655    -0.231386
H        5.885197    -2.071891    -0.660364
H        5.465669    -1.398562    -2.221601
H        4.737152    -0.159139     0.453689
H        6.007832     0.480484    -0.620335
H        3.614919     1.567256    -0.613239
H        4.374766     1.362976    -2.210577
H        1.825761     0.558825    -1.952948
H        4.124111    -0.541885    -3.575838
H        2.536745     0.014875    -4.061682
H        2.803370    -2.492977    -4.480786
H        1.562492    -2.135529    -3.250618
H        2.740747    -3.868770    -2.224809
H        4.355024    -3.393489    -2.819540
101
ex_0242 frame9 dodecahedral A2/B0-trans-Λ-conf5
H       -0.517709     1.807494     1.428322
B        0.533746     2.100638     1.887805
H        1.157037     1.099136     2.067208
Zr       0.000000     0.000000     0.000000
H       -1.432931     1.801392    -0.953041
B       -2.445217     1.224532    -0.693806
H       -2.362837     0.799137     0.416726
C       -3.736624     2.187184    -0.856877
C       -5.088397     1.359993    -0.834703
C       -4.904544    -0.077863    -0.305734
C       -3.863048    -0.873919    -1.155291
C       -2.754959     0.037721    -1.764346
C       -3.224782     0.606900    -3.164226
C       -2.898023     2.104073    -3.325948
C       -3.574449     2.956731    -2.204047
H        0.265257    -2.341884    -1.174449
B       -0.601035    -2.922909    -0.597608
H       -1.213112    -2.133844     0.047028
C       -1.556852    -3.717631    -1.651716
C       -2.678171    -4.541404    -0.929993
C       -2.545191    -4.557036     0.607442
C       -1.116211    -4.901706     1.082263
C        0.010256    -4.087385     0.356871
C        0.903120    -4.994149    -0.530387
C        0.111936    -5.668493    -1.666373
C       -0.640903    -4.625245    -2.513139
H        2.298961     0.703100    -0.239961
B        2.788662    -0.258810    -0.723838
H        2.324835    -1.220361    -0.190452
C        2.538100    -0.302801    -2.332833
C        3.188708     0.919646    -3.067498
C        4.051499     1.810355    -2.149521
C        5.045379     1.000123    -1.287464
C        4.402833    -0.228702    -0.557110
C        4.943336    -1.578297    -1.096457
C        4.617161    -1.789016    -2.587353
C        3.104898    -1.650238    -2.850895
C        0.325787     2.937235     3.256288
C        1.668754     3.636354     3.723062
C        2.915026     3.081479     3.000667
C        2.802661     3.236390     1.449895
C        1.329701     3.162989     0.941376
C        0.671521     4.602448     0.978621
C       -0.762647     4.572439     1.534468
C       -0.794486     3.992161     2.988123
H       -3.767469     2.888213     0.005164
H       -5.835732     1.910609    -0.224314
H       -5.551262     1.282143    -1.834773
H       -5.853990    -0.646240    -0.226458
H       -4.512622     0.029330     0.731222
H       -3.431422    -1.628150    -0.468308
H       -4.346309    -1.438318    -1.981913
H       -1.815200    -0.527872    -1.950741
H       -2.760756     0.002840    -3.974174
H       -4.312333     0.496505    -3.325964
H       -3.158315     2.502983    -4.328128
H       -1.793303     2.183909    -3.227564
H       -2.934539     3.856381    -2.070764
H       -4.576320     3.320473    -2.517283
H       -2.034140    -2.992844    -2.345711
H       -2.721001    -5.577051    -1.327289
H       -3.669719    -4.095208    -1.162105
H       -2.774611    -3.531142     0.969593
H       -3.299417    -5.227064     1.072126
H       -0.926652    -5.992004     0.993102
H       -1.084625    -4.679392     2.171297
H        0.673564    -3.629936     1.123053
H        1.387629    -5.776392     0.092364
H        1.715344    -4.377011    -0.975252
H        0.803070    -6.249846    -2.313140
H       -0.610434    -6.390000    -1.236192
H        0.101836    -3.989006    -3.045593
H       -1.243513    -5.147521    -3.287385
H        1.445203    -0.305808    -2.539702
H        2.386210     1.569109    -3.481235
H        3.778245     0.581029    -3.944943
H        3.357919     2.332431    -1.456664
H        4.570853     2.604942    -2.726323
H        5.452526     1.704400    -0.529396
H        5.917212     0.677324    -1.893998
H        4.660767    -0.180259     0.523471
H        6.043522    -1.631215    -0.950098
H        4.491302    -2.409844    -0.509270
H        4.963925    -2.793419    -2.909567
H        5.170426    -1.045750    -3.194304
H        2.573341    -2.485229    -2.343573
H        2.911458    -1.751276    -3.940485
H        0.025443     2.232489     4.061994
H        1.767222     3.521332     4.823694
H        1.652894     4.728724     3.560786
H        3.867662     3.518871     3.366949
H        2.949334     1.996643     3.249740
H        3.248583     4.190438     1.096349
H        3.420927     2.420931     1.018318
H        1.274468     2.817903    -0.112523
H        1.240996     5.316841     1.598930
H        0.700823     5.038897    -0.042981
H       -1.267792     5.561188     1.500575
H       -1.335126     3.900229     0.856634
H       -1.802360     3.539323     3.114844
H       -0.702726     4.793522     3.750940
101
ex_0242 frame10 Isomer 4
H        0.625667    -0.809712     1.847944
B       -0.455812    -0.498241     2.242789
H       -1.217305    -0.534788     1.326034
Zr       0.335279     0.262427    -0.336816
H        2.129254     2.110957    -0.620417
B        2.944083     1.373555    -0.154430
H        2.397799     0.600686     0.565532
C        3.807288     0.607689    -1.303932
C        5.082279    -0.112572    -0.699424
C        5.002535    -0.266634     0.832048
C        4.845946     1.122378     1.539122
C        4.086297     2.172177     0.669383
C        5.084417     2.935855    -0.294610
C        4.541331     3.066161    -1.733445
C        4.235312     1.668153    -2.363508
H       -0.512072     1.780647    -2.077194
B       -1.346624     2.241805    -1.359737
H       -0.874189     2.371515    -0.272420
C       -1.895043     3.654908    -1.931306
C       -2.814213     3.449913    -3.208412
C       -2.681935     2.039761    -3.824250
C       -3.033015     0.921061    -2.789663
C       -2.695545     1.326364    -1.323656
C       -3.917440     2.098309    -0.676085
C       -3.471605     3.335394     0.125110
C       -2.687481     4.345256    -0.777988
H       -0.795885    -1.620484    -1.329554
B        0.153802    -2.125286    -1.843146
H        1.149535    -1.651876    -1.390811
C        0.162131    -3.728390    -1.607099
C       -1.087527    -4.418578    -2.251104
C       -1.952728    -3.472371    -3.115274
C       -1.114003    -2.647459    -4.113264
C        0.123004    -1.940895    -3.460009
C        1.461137    -2.499652    -4.011097
C        1.642959    -3.997548    -3.692764
C        1.498727    -4.268834    -2.183085
C       -0.447702     0.967020     2.957359
C       -1.770310     1.224604     3.791116
C       -2.901671     0.250062     3.413672
C       -2.470020    -1.237534     3.640472
C       -0.939769    -1.470889     3.442320
C       -0.143287    -1.187731     4.783044
C        1.130061    -0.341722     4.557628
C        0.799281     1.033969     3.889488
H        3.175183    -0.183275    -1.761879
H        5.211224    -1.097977    -1.197447
H        6.019763     0.428868    -0.919601
H        5.858284    -0.827326     1.262989
H        4.093131    -0.878817     1.024154
H        4.298611     0.924547     2.487032
H        5.830388     1.553410     1.819970
H        3.593054     2.939590     1.305044
H        5.306864     3.934816     0.138017
H        6.069787     2.440574    -0.359999
H        5.205123     3.656064    -2.400414
H        3.589273     3.635309    -1.645312
H        3.428631     1.832256    -3.111067
H        5.110153     1.269491    -2.922107
H       -1.027847     4.270875    -2.247623
H       -3.884876     3.613565    -2.987806
H       -2.563961     4.232138    -3.956631
H       -3.273709     1.908710    -4.754723
H       -1.613226     1.937411    -4.112402
H       -2.454751     0.023469    -3.094257
H       -4.107531     0.639070    -2.837103
H       -2.507289     0.431458    -0.691580
H       -4.645328     2.450516    -1.428693
H       -4.497116     1.393178    -0.042088
H       -2.793309     2.949760     0.919032
H       -4.309400     3.848820     0.642286
H       -1.998112     4.893475    -0.099158
H       -3.363251     5.102650    -1.229815
H        0.168041    -3.941158    -0.515632
H       -1.749283    -4.801752    -1.443606
H       -0.777924    -5.309087    -2.836749
H       -2.450822    -2.752483    -2.427943
H       -2.765479    -4.027196    -3.630060
H       -1.789009    -1.880262    -4.550170
H       -0.798802    -3.281631    -4.967576
H        0.090627    -0.856710    -3.705816
H        1.513548    -2.348448    -5.110728
H        2.305468    -1.930737    -3.559662
H        2.641261    -4.337004    -4.042017
H        0.888303    -4.590646    -4.245809
H        2.345840    -3.780088    -1.649518
H        1.578671    -5.360859    -1.996061
H       -0.403671     1.751212     2.170935
H       -2.085366     2.281523     3.653769
H       -1.613074     1.126057     4.880454
H       -3.856780     0.460267     3.939483
H       -3.090435     0.415612     2.329362
H       -2.744643    -1.594934     4.655779
H       -3.058827    -1.842571     2.916406
H       -0.729272    -2.523337     3.153047
H       -0.758056    -0.662454     5.535445
H        0.107654    -2.158257     5.262536
H        1.726365    -0.190974     5.482063
H        1.766356    -0.933279     3.862482
H        1.707532     1.330810     3.319965
H        0.625946     1.826808     4.648709
101
ex_0242 frame11 Isomer 5
H       -1.726191    -0.749136     0.741612
B       -1.829388    -0.536243     1.907260
H       -0.750339    -0.305679     2.364809
Zr       0.265436     0.147005     0.146869
H        1.797516     2.175105     1.015880
B        2.644028     1.338939     1.115738
H        2.143278     0.341678     1.529960
C        3.390410     1.095616    -0.317502
C        4.550569     0.043341    -0.216025
C        4.817080    -0.437537     1.226440
C        4.953604     0.731254     2.229873
C        3.824551     1.814363     2.115557
C        4.354239     3.176889     1.593527
C        4.938579     3.081241     0.172910
C        3.917671     2.468872    -0.806805
H        1.747331    -1.679997    -0.338112
B        1.009893    -2.331046    -1.011630
H        0.023118    -1.703214    -1.239337
C        0.645536    -3.747427    -0.304435
C       -0.030069    -4.755997    -1.322378
C       -0.543473    -4.056380    -2.596981
C        0.611769    -3.311983    -3.346381
C        1.729284    -2.795257    -2.387880
C        2.814409    -3.920711    -2.132283
C        3.208604    -4.045517    -0.644935
C        1.969025    -4.347107     0.259615
H       -0.703098     1.086572    -2.026189
B       -0.957020     2.127558    -1.499594
H       -0.689304     2.072830    -0.346016
C       -0.179099     3.371360    -2.197056
C       -0.240819     4.572036    -1.204891
C       -1.586923     4.632995    -0.406428
C       -2.762660     4.040838    -1.217635
C       -2.513892     2.540316    -1.665255
C       -2.901893     2.331000    -3.160918
C       -1.736775     2.664190    -4.149497
C       -0.823126     3.769635    -3.587271
C       -2.882583     0.669060     2.186980
C       -2.739422     1.087313     3.682447
C       -2.422615    -0.119868     4.624654
C       -3.039092    -1.430646     4.093638
C       -2.530712    -1.799342     2.639619
C       -3.717530    -2.254145     1.735188
C       -4.442599    -1.060035     1.026300
C       -4.371006     0.227487     1.872884
H        2.648896     0.740671    -1.066396
H        4.291645    -0.845635    -0.824977
H        5.484128     0.439274    -0.663887
H        3.938138    -1.047662     1.534017
H        5.696490    -1.114576     1.271333
H        5.950952     1.210720     2.146566
H        4.917560     0.276427     3.243587
H        3.401466     2.000950     3.126994
H        5.130963     3.571114     2.283886
H        3.516818     3.910244     1.585527
H        5.857330     2.462755     0.197491
H        5.239059     4.090788    -0.179571
H        3.058958     3.169063    -0.918299
H        4.389124     2.361925    -1.807493
H       -0.091430    -3.560567     0.507331
H       -0.849939    -5.296984    -0.802693
H        0.660527    -5.554093    -1.648397
H       -1.291442    -3.309816    -2.248588
H       -1.077224    -4.740753    -3.289397
H        1.086425    -3.958489    -4.114992
H        0.133668    -2.466965    -3.889428
H        2.260778    -1.921477    -2.824363
H        3.704676    -3.710700    -2.763391
H        2.473625    -4.917532    -2.464284
H        3.624399    -3.056205    -0.359160
H        4.012853    -4.789087    -0.464413
H        2.203407    -3.920644     1.259840
H        1.821899    -5.439060     0.403930
H        0.870501     3.065617    -2.400103
H        0.569647     4.499461    -0.445990
H       -0.059195     5.506022    -1.778356
H       -1.776968     5.664116    -0.042503
H       -1.496615     3.994263     0.500355
H       -3.707377     4.088806    -0.634621
H       -2.936816     4.711386    -2.077676
H       -3.128616     1.893741    -1.001381
H       -3.806065     2.941533    -3.371182
H       -3.178350     1.271244    -3.354690
H       -2.139974     2.898767    -5.157151
H       -1.088979     1.766947    -4.262912
H       -0.010812     4.024040    -4.301602
H       -1.431292     4.689480    -3.525278
H       -2.643833     1.518201     1.510183
H       -3.670669     1.611921     3.986633
H       -1.906787     1.812669     3.814775
H       -1.322490    -0.287981     4.636233
H       -2.719742     0.114411     5.668681
H       -2.819342    -2.279543     4.776605
H       -4.137504    -1.317904     4.141331
H       -1.776282    -2.608449     2.751853
H       -3.359327    -2.924243     0.922424
H       -4.418213    -2.850012     2.357643
H       -5.477643    -1.345913     0.745402
H       -3.911666    -0.823335     0.077074
H       -4.960035     0.044104     2.789295
H       -4.897543     1.067458     1.370538
101
ex_0242 frame12 trans-DD H0+H0|H0+H0|H1+H1|H1+H1_mirror
H        2.132657    -1.540166     0.362076
B        2.961302    -0.829088    -0.117986
H        2.410157     0.026714    -0.728574
Zr       0.000000     0.000000     0.000000
H       -1.632710     2.023336     0.242075
B       -1.027653     2.845377     0.859994
H       -0.136474     2.297484     1.431045
C       -2.016228     3.622650     1.895986
C       -1.276547     4.760522     2.679497
C        0.167367     5.012726     2.195034
C        0.267664     5.151152     0.661195
C       -0.476917     4.020721    -0.125330
C       -1.691876     4.566341    -0.921697
C       -2.766130     5.180012    -0.006402
C       -3.211128     4.175678     1.072400
H        0.796554     1.576258    -1.754573
B        0.033851     1.165435    -2.572027
H       -1.004799     0.907923    -2.043478
C        0.653331    -0.132532    -3.297795
C        2.037252     0.251231    -3.897118
C        2.021456     1.451671    -4.866623
C        1.202733     2.634801    -4.311651
C       -0.188804     2.244813    -3.740091
C       -1.250157     1.676271    -4.727837
C       -0.901877     0.299700    -5.335786
C       -0.415386    -0.702167    -4.268639
H       -1.706135    -1.875630     0.171772
B       -0.980148    -2.720278     0.601067
H       -0.202578    -2.201987     1.340660
C       -0.225273    -3.506760    -0.613219
C        0.667080    -4.687281    -0.097676
C        0.552882    -4.927991     1.419904
C       -0.915754    -5.024037     1.893142
C       -1.835576    -3.872646     1.359604
C       -2.907383    -4.386717     0.359523
C       -2.290256    -4.997583    -0.912355
C       -1.318610    -4.010145    -1.590136
C        3.973367    -1.682726    -1.063956
C        5.105807    -0.787126    -1.672622
C        5.141260     0.650808    -1.107354
C        5.058333     0.699323     0.432284
C        3.917885    -0.192284     1.034376
C        4.491129    -1.369504     1.865510
C        5.347034    -2.324445     1.012373
C        4.555096    -2.836271    -0.203083
H       -2.434225     2.896120     2.626148
H       -1.864737     5.702024     2.653134
H       -1.208211     4.482564     3.755176
H        0.771379     4.125806     2.486971
H        0.621548     5.885595     2.709544
H       -0.083030     6.151333     0.330623
H        1.351159     5.116409     0.412586
H        0.226701     3.596681    -0.868097
H       -1.354200     5.330335    -1.655098
H       -2.151883     3.733212    -1.499117
H       -3.641515     5.494774    -0.613417
H       -2.363029     6.092878     0.475177
H       -3.734958     3.326145     0.578172
H       -3.943960     4.666556     1.747968
H        0.838803    -0.911026    -2.529147
H        2.519382    -0.625222    -4.378449
H        2.681215     0.546634    -3.044161
H        1.648123     1.156618    -5.849365
H        3.062612     1.780228    -5.073224
H        1.786710     3.076267    -3.470917
H        1.103448     3.423186    -5.086902
H       -0.620371     3.165175    -3.294689
H       -2.191607     1.546086    -4.146453
H       -1.464774     2.405778    -5.536387
H       -0.158895     0.400480    -6.129063
H       -1.787848    -0.114229    -5.862952
H       -1.298121    -0.986514    -3.651550
H       -0.047928    -1.629778    -4.757507
H        0.415444    -2.791387    -1.169354
H        0.446887    -5.623827    -0.650444
H        1.729762    -4.467692    -0.322533
H        1.016423    -4.053437     1.928304
H        1.136161    -5.819311     1.734376
H       -1.348347    -6.013563     1.633875
H       -0.889617    -4.985816     3.003990
H       -2.385198    -3.427546     2.217376
H       -3.555067    -5.143778     0.851781
H       -3.561281    -3.535546     0.063593
H       -3.094982    -5.281037    -1.623716
H       -1.755676    -5.930391    -0.645820
H       -1.894889    -3.137279    -1.971476
H       -0.847071    -4.502793    -2.468069
H        3.400768    -2.154247    -1.892956
H        6.094363    -1.278983    -1.555715
H        4.949360    -0.693237    -2.769458
H        4.246025     1.182862    -1.491645
H        6.021582     1.212411    -1.485917
H        6.038396     0.440482     0.884558
H        4.875915     1.761502     0.706039
H        3.303282     0.426115     1.724364
H        5.105754    -0.978219     2.704428
H        3.647287    -1.942782     2.312225
H        5.681864    -3.183673     1.631699
H        6.260217    -1.801377     0.666213
H        3.722983    -3.471991     0.165894
H        5.212214    -3.481852    -0.824985
