51
ex_0127 frame0 trans-OC-6-1
Fe       0.000000     0.000000     0.000000
Cl       2.440000     0.000000     0.000000
Cl      -2.440000     0.000000     0.000000
C       -1.580482     5.369047     0.015880
N       -0.703245     4.266945     0.007067
C       -1.137061     2.901748     0.011428
N        0.000000     2.130000     0.000000
C        1.162115     2.955699    -0.011680
C        0.732938     4.310734    -0.007366
Cl       1.557727     5.726135    -0.015654
H       -1.410047     5.963169    -0.885480
H       -2.612164     5.007659     0.026241
H       -1.391974     5.963168     0.913634
H       -2.080064     2.607148     0.020907
H        2.101396     2.575167    -0.021121
C        1.547596    -5.369047     0.321126
N        0.688612    -4.266945     0.142889
C        1.113400    -2.901748     0.231035
N        0.000000    -2.130000     0.000000
C       -1.137934    -2.955699    -0.236125
C       -0.717687    -4.310734    -0.148922
Cl      -1.525314    -5.726135    -0.316506
H        1.554631    -5.963169    -0.596178
H        2.557812    -5.007659     0.530742
H        1.189087    -5.963168     1.165501
H        2.036781    -2.607148     0.422640
H       -2.057670    -2.575167    -0.426974
C       -0.997197    -1.226284     5.369047
N       -0.443708    -0.545644     4.266945
C       -0.717420    -0.882239     2.901748
N        0.000000     0.000000     2.130000
C        0.733228     0.901679     2.955699
C        0.462442     0.568682     4.310734
Cl       0.982838     1.208630     5.726135
H       -1.581918    -0.519462     5.963169
H       -1.648135    -2.026756     5.007659
H       -0.186002    -1.654607     5.963168
H       -1.312400    -1.613911     2.607148
H        1.325860     1.630462     2.575167
C       -1.098460    -1.136468    -5.369047
N       -0.488768    -0.505678    -4.266945
C       -0.790278    -0.817618    -2.901748
N        0.000000     0.000000    -2.130000
C        0.807691     0.835633    -2.955699
C        0.509405     0.527028    -4.310734
Cl       1.082647     1.120105    -5.726135
H       -0.326884    -1.632621    -5.963169
H       -1.815492    -1.878318    -5.007659
H       -1.620566    -0.382212    -5.963168
H       -1.445683    -1.495695    -2.607148
H        1.460509     1.511035    -2.575167
51
ex_0127 frame1 trans-OC-6-1-conf2
Fe       0.000000     0.000000     0.000000
Cl       2.440000     0.000000     0.000000
Cl      -2.440000     0.000000     0.000000
C       -1.580482     5.369047     0.015880
N       -0.703245     4.266945     0.007067
C       -1.137061     2.901748     0.011428
N        0.000000     2.130000     0.000000
C        1.162115     2.955699    -0.011680
C        0.732938     4.310734    -0.007366
Cl       1.557727     5.726135    -0.015654
H       -1.410047     5.963169    -0.885480
H       -2.612164     5.007659     0.026241
H       -1.391974     5.963168     0.913634
H       -2.080064     2.607148     0.020907
H        2.101396     2.575167    -0.021121
C        1.547596    -5.369047     0.321126
N        0.688612    -4.266945     0.142889
C        1.113400    -2.901748     0.231035
N        0.000000    -2.130000     0.000000
C       -1.137934    -2.955699    -0.236125
C       -0.717687    -4.310734    -0.148922
Cl      -1.525314    -5.726135    -0.316506
H        1.554631    -5.963169    -0.596178
H        2.557812    -5.007659     0.530742
H        1.189087    -5.963168     1.165501
H        2.036781    -2.607148     0.422640
H       -2.057670    -2.575167    -0.426974
C       -0.997197    -1.226284     5.369047
N       -0.443708    -0.545644     4.266945
C       -0.717420    -0.882239     2.901748
N        0.000000     0.000000     2.130000
C        0.733228     0.901679     2.955699
C        0.462442     0.568682     4.310734
Cl       0.982838     1.208630     5.726135
H       -1.581918    -0.519462     5.963169
H       -1.648135    -2.026756     5.007659
H       -0.186002    -1.654607     5.963168
H       -1.312400    -1.613911     2.607148
H        1.325860     1.630462     2.575167
C       -1.368365     0.791048    -5.369046
N       -0.608864     0.351979    -4.266945
C       -0.984460     0.569102    -2.901748
N        0.000000     0.000000    -2.130000
C        1.006151    -0.581642    -2.955699
C        0.634572    -0.366838    -4.310734
Cl       1.348666    -0.779652    -5.726136
H       -1.663215    -0.077603    -5.963173
H       -0.762743     1.480051    -5.963164
H       -2.261583     1.307413    -5.007656
H       -1.800906     1.041076    -2.607148
H        1.819373    -1.051754    -2.575167
51
ex_0127 frame2 trans-OC-6-1-conf3
Fe       0.000000     0.000000     0.000000
Cl       2.440000     0.000000     0.000000
Cl      -2.440000     0.000000     0.000000
C       -1.580482     5.369047     0.015880
N       -0.703245     4.266945     0.007067
C       -1.137061     2.901748     0.011428
N        0.000000     2.130000     0.000000
C        1.162115     2.955699    -0.011680
C        0.732938     4.310734    -0.007366
Cl       1.557727     5.726135    -0.015654
H       -1.410047     5.963169    -0.885480
H       -2.612164     5.007659     0.026241
H       -1.391974     5.963168     0.913634
H       -2.080064     2.607148     0.020907
H        2.101396     2.575167    -0.021121
C        1.547596    -5.369047     0.321126
N        0.688612    -4.266945     0.142889
C        1.113400    -2.901748     0.231035
N        0.000000    -2.130000     0.000000
C       -1.137934    -2.955699    -0.236125
C       -0.717687    -4.310734    -0.148922
Cl      -1.525314    -5.726135    -0.316506
H        1.554631    -5.963169    -0.596178
H        2.557812    -5.007659     0.530742
H        1.189087    -5.963168     1.165501
H        2.036781    -2.607148     0.422640
H       -2.057670    -2.575167    -0.426974
C       -0.858778     1.326906     5.369046
N       -0.382116     0.590416     4.266945
C       -0.617830     0.954633     2.901748
N        0.000000     0.000000     2.130000
C        0.631443    -0.975667     2.955699
C        0.398248    -0.615345     4.310734
Cl       0.846407    -1.307804     5.726136
H       -0.006033     1.665014     5.963173
H       -1.516493     0.687442     5.963164
H       -1.419355     2.193061     5.007656
H       -1.130216     1.746342     2.607148
H        1.141808    -1.764251     2.575167
C       -1.098460    -1.136468    -5.369047
N       -0.488768    -0.505678    -4.266945
C       -0.790278    -0.817618    -2.901748
N        0.000000     0.000000    -2.130000
C        0.807691     0.835633    -2.955699
C        0.509405     0.527028    -4.310734
Cl       1.082647     1.120105    -5.726135
H       -0.326884    -1.632621    -5.963169
H       -1.815492    -1.878318    -5.007659
H       -1.620566    -0.382212    -5.963168
H       -1.445683    -1.495695    -2.607148
H        1.460509     1.511035    -2.575167
51
ex_0127 frame3 trans-OC-6-1-conf4
Fe       0.000000     0.000000     0.000000
Cl       2.440000     0.000000     0.000000
Cl      -2.440000     0.000000     0.000000
C       -1.580482     5.369047     0.015880
N       -0.703245     4.266945     0.007067
C       -1.137061     2.901748     0.011428
N        0.000000     2.130000     0.000000
C        1.162115     2.955699    -0.011680
C        0.732938     4.310734    -0.007366
Cl       1.557727     5.726135    -0.015654
H       -1.410047     5.963169    -0.885480
H       -2.612164     5.007659     0.026241
H       -1.391974     5.963168     0.913634
H       -2.080064     2.607148     0.020907
H        2.101396     2.575167    -0.021121
C       -1.572014    -5.369046     0.164162
N       -0.699477    -4.266945     0.073047
C       -1.130967    -2.901748     0.118114
N        0.000000    -2.130000     0.000000
C        1.155887    -2.955699    -0.120716
C        0.729010    -4.310734    -0.076134
Cl       1.549379    -5.726136    -0.161805
H       -1.300069    -5.963173     1.040254
H       -1.486943    -5.963164    -0.749220
H       -2.598166    -5.007656     0.271322
H       -2.068916    -2.607148     0.216071
H        2.090134    -2.575167    -0.218285
C       -0.997197    -1.226284     5.369047
N       -0.443708    -0.545644     4.266945
C       -0.717420    -0.882239     2.901748
N        0.000000     0.000000     2.130000
C        0.733228     0.901679     2.955699
C        0.462442     0.568682     4.310734
Cl       0.982838     1.208630     5.726135
H       -1.581918    -0.519462     5.963169
H       -1.648135    -2.026756     5.007659
H       -0.186002    -1.654607     5.963168
H       -1.312400    -1.613911     2.607148
H        1.325860     1.630462     2.575167
C       -1.098460    -1.136468    -5.369047
N       -0.488768    -0.505678    -4.266945
C       -0.790278    -0.817618    -2.901748
N        0.000000     0.000000    -2.130000
C        0.807691     0.835633    -2.955699
C        0.509405     0.527028    -4.310734
Cl       1.082647     1.120105    -5.726135
H       -0.326884    -1.632621    -5.963169
H       -1.815492    -1.878318    -5.007659
H       -1.620566    -0.382212    -5.963168
H       -1.445683    -1.495695    -2.607148
H        1.460509     1.511035    -2.575167
51
ex_0127 frame4 trans-OC-6-1-conf6
Fe       0.000000     0.000000     0.000000
Cl       2.440000     0.000000     0.000000
Cl      -2.440000     0.000000     0.000000
C       -1.580482     5.369047     0.015880
N       -0.703245     4.266945     0.007067
C       -1.137061     2.901748     0.011428
N        0.000000     2.130000     0.000000
C        1.162115     2.955699    -0.011680
C        0.732938     4.310734    -0.007366
Cl       1.557727     5.726135    -0.015654
H       -1.410047     5.963169    -0.885480
H       -2.612164     5.007659     0.026241
H       -1.391974     5.963168     0.913634
H       -2.080064     2.607148     0.020907
H        2.101396     2.575167    -0.021121
C        1.547596    -5.369047     0.321126
N        0.688612    -4.266945     0.142889
C        1.113400    -2.901748     0.231035
N        0.000000    -2.130000     0.000000
C       -1.137934    -2.955699    -0.236125
C       -0.717687    -4.310734    -0.148922
Cl      -1.525314    -5.726135    -0.316506
H        1.554631    -5.963169    -0.596178
H        2.557812    -5.007659     0.530742
H        1.189087    -5.963168     1.165501
H        2.036781    -2.607148     0.422640
H       -2.057670    -2.575167    -0.426974
C       -0.858778     1.326906     5.369046
N       -0.382116     0.590416     4.266945
C       -0.617830     0.954633     2.901748
N        0.000000     0.000000     2.130000
C        0.631443    -0.975667     2.955699
C        0.398248    -0.615345     4.310734
Cl       0.846407    -1.307804     5.726136
H       -0.006033     1.665014     5.963173
H       -1.516493     0.687442     5.963164
H       -1.419355     2.193061     5.007656
H       -1.130216     1.746342     2.607148
H        1.141808    -1.764251     2.575167
C       -1.368365     0.791048    -5.369046
N       -0.608864     0.351979    -4.266945
C       -0.984460     0.569102    -2.901748
N        0.000000     0.000000    -2.130000
C        1.006151    -0.581642    -2.955699
C        0.634572    -0.366838    -4.310734
Cl       1.348666    -0.779652    -5.726136
H       -1.663215    -0.077603    -5.963173
H       -0.762743     1.480051    -5.963164
H       -2.261583     1.307413    -5.007656
H       -1.800906     1.041076    -2.607148
H        1.819373    -1.051754    -2.575167
51
ex_0127 frame5 trans-OC-6-1-conf7
Fe       0.000000     0.000000     0.000000
Cl       2.440000     0.000000     0.000000
Cl      -2.440000     0.000000     0.000000
C       -1.580482     5.369047     0.015880
N       -0.703245     4.266945     0.007067
C       -1.137061     2.901748     0.011428
N        0.000000     2.130000     0.000000
C        1.162115     2.955699    -0.011680
C        0.732938     4.310734    -0.007366
Cl       1.557727     5.726135    -0.015654
H       -1.410047     5.963169    -0.885480
H       -2.612164     5.007659     0.026241
H       -1.391974     5.963168     0.913634
H       -2.080064     2.607148     0.020907
H        2.101396     2.575167    -0.021121
C       -1.572014    -5.369046     0.164162
N       -0.699477    -4.266945     0.073047
C       -1.130967    -2.901748     0.118114
N        0.000000    -2.130000     0.000000
C        1.155887    -2.955699    -0.120716
C        0.729010    -4.310734    -0.076134
Cl       1.549379    -5.726136    -0.161805
H       -1.300069    -5.963173     1.040254
H       -1.486943    -5.963164    -0.749220
H       -2.598166    -5.007656     0.271322
H       -2.068916    -2.607148     0.216071
H        2.090134    -2.575167    -0.218285
C       -0.997197    -1.226284     5.369047
N       -0.443708    -0.545644     4.266945
C       -0.717420    -0.882239     2.901748
N        0.000000     0.000000     2.130000
C        0.733228     0.901679     2.955699
C        0.462442     0.568682     4.310734
Cl       0.982838     1.208630     5.726135
H       -1.581918    -0.519462     5.963169
H       -1.648135    -2.026756     5.007659
H       -0.186002    -1.654607     5.963168
H       -1.312400    -1.613911     2.607148
H        1.325860     1.630462     2.575167
C       -1.368365     0.791048    -5.369046
N       -0.608864     0.351979    -4.266945
C       -0.984460     0.569102    -2.901748
N        0.000000     0.000000    -2.130000
C        1.006151    -0.581642    -2.955699
C        0.634572    -0.366838    -4.310734
Cl       1.348666    -0.779652    -5.726136
H       -1.663215    -0.077603    -5.963173
H       -0.762743     1.480051    -5.963164
H       -2.261583     1.307413    -5.007656
H       -1.800906     1.041076    -2.607148
H        1.819373    -1.051754    -2.575167
51
ex_0127 frame6 trans-OC-6-1-conf8
Fe       0.000000     0.000000     0.000000
Cl       2.440000     0.000000     0.000000
Cl      -2.440000     0.000000     0.000000
C       -1.580482     5.369047     0.015880
N       -0.703245     4.266945     0.007067
C       -1.137061     2.901748     0.011428
N        0.000000     2.130000     0.000000
C        1.162115     2.955699    -0.011680
C        0.732938     4.310734    -0.007366
Cl       1.557727     5.726135    -0.015654
H       -1.410047     5.963169    -0.885480
H       -2.612164     5.007659     0.026241
H       -1.391974     5.963168     0.913634
H       -2.080064     2.607148     0.020907
H        2.101396     2.575167    -0.021121
C       -1.572014    -5.369046     0.164162
N       -0.699477    -4.266945     0.073047
C       -1.130967    -2.901748     0.118114
N        0.000000    -2.130000     0.000000
C        1.155887    -2.955699    -0.120716
C        0.729010    -4.310734    -0.076134
Cl       1.549379    -5.726136    -0.161805
H       -1.300069    -5.963173     1.040254
H       -1.486943    -5.963164    -0.749220
H       -2.598166    -5.007656     0.271322
H       -2.068916    -2.607148     0.216071
H        2.090134    -2.575167    -0.218285
C       -0.858778     1.326906     5.369046
N       -0.382116     0.590416     4.266945
C       -0.617830     0.954633     2.901748
N        0.000000     0.000000     2.130000
C        0.631443    -0.975667     2.955699
C        0.398248    -0.615345     4.310734
Cl       0.846407    -1.307804     5.726136
H       -0.006033     1.665014     5.963173
H       -1.516493     0.687442     5.963164
H       -1.419355     2.193061     5.007656
H       -1.130216     1.746342     2.607148
H        1.141808    -1.764251     2.575167
C       -1.098460    -1.136468    -5.369047
N       -0.488768    -0.505678    -4.266945
C       -0.790278    -0.817618    -2.901748
N        0.000000     0.000000    -2.130000
C        0.807691     0.835633    -2.955699
C        0.509405     0.527028    -4.310734
Cl       1.082647     1.120105    -5.726135
H       -0.326884    -1.632621    -5.963169
H       -1.815492    -1.878318    -5.007659
H       -1.620566    -0.382212    -5.963168
H       -1.445683    -1.495695    -2.607148
H        1.460509     1.511035    -2.575167
51
ex_0127 frame7 trans-OC-6-1-conf10
Fe       0.000000     0.000000     0.000000
Cl       2.440000     0.000000     0.000000
Cl      -2.440000     0.000000     0.000000
C        0.825226     5.369046     1.348028
N        0.367187     4.266945     0.599815
C        0.593692     2.901748     0.969829
N        0.000000     2.130000     0.000000
C       -0.606773     2.955699    -0.991198
C       -0.382689     4.310734    -0.625141
Cl      -0.813339     5.726136    -1.328622
H       -0.035731     5.963173     1.664641
H        1.498774     5.963164     0.725263
H        1.363902     5.007656     2.227971
H        1.086059     2.607148     1.774141
H       -1.097198     2.575167    -1.792334
C        1.547596    -5.369047     0.321126
N        0.688612    -4.266945     0.142889
C        1.113400    -2.901748     0.231035
N        0.000000    -2.130000     0.000000
C       -1.137934    -2.955699    -0.236125
C       -0.717687    -4.310734    -0.148922
Cl      -1.525314    -5.726135    -0.316506
H        1.554631    -5.963169    -0.596178
H        2.557812    -5.007659     0.530742
H        1.189087    -5.963168     1.165501
H        2.036781    -2.607148     0.422640
H       -2.057670    -2.575167    -0.426974
C       -0.858778     1.326906     5.369046
N       -0.382116     0.590416     4.266945
C       -0.617830     0.954633     2.901748
N        0.000000     0.000000     2.130000
C        0.631443    -0.975667     2.955699
C        0.398248    -0.615345     4.310734
Cl       0.846407    -1.307804     5.726136
H       -0.006033     1.665014     5.963173
H       -1.516493     0.687442     5.963164
H       -1.419355     2.193061     5.007656
H       -1.130216     1.746342     2.607148
H        1.141808    -1.764251     2.575167
C       -1.098460    -1.136468    -5.369047
N       -0.488768    -0.505678    -4.266945
C       -0.790278    -0.817618    -2.901748
N        0.000000     0.000000    -2.130000
C        0.807691     0.835633    -2.955699
C        0.509405     0.527028    -4.310734
Cl       1.082647     1.120105    -5.726135
H       -0.326884    -1.632621    -5.963169
H       -1.815492    -1.878318    -5.007659
H       -1.620566    -0.382212    -5.963168
H       -1.445683    -1.495695    -2.607148
H        1.460509     1.511035    -2.575167
51
ex_0127 frame8 cis-OC-6-2
Fe       0.000000     0.000000     0.000000
Cl       2.440000     0.000000     0.000000
C       -5.369047    -1.576635     0.111344
N       -4.266945    -0.701533     0.049545
C       -2.901748    -1.134293     0.080109
N       -2.130000     0.000000     0.000000
C       -2.955699     1.159286    -0.081874
C       -4.310734     0.731154    -0.051637
Cl      -5.726135     1.553935    -0.109743
H       -5.963169    -1.460971    -0.798666
H       -5.007659    -2.605806     0.184021
H       -5.963168    -1.334229     0.996069
H       -2.607148    -2.075000     0.146547
H       -2.575167     2.096281    -0.148049
Cl       0.000000     2.440000     0.000000
C        0.803429    -5.369047     1.361131
N        0.357489    -4.266945     0.605645
C        0.578017    -2.901748     0.979252
N        0.000000    -2.130000     0.000000
C       -0.590753    -2.955700    -1.000829
C       -0.372585    -4.310735    -0.631215
Cl      -0.791862    -5.726135    -1.341533
H       -0.062512    -5.963172     1.663851
H        1.327879    -5.007658     2.249627
H        1.486907    -5.963166     0.749283
H        1.057387    -2.607148     1.791377
H       -1.068229    -2.575168    -1.809750
C       -0.997197    -1.226284     5.369047
N       -0.443708    -0.545644     4.266945
C       -0.717420    -0.882239     2.901748
N        0.000000     0.000000     2.130000
C        0.733228     0.901679     2.955699
C        0.462442     0.568682     4.310734
Cl       0.982838     1.208630     5.726135
H       -1.581918    -0.519462     5.963169
H       -1.648135    -2.026756     5.007659
H       -0.186002    -1.654607     5.963168
H       -1.312400    -1.613911     2.607148
H        1.325860     1.630462     2.575167
C       -1.368365     0.791048    -5.369046
N       -0.608864     0.351979    -4.266945
C       -0.984460     0.569102    -2.901748
N        0.000000     0.000000    -2.130000
C        1.006151    -0.581642    -2.955699
C        0.634572    -0.366838    -4.310734
Cl       1.348666    -0.779652    -5.726136
H       -1.663215    -0.077603    -5.963173
H       -0.762743     1.480051    -5.963164
H       -2.261583     1.307413    -5.007656
H       -1.800906     1.041076    -2.607148
H        1.819373    -1.051754    -2.575167
51
ex_0127 frame9 cis-OC-6-2-conf4
Fe       0.000000     0.000000     0.000000
Cl       2.440000     0.000000     0.000000
C       -5.369047    -1.036117     1.193581
N       -4.266945    -0.461026     0.531092
C       -2.928733    -0.706732     0.812972
N       -2.130000     0.000000     0.000000
C       -2.955625     0.765865    -0.882256
C       -4.318681     0.487119    -0.561139
Cl      -5.726135     1.021198    -1.176398
H       -5.963169    -1.597805     0.468320
H       -5.007659    -1.712461     1.972706
H       -5.963168    -0.239116     1.647769
H       -2.779335    -1.276404     1.473069
H       -2.575167     1.377608    -1.586981
Cl       0.000000     2.440000     0.000000
C       -1.572014    -5.369046     0.164162
N       -0.699477    -4.266945     0.073047
C       -1.070459    -2.929040     0.114895
N        0.000000    -2.130000     0.000000
C        1.162044    -2.955623    -0.121380
C        0.739166    -4.318771    -0.077228
Cl       1.549379    -5.726136    -0.161805
H       -1.300069    -5.963173     1.040254
H       -1.486943    -5.963164    -0.749220
H       -2.598166    -5.007656     0.271322
H       -1.937980    -2.776084     0.233587
H        2.090134    -2.575167    -0.218285
C       -0.997197    -1.226284     5.369047
N       -0.443708    -0.545644     4.266945
C       -0.717420    -0.882239     2.901748
N        0.000000     0.000000     2.130000
C        0.733228     0.901679     2.955699
C        0.462442     0.568682     4.310734
Cl       0.982838     1.208630     5.726135
H       -1.581918    -0.519462     5.963169
H       -1.648135    -2.026756     5.007659
H       -0.186002    -1.654607     5.963168
H       -1.312400    -1.613911     2.607148
H        1.325860     1.630462     2.575167
C       -1.098460    -1.136468    -5.369047
N       -0.488768    -0.505678    -4.266945
C       -0.790278    -0.817618    -2.901748
N        0.000000     0.000000    -2.130000
C        0.807691     0.835633    -2.955699
C        0.509405     0.527028    -4.310734
Cl       1.082647     1.120105    -5.726135
H       -0.326884    -1.632621    -5.963169
H       -1.815492    -1.878318    -5.007659
H       -1.620566    -0.382212    -5.963168
H       -1.445683    -1.495695    -2.607148
H        1.460509     1.511035    -2.575167
51
ex_0127 frame10 cis-OC-6-2-conf6
Fe       0.000000     0.000000     0.000000
Cl       2.440000     0.000000     0.000000
C       -5.369047     1.421077     0.691891
N       -4.266945     0.632318     0.307860
C       -2.896606     1.046752     0.509636
N       -2.130000     0.000000     0.000000
C       -2.956710    -1.082568    -0.527073
C       -4.320006    -0.670099    -0.326254
Cl      -5.726135    -1.400619    -0.681927
H       -5.963169     0.865905     1.422151
H       -5.007659     2.348705     1.143536
H       -5.963168     1.653511    -0.195506
H       -2.646981     1.830844     0.935909
H       -2.575167    -1.889457    -0.919926
Cl       0.000000     2.440000     0.000000
C        1.469506    -5.369047    -0.582000
N        0.659719    -4.271460    -0.261293
C        1.101608    -2.896613    -0.436368
N        0.000000    -2.130000     0.000000
C       -1.083682    -2.960481     0.433861
C       -0.691366    -4.318729     0.273814
Cl      -1.448353    -5.726135     0.573616
H        0.971383    -5.963166    -1.352307
H        1.633889    -5.963172     0.320481
H        2.428748    -5.007658    -0.961908
H        1.934011    -2.607148    -0.765966
H       -1.922985    -2.602954     0.837566
C       -0.997197    -1.226284     5.369047
N       -0.443708    -0.545644     4.266945
C       -0.734521    -0.903270     2.896606
N        0.000000     0.000000     2.130000
C        0.759654     0.934176     2.956710
C        0.470219     0.578246     4.320006
Cl       0.982838     1.208630     5.726135
H       -1.581918    -0.519462     5.963169
H       -1.648135    -2.026756     5.007659
H       -0.186002    -1.654607     5.963168
H       -1.310899    -1.609507     2.613001
H        1.325860     1.630462     2.575167
C       -1.098460    -1.136468    -5.369047
N       -0.488768    -0.505678    -4.266945
C       -0.809116    -0.837108    -2.896606
N        0.000000     0.000000    -2.130000
C        0.836801     0.865750    -2.956710
C        0.517972     0.535892    -4.320006
Cl       1.082647     1.120105    -5.726135
H       -0.326884    -1.632621    -5.963169
H       -1.815492    -1.878318    -5.007659
H       -1.620566    -0.382212    -5.963168
H       -1.445683    -1.495695    -2.607148
H        1.460509     1.511035    -2.575167
51
ex_0127 frame11 cis-OC-6-2-conf8
Fe       0.000000     0.000000     0.000000
Cl       2.440000     0.000000     0.000000
C       -5.369047     0.515613     1.494094
N       -4.266945     0.229427     0.664806
C       -2.928733     0.350688     1.018533
N       -2.130000     0.000000     0.000000
C       -2.955625    -0.381123    -1.104386
C       -4.318681    -0.242401    -0.702427
Cl      -5.726135    -0.508192    -1.472582
H       -5.963169    -0.393325     1.617900
H       -5.007659     0.852183     2.469387
H       -5.963168     1.307452     1.030965
H       -2.748030     0.697615     2.014469
H       -2.575167    -0.685562    -1.986534
Cl       0.000000     2.440000     0.000000
C       -1.572014    -5.369046     0.164162
N       -0.699477    -4.266945     0.073047
C       -1.070459    -2.929040     0.114895
N        0.000000    -2.130000     0.000000
C        1.162044    -2.955623    -0.121380
C        0.739166    -4.318771    -0.077228
Cl       1.549379    -5.726136    -0.161805
H       -1.300069    -5.963173     1.040254
H       -1.486943    -5.963164    -0.749220
H       -2.598166    -5.007656     0.271322
H       -2.114769    -2.744914     0.257775
H        2.090134    -2.575167    -0.218285
C       -0.997197    -1.226284     5.369047
N       -0.443708    -0.545644     4.266945
C       -0.717420    -0.882239     2.901748
N        0.000000     0.000000     2.130000
C        0.733228     0.901679     2.955699
C        0.462442     0.568682     4.310734
Cl       0.982838     1.208630     5.726135
H       -1.581918    -0.519462     5.963169
H       -1.648135    -2.026756     5.007659
H       -0.186002    -1.654607     5.963168
H       -1.312400    -1.613911     2.607148
H        1.325860     1.630462     2.575167
C       -1.368365     0.791048    -5.369046
N       -0.608864     0.351979    -4.266945
C       -0.984460     0.569102    -2.901748
N        0.000000     0.000000    -2.130000
C        1.006151    -0.581642    -2.955699
C        0.634572    -0.366838    -4.310734
Cl       1.348666    -0.779652    -5.726136
H       -1.663215    -0.077603    -5.963173
H       -0.762743     1.480051    -5.963164
H       -2.261583     1.307413    -5.007656
H       -1.800906     1.041076    -2.607148
H        1.819373    -1.051754    -2.575167
51
ex_0127 frame12 cis-OC-6-2-conf9
Fe       0.000000     0.000000     0.000000
Cl       2.440000     0.000000     0.000000
C       -5.369047    -1.036117     1.193581
N       -4.266945    -0.461026     0.531092
C       -2.928733    -0.706732     0.812972
N       -2.130000     0.000000     0.000000
C       -2.955625     0.765865    -0.882256
C       -4.318681     0.487119    -0.561139
Cl      -5.726135     1.021198    -1.176398
H       -5.963169    -1.597805     0.468320
H       -5.007659    -1.712461     1.972706
H       -5.963168    -0.239116     1.647769
H       -2.748030    -1.395774     1.611387
H       -2.575167     1.377608    -1.586981
Cl       0.000000     2.440000     0.000000
C       -1.572014    -5.369046     0.164162
N       -0.699477    -4.266945     0.073047
C       -1.070459    -2.929040     0.114895
N        0.000000    -2.130000     0.000000
C        1.162044    -2.955623    -0.121380
C        0.739166    -4.318771    -0.077228
Cl       1.549379    -5.726136    -0.161805
H       -1.300069    -5.963173     1.040254
H       -1.486943    -5.963164    -0.749220
H       -2.598166    -5.007656     0.271322
H       -1.937980    -2.776084     0.233587
H        2.090134    -2.575167    -0.218285
C       -0.858778     1.326906     5.369046
N       -0.382116     0.590416     4.266945
C       -0.617830     0.954633     2.901748
N        0.000000     0.000000     2.130000
C        0.631443    -0.975667     2.955699
C        0.398248    -0.615345     4.310734
Cl       0.846407    -1.307804     5.726136
H       -0.006033     1.665014     5.963173
H       -1.516493     0.687442     5.963164
H       -1.419355     2.193061     5.007656
H       -1.130216     1.746342     2.607148
H        1.141808    -1.764251     2.575167
C       -1.098460    -1.136468    -5.369047
N       -0.488768    -0.505678    -4.266945
C       -0.790278    -0.817618    -2.901748
N        0.000000     0.000000    -2.130000
C        0.807691     0.835633    -2.955699
C        0.509405     0.527028    -4.310734
Cl       1.082647     1.120105    -5.726135
H       -0.326884    -1.632621    -5.963169
H       -1.815492    -1.878318    -5.007659
H       -1.620566    -0.382212    -5.963168
H       -1.445683    -1.495695    -2.607148
H        1.460509     1.511035    -2.575167
51
ex_0127 frame13 cis-OC-6-2-conf10
Fe       0.000000     0.000000     0.000000
Cl       2.440000     0.000000     0.000000
C       -5.369047    -0.691891     1.421077
N       -4.266945    -0.307860     0.632318
C       -2.896606    -0.509636     1.046752
N       -2.130000     0.000000     0.000000
C       -2.956710     0.527073    -1.082568
C       -4.320006     0.326254    -0.670099
Cl      -5.726135     0.681927    -1.400619
H       -5.963169    -1.422151     0.865905
H       -5.007659    -1.143536     2.348705
H       -5.963168     0.195506     1.653511
H       -2.647250    -0.936136     1.830530
H       -2.575167     0.919926    -1.889457
Cl       0.000000     2.440000     0.000000
C        1.469506    -5.369047    -0.582000
N        0.659719    -4.271460    -0.261293
C        1.101607    -2.896613    -0.436367
N        0.000000    -2.130000     0.000000
C       -1.083715    -2.960461     0.433838
C       -0.691366    -4.318729     0.273814
Cl      -1.448353    -5.726135     0.573616
H        0.971383    -5.963166    -1.352307
H        1.633889    -5.963172     0.320481
H        2.428748    -5.007658    -0.961908
H        1.934011    -2.607148    -0.765966
H       -1.924194    -2.603910     0.835214
C       -0.716411    -1.408875     5.369047
N       -0.318772    -0.626888     4.266945
C       -0.527702    -1.037761     2.896606
N        0.000000     0.000000     2.130000
C        0.545758     1.073270     2.956711
C        0.337820     0.664344     4.320007
Cl       0.706099     1.388590     5.726135
H       -1.436940    -0.841133     5.963171
H        0.166827    -1.656652     5.963166
H       -1.184062    -2.328537     5.007658
H       -0.937200    -1.848253     2.617654
H        0.952538     1.873228     2.575168
C       -1.098460    -1.136468    -5.369047
N       -0.488768    -0.505678    -4.266945
C       -0.809116    -0.837108    -2.896606
N        0.000000     0.000000    -2.130000
C        0.836801     0.865750    -2.956710
C        0.517972     0.535892    -4.320006
Cl       1.082647     1.120105    -5.726135
H       -0.326884    -1.632621    -5.963169
H       -1.815492    -1.878318    -5.007659
H       -1.620566    -0.382212    -5.963168
H       -1.445683    -1.495695    -2.607148
H        1.460509     1.511035    -2.575167
