45
ex_0253 frame0 linear
C       -3.213022    -2.846283     3.097258
C       -3.429679    -1.495644     3.027189
C       -2.594413    -0.635332     2.306892
C       -1.502967    -1.171327     1.646924
P       -0.498542     0.002885     0.783294
Au       0.931293    -1.268529    -0.365667
Se       3.257544    -1.979110    -0.072187
C        4.316609    -1.703769    -1.653023
N        3.936967    -2.157733    -2.863565
C        4.719911    -1.939372    -3.958224
C        5.916031    -1.234936    -3.775169
C        6.299646    -0.772169    -2.531602
N        5.475861    -1.023503    -1.488042
C       -1.381630     0.803080    -0.559811
C       -1.872824     0.115238    -1.649581
C       -2.613243     0.812129    -2.586195
C       -2.818644     2.172585    -2.453945
C       -2.286217     2.853653    -1.383644
C       -1.554362     2.176750    -0.454344
C        0.383695     1.145857     1.786693
C        0.275404     1.050139     3.158360
C        0.848032     1.963027     4.021291
C        1.612167     2.997560     3.503599
C        1.774106     3.077539     2.130200
C        1.182800     2.138982     1.282252
C       -1.314048    -2.536246     1.728212
C       -2.132754    -3.380833     2.434549
H       -3.843090    -3.517677     3.644275
H       -4.292143    -1.107206     3.562547
H       -2.788085     0.438212     2.266104
H        4.435974    -2.294996    -4.944187
H        6.585364    -1.026053    -4.599800
H        7.210476    -0.228125    -2.354057
H       -1.701550    -0.946860    -1.735640
H       -3.015785     0.250910    -3.410911
H       -3.398623     2.721720    -3.186324
H       -2.449696     3.927819    -1.281278
H       -1.126950     2.696582     0.396413
H       -0.314530     0.256102     3.600264
H        0.696601     1.864729     5.092183
H        2.061203     3.712684     4.172808
H        2.374457     3.891413     1.733367
H        1.341719     2.249095     0.215424
H       -0.467705    -2.944206     1.207340
H       -1.925530    -4.451237     2.465427
45
ex_0253 frame1 P-Se
C        3.619943     2.570166    -3.589190
C        2.279311     2.282298    -3.429160
C        1.909206     1.518155    -2.356296
C        2.801935     1.017567    -1.422748
P        2.280000     0.000000     0.000000
Au       0.000000     0.000000     0.000000
Se      -2.450000     0.000000     0.000000
C       -4.386681    -0.046069     0.001323
N       -5.032267     1.149439    -0.033046
C       -6.387714     1.201443    -0.034539
C       -7.088923     0.015311    -0.000439
C       -6.426279    -1.210582     0.034801
N       -5.060486    -1.210891     0.034809
C        2.862194    -1.728474    -0.162530
C        2.243617    -2.755568     0.519729
C        2.682898    -4.071536     0.399190
C        3.756166    -4.395459    -0.409812
C        4.386875    -3.369431    -1.101675
C        3.943597    -2.068056    -0.975313
C        2.831463     0.751707     1.586491
C        2.455745     0.098802     2.742477
C        2.852943     0.635374     3.962374
C        3.613869     1.807929     4.000989
C        3.982852     2.450963     2.836532
C        3.582240     1.908192     1.631363
C        4.133971     1.332594    -1.625320
C        4.563721     2.102625    -2.694910
H        3.896556     3.174260    -4.440591
H        1.510002     2.624946    -4.100315
H        0.854126     1.260440    -2.183540
H       -6.839736     2.174291    -0.062507
H       -8.188535     0.063928    -0.001835
H       -6.988221    -2.136870     0.061436
H        1.398615    -2.568929     1.168832
H        2.191892    -4.888867     0.941102
H        4.120517    -5.409087    -0.523647
H        5.219694    -3.589960    -1.734918
H        4.455170    -1.308098    -1.523631
H        1.874158    -0.801062     2.771101
H        2.584950     0.162194     4.905583
H        3.922140     2.222962     4.970257
H        4.561645     3.341556     2.886406
H        3.848051     2.376176     0.716983
H        4.911002     0.986730    -0.947751
H        5.630427     2.328888    -2.818062
45
ex_0253 frame2 P-Se-conf2
C        3.385723    -1.109507     4.357305
C        4.352895    -0.778543     3.453196
C        4.013589    -0.443765     2.136683
C        2.701543    -0.436386     1.709692
P        2.280000     0.000000     0.000000
Au       0.000000     0.000000     0.000000
Se      -2.450000     0.000000     0.000000
C       -4.379458     0.004807    -0.012188
N       -5.063673     0.429739    -1.089555
C       -6.418421     0.436603    -1.106954
C       -7.098437    -0.001720     0.004367
C       -6.399818    -0.438138     1.110852
N       -5.059253    -0.422978     1.072413
C        2.796453     1.679444    -0.471141
C        1.902867     2.700481    -0.748485
C        2.289269     3.961910    -1.102341
C        3.624047     4.277214    -1.200111
C        4.542140     3.284659    -0.930881
C        4.136565     1.995179    -0.569074
C        2.807660    -1.242775    -1.232063
C        3.994967    -1.944368    -1.130095
C        4.383311    -2.887150    -2.075471
C        3.583039    -3.157688    -3.164255
C        2.397004    -2.471595    -3.286345
C        2.025826    -1.548769    -2.352957
C        1.749605    -0.780530     2.666181
C        2.064518    -1.109626     3.954662
H        3.622813    -1.372396     5.382171
H        5.377900    -0.785429     3.790886
H        4.829000    -0.198256     1.495882
H       -6.918074     0.788270    -1.998585
H       -8.169432    -0.005501     0.013940
H       -6.909500    -0.791083     2.005711
H        0.837795     2.433855    -0.666291
H        1.519776     4.687520    -1.298418
H        3.919440     5.279064    -1.481062
H        5.596072     3.531141    -1.007395
H        4.919583     1.295855    -0.380407
H        4.640616    -1.768441    -0.309764
H        5.313293    -3.438158    -1.997629
H        3.821238    -3.869714    -3.927636
H        1.716489    -2.639717    -4.127212
H        1.096998    -1.006759    -2.442115
H        0.721641    -0.769440     2.312383
H        1.257474    -1.367301     4.642109
45
ex_0253 frame3 P-Se-conf3
C        3.476272     4.422776    -0.634025
C        4.146450     3.648252     0.286349
C        3.824567     2.312307     0.514174
C        2.802761     1.728239    -0.196864
P        2.280000     0.000000     0.000000
Au       0.000000     0.000000     0.000000
Se      -2.450000     0.000000     0.000000
C       -4.369758     0.003858    -0.001001
N       -5.058923    -1.133981     0.293707
C       -6.416768    -1.166785     0.302205
C       -7.085646     0.001762    -0.000457
C       -6.396730     1.172582    -0.303707
N       -5.040114     1.142825    -0.296002
C        2.798904    -0.740886     1.580125
C        4.122792    -0.931832     1.908504
C        4.476688    -1.502583     3.128807
C        3.505469    -1.896069     4.050623
C        2.184992    -1.703257     3.717964
C        1.849166    -1.142832     2.518963
C        3.052279    -0.984567    -1.355945
C        2.280151    -1.860015    -2.063367
C        2.747986    -2.649016    -3.098387
C        4.085512    -2.521042    -3.413243
C        4.899565    -1.637614    -2.711291
C        4.388015    -0.861980    -1.676169
C        2.124348     2.502820    -1.124836
C        2.438967     3.829653    -1.355769
H        3.732837     5.453895    -0.802391
H        4.946784     4.121920     0.836933
H        4.350018     1.715937     1.231518
H       -6.925558    -2.091934     0.541820
H       -8.177332    -0.017049     0.004426
H       -6.912559     2.088722    -0.540992
H        4.897622    -0.637125     1.214961
H        5.505290    -1.667325     3.419649
H        3.771059    -2.340855     5.002255
H        1.362870    -1.981566     4.378926
H        0.796228    -0.990714     2.257239
H        1.230246    -1.950977    -1.805674
H        2.087527    -3.336545    -3.635498
H        4.475505    -3.127666    -4.219366
H        5.953526    -1.579403    -3.006673
H        5.014450    -0.185217    -1.139402
H        1.307522     2.095834    -1.716735
H        1.881501     4.397452    -2.091357
45
ex_0253 frame4 P-Se-conf4
C        3.638431    -1.389438    -4.149922
C        2.303799    -1.108083    -3.950959
C        1.890288    -0.692210    -2.713034
C        2.810069    -0.556453    -1.670447
P        2.280000     0.000000     0.000000
Au       0.000000     0.000000     0.000000
Se      -2.450000     0.000000     0.000000
C       -4.364822    -0.031464     0.045492
N       -5.001591     0.652906    -0.944029
C       -6.342090     0.690029    -0.997706
C       -7.064519     0.009720    -0.014055
C       -6.424244    -0.687129     0.993511
N       -5.074763    -0.671052     0.970265
C        2.804333     1.708707     0.367274
C        1.978580     2.570027     1.089175
C        2.343473     3.865167     1.383580
C        3.548390     4.364497     0.973034
C        4.379353     3.528436     0.257811
C        4.014894     2.233226    -0.036833
C        2.894916    -1.159650     1.289900
C        2.523872    -2.484219     1.182111
C        2.962318    -3.407684     2.133836
C        3.764519    -2.973581     3.171680
C        4.141595    -1.638438     3.284853
C        3.700186    -0.730169     2.333796
C        4.149401    -0.833323    -1.850511
C        4.545401    -1.251119    -3.105919
H        3.949708    -1.719950    -5.144266
H        1.549145    -1.195949    -4.722217
H        0.837735    -0.461068    -2.523001
H       -6.831668     1.240494    -1.793613
H       -8.150055     0.022630    -0.032719
H       -6.949891    -1.226134     1.772854
H        1.026317     2.166454     1.410357
H        1.612503     4.447219     1.956589
H        3.792748     5.386142     1.226677
H        5.332573     3.962744    -0.052591
H        4.688320     1.606192    -0.597969
H        1.894845    -2.856999     0.379038
H        2.686952    -4.457566     2.075992
H        4.107844    -3.688342     3.914162
H        4.774600    -1.311047     4.108820
H        3.977671     0.310534     2.397802
H        4.892421    -0.739768    -1.065946
H        5.575043    -1.494291    -3.352870
45
ex_0253 frame5 P-Se-conf5
C        4.318089    -2.940492     2.840984
C        5.010575    -2.412095     1.769459
C        4.351490    -1.539141     0.954668
C        3.023681    -1.195656     1.200249
P        2.280000     0.000000     0.000000
Au       0.000000     0.000000     0.000000
Se      -2.450000     0.000000     0.000000
C       -4.382817    -0.020805    -0.000918
N       -5.065739     1.156246     0.051040
C       -6.412231     1.192529     0.052642
C       -7.102707    -0.004772    -0.000211
C       -6.415400    -1.200063    -0.052976
N       -5.067800    -1.194337    -0.052721
C        2.935299    -0.437470    -1.671801
C        3.377704     0.535913    -2.543658
C        3.857353     0.117290    -3.787266
C        3.871824    -1.228885    -4.094718
C        3.429471    -2.204612    -3.223453
C        2.949376    -1.786229    -1.978817
C        2.885824     1.655899     0.504683
C        4.169336     2.015001     0.147108
C        4.621166     3.275804     0.535251
C        3.807541     4.137006     1.255276
C        2.526956     3.768828     1.607529
C        2.067498     2.524251     1.229828
C        2.312767    -1.703943     2.254717
C        2.987382    -2.598915     3.090640
H        4.827211    -3.633889     3.495824
H        6.038948    -2.653427     1.546350
H        4.898817    -1.114765     0.098766
H       -6.938880     2.154891     0.095133
H       -8.198903     0.018453     0.000811
H       -7.010563    -2.102144    -0.092801
H        3.354084     1.572496    -2.276758
H        4.222123     0.830894    -4.524134
H        4.253594    -1.521003    -5.076242
H        3.459303    -3.248041    -3.506731
H        2.591701    -2.535776    -1.266371
H        4.848775     1.411489    -0.401766
H        5.639837     3.598260     0.268448
H        4.200766     5.114871     1.538966
H        1.874275     4.443111     2.177611
H        1.076936     2.196770     1.482954
H        1.298991    -1.411898     2.402481
H        2.454671    -3.031647     3.949941
45
ex_0253 frame6 P-Se-conf6
C        3.837241    -3.770318     2.068982
C        2.616431    -3.832779     1.429223
C        2.151758    -2.676220     0.801590
C        2.907456    -1.515747     0.832534
P        2.280000     0.000000     0.000000
Au       0.000000     0.000000     0.000000
Se      -2.450000     0.000000     0.000000
C       -4.277190     0.000007     0.000005
N       -4.973304     0.708281    -0.906608
C       -6.318669     0.703224    -0.900102
C       -6.954738    -0.038741     0.049662
C       -6.232626    -0.763757     0.977696
N       -4.869104    -0.743441     0.951651
C        2.875954     1.524456     0.822034
C        3.055400     1.630387     2.177225
C        3.507688     2.788605     2.797142
C        3.791540     3.896357     1.991450
C        3.621384     3.826490     0.610465
C        3.168955     2.645384     0.060998
C        3.081799    -0.015483    -1.669013
C        4.382274     0.453007    -1.759604
C        4.997499     0.449143    -2.997760
C        4.282362    -0.021745    -4.078399
C        2.998018    -0.488257    -4.009257
C        2.379113    -0.483516    -2.759155
C        4.129010    -1.437254     1.467475
C        4.593375    -2.596126     2.095693
H        4.226303    -4.668650     2.571696
H        2.010169    -4.721843     1.390754
H        1.198177    -2.653814     0.278703
H       -6.864197     1.280184    -1.638631
H       -8.046331    -0.037892     0.048620
H       -6.771622    -1.353904     1.733115
H        2.838791     0.781374     2.803500
H        3.648448     2.873086     3.855740
H        4.150646     4.831632     2.434650
H        3.844679     4.697813    -0.023147
H        3.035060     2.583405    -1.003722
H        4.877882     0.808197    -0.857761
H        6.009097     0.806564    -3.105362
H        4.761974    -0.024836    -5.044062
H        2.468549    -0.849246    -4.874833
H        1.362602    -0.838258    -2.627650
H        4.678623    -0.516496     1.464994
H        5.540953    -2.587355     2.605203
