61
ex_0048 frame0 T-shaped I-I-ax/Sb-eq-conf5
C       -3.029795     1.712980    -3.278697
O       -2.312787     2.252068    -2.222107
C       -2.830528     3.060371    -1.254434
C       -4.165355     3.504100    -1.328681
C       -4.683200     4.344403    -0.354309
C       -3.887321     4.763668     0.702505
C       -2.550777     4.328009     0.814248
O       -1.772326     4.735413     1.849580
C       -2.191482     5.584162     2.855085
C       -2.026693     3.456459    -0.158116
Sb       0.000000     2.710000     0.000000
C        0.963924     3.325476     1.834419
C        0.453080     2.863113     3.064134
O       -0.650550     2.066529     3.079887
C       -1.223643     1.533466     4.219449
C        1.091863     3.231735     4.261752
C        2.215774     4.044715     4.236424
C        2.712593     4.522752     3.027382
C        2.091166     4.169251     1.809702
O        2.553357     4.622705     0.614206
C        3.671199     5.386161     0.326821
C        1.064987     3.610271    -1.655256
C        1.861673     2.808736    -2.513218
O        1.952635     1.465121    -2.306965
C        2.704303     0.591647    -3.080490
C        2.555551     3.415945    -3.577603
C        2.468751     4.785704    -3.782917
C        1.684049     5.571686    -2.945762
C        0.967877     4.989281    -1.880163
O        0.184213     5.741300    -1.066142
C        0.022485     7.106098    -1.158411
Hg       0.000000     0.000000     0.000000
I        2.721288    -0.152776     0.434214
I       -2.745819    -0.252228     0.118115
H       -2.344627     1.180689    -3.968018
H       -3.532482     2.516693    -3.858620
H       -3.790771     0.993582    -2.902803
H       -4.823613     3.199442    -2.128870
H       -5.710658     4.674194    -0.418612
H       -4.334858     5.418085     1.434985
H       -2.504028     6.557429     2.417114
H       -3.044490     5.128767     3.404309
H       -1.363717     5.765067     3.567552
H       -1.552403     2.353802     4.893535
H       -2.108321     0.923628     3.948843
H       -0.492448     0.883448     4.748709
H        0.747175     2.873524     5.221432
H        2.708639     4.299910     5.164646
H        3.589486     5.142152     3.082117
H        4.304231     5.617428     1.198800
H        4.301110     4.844207    -0.407649
H        3.340614     6.342163    -0.127059
H        2.645305    -0.435820    -2.668687
H        2.320809     0.571312    -4.123045
H        3.774319     0.897481    -3.080337
H        3.175896     2.841831    -4.251971
H        3.012888     5.239222    -4.599772
H        1.640984     6.631329    -3.144466
H        0.990124     7.612089    -0.954564
H       -0.344957     7.377778    -2.171566
H       -0.727513     7.437062    -0.413779
61
ex_0048 frame1 T-shaped I-I-ax/Sb-eq-conf2
C        0.985482     1.638314     4.342600
O        0.499058     2.178317     3.163599
C       -0.627923     2.934915     3.048386
C       -1.366827     3.306678     4.190113
C       -2.502847     4.096318     4.067134
C       -2.918140     4.535007     2.816339
C       -2.208232     4.168087     1.655536
O       -2.612412     4.588928     0.430586
C       -3.741175     5.341595     0.182852
C       -1.073142     3.347473     1.770889
Sb       0.000000     2.710000     0.000000
C       -0.929138     3.620527    -1.728595
C       -1.852637     2.886219    -2.512875
O       -2.141714     1.592800    -2.198564
C       -3.066479     0.806594    -2.869872
C       -2.466572     3.506687    -3.617790
C       -2.162641     4.820023    -3.945446
C       -1.246814     5.539765    -3.182938
C       -0.612420     4.940264    -2.075499
O        0.301933     5.616719    -1.335498
C        0.676514     6.930999    -1.504110
C        2.015324     3.484377    -0.058697
C        2.503792     4.355581     0.935881
O        1.690401     4.755270     1.948842
C        2.068839     5.577340     2.994367
C        3.840842     4.801817     0.862150
C        4.662783     4.402379    -0.187737
C        4.172586     3.565013    -1.182133
C        2.849421     3.093080    -1.123746
O        2.359960     2.261171    -2.083425
C        3.061789     1.785617    -3.173723
Hg       0.000000     0.000000     0.000000
I        2.745619    -0.259185     0.112400
I       -2.696683    -0.193562     0.555430
H        0.299035     0.849284     4.721169
H        1.984268     1.192220     4.164748
H        1.108112     2.430546     5.112533
H       -1.086735     2.982078     5.181826
H       -3.068729     4.368409     4.947731
H       -3.810810     5.140537     2.766265
H       -4.647029     4.780785     0.500486
H       -3.678823     6.305057     0.732697
H       -3.812245     5.557465    -0.901209
H       -3.074447    -0.221577    -2.458115
H       -2.805600     0.731749    -3.947537
H       -4.083835     1.241552    -2.756743
H       -3.176918     2.982353    -4.241928
H       -2.635631     5.275540    -4.804621
H       -1.027995     6.552744    -3.482631
H       -0.162386     7.597569    -1.215328
H        0.979909     7.119402    -2.556047
H        1.551076     7.139814    -0.855919
H        2.447316     6.546481     2.601916
H        2.858943     5.085315     3.602668
H        1.194506     5.783986     3.642846
H        4.265397     5.451408     1.613512
H        5.688946     4.740892    -0.230885
H        4.841643     3.270057    -1.977867
H        3.979155     1.253131    -2.840397
H        3.333615     2.627433    -3.844656
H        2.430857     1.066383    -3.734254
61
ex_0048 frame2 cis
C        0.327712    -3.116177     3.833633
O        0.224410    -2.193644     2.807264
C       -0.389445    -0.981119     2.889788
C       -0.905893    -0.514432     4.115864
C       -1.515197     0.732853     4.193821
C       -1.605970     1.540005     3.064553
C       -1.108951     1.092881     1.822797
O       -1.198603     1.870704     0.714619
C       -1.809002     3.105738     0.648011
C       -0.522404    -0.181903     1.732203
Sb       0.183850    -0.936041    -0.179718
C       -0.100868     0.614977    -1.654404
C       -1.232568     0.579537    -2.498809
O       -2.129606    -0.438562    -2.382627
C       -3.290675    -0.572844    -3.123638
C       -1.418221     1.600181    -3.451748
C       -0.494283     2.634348    -3.560958
C        0.623779     2.669271    -2.728780
C        0.834475     1.651026    -1.776035
O        1.927183     1.651982    -0.971053
C        2.902053     2.623165    -0.917285
C        2.324084    -1.248480    -0.191063
C        3.125864    -0.914506     0.918276
O        2.557860    -0.359680     2.020651
C        3.226234    -0.029993     3.184126
C        4.514672    -1.163715     0.864994
C        5.089441    -1.720180    -0.275142
C        4.300449    -2.031173    -1.377323
C        2.911905    -1.804117    -1.342866
O        2.123984    -2.113586    -2.408052
C        2.556399    -2.647354    -3.605612
Hg      -1.139460    -3.223601    -0.891644
I       -1.125715    -3.545103    -3.632709
I       -2.170991    -4.275321     1.442162
H       -0.678693    -3.498864     4.111008
H        0.954695    -3.968592     3.503112
H        0.813453    -2.659389     4.722245
H       -0.863466    -1.112878     5.015222
H       -1.924539     1.074646     5.135638
H       -2.093391     2.498968     3.166709
H       -2.886643     3.011283     0.903177
H       -1.312823     3.813076     1.346457
H       -1.718505     3.503424    -0.382311
H       -3.807261    -1.513186    -2.843163
H       -3.054670    -0.618230    -4.209442
H       -3.973271     0.280784    -2.922757
H       -2.269850     1.604767    -4.118760
H       -0.644702     3.408994    -4.301441
H        1.323073     3.482737    -2.852627
H        2.474137     3.559602    -0.502841
H        3.329309     2.803944    -1.926677
H        3.719653     2.272010    -0.255917
H        4.037541     0.698778     2.967981
H        3.654739    -0.943553     3.650850
H        2.518405     0.436463     3.897794
H        5.164329    -0.940580     1.699254
H        6.153395    -1.915464    -0.304732
H        4.779601    -2.467403    -2.242834
H        3.074732    -3.615015    -3.433135
H        3.235360    -1.932561    -4.115838
H        1.684808    -2.832973    -4.263059
61
ex_0048 frame3 cis-conf2
C        1.643667    -1.650601     4.113874
O        2.200997    -0.984524     3.037684
C        2.957539     0.145056     3.107366
C        3.331746     0.690963     4.352546
C        4.115741     1.838638     4.410493
C        4.555854     2.446782     3.238324
C        4.187527     1.926024     1.980039
O        4.606171     2.514058     0.831061
C        5.350944     3.671530     0.742368
C        3.364900     0.787117     1.917977
Sb       2.710000     0.000000     0.000000
C        3.637015     1.187862    -1.557248
C        2.908514     2.226491    -2.184484
O        1.618526     2.469501    -1.819242
C        0.825505     3.478506    -2.342115
C        3.530038     3.000921    -3.184824
C        4.843830     2.745061    -3.557933
C        5.560475     1.719543    -2.945263
C        4.958354     0.925780    -1.946581
O        5.633175    -0.090387    -1.351916
C        6.944739    -0.442161    -1.581940
C        3.484084    -1.987840    -0.369618
C        4.360669    -2.618403     0.534025
O        4.757137    -1.964873     1.656589
C        5.573137    -2.485703     2.641732
C        4.814628    -3.926326     0.255706
C        4.410000    -4.582369    -0.905124
C        3.559945    -3.950593    -1.807609
C        3.086281    -2.651262    -1.544773
O        2.246683    -2.020965    -2.409693
C        1.770536    -2.531351    -3.600031
Hg       0.000000     0.000000     0.000000
I       -1.266489     2.384437     0.572153
I       -0.334568    -2.737294    -0.112464
H        0.889453    -1.005966     4.615165
H        1.143656    -2.573695     3.757316
H        2.431145    -1.946538     4.840349
H        3.003869     0.253964     5.285829
H        4.379058     2.263286     5.370957
H        5.156270     3.341213     3.326633
H        4.794911     4.518108     1.199726
H        6.328304     3.536785     1.253141
H        5.538158     3.902719    -0.325329
H       -0.191470     3.430846    -1.913828
H        0.726220     3.364702    -3.442763
H        1.261200     4.471869    -2.099114
H        3.007327     3.802383    -3.689446
H        5.304255     3.343233    -4.333455
H        6.574707     1.545776    -3.272693
H        7.616955     0.362966    -1.218751
H        7.114118    -0.630000    -2.663946
H        7.165903    -1.378081    -1.030592
H        6.555699    -2.778688     2.212235
H        5.087999    -3.368101     3.112540
H        5.746115    -1.716618     3.420695
H        5.473193    -4.454317     0.930877
H        4.754346    -5.588746    -1.105822
H        3.260649    -4.491407    -2.694971
H        1.221045    -3.480801    -3.422032
H        2.613029    -2.702267    -4.302941
H        1.068974    -1.802143    -4.054069
61
ex_0048 frame4 T-shaped I-I-ax/Sb-eq
C       -1.961688     0.845677     3.636729
O       -1.324158     1.643366     2.701739
C       -0.764925     2.855922     2.975822
C       -0.828505     3.395204     4.268910
C       -0.264901     4.631806     4.542043
C        0.372794     5.354635     3.533822
C        0.447508     4.836165     2.223927
O        1.052250     5.529521     1.223316
C        1.713118     6.735003     1.348663
C       -0.112501     3.576571     1.952800
Sb       0.000000     2.710000     0.000000
C       -1.709708     3.423041    -1.072434
C       -2.357138     4.618211    -0.704342
O       -1.904191     5.333662     0.359113
C       -2.438951     6.524119     0.816126
C       -3.469034     5.053935    -1.448717
C       -3.946119     4.296789    -2.512703
C       -3.311148     3.117809    -2.876489
C       -2.193998     2.663650    -2.159428
O       -1.572694     1.498976    -2.500920
C       -1.959615     0.656367    -3.529202
C        1.821687     3.347271    -0.886170
C        1.838072     3.789752    -2.217570
O        0.675449     3.852391    -2.917953
C        0.551153     4.157196    -4.258157
C        3.062279     4.161081    -2.802971
C        4.238443     4.116475    -2.063680
C        4.218292     3.706699    -0.740266
C        3.013964     3.317952    -0.134171
O        2.989796     2.915108     1.167566
C        4.112629     2.840626     1.971748
Hg       0.000000     0.000000     0.000000
I        2.752915    -0.193705    -0.030190
I       -2.757190    -0.106206     0.064729
H       -2.384543    -0.058309     3.156521
H       -1.238723     0.528894     4.419236
H       -2.800114     1.406826     4.103212
H       -1.312496     2.865822     5.076698
H       -0.331081     5.024091     5.546386
H        0.797831     6.312391     3.790284
H        1.041639     7.503389     1.787944
H        2.022542     7.081636     0.341942
H        2.620996     6.613850     1.977845
H       -2.022989     6.758665     1.816068
H       -3.540284     6.437615     0.934445
H       -2.191745     7.348775     0.113842
H       -4.006387     5.953240    -1.193868
H       -4.826315     4.616031    -3.050099
H       -3.725948     2.547638    -3.693600
H       -1.774419     1.147449    -4.507347
H       -3.036635     0.393460    -3.435643
H       -1.384871    -0.290912    -3.481398
H        1.110754     5.084674    -4.495896
H       -0.515351     4.351368    -4.487117
H        0.915429     3.314003    -4.884410
H        3.130200     4.475707    -3.830863
H        5.176252     4.399655    -2.515273
H        5.156018     3.680018    -0.206896
H        3.841932     2.510379     2.993465
H        4.583241     3.845171     2.038286
H        4.840266     2.115924     1.542738
61
ex_0048 frame5 cis-conf3
C        6.351485    -1.929773    -2.041828
O        5.224365    -1.636033    -1.303142
C        4.578266    -2.489496    -0.471232
C        5.017657    -3.821724    -0.317221
C        4.344725    -4.695668     0.528964
C        3.243108    -4.257721     1.251869
C        2.781907    -2.931261     1.121109
O        1.698885    -2.501288     1.824904
C        0.905922    -3.300908     2.631521
C        3.448126    -2.045247     0.240394
Sb       2.710000     0.000000     0.000000
C        3.380656     1.301826     1.593031
C        3.429288     2.687077     1.357221
O        3.104516     3.160198     0.124395
C        2.970080     4.481576    -0.246670
C        3.811558     3.557193     2.396293
C        4.168152     3.047218     3.642452
C        4.158809     1.672075     3.868065
C        3.755969     0.783826     2.847788
O        3.725862    -0.558299     3.059951
C        4.032147    -1.190126     4.250386
C        3.634168     0.758515    -1.804923
C        2.921157     0.684919    -3.021514
O        1.679558     0.124500    -3.038308
C        0.885324    -0.054092    -4.156724
C        3.502715     1.191363    -4.199749
C        4.768302     1.768960    -4.163683
C        5.477438     1.835619    -2.964358
C        4.919713     1.318076    -1.775471
O        5.602488     1.350692    -0.602797
C        6.811062     1.974437    -0.382986
Hg       0.000000     0.000000     0.000000
I       -0.792085     2.643554     0.033038
I       -0.980676    -2.561004    -0.310582
H        6.157589    -2.791315    -2.716179
H        7.197536    -2.160050    -1.359670
H        6.619993    -1.052372    -2.662607
H        5.862940    -4.207102    -0.868882
H        4.672304    -5.723673     0.617870
H        2.739582    -4.974765     1.886016
H        1.503281    -3.724180     3.466509
H        0.464307    -4.130899     2.035644
H        0.077560    -2.699324     3.056435
H        2.832291     4.530495    -1.346372
H        3.885255     5.056949     0.006172
H        2.080440     4.926370     0.246816
H        3.826043     4.629306     2.259737
H        4.448197     3.722597     4.440880
H        4.431829     1.318392     4.852816
H        5.098753    -1.018351     4.509973
H        3.379470    -0.812983     5.067990
H        3.862042    -2.280357     4.144183
H        1.385906    -0.736168    -4.877847
H        0.674889     0.921912    -4.644700
H       -0.081202    -0.507993    -3.855993
H        2.982311     1.156331    -5.147902
H        5.200496     2.166911    -5.072915
H        6.455915     2.292558    -2.979762
H        7.147732     1.748242     0.648401
H        7.579109     1.595435    -1.089910
H        6.692929     3.073661    -0.491461
61
ex_0048 frame6 trans-2
C        0.889566     3.645784     2.056761
O        1.668104     2.599334     1.589023
C        2.877727     2.254468     2.115047
C        3.427572     2.990480     3.179822
C        4.662482     2.647840     3.707083
C        5.375031     1.570230     3.185981
C        4.846901     0.812502     2.117443
O        5.531887    -0.234477     1.591268
C        6.734845    -0.727948     2.050813
C        3.588262     1.149266     1.595583
Sb       2.710000     0.000000     0.000000
C        3.427042     0.875433    -1.829054
C        4.623349     1.614910    -1.865483
O        5.334606     1.800282    -0.722918
C        6.524745     2.492299    -0.611575
C        5.065008     2.152617    -3.090882
C        4.309929     1.982084    -4.248339
C        3.124123     1.257077    -4.212977
C        2.667358     0.706286    -3.003980
O        1.497368     0.008593    -2.948809
C        0.652000    -0.232208    -4.015865
C        3.354783    -2.026710     0.225223
C        3.809246    -2.748300    -0.888808
O        3.883705    -2.134186    -2.098393
C        4.166598    -2.741479    -3.304300
C        4.180199    -4.098093    -0.731160
C        4.121833    -4.702344     0.521754
C        3.703457    -3.978452     1.630895
C        3.314703    -2.633542     1.496412
O        2.901916    -1.915065     2.576767
C        2.827378    -2.405716     3.867389
Hg       0.000000     0.000000     0.000000
I       -1.527535     2.276627    -0.318102
I       -1.118014    -2.523294     0.014424
H       -0.005145     3.788069     1.435886
H        0.560222     3.439684     3.097682
H        1.456713     4.597931     2.004717
H        2.907299     3.832843     3.613726
H        5.063836     3.229267     4.525434
H        6.332566     1.339315     3.626314
H        7.507400     0.070622     2.046736
H        7.072188    -1.542001     1.378663
H        6.611867    -1.137105     3.076591
H        6.769478     2.632459     0.460538
H        6.434282     3.501647    -1.067833
H        7.342249     1.921646    -1.100383
H        5.968277     2.739602    -3.160439
H        4.635482     2.430350    -5.176636
H        2.554448     1.166374    -5.126710
H        1.149995    -0.902903    -4.747617
H        0.364698     0.721836    -4.509518
H       -0.276445    -0.719323    -3.653917
H        5.112119    -3.318094    -3.235357
H        4.305533    -1.959964    -4.077971
H        3.328154    -3.405728    -3.605990
H        4.500912    -4.700030    -1.566890
H        4.400434    -5.739984     0.637190
H        3.669032    -4.485021     2.584788
H        2.486430    -1.609476     4.558587
H        3.832018    -2.749596     4.196788
H        2.107432    -3.251717     3.913288
61
ex_0048 frame7 T-shaped I-Sb-ax/I-eq-conf4
C        1.874796     2.096151     3.936575
O        2.369212     1.694818     2.710642
C        3.159036     2.440900     1.892607
C        3.629130     3.707004     2.297039
C        4.430701     4.463312     1.450275
C        4.799141     3.964212     0.204874
C        4.339850     2.700097    -0.227450
O        4.686776     2.214579    -1.446303
C        5.459037     2.874759    -2.382496
C        3.501619     1.943704     0.618017
Sb       2.710000     0.000000     0.000000
C        3.352536    -1.553435     1.366652
C        4.441214    -1.372634     2.239269
O        5.143552    -0.210261     2.210875
C        6.206537     0.098869     3.037014
C        4.785837    -2.409951     3.134449
C        4.056464    -3.597321     3.155133
C        2.992119    -3.783660     2.277405
C        2.640248    -2.769042     1.365711
O        1.621199    -2.935372     0.477018
C        0.722141    -3.982087     0.398569
C        3.449139    -0.433806    -1.989472
C        2.970497     0.325722    -3.077350
O        2.082684     1.332071    -2.850610
C        1.452005     2.091651    -3.817459
C        3.417317     0.032440    -4.380481
C        4.329949    -0.996387    -4.593685
C        4.821024    -1.734154    -3.517876
C        4.387095    -1.456867    -2.203597
O        4.860910    -2.161902    -1.144812
C        5.753360    -3.211255    -1.208521
Hg       0.000000     0.000000     0.000000
I       -2.425561    -1.315501     0.051433
I        0.192125     2.749085    -0.150554
H        1.248002     3.006988     3.817633
H        1.245018     1.288677     4.360985
H        2.710078     2.300784     4.639971
H        3.352936     4.135496     3.250992
H        4.759444     5.448422     1.757518
H        5.412525     4.592141    -0.426254
H        5.526336     2.260940    -3.302569
H        4.996340     3.851039    -2.646443
H        6.483340     3.037755    -1.983886
H        5.878210     0.095175     4.098988
H        7.030019    -0.634982     2.895279
H        6.586945     1.108587     2.785557
H        5.603536    -2.308931     3.834396
H        4.316530    -4.379034     3.857953
H        2.450524    -4.716311     2.333883
H        0.296402    -3.999537    -0.625697
H        1.212775    -4.963357     0.553663
H       -0.110114    -3.832533     1.119001
H        2.199184     2.621821    -4.445494
H        0.811066     2.852384    -3.327773
H        0.809277     1.443971    -4.451687
H        3.054171     0.580383    -5.239429
H        4.656189    -1.224494    -5.600346
H        5.527201    -2.525416    -3.725720
H        6.707884    -2.875536    -1.668253
H        5.963461    -3.571800    -0.181627
H        5.317890    -4.045023    -1.799588
61
ex_0048 frame8 T-shaped I-I-ax/Sb-eq-conf3
C        1.818440     6.341542    -2.151703
O        1.556646     5.208561    -1.412119
C        2.455310     4.565954    -0.628164
C        3.794198     5.005344    -0.554355
C        4.715976     4.338679     0.240109
C        4.322158     3.244733     0.992985
C        2.993873     2.776956     0.935662
O        2.613888     1.686662     1.656930
C        3.482349     0.879016     2.372801
C        2.054574     3.440900     0.111383
Sb       0.000000     2.710000     0.000000
C       -1.201141     3.375707     1.672600
C       -2.599988     3.432788     1.521308
O       -3.152647     3.126194     0.316808
C       -4.497466     3.002224     0.028343
C       -3.402458     3.805090     2.615455
C       -2.817959     4.156317     3.827654
C       -1.433776     4.143741     3.970019
C       -0.607804     3.742042     2.898926
O        0.744592     3.705401     3.037872
C        1.434401     4.028928     4.192905
C       -0.865415     3.617203    -1.759285
C       -0.860494     2.902686    -2.980712
O       -0.302879     1.659703    -3.037212
C       -0.199836     0.879395    -4.177563
C       -1.433468     3.486340    -4.126255
C       -2.016019     4.745904    -4.054489
C       -2.022440     5.450983    -2.852495
C       -1.428846     4.899760    -1.697879
O       -1.391838     5.586357    -0.527041
C       -1.995728     6.799022    -0.273537
Hg       0.000000     0.000000     0.000000
I        2.705100    -0.516599    -0.180882
I       -2.752484    -0.201392    -0.011416
H        2.662920     6.157685    -2.850399
H        2.065325     7.179176    -1.464876
H        0.924453     6.609359    -2.746930
H        4.150742     5.842320    -1.134734
H        5.747942     4.661887     0.260893
H        5.078665     2.744007     1.580591
H        3.949640     1.471197     3.190248
H        4.323553     0.504133     1.753038
H        2.935018     0.038882     2.846787
H       -4.621502     2.938161    -1.071947
H       -5.062203     3.890451     0.377510
H       -4.906632     2.078313     0.489475
H       -4.479976     3.823311     2.547515
H       -3.443011     4.437157     4.664746
H       -1.024171     4.415532     4.932574
H        1.280784     5.102061     4.438176
H        1.088368     3.398544     5.041745
H        2.517902     3.847272     4.047083
H        0.448184     1.381834    -4.928805
H       -1.205174     0.696479    -4.615893
H        0.248399    -0.103218    -3.925632
H       -1.447121     2.972434    -5.077959
H       -2.464012     5.176820    -4.939755
H       -2.486959     6.424802    -2.842448
H       -1.652303     7.170021     0.712492
H       -1.701299     7.547906    -1.038377
H       -3.099794     6.677481    -0.251857
61
ex_0048 frame9 T-shaped I-Sb-ax/I-eq-conf5
C        1.699725     0.496487    -4.436433
O        2.221342     0.551981    -3.153082
C        3.039257     1.536888    -2.684207
C        3.484490     2.564976    -3.537488
C        4.335028     3.552641    -3.065654
C        4.756932     3.539479    -1.744907
C        4.320065     2.533657    -0.859257
O        4.731374     2.523984     0.435115
C        5.583521     3.461334     0.985589
C        3.444792     1.536204    -1.327594
Sb       2.710000     0.000000     0.000000
C        3.325453     0.318590     2.052017
C        2.869491     1.463389     2.744012
O        2.080082     2.374050     2.112808
C        1.564586     3.509460     2.717116
C        3.238772     1.650939     4.086903
C        4.047395     0.729898     4.729951
C        4.521204    -0.386420     4.049853
C        4.166962    -0.606643     2.701154
O        4.617947    -1.689617     2.013451
C        5.385297    -2.756895     2.446666
C        3.604222    -1.836119    -0.687741
C        2.800046    -2.985791    -0.890604
O        1.458405    -2.934470    -0.650953
C        0.581680    -3.994553    -0.830054
C        3.401975    -4.177058    -1.341055
C        4.770519    -4.230210    -1.568480
C        5.559528    -3.103223    -1.366159
C        4.981392    -1.893152    -0.933672
O        5.736283    -0.779860    -0.750772
C        7.101532    -0.711288    -0.920756
Hg       0.000000     0.000000     0.000000
I       -2.748064    -0.254601     0.012596
I       -0.054292     2.740290    -0.324016
H        1.183155    -0.470666    -4.595726
H        2.514101     0.563650    -5.190244
H        0.974943     1.325350    -4.596984
H        3.179582     2.621403    -4.571455
H        4.671470     4.335751    -3.729729
H        5.418328     4.330031    -1.425978
H        6.552367     3.450056     0.439560
H        5.127042     4.473390     0.916844
H        5.773669     3.226935     2.050374
H        2.395230     4.153503     3.073192
H        0.968028     4.103747     2.001327
H        0.905271     3.223942     3.566011
H        2.885640     2.496902     4.658385
H        4.302439     0.885400     5.768574
H        5.139254    -1.059612     4.614343
H        5.616292    -2.747773     3.524118
H        4.848067    -3.702687     2.230730
H        6.341945    -2.755735     1.886438
H       -0.441052    -3.706250    -0.513980
H        0.551357    -4.290668    -1.901769
H        0.897082    -4.867576    -0.216257
H        2.826861    -5.076666    -1.510251
H        5.222055    -5.152812    -1.905204
H        6.617893    -3.188126    -1.556798
H        7.604278    -1.364945    -0.176251
H        7.372068    -1.027869    -1.951112
H        7.437738     0.333942    -0.776822
61
ex_0048 frame10 trans-conf5
C        1.697164     0.509226    -4.447842
O        2.200372     0.555422    -3.154284
C        3.023993     1.533955    -2.676789
C        3.472708     2.561290    -3.526015
C        4.328959     3.540720    -3.055682
C        4.747514     3.527020    -1.737151
C        4.308722     2.525657    -0.852006
O        4.721998     2.521284     0.444116
C        5.580947     3.467014     0.970947
C        3.432898     1.528462    -1.319559
Sb       2.710000     0.000000     0.000000
C        3.309315     0.311324     2.038977
C        2.842838     1.451818     2.722250
O        2.042908     2.350122     2.083807
C        1.534185     3.489305     2.680386
C        3.210380     1.651244     4.063502
C        4.025250     0.739553     4.711308
C        4.501814    -0.380989     4.040359
C        4.150675    -0.609038     2.693236
O        4.605286    -1.695666     2.012738
C        5.382775    -2.752794     2.451852
C        3.592530    -1.835373    -0.684092
C        2.797997    -2.996427    -0.890873
O        1.448782    -2.982397    -0.656780
C        0.642407    -4.098706    -0.869280
C        3.414493    -4.177864    -1.344155
C        4.776704    -4.220736    -1.566869
C        5.553825    -3.093685    -1.360024
C        4.971614    -1.886532    -0.928641
O        5.725687    -0.773903    -0.746659
C        7.092383    -0.718756    -0.921616
Hg       0.000000     0.000000     0.000000
I       -1.367370     2.397671    -0.003195
I       -2.041472    -1.834504     0.291622
H        1.212936    -0.468559    -4.638261
H        2.520194     0.607649    -5.188595
H        0.955574     1.323161    -4.611797
H        3.172764     2.623305    -4.559323
H        4.673470     4.317723    -3.719478
H        5.412871     4.314637    -1.423427
H        6.538601     3.448975     0.404890
H        5.120813     4.477351     0.891757
H        5.795442     3.254967     2.035168
H        2.374062     4.127570     3.031075
H        0.929777     4.072341     1.959188
H        0.892542     3.211405     3.546489
H        2.855912     2.498793     4.629056
H        4.282657     0.907310     5.746675
H        5.123293    -1.047134     4.608329
H        5.609460    -2.739105     3.530563
H        4.858977    -3.706240     2.236984
H        6.341041    -2.740448     1.894852
H       -0.394421    -3.946962    -0.560071
H        0.625807    -4.357140    -1.950256
H        1.004411    -4.957243    -0.263555
H        2.857965    -5.085079    -1.520728
H        5.229263    -5.140396    -1.904384
H        6.610493    -3.176130    -1.549041
H        7.591941    -1.367702    -0.170187
H        7.356354    -1.055656    -1.947468
H        7.441069     0.324262    -0.800021
61
ex_0048 frame11 trans
C       -2.103990     0.931422     4.570174
O       -1.362279     0.632133     3.434134
C       -0.353117     1.432110     2.984075
C       -0.044271     2.607234     3.661031
C        0.964531     3.442469     3.226123
C        1.704724     3.110277     2.093132
C        1.415672     1.928489     1.381257
O        2.113427     1.592240     0.265351
C        3.181535     2.274969    -0.287273
C        0.384305     1.084506     1.840120
Sb      -0.102402    -0.720308     0.850042
C       -1.530485    -0.226712    -0.620154
C       -1.617186     1.077355    -1.152428
O       -0.777584     2.051796    -0.719388
C       -0.787400     3.363319    -1.169049
C       -2.580728     1.356390    -2.134391
C       -3.448124     0.367847    -2.569394
C       -3.355914    -0.912773    -2.042919
C       -2.413051    -1.227676    -1.065334
O       -2.349555    -2.491801    -0.548764
C       -3.171567    -3.541990    -0.946094
C        1.647710    -1.510776     0.045826
C        1.656400    -2.020235    -1.256090
O        0.519710    -1.988391    -2.003000
C        0.382130    -2.497378    -3.279887
C        2.847102    -2.558819    -1.771072
C        4.008114    -2.573635    -1.013771
C        3.990948    -2.066347     0.268329
C        2.820271    -1.531218     0.817653
O        2.823712    -1.037321     2.086587
C        3.973836    -1.025133     2.860208
Hg      -1.238431    -2.466887     2.644834
I        0.538787    -3.783080     4.296052
I       -3.993633    -2.626688     2.632618
H       -2.934493     0.221748     4.706720
H       -1.447638     0.904995     5.470909
H       -2.546968     1.950844     4.475786
H       -0.602199     2.878712     4.533535
H        1.158916     4.349230     3.779004
H        2.486968     3.782761     1.775991
H        2.933463     3.345174    -0.489463
H        3.434934     1.791599    -1.249005
H        4.073105     2.195548     0.365670
H       -0.249340     3.998938    -0.449864
H       -1.828349     3.751296    -1.197533
H       -0.286609     3.461467    -2.160213
H       -2.670527     2.344277    -2.558816
H       -4.193297     0.597611    -3.318538
H       -4.031221    -1.665005    -2.386868
H       -2.922259    -3.876440    -1.978081
H       -4.241615    -3.235331    -0.910025
H       -3.061011    -4.399832    -0.260313
H        1.271435    -2.256327    -3.894280
H       -0.510292    -2.045040    -3.760944
H        0.278616    -3.599273    -3.252765
H        2.894500    -2.966568    -2.758830
H        4.927138    -2.981170    -1.419690
H        4.901387    -2.092574     0.837387
H        3.824849    -0.530326     3.836955
H        4.767729    -0.494957     2.291290
H        4.327543    -2.063148     3.046831
61
ex_0048 frame12 trans-conf4
C        1.866761     2.138377     3.934519
O        2.317977     1.718673     2.696827
C        3.109019     2.458712     1.873999
C        3.568579     3.729858     2.272633
C        4.376941     4.482324     1.436695
C        4.753244     3.984439     0.198102
C        4.300364     2.720447    -0.240135
O        4.653355     2.247647    -1.463066
C        5.456345     2.923209    -2.364078
C        3.466217     1.954016     0.605045
Sb       2.710000     0.000000     0.000000
C        3.340218    -1.548120     1.373915
C        4.431978    -1.371498     2.248050
O        5.146847    -0.215414     2.225275
C        6.211326     0.055498     3.066581
C        4.769334    -2.409979     3.143407
C        4.040739    -3.592239     3.165424
C        2.975253    -3.775815     2.294201
C        2.619046    -2.763571     1.381784
O        1.588249    -2.935509     0.503570
C        0.725094    -4.017704     0.422240
C        3.430176    -0.424030    -1.980372
C        2.943174     0.332839    -3.070301
O        2.056426     1.344218    -2.850782
C        1.437125     2.093212    -3.836719
C        3.382723     0.030119    -4.372686
C        4.299919    -0.990781    -4.583971
C        4.797783    -1.719542    -3.510574
C        4.371380    -1.441955    -2.196599
O        4.858112    -2.144496    -1.141678
C        5.748675    -3.193307    -1.238544
Hg       0.000000     0.000000     0.000000
I       -1.360431     2.401346    -0.000926
I       -1.613572    -2.229199    -0.214723
H        1.245627     3.054957     3.823844
H        1.251838     1.345959     4.403502
H        2.732664     2.352286     4.598177
H        3.289565     4.164183     3.221597
H        4.705946     5.464304     1.748621
H        5.373560     4.615619    -0.420506
H        5.514427     2.360485    -3.315759
H        5.031394     3.927983    -2.584190
H        6.478934     3.034859    -1.942862
H        5.868642     0.052928     4.124994
H        7.006345    -0.711578     2.933227
H        6.641593     1.047905     2.831671
H        5.586118    -2.317258     3.843880
H        4.303776    -4.372612     3.866699
H        2.436535    -4.707943     2.360135
H        0.343876    -4.121715    -0.612776
H        1.280159    -4.966650     0.560591
H       -0.045108    -3.990953     1.222471
H        2.193982     2.559709    -4.503651
H        0.847225     2.910350    -3.374934
H        0.754632     1.449987    -4.434160
H        3.018540     0.568509    -5.235276
H        4.628334    -1.219180    -5.587797
H        5.508978    -2.503168    -3.721626
H        6.680077    -2.853307    -1.741186
H        6.009555    -3.557920    -0.225945
H        5.287306    -4.022648    -1.816903
61
ex_0048 frame13 T-shaped I-Sb-ax/I-eq-conf3
C        6.331500    -1.952092    -2.022520
O        5.194351    -1.637419    -1.310253
C        4.545450    -2.486114    -0.476718
C        4.984831    -3.816096    -0.318440
C        4.308709    -4.690682     0.516651
C        3.200346    -4.259204     1.224456
C        2.738529    -2.932368     1.099242
O        1.646497    -2.514319     1.798163
C        0.876681    -3.346800     2.595776
C        3.416374    -2.040572     0.231010
Sb       2.710000     0.000000     0.000000
C        3.368813     1.295791     1.596278
C        3.420878     2.683282     1.360651
O        3.109638     3.162173     0.125808
C        2.990314     4.487550    -0.245591
C        3.792911     3.550776     2.402836
C        4.151042     3.042129     3.645662
C        4.140550     1.670079     3.873100
C        3.736788     0.778864     2.856785
O        3.700240    -0.562357     3.081805
C        4.029477    -1.172393     4.280131
C        3.609902     0.755669    -1.808201
C        2.895668     0.672885    -3.027703
O        1.651812     0.112791    -3.053940
C        0.877857    -0.055184    -4.192409
C        3.480572     1.172433    -4.206420
C        4.737486     1.761301    -4.170057
C        5.439982     1.847852    -2.970542
C        4.890752     1.325933    -1.781640
O        5.577826     1.364548    -0.610823
C        6.794636     1.977103    -0.398466
Hg       0.000000     0.000000     0.000000
I       -2.734119    -0.377204     0.001825
I       -0.141486     2.755675    -0.044984
H        6.149138    -2.845403    -2.658496
H        7.162846    -2.151205    -1.312950
H        6.605660    -1.106796    -2.681994
H        5.834882    -4.202698    -0.857894
H        4.639466    -5.715571     0.607671
H        2.697522    -4.984892     1.846735
H        1.503842    -3.784513     3.403481
H        0.442417    -4.168083     1.981600
H        0.049043    -2.782300     3.066869
H        2.962625     4.546184    -1.352475
H        3.865946     5.075629     0.094263
H        2.052002     4.922262     0.160393
H        3.809011     4.621659     2.270734
H        4.435761     3.717772     4.440289
H        4.416872     1.322295     4.858001
H        5.104376    -1.003452     4.507330
H        3.406329    -0.765973     5.107670
H        3.844536    -2.262957     4.213953
H        1.381040    -0.751581    -4.898814
H        0.707918     0.922547    -4.694369
H       -0.112144    -0.477110    -3.924910
H        2.969841     1.124018    -5.158435
H        5.168320     2.151497    -5.081632
H        6.411713     2.314993    -2.990044
H        7.180077     1.672058     0.594467
H        7.533722     1.648756    -1.158781
H        6.676864     3.081705    -0.420034
61
ex_0048 frame14 T-shaped I-Sb-ax/I-eq-conf2
C        1.634393    -1.639112     4.152984
O        2.156637    -0.976658     3.052562
C        2.918672     0.151948     3.105479
C        3.294187     0.707432     4.344795
C        4.089978     1.842049     4.395416
C        4.523659     2.444174     3.224430
C        4.154857     1.923711     1.969500
O        4.575597     2.514589     0.822812
C        5.334975     3.664632     0.770171
C        3.335120     0.785127     1.909188
Sb       2.710000     0.000000     0.000000
C        3.616626     1.173012    -1.568364
C        2.875769     2.194264    -2.204932
O        1.577671     2.408339    -1.859041
C        0.798814     3.460626    -2.315115
C        3.492954     2.982482    -3.194948
C        4.808517     2.743215    -3.563231
C        5.532937     1.722665    -2.952918
C        4.936167     0.920201    -1.958686
O        5.615035    -0.095535    -1.369553
C        6.929806    -0.434136    -1.594647
C        3.466904    -1.978327    -0.359213
C        4.342977    -2.615859     0.544866
O        4.749506    -1.973358     1.672787
C        5.580282    -2.518802     2.636647
C        4.787542    -3.923767     0.260478
C        4.385930    -4.569888    -0.903519
C        3.537879    -3.935977    -1.800010
C        3.062804    -2.641285    -1.534269
O        2.215722    -2.018091    -2.398858
C        1.768401    -2.543031    -3.596531
Hg       0.000000     0.000000     0.000000
I       -2.759428    -0.050964    -0.009325
I       -0.069157     2.718813     0.472171
H        0.824858    -1.039792     4.626332
H        1.226866    -2.620636     3.841063
H        2.432228    -1.843405     4.899199
H        2.974829     0.281584     5.283685
H        4.372790     2.261153     5.350102
H        5.133051     3.329645     3.313135
H        4.770641     4.508781     1.223879
H        6.286716     3.506113     1.321412
H        5.574820     3.911001    -0.281859
H       -0.271605     3.409126    -2.055972
H        0.772334     3.431724    -3.426273
H        1.245911     4.431490    -2.006115
H        2.965397     3.778201    -3.700964
H        5.259614     3.348301    -4.337483
H        6.546246     1.558580    -3.282773
H        7.593782     0.336772    -1.152058
H        7.124877    -0.540983    -2.682923
H        7.131931    -1.413661    -1.117798
H        6.537917    -2.845736     2.175716
H        5.087789    -3.389531     3.123442
H        5.813443    -1.759356     3.408814
H        5.444540    -4.458585     0.929128
H        4.731036    -5.571640    -1.114040
H        3.243152    -4.472684    -2.689327
H        1.258667    -3.516591    -3.427212
H        2.625973    -2.684822    -4.288575
H        1.040819    -1.847869    -4.061036
61
ex_0048 frame15 T-shaped I-Sb-ax/I-eq
C        0.855974     3.611737     2.045998
O        1.641288     2.545270     1.628747
C        2.864745     2.230173     2.136460
C        3.414876     2.981150     3.185285
C        4.656162     2.655865     3.704994
C        5.374088     1.576275     3.190280
C        4.847862     0.811569     2.126310
O        5.537622    -0.233515     1.599142
C        6.742208    -0.726893     2.056505
C        3.585305     1.138237     1.606427
Sb       2.710000     0.000000     0.000000
C        3.417317     0.873779    -1.816055
C        4.614848     1.613038    -1.853588
O        5.334279     1.798151    -0.715215
C        6.524642     2.496042    -0.619698
C        5.050202     2.152104    -3.078831
C        4.291557     1.985886    -4.231388
C        3.108677     1.261738    -4.195455
C        2.652108     0.707559    -2.989653
O        1.480004     0.012420    -2.941878
C        0.649000    -0.225417    -4.023967
C        3.335713    -2.011425     0.226425
C        3.781698    -2.737966    -0.887268
O        3.845733    -2.132979    -2.102427
C        4.156170    -2.747621    -3.298658
C        4.155651    -4.084554    -0.724050
C        4.111390    -4.679527     0.530578
C        3.691451    -3.956059     1.633906
C        3.297713    -2.614534     1.498680
O        2.883245    -1.901243     2.582488
C        2.829235    -2.418430     3.864352
Hg       0.000000     0.000000     0.000000
I       -2.759566    -0.043722     0.008734
I       -0.083822     2.678839    -0.660978
H       -0.123391     3.812910     1.603504
H        0.596531     3.443782     3.115098
H        1.443083     4.553949     1.984090
H        2.887806     3.821744     3.611283
H        5.051949     3.254014     4.512883
H        6.334817     1.355929     3.628203
H        7.510787     0.075309     2.070398
H        7.086332    -1.525301     1.369206
H        6.619844    -1.159527     3.072857
H        6.757751     2.688974     0.445805
H        6.436841     3.486646    -1.115359
H        7.351448     1.909836    -1.075476
H        5.952037     2.737990    -3.153713
H        4.613155     2.436718    -5.157971
H        2.538877     1.173068    -5.107152
H        1.148452    -0.912365    -4.740613
H        0.391695     0.728049    -4.535142
H       -0.300525    -0.685470    -3.683697
H        5.079943    -3.351832    -3.193337
H        4.359389    -1.971062    -4.062104
H        3.313535    -3.388640    -3.637790
H        4.477224    -4.691624    -1.552873
H        4.403158    -5.710578     0.654541
H        3.668428    -4.460617     2.587016
H        2.506718    -1.646528     4.589375
H        3.840781    -2.774654     4.158659
H        2.111849    -3.268223     3.899418
61
ex_0048 frame16 T-shaped I-I-ax/Sb-eq-conf4
C       -0.663059     1.888193    -4.425312
O       -0.282481     2.262442    -3.144703
C        0.798099     3.062242    -2.935999
C        1.557178     3.525106    -4.026602
C        2.655817     4.337339    -3.848859
C        3.016255     4.700255    -2.565118
C        2.284942     4.252786    -1.441362
O        2.667609     4.616830    -0.191618
C        3.761573     5.446158     0.025923
C        1.165311     3.427675    -1.636240
Sb       0.000000     2.710000     0.000000
C       -2.017682     3.293425    -0.148793
C       -2.413017     4.380423    -0.963103
O       -1.501627     5.097167    -1.684996
C       -1.890628     6.200229    -2.444864
C       -3.773353     4.720891    -1.023036
C       -4.726131     4.022020    -0.308590
C       -4.339052     2.956586     0.490544
C       -2.997920     2.571999     0.589129
O       -2.647609     1.528914     1.376468
C       -3.441899     0.734595     2.184346
C        0.862244     3.392595     1.777860
C        2.131612     2.916509     2.191480
O        2.832725     2.038551     1.425159
C        4.025752     1.472185     1.830691
C        2.665079     3.357668     3.402529
C        1.993380     4.280389     4.169874
C        0.764980     4.752668     3.750809
C        0.185540     4.323763     2.556629
O       -1.023829     4.813739     2.166422
C       -1.719556     5.725300     2.947927
Hg       0.000000     0.000000     0.000000
I        2.732236    -0.307656    -0.224226
I       -2.690406    -0.211799    -0.576154
H        0.127125     1.277331    -4.917058
H       -1.587135     1.287037    -4.437685
H       -0.784908     2.808594    -5.044303
H        1.291243     3.251641    -5.028983
H        3.216766     4.675457    -4.716023
H        3.876732     5.331984    -2.457332
H        4.027615     5.518713     1.093764
H        4.655847     5.066719    -0.522454
H        3.564392     6.467709    -0.369127
H       -2.558792     5.835591    -3.256054
H       -2.492463     6.930619    -1.851924
H       -1.039891     6.747417    -2.882836
H       -4.101112     5.538903    -1.631770
H       -5.773050     4.306287    -0.373023
H       -5.106777     2.449567     1.020925
H       -2.908695     0.352817     3.064549
H       -4.395228     1.193137     2.490286
H       -3.737061    -0.187590     1.657669
H        4.742456     2.259982     2.168121
H        4.536243     0.979502     0.978085
H        3.855706     0.717666     2.635145
H        3.616659     3.008764     3.749044
H        2.420390     4.642120     5.090703
H        0.249214     5.470066     4.347841
H       -1.084941     6.613210     3.192009
H       -2.615725     6.129214     2.446031
H       -1.977429     5.220012     3.905988
61
ex_0048 frame17 trans-conf6
C        6.816503    -2.145494     0.651227
O        5.517485    -1.666415     0.582320
C        4.475841    -2.297987     1.185712
C        4.687119    -3.487929     1.910678
C        3.640094    -4.144137     2.533764
C        2.359357    -3.638932     2.450546
C        2.109587    -2.447887     1.757590
O        0.856715    -1.930581     1.712872
C       -0.288914    -2.472139     2.300189
C        3.171874    -1.780676     1.099439
Sb       2.710000     0.000000     0.000000
C        3.087570     1.837498     0.961915
C        4.407939     2.253216     1.231609
O        5.471538     1.484313     0.869277
C        6.774962     1.890910     1.107191
C        4.615965     3.482784     1.885340
C        3.561063     4.277633     2.261639
C        2.274572     3.889170     1.993416
C        1.989207     2.675558     1.349449
O        0.668398     2.324305     1.108433
C       -0.351175     3.055915     1.718569
C        3.259168    -0.075776    -2.044879
C        2.951557    -1.222940    -2.796527
O        2.327957    -2.282434    -2.213071
C        1.950600    -3.402352    -2.931979
C        3.295243    -1.264134    -4.158510
C        3.933400    -0.205583    -4.762605
C        4.246179     0.919494    -4.027304
C        3.917410     1.001685    -2.656126
O        4.232801     2.107243    -1.936459
C        4.845877     3.201735    -2.506776
Hg       0.000000     0.000000     0.000000
I       -1.235833     2.237658    -1.039262
I       -1.557467    -2.239381    -0.421918
H        7.116915    -2.255749     1.717656
H        6.884210    -3.139154     0.150561
H        7.525560    -1.448264     0.175004
H        5.663950    -3.922861     2.007506
H        3.822703    -5.048356     3.093215
H        1.573169    -4.177593     2.949987
H       -0.071951    -2.830427     3.334990
H       -1.046677    -1.688702     2.399558
H       -0.629294    -3.391378     1.785965
H        6.907458     2.054859     2.201903
H        7.515793     1.149395     0.761220
H        6.966315     2.846551     0.568104
H        5.597282     3.854480     2.117614
H        3.739968     5.213423     2.765516
H        1.505376     4.565312     2.307708
H       -0.508684     3.961571     1.089599
H       -0.151681     3.355395     2.768990
H       -1.255928     2.426526     1.836570
H        2.845186    -3.834107    -3.435051
H        1.206644    -3.105134    -3.703029
H        1.508302    -4.178696    -2.282380
H        3.065101    -2.109647    -4.778917
H        4.182424    -0.265710    -5.810752
H        4.733931     1.722851    -4.553607
H        5.799563     2.871755    -2.974323
H        4.174974     3.623250    -3.288674
H        5.077085     3.971455    -1.749331
61
ex_0048 frame18 T-shaped I-Sb-ax/I-eq-conf6
C        6.795530    -2.166335     0.660845
O        5.499955    -1.664673     0.569911
C        4.455629    -2.285452     1.172954
C        4.665327    -3.466900     1.906167
C        3.623725    -4.126528     2.538177
C        2.346818    -3.611859     2.438956
C        2.101251    -2.438500     1.720002
O        0.843302    -1.941993     1.637382
C       -0.294430    -2.491566     2.217980
C        3.163155    -1.770382     1.079049
Sb       2.710000     0.000000     0.000000
C        3.085280     1.809496     0.960302
C        4.401350     2.250984     1.192491
O        5.471711     1.503408     0.802506
C        6.762147     1.904010     1.119807
C        4.599408     3.486567     1.838951
C        3.542414     4.264762     2.246793
C        2.258652     3.826362     2.020027
C        2.010123     2.637700     1.398126
O        0.760082     2.333283     1.243144
C       -0.358733     2.958214     1.788937
C        3.243747    -0.070353    -2.031473
C        2.935881    -1.209944    -2.770148
O        2.305273    -2.271411    -2.186856
C        1.967432    -3.390491    -2.935152
C        3.284387    -1.251416    -4.127005
C        3.929921    -0.205956    -4.750597
C        4.235725     0.923947    -4.019413
C        3.898719     1.004586    -2.646244
O        4.204926     2.111140    -1.926383
C        4.837847     3.183428    -2.512379
Hg       0.000000     0.000000     0.000000
I       -2.759894    -0.003173     0.000091
I        0.285768     2.505614    -1.115984
H        7.089089    -2.289112     1.730815
H        6.885897    -3.159874     0.158057
H        7.533955    -1.489247     0.218695
H        5.659077    -3.863850     1.976494
H        3.817870    -5.033619     3.098037
H        1.547833    -4.132007     2.930453
H       -0.113987    -2.907254     3.234363
H       -1.023114    -1.672572     2.356426
H       -0.725929    -3.320053     1.608761
H        6.838607     2.098342     2.217424
H        7.542653     1.204712     0.771091
H        6.947162     2.857989     0.574918
H        5.586229     3.851700     2.027950
H        3.731329     5.211216     2.740467
H        1.450406     4.441029     2.342124
H       -0.404772     3.905870     1.055791
H       -0.311353     3.413357     2.733932
H       -1.260394     2.415238     1.449939
H        2.868129    -3.777001    -3.482766
H        1.227280    -3.080407    -3.701976
H        1.513485    -4.197978    -2.332434
H        3.062194    -2.103441    -4.722528
H        4.183000    -0.289636    -5.802269
H        4.737308     1.734547    -4.522521
H        5.767696     2.813501    -3.009895
H        4.157252     3.573894    -3.300421
H        5.104862     3.974930    -1.779830
61
ex_0048 frame19 T-shaped I-I-ax/Sb-eq-conf6
C        0.577036     6.784835     2.199856
O        0.390250     5.488490     1.707998
C        0.201109     4.445412     2.558350
C        0.194787     4.655225     3.956531
C        0.003666     3.613914     4.847557
C       -0.181939     2.347380     4.343374
C       -0.179554     2.110719     2.970233
O       -0.364303     0.852935     2.516178
C       -0.572723    -0.292008     3.291393
C        0.013025     3.166618     2.069304
Sb       0.000000     2.710000     0.000000
C       -1.764110     3.089965    -1.026665
C       -2.239845     4.398633    -1.220151
O       -1.546921     5.462787    -0.718231
C       -1.956796     6.759497    -1.028149
C       -3.438948     4.590607    -1.938037
C       -4.154871     3.534818    -2.450286
C       -3.680402     2.259355    -2.248744
C       -2.542663     1.994256    -1.573555
O       -2.227574     0.725529    -1.465988
C       -2.819496    -0.384619    -2.091355
C        1.774811     3.264902    -0.999702
C        2.996015     2.998513    -0.406431
O        3.076567     2.461992     0.848621
C        4.293160     2.000523     1.357613
C        4.156180     3.283958    -1.104582
C        4.149718     3.927732    -2.320851
C        2.937945     4.237529    -2.897891
C        1.731189     3.902979    -2.241055
O        0.524787     4.194557    -2.802537
C        0.466903     4.838235    -4.027408
Hg       0.000000     0.000000     0.000000
I        2.744527    -0.227691    -0.080729
I       -2.621060     0.068931     0.868687
H       -0.270466     7.086724     2.866125
H        1.524241     6.890854     2.776493
H        0.592785     7.537761     1.394297
H        0.346399     5.669539     4.302568
H        0.005906     3.821276     5.910458
H       -0.328991     1.541380     5.047620
H       -1.220240    -0.113731     4.183058
H       -1.127045    -1.021231     2.666749
H        0.371674    -0.731652     3.678201
H       -2.996453     6.820098    -0.631389
H       -1.293583     7.548751    -0.632152
H       -1.991400     6.946123    -2.134491
H       -3.800495     5.586404    -2.089944
H       -5.068122     3.737595    -2.995503
H       -4.240608     1.435861    -2.649390
H       -2.818015    -0.423436    -2.997562
H       -3.913250    -0.294338    -1.548102
H       -2.440198    -1.270819    -1.375766
H        4.961736     2.869858     1.369026
H        4.768957     1.235998     0.673609
H        4.197321     1.514010     2.346336
H        5.111719     3.063220    -0.677164
H        5.095029     4.181793    -2.796994
H        2.923612     4.739626    -3.849018
H        1.103213     5.761971    -3.968988
H        0.942869     4.152947    -4.764664
H       -0.570437     5.111250    -4.322496
61
ex_0048 frame20 T-shaped I-I-ax/Sb-eq-conf5
C       -3.029795     1.712980    -3.278697
O       -2.312787     2.252068    -2.222107
C       -2.831162     3.058657    -1.253346
C       -4.165355     3.504100    -1.328681
C       -4.683200     4.344403    -0.354309
C       -3.887321     4.763668     0.702505
C       -2.551423     4.326333     0.815397
O       -1.772326     4.735413     1.849580
C       -2.191482     5.584162     2.855085
C       -2.027221     3.455201    -0.157274
Sb       0.000000     2.710000     0.000000
C        0.965778     3.323006     1.834268
C        0.453669     2.862295     3.064073
O       -0.650550     2.066529     3.079887
C       -1.223643     1.533466     4.219449
C        1.091863     3.231735     4.261752
C        2.215774     4.044715     4.236424
C        2.712593     4.522752     3.027382
C        2.091765     4.168452     1.809629
O        2.553357     4.622705     0.614206
C        3.671199     5.386161     0.326821
C        1.065140     3.610300    -1.655141
C        1.861723     2.808745    -2.513180
O        1.952635     1.465121    -2.306965
C        2.704303     0.591647    -3.080490
C        2.555551     3.415945    -3.577603
C        2.468751     4.785704    -3.782917
C        1.684049     5.571686    -2.945762
C        0.967926     4.989291    -1.880125
O        0.184213     5.741300    -1.066142
C        0.022485     7.106098    -1.158411
Hg       0.000000     0.000000     0.000000
I        2.721288    -0.152776     0.434214
I       -2.745819    -0.252228     0.118115
H       -2.344627     1.180689    -3.968018
H       -3.532482     2.516693    -3.858620
H       -3.790771     0.993582    -2.902803
H       -4.823613     3.199442    -2.128870
H       -5.710658     4.674194    -0.418612
H       -4.334858     5.418085     1.434985
H       -2.504028     6.557429     2.417114
H       -3.044490     5.128767     3.404309
H       -1.363717     5.765067     3.567552
H       -1.552403     2.353802     4.893535
H       -2.108321     0.923628     3.948843
H       -0.492448     0.883448     4.748709
H        0.747175     2.873524     5.221432
H        2.708639     4.299910     5.164646
H        3.589486     5.142152     3.082117
H        4.304231     5.617428     1.198800
H        4.301110     4.844207    -0.407649
H        3.340614     6.342163    -0.127059
H        2.645305    -0.435820    -2.668687
H        2.320809     0.571312    -4.123045
H        3.774319     0.897481    -3.080337
H        3.175896     2.841831    -4.251971
H        3.012888     5.239222    -4.599772
H        1.640984     6.631329    -3.144466
H        0.990124     7.612089    -0.954564
H       -0.344957     7.377778    -2.171566
H       -0.727513     7.437062    -0.413779
61
ex_0048 frame21 T-shaped I-I-ax/Sb-eq-conf2
C        0.985482     1.638314     4.342600
O        0.499058     2.178317     3.163599
C       -0.629727     2.932173     3.048121
C       -1.366827     3.306678     4.190113
C       -2.502847     4.096318     4.067134
C       -2.918140     4.535007     2.816339
C       -2.210131     4.165404     1.655232
O       -2.612412     4.588928     0.430586
C       -3.741175     5.341595     0.182852
C       -1.074584     3.345455     1.770738
Sb       0.000000     2.710000     0.000000
C       -0.927907     3.619985    -1.729540
C       -1.852236     2.886052    -2.513192
O       -2.141714     1.592800    -2.198564
C       -3.066479     0.806594    -2.869872
C       -2.466572     3.506687    -3.617790
C       -2.162641     4.820023    -3.945446
C       -1.246814     5.539765    -3.182938
C       -0.612029     4.940086    -2.075820
O        0.301933     5.616719    -1.335498
C        0.676514     6.930999    -1.504110
C        2.015934     3.482863    -0.057667
C        2.503976     4.355087     0.936224
O        1.690401     4.755270     1.948842
C        2.068839     5.577340     2.994367
C        3.840842     4.801817     0.862150
C        4.662783     4.402379    -0.187737
C        4.172586     3.565013    -1.182133
C        2.849614     3.092582    -1.123413
O        2.359960     2.261171    -2.083425
C        3.061789     1.785617    -3.173723
Hg       0.000000     0.000000     0.000000
I        2.745619    -0.259185     0.112400
I       -2.696683    -0.193562     0.555430
H        0.299035     0.849284     4.721169
H        1.984268     1.192220     4.164748
H        1.108112     2.430546     5.112533
H       -1.086735     2.982078     5.181826
H       -3.068729     4.368409     4.947731
H       -3.810810     5.140537     2.766265
H       -4.647029     4.780785     0.500486
H       -3.678823     6.305057     0.732697
H       -3.812245     5.557465    -0.901209
H       -3.074447    -0.221577    -2.458115
H       -2.805600     0.731749    -3.947537
H       -4.083835     1.241552    -2.756743
H       -3.176918     2.982353    -4.241928
H       -2.635631     5.275540    -4.804621
H       -1.027995     6.552744    -3.482631
H       -0.162386     7.597569    -1.215328
H        0.979909     7.119402    -2.556047
H        1.551076     7.139814    -0.855919
H        2.447316     6.546481     2.601916
H        2.858943     5.085315     3.602668
H        1.194506     5.783986     3.642846
H        4.265397     5.451408     1.613512
H        5.688946     4.740892    -0.230885
H        4.841643     3.270057    -1.977867
H        3.979155     1.253131    -2.840397
H        3.333615     2.627433    -3.844656
H        2.430857     1.066383    -3.734254
61
ex_0048 frame22 cis
C        0.327712    -3.116177     3.833633
O        0.224410    -2.193644     2.807264
C       -0.392634    -0.982694     2.889055
C       -0.905893    -0.514432     4.115864
C       -1.515197     0.732853     4.193821
C       -1.605970     1.540005     3.064553
C       -1.112198     1.091431     1.822030
O       -1.198603     1.870704     0.714619
C       -1.809002     3.105738     0.648011
C       -0.524868    -0.183005     1.731723
Sb       0.183850    -0.936041    -0.179718
C       -0.100233     0.614308    -1.655229
C       -1.232360     0.579322    -2.499080
O       -2.129606    -0.438562    -2.382627
C       -3.290675    -0.572844    -3.123638
C       -1.418221     1.600181    -3.451748
C       -0.494283     2.634348    -3.560958
C        0.623779     2.669271    -2.728780
C        0.834678     1.650811    -1.776310
O        1.927183     1.651982    -0.971053
C        2.902053     2.623165    -0.917285
C        2.323876    -1.249916    -0.190478
C        3.125788    -0.914971     0.918471
O        2.557860    -0.359680     2.020651
C        3.226234    -0.029993     3.184126
C        4.514672    -1.163715     0.864994
C        5.089441    -1.720180    -0.275142
C        4.300449    -2.031173    -1.377323
C        2.911833    -1.804585    -1.342677
O        2.123984    -2.113586    -2.408052
C        2.556399    -2.647354    -3.605612
Hg      -1.139460    -3.223601    -0.891644
I       -1.125715    -3.545103    -3.632709
I       -2.170991    -4.275321     1.442162
H       -0.678693    -3.498864     4.111008
H        0.954695    -3.968592     3.503112
H        0.813453    -2.659389     4.722245
H       -0.863466    -1.112878     5.015222
H       -1.924539     1.074646     5.135638
H       -2.093391     2.498968     3.166709
H       -2.886643     3.011283     0.903177
H       -1.312823     3.813076     1.346457
H       -1.718505     3.503424    -0.382311
H       -3.807261    -1.513186    -2.843163
H       -3.054670    -0.618230    -4.209442
H       -3.973271     0.280784    -2.922757
H       -2.269850     1.604767    -4.118760
H       -0.644702     3.408994    -4.301441
H        1.323073     3.482737    -2.852627
H        2.474137     3.559602    -0.502841
H        3.329309     2.803944    -1.926677
H        3.719653     2.272010    -0.255917
H        4.037541     0.698778     2.967981
H        3.654739    -0.943553     3.650850
H        2.518405     0.436463     3.897794
H        5.164329    -0.940580     1.699254
H        6.153395    -1.915464    -0.304732
H        4.779601    -2.467403    -2.242834
H        3.074732    -3.615015    -3.433135
H        3.235360    -1.932561    -4.115838
H        1.684808    -2.832973    -4.263059
61
ex_0048 frame23 cis-conf2
C        1.643667    -1.650601     4.113874
O        2.200997    -0.984524     3.037684
C        2.954390     0.147150     3.107406
C        3.331746     0.690963     4.352546
C        4.115741     1.838638     4.410493
C        4.555854     2.446782     3.238324
C        4.184451     1.928233     1.980036
O        4.606171     2.514058     0.831061
C        5.350944     3.671530     0.742368
C        3.362583     0.788783     1.918080
Sb       2.710000     0.000000     0.000000
C        3.636599     1.187047    -1.558116
C        2.908383     2.226226    -2.184770
O        1.618526     2.469501    -1.819242
C        0.825505     3.478506    -2.342115
C        3.530038     3.000921    -3.184824
C        4.843830     2.745061    -3.557933
C        5.560475     1.719543    -2.945263
C        4.958218     0.925520    -1.946870
O        5.633175    -0.090387    -1.351916
C        6.944739    -0.442161    -1.581940
C        3.482723    -1.988525    -0.368773
C        4.360225    -2.618617     0.534307
O        4.757137    -1.964873     1.656589
C        5.573137    -2.485703     2.641732
C        4.814628    -3.926326     0.255706
C        4.410000    -4.582369    -0.905124
C        3.559945    -3.950593    -1.807609
C        3.085834    -2.651481    -1.544499
O        2.246683    -2.020965    -2.409693
C        1.770536    -2.531351    -3.600031
Hg       0.000000     0.000000     0.000000
I       -1.266489     2.384437     0.572153
I       -0.334568    -2.737294    -0.112464
H        0.889453    -1.005966     4.615165
H        1.143656    -2.573695     3.757316
H        2.431145    -1.946538     4.840349
H        3.003869     0.253964     5.285829
H        4.379058     2.263286     5.370957
H        5.156270     3.341213     3.326633
H        4.794911     4.518108     1.199726
H        6.328304     3.536785     1.253141
H        5.538158     3.902719    -0.325329
H       -0.191470     3.430846    -1.913828
H        0.726220     3.364702    -3.442763
H        1.261200     4.471869    -2.099114
H        3.007327     3.802383    -3.689446
H        5.304255     3.343233    -4.333455
H        6.574707     1.545776    -3.272693
H        7.616955     0.362966    -1.218751
H        7.114118    -0.630000    -2.663946
H        7.165903    -1.378081    -1.030592
H        6.555699    -2.778688     2.212235
H        5.087999    -3.368101     3.112540
H        5.746115    -1.716618     3.420695
H        5.473193    -4.454317     0.930877
H        4.754346    -5.588746    -1.105822
H        3.260649    -4.491407    -2.694971
H        1.221045    -3.480801    -3.422032
H        2.613029    -2.702267    -4.302941
H        1.068974    -1.802143    -4.054069
61
ex_0048 frame24 T-shaped I-I-ax/Sb-eq
C       -1.961688     0.845677     3.636729
O       -1.324158     1.643366     2.701739
C       -0.763993     2.855434     2.976072
C       -0.828505     3.395204     4.268910
C       -0.264901     4.631806     4.542043
C        0.372794     5.354635     3.533822
C        0.448448     4.835694     2.224168
O        1.052250     5.529521     1.223316
C        1.713118     6.735003     1.348663
C       -0.111798     3.576216     1.952998
Sb       0.000000     2.710000     0.000000
C       -1.712605     3.420569    -1.069438
C       -2.358099     4.617400    -0.703385
O       -1.904191     5.333662     0.359113
C       -2.438951     6.524119     0.816126
C       -3.469034     5.053935    -1.448717
C       -3.946119     4.296789    -2.512703
C       -3.311148     3.117809    -2.876489
C       -2.194952     2.662853    -2.158451
O       -1.572694     1.498976    -2.500920
C       -1.959615     0.656367    -3.529202
C        1.822105     3.345036    -0.886912
C        1.838178     3.789020    -2.217813
O        0.675449     3.852391    -2.917953
C        0.551153     4.157196    -4.258157
C        3.062279     4.161081    -2.802971
C        4.238443     4.116475    -2.063680
C        4.218292     3.706699    -0.740266
C        3.014089     3.317215    -0.134396
O        2.989796     2.915108     1.167566
C        4.112629     2.840626     1.971748
Hg       0.000000     0.000000     0.000000
I        2.752915    -0.193705    -0.030190
I       -2.757190    -0.106206     0.064729
H       -2.384543    -0.058309     3.156521
H       -1.238723     0.528894     4.419236
H       -2.800114     1.406826     4.103212
H       -1.312496     2.865822     5.076698
H       -0.331081     5.024091     5.546386
H        0.797831     6.312391     3.790284
H        1.041639     7.503389     1.787944
H        2.022542     7.081636     0.341942
H        2.620996     6.613850     1.977845
H       -2.022989     6.758665     1.816068
H       -3.540284     6.437615     0.934445
H       -2.191745     7.348775     0.113842
H       -4.006387     5.953240    -1.193868
H       -4.826315     4.616031    -3.050099
H       -3.725948     2.547638    -3.693600
H       -1.774419     1.147449    -4.507347
H       -3.036635     0.393460    -3.435643
H       -1.384871    -0.290912    -3.481398
H        1.110754     5.084674    -4.495896
H       -0.515351     4.351368    -4.487117
H        0.915429     3.314003    -4.884410
H        3.130200     4.475707    -3.830863
H        5.176252     4.399655    -2.515273
H        5.156018     3.680018    -0.206896
H        3.841932     2.510379     2.993465
H        4.583241     3.845171     2.038286
H        4.840266     2.115924     1.542738
61
ex_0048 frame25 cis-conf3
C        6.351485    -1.929773    -2.041828
O        5.224365    -1.636033    -1.303142
C        4.576154    -2.490514    -0.473933
C        5.017657    -3.821724    -0.317221
C        4.344725    -4.695668     0.528964
C        3.243108    -4.257721     1.251869
C        2.779756    -2.932281     1.118441
O        1.698885    -2.501288     1.824904
C        0.905922    -3.300908     2.631521
C        3.446531    -2.046057     0.238370
Sb       2.710000     0.000000     0.000000
C        3.377854     1.302093     1.593987
C        3.428364     2.687157     1.357494
O        3.104516     3.160198     0.124395
C        2.970080     4.481576    -0.246670
C        3.811558     3.557193     2.396293
C        4.168152     3.047218     3.642452
C        4.158809     1.672075     3.868065
C        3.755051     0.783894     2.848092
O        3.725862    -0.558299     3.059951
C        4.032147    -1.190126     4.250386
C        3.633823     0.759302    -1.804769
C        2.921041     0.685173    -3.021462
O        1.679558     0.124500    -3.038308
C        0.885324    -0.054092    -4.156724
C        3.502715     1.191363    -4.199749
C        4.768302     1.768960    -4.163683
C        5.477438     1.835619    -2.964358
C        4.919601     1.318330    -1.775413
O        5.602488     1.350692    -0.602797
C        6.811062     1.974437    -0.382986
Hg       0.000000     0.000000     0.000000
I       -0.792085     2.643554     0.033038
I       -0.980676    -2.561004    -0.310582
H        6.157589    -2.791315    -2.716179
H        7.197536    -2.160050    -1.359670
H        6.619993    -1.052372    -2.662607
H        5.862940    -4.207102    -0.868882
H        4.672304    -5.723673     0.617870
H        2.739582    -4.974765     1.886016
H        1.503281    -3.724180     3.466509
H        0.464307    -4.130899     2.035644
H        0.077560    -2.699324     3.056435
H        2.832291     4.530495    -1.346372
H        3.885255     5.056949     0.006172
H        2.080440     4.926370     0.246816
H        3.826043     4.629306     2.259737
H        4.448197     3.722597     4.440880
H        4.431829     1.318392     4.852816
H        5.098753    -1.018351     4.509973
H        3.379470    -0.812983     5.067990
H        3.862042    -2.280357     4.144183
H        1.385906    -0.736168    -4.877847
H        0.674889     0.921912    -4.644700
H       -0.081202    -0.507993    -3.855993
H        2.982311     1.156331    -5.147902
H        5.200496     2.166911    -5.072915
H        6.455915     2.292558    -2.979762
H        7.147732     1.748242     0.648401
H        7.579109     1.595435    -1.089910
H        6.692929     3.073661    -0.491461
61
ex_0048 frame26 trans-2
C        0.889566     3.645784     2.056761
O        1.668104     2.599334     1.589023
C        2.877108     2.253653     2.115932
C        3.427572     2.990480     3.179822
C        4.662482     2.647840     3.707083
C        5.375031     1.570230     3.185981
C        4.846311     0.811671     2.118326
O        5.531887    -0.234477     1.591268
C        6.734845    -0.727948     2.050813
C        3.587815     1.148657     1.596267
Sb       2.710000     0.000000     0.000000
C        3.424848     0.879051    -1.828172
C        4.622629     1.616094    -1.865225
O        5.334606     1.800282    -0.722918
C        6.524745     2.492299    -0.611575
C        5.065008     2.152617    -3.090882
C        4.309929     1.982084    -4.248339
C        3.124123     1.257077    -4.212977
C        2.666659     0.707478    -3.003703
O        1.497368     0.008593    -2.948809
C        0.652000    -0.232208    -4.015865
C        3.352681    -2.027421     0.224821
C        3.808557    -2.748507    -0.888956
O        3.883705    -2.134186    -2.098393
C        4.166598    -2.741479    -3.304300
C        4.180199    -4.098093    -0.731160
C        4.121833    -4.702344     0.521754
C        3.703457    -3.978452     1.630895
C        3.314010    -2.633755     1.496289
O        2.901916    -1.915065     2.576767
C        2.827378    -2.405716     3.867389
Hg       0.000000     0.000000     0.000000
I       -1.527535     2.276627    -0.318102
I       -1.118014    -2.523294     0.014424
H       -0.005145     3.788069     1.435886
H        0.560222     3.439684     3.097682
H        1.456713     4.597931     2.004717
H        2.907299     3.832843     3.613726
H        5.063836     3.229267     4.525434
H        6.332566     1.339315     3.626314
H        7.507400     0.070622     2.046736
H        7.072188    -1.542001     1.378663
H        6.611867    -1.137105     3.076591
H        6.769478     2.632459     0.460538
H        6.434282     3.501647    -1.067833
H        7.342249     1.921646    -1.100383
H        5.968277     2.739602    -3.160439
H        4.635482     2.430350    -5.176636
H        2.554448     1.166374    -5.126710
H        1.149995    -0.902903    -4.747617
H        0.364698     0.721836    -4.509518
H       -0.276445    -0.719323    -3.653917
H        5.112119    -3.318094    -3.235357
H        4.305533    -1.959964    -4.077971
H        3.328154    -3.405728    -3.605990
H        4.500912    -4.700030    -1.566890
H        4.400434    -5.739984     0.637190
H        3.669032    -4.485021     2.584788
H        2.486430    -1.609476     4.558587
H        3.832018    -2.749596     4.196788
H        2.107432    -3.251717     3.913288
61
ex_0048 frame27 T-shaped I-Sb-ax/I-eq-conf4
C        1.874796     2.096151     3.936575
O        2.369212     1.694818     2.710642
C        3.155912     2.442549     1.891112
C        3.629130     3.707004     2.297039
C        4.430701     4.463312     1.450275
C        4.799141     3.964212     0.204874
C        4.336759     2.701764    -0.229006
O        4.686776     2.214579    -1.446303
C        5.459037     2.874759    -2.382496
C        3.499292     1.945009     0.616881
Sb       2.710000     0.000000     0.000000
C        3.351406    -1.552777     1.367929
C        4.440848    -1.372402     2.239679
O        5.143552    -0.210261     2.210875
C        6.206537     0.098869     3.037014
C        4.785837    -2.409951     3.134449
C        4.056464    -3.597321     3.155133
C        2.992119    -3.783660     2.277405
C        2.639866    -2.768819     1.366107
O        1.621199    -2.935372     0.477018
C        0.722141    -3.982087     0.398569
C        3.447797    -0.434990    -1.989711
C        2.970051     0.325344    -3.077418
O        2.082684     1.332071    -2.850610
C        1.452005     2.091651    -3.817459
C        3.417317     0.032440    -4.380481
C        4.329949    -0.996387    -4.593685
C        4.821024    -1.734154    -3.517876
C        4.386657    -1.457256    -2.203660
O        4.860910    -2.161902    -1.144812
C        5.753360    -3.211255    -1.208521
Hg       0.000000     0.000000     0.000000
I       -2.425561    -1.315501     0.051433
I        0.192125     2.749085    -0.150554
H        1.248002     3.006988     3.817633
H        1.245018     1.288677     4.360985
H        2.710078     2.300784     4.639971
H        3.352936     4.135496     3.250992
H        4.759444     5.448422     1.757518
H        5.412525     4.592141    -0.426254
H        5.526336     2.260940    -3.302569
H        4.996340     3.851039    -2.646443
H        6.483340     3.037755    -1.983886
H        5.878210     0.095175     4.098988
H        7.030019    -0.634982     2.895279
H        6.586945     1.108587     2.785557
H        5.603536    -2.308931     3.834396
H        4.316530    -4.379034     3.857953
H        2.450524    -4.716311     2.333883
H        0.296402    -3.999537    -0.625697
H        1.212775    -4.963357     0.553663
H       -0.110114    -3.832533     1.119001
H        2.199184     2.621821    -4.445494
H        0.811066     2.852384    -3.327773
H        0.809277     1.443971    -4.451687
H        3.054171     0.580383    -5.239429
H        4.656189    -1.224494    -5.600346
H        5.527201    -2.525416    -3.725720
H        6.707884    -2.875536    -1.668253
H        5.963461    -3.571800    -0.181627
H        5.317890    -4.045023    -1.799588
61
ex_0048 frame28 T-shaped I-I-ax/Sb-eq-conf3
C        1.818440     6.341542    -2.151703
O        1.556646     5.208561    -1.412119
C        2.456311     4.563480    -0.631361
C        3.794198     5.005344    -0.554355
C        4.715976     4.338679     0.240109
C        4.322158     3.244733     0.992985
C        2.994896     2.774477     0.932478
O        2.613888     1.686662     1.656930
C        3.482349     0.879016     2.372801
C        2.055363     3.439036     0.108979
Sb       0.000000     2.710000     0.000000
C       -1.201332     3.373306     1.673415
C       -2.600046     3.431995     1.521536
O       -3.152647     3.126194     0.316808
C       -4.497466     3.002224     0.028343
C       -3.402458     3.805090     2.615455
C       -2.817959     4.156317     3.827654
C       -1.433776     4.143741     3.970019
C       -0.607851     3.741254     2.899185
O        0.744592     3.705401     3.037872
C        1.434401     4.028928     4.192905
C       -0.865854     3.617005    -1.759171
C       -0.860637     2.902620    -2.980674
O       -0.302879     1.659703    -3.037212
C       -0.199836     0.879395    -4.177563
C       -1.433468     3.486340    -4.126255
C       -2.016019     4.745904    -4.054489
C       -2.022440     5.450983    -2.852495
C       -1.428988     4.899696    -1.697837
O       -1.391838     5.586357    -0.527041
C       -1.995728     6.799022    -0.273537
Hg       0.000000     0.000000     0.000000
I        2.705100    -0.516599    -0.180882
I       -2.752484    -0.201392    -0.011416
H        2.662920     6.157685    -2.850399
H        2.065325     7.179176    -1.464876
H        0.924453     6.609359    -2.746930
H        4.150742     5.842320    -1.134734
H        5.747942     4.661887     0.260893
H        5.078665     2.744007     1.580591
H        3.949640     1.471197     3.190248
H        4.323553     0.504133     1.753038
H        2.935018     0.038882     2.846787
H       -4.621502     2.938161    -1.071947
H       -5.062203     3.890451     0.377510
H       -4.906632     2.078313     0.489475
H       -4.479976     3.823311     2.547515
H       -3.443011     4.437157     4.664746
H       -1.024171     4.415532     4.932574
H        1.280784     5.102061     4.438176
H        1.088368     3.398544     5.041745
H        2.517902     3.847272     4.047083
H        0.448184     1.381834    -4.928805
H       -1.205174     0.696479    -4.615893
H        0.248399    -0.103218    -3.925632
H       -1.447121     2.972434    -5.077959
H       -2.464012     5.176820    -4.939755
H       -2.486959     6.424802    -2.842448
H       -1.652303     7.170021     0.712492
H       -1.701299     7.547906    -1.038377
H       -3.099794     6.677481    -0.251857
61
ex_0048 frame29 T-shaped I-Sb-ax/I-eq-conf5
C        1.699725     0.496487    -4.436433
O        2.221342     0.551981    -3.153082
C        3.037841     1.537858    -2.683781
C        3.484490     2.564976    -3.537488
C        4.335028     3.552641    -3.065654
C        4.756932     3.539479    -1.744907
C        4.318676     2.534661    -0.858806
O        4.731374     2.523984     0.435115
C        5.583521     3.461334     0.985589
C        3.443749     1.536972    -1.327281
Sb       2.710000     0.000000     0.000000
C        3.323162     0.317135     2.052926
C        2.868729     1.462920     2.744288
O        2.080082     2.374050     2.112808
C        1.564586     3.509460     2.717116
C        3.238772     1.650939     4.086903
C        4.047395     0.729898     4.729951
C        4.521204    -0.386420     4.049853
C        4.166220    -0.607127     2.701429
O        4.617947    -1.689617     2.013451
C        5.385297    -2.756895     2.446666
C        3.604264    -1.836193    -0.687490
C        2.800060    -2.985815    -0.890522
O        1.458405    -2.934470    -0.650953
C        0.581680    -3.994553    -0.830054
C        3.401975    -4.177058    -1.341055
C        4.770519    -4.230210    -1.568480
C        5.559528    -3.103223    -1.366159
C        4.981406    -1.893175    -0.933589
O        5.736283    -0.779860    -0.750772
C        7.101532    -0.711288    -0.920756
Hg       0.000000     0.000000     0.000000
I       -2.748064    -0.254601     0.012596
I       -0.054292     2.740290    -0.324016
H        1.183155    -0.470666    -4.595726
H        2.514101     0.563650    -5.190244
H        0.974943     1.325350    -4.596984
H        3.179582     2.621403    -4.571455
H        4.671470     4.335751    -3.729729
H        5.418328     4.330031    -1.425978
H        6.552367     3.450056     0.439560
H        5.127042     4.473390     0.916844
H        5.773669     3.226935     2.050374
H        2.395230     4.153503     3.073192
H        0.968028     4.103747     2.001327
H        0.905271     3.223942     3.566011
H        2.885640     2.496902     4.658385
H        4.302439     0.885400     5.768574
H        5.139254    -1.059612     4.614343
H        5.616292    -2.747773     3.524118
H        4.848067    -3.702687     2.230730
H        6.341945    -2.755735     1.886438
H       -0.441052    -3.706250    -0.513980
H        0.551357    -4.290668    -1.901769
H        0.897082    -4.867576    -0.216257
H        2.826861    -5.076666    -1.510251
H        5.222055    -5.152812    -1.905204
H        6.617893    -3.188126    -1.556798
H        7.604278    -1.364945    -0.176251
H        7.372068    -1.027869    -1.951112
H        7.437738     0.333942    -0.776822
61
ex_0048 frame30 trans-conf5
C        1.697164     0.509226    -4.447842
O        2.200372     0.555422    -3.154284
C        3.022881     1.534723    -2.676449
C        3.472708     2.561290    -3.526015
C        4.328959     3.540720    -3.055682
C        4.747514     3.527020    -1.737151
C        4.307628     2.526451    -0.851653
O        4.721998     2.521284     0.444116
C        5.580947     3.467014     0.970947
C        3.432078     1.529065    -1.319309
Sb       2.710000     0.000000     0.000000
C        3.307369     0.310078     2.039736
C        2.842194     1.451414     2.722487
O        2.042908     2.350122     2.083807
C        1.534185     3.489305     2.680386
C        3.210380     1.651244     4.063502
C        4.025250     0.739553     4.711308
C        4.501814    -0.380989     4.040359
C        4.150044    -0.609449     2.693471
O        4.605286    -1.695666     2.012738
C        5.382775    -2.752794     2.451852
C        3.592573    -1.835449    -0.683832
C        2.798012    -2.996452    -0.890787
O        1.448782    -2.982397    -0.656780
C        0.642407    -4.098706    -0.869280
C        3.414493    -4.177864    -1.344155
C        4.776704    -4.220736    -1.566869
C        5.553825    -3.093685    -1.360024
C        4.971628    -1.886556    -0.928555
O        5.725687    -0.773903    -0.746659
C        7.092383    -0.718756    -0.921616
Hg       0.000000     0.000000     0.000000
I       -1.367370     2.397671    -0.003195
I       -2.041472    -1.834504     0.291622
H        1.212936    -0.468559    -4.638261
H        2.520194     0.607649    -5.188595
H        0.955574     1.323161    -4.611797
H        3.172764     2.623305    -4.559323
H        4.673470     4.317723    -3.719478
H        5.412871     4.314637    -1.423427
H        6.538601     3.448975     0.404890
H        5.120813     4.477351     0.891757
H        5.795442     3.254967     2.035168
H        2.374062     4.127570     3.031075
H        0.929777     4.072341     1.959188
H        0.892542     3.211405     3.546489
H        2.855912     2.498793     4.629056
H        4.282657     0.907310     5.746675
H        5.123293    -1.047134     4.608329
H        5.609460    -2.739105     3.530563
H        4.858977    -3.706240     2.236984
H        6.341041    -2.740448     1.894852
H       -0.394421    -3.946962    -0.560071
H        0.625807    -4.357140    -1.950256
H        1.004411    -4.957243    -0.263555
H        2.857965    -5.085079    -1.520728
H        5.229263    -5.140396    -1.904384
H        6.610493    -3.176130    -1.549041
H        7.591941    -1.367702    -0.170187
H        7.356354    -1.055656    -1.947468
H        7.441069     0.324262    -0.800021
61
ex_0048 frame31 trans
C       -2.103990     0.931422     4.570174
O       -1.362279     0.632133     3.434134
C       -0.352964     1.431993     2.984209
C       -0.044271     2.607234     3.661031
C        0.964531     3.442469     3.226123
C        1.704724     3.110277     2.093132
C        1.415825     1.928373     1.381388
O        2.113427     1.592240     0.265351
C        3.181535     2.274969    -0.287273
C        0.384420     1.084420     1.840220
Sb      -0.102402    -0.720308     0.850042
C       -1.532087    -0.226092    -0.618385
C       -1.617715     1.077556    -1.151853
O       -0.777584     2.051796    -0.719388
C       -0.787400     3.363319    -1.169049
C       -2.580728     1.356390    -2.134391
C       -3.448124     0.367847    -2.569394
C       -3.355914    -0.912773    -2.042919
C       -2.413579    -1.227468    -1.064758
O       -2.349555    -2.491801    -0.548764
C       -3.171567    -3.541990    -0.946094
C        1.647600    -1.511178     0.045983
C        1.656363    -2.020366    -1.256039
O        0.519710    -1.988391    -2.003000
C        0.382130    -2.497378    -3.279887
C        2.847102    -2.558819    -1.771072
C        4.008114    -2.573635    -1.013771
C        3.990948    -2.066347     0.268329
C        2.820235    -1.531350     0.817705
O        2.823712    -1.037321     2.086587
C        3.973836    -1.025133     2.860208
Hg      -1.238431    -2.466887     2.644834
I        0.538787    -3.783080     4.296052
I       -3.993633    -2.626688     2.632618
H       -2.934493     0.221748     4.706720
H       -1.447638     0.904995     5.470909
H       -2.546968     1.950844     4.475786
H       -0.602199     2.878712     4.533535
H        1.158916     4.349230     3.779004
H        2.486968     3.782761     1.775991
H        2.933463     3.345174    -0.489463
H        3.434934     1.791599    -1.249005
H        4.073105     2.195548     0.365670
H       -0.249340     3.998938    -0.449864
H       -1.828349     3.751296    -1.197533
H       -0.286609     3.461467    -2.160213
H       -2.670527     2.344277    -2.558816
H       -4.193297     0.597611    -3.318538
H       -4.031221    -1.665005    -2.386868
H       -2.922259    -3.876440    -1.978081
H       -4.241615    -3.235331    -0.910025
H       -3.061011    -4.399832    -0.260313
H        1.271435    -2.256327    -3.894280
H       -0.510292    -2.045040    -3.760944
H        0.278616    -3.599273    -3.252765
H        2.894500    -2.966568    -2.758830
H        4.927138    -2.981170    -1.419690
H        4.901387    -2.092574     0.837387
H        3.824849    -0.530326     3.836955
H        4.767729    -0.494957     2.291290
H        4.327543    -2.063148     3.046831
61
ex_0048 frame32 trans-conf4
C        1.866761     2.138377     3.934519
O        2.317977     1.718673     2.696827
C        3.106529     2.460003     1.872777
C        3.568579     3.729858     2.272633
C        4.376941     4.482324     1.436695
C        4.753244     3.984439     0.198102
C        4.297893     2.721766    -0.241366
O        4.653355     2.247647    -1.463066
C        5.456345     2.923209    -2.364078
C        3.464357     1.955019     0.604121
Sb       2.710000     0.000000     0.000000
C        3.339204    -1.547513     1.375062
C        4.431648    -1.371287     2.248420
O        5.146847    -0.215414     2.225275
C        6.211326     0.055498     3.066581
C        4.769334    -2.409979     3.143407
C        4.040739    -3.592239     3.165424
C        2.975253    -3.775815     2.294201
C        2.618706    -2.763367     1.382143
O        1.588249    -2.935509     0.503570
C        0.725094    -4.017704     0.422240
C        3.429302    -0.424807    -1.980523
C        2.942882     0.332592    -3.070342
O        2.056426     1.344218    -2.850782
C        1.437125     2.093212    -3.836719
C        3.382723     0.030119    -4.372686
C        4.299919    -0.990781    -4.583971
C        4.797783    -1.719542    -3.510574
C        4.371095    -1.442211    -2.196638
O        4.858112    -2.144496    -1.141678
C        5.748675    -3.193307    -1.238544
Hg       0.000000     0.000000     0.000000
I       -1.360431     2.401346    -0.000926
I       -1.613572    -2.229199    -0.214723
H        1.245627     3.054957     3.823844
H        1.251838     1.345959     4.403502
H        2.732664     2.352286     4.598177
H        3.289565     4.164183     3.221597
H        4.705946     5.464304     1.748621
H        5.373560     4.615619    -0.420506
H        5.514427     2.360485    -3.315759
H        5.031394     3.927983    -2.584190
H        6.478934     3.034859    -1.942862
H        5.868642     0.052928     4.124994
H        7.006345    -0.711578     2.933227
H        6.641593     1.047905     2.831671
H        5.586118    -2.317258     3.843880
H        4.303776    -4.372612     3.866699
H        2.436535    -4.707943     2.360135
H        0.343876    -4.121715    -0.612776
H        1.280159    -4.966650     0.560591
H       -0.045108    -3.990953     1.222471
H        2.193982     2.559709    -4.503651
H        0.847225     2.910350    -3.374934
H        0.754632     1.449987    -4.434160
H        3.018540     0.568509    -5.235276
H        4.628334    -1.219180    -5.587797
H        5.508978    -2.503168    -3.721626
H        6.680077    -2.853307    -1.741186
H        6.009555    -3.557920    -0.225945
H        5.287306    -4.022648    -1.816903
61
ex_0048 frame33 T-shaped I-Sb-ax/I-eq-conf3
C        6.331500    -1.952092    -2.022520
O        5.194351    -1.637419    -1.310253
C        4.543527    -2.487051    -0.479182
C        4.984831    -3.816096    -0.318440
C        4.308709    -4.690682     0.516651
C        3.200346    -4.259204     1.224456
C        2.736594    -2.933282     1.096781
O        1.646497    -2.514319     1.798163
C        0.876681    -3.346800     2.595776
C        3.414928    -2.041280     0.229152
Sb       2.710000     0.000000     0.000000
C        3.366566     1.296007     1.597027
C        3.420136     2.683347     1.360863
O        3.109638     3.162173     0.125808
C        2.990314     4.487550    -0.245591
C        3.792911     3.550776     2.402836
C        4.151042     3.042129     3.645662
C        4.140550     1.670079     3.873100
C        3.736052     0.778924     2.857025
O        3.700240    -0.562357     3.081805
C        4.029477    -1.172393     4.280131
C        3.609753     0.756001    -1.808136
C        2.895619     0.672993    -3.027682
O        1.651812     0.112791    -3.053940
C        0.877857    -0.055184    -4.192409
C        3.480572     1.172433    -4.206420
C        4.737486     1.761301    -4.170057
C        5.439982     1.847852    -2.970542
C        4.890704     1.326040    -1.781615
O        5.577826     1.364548    -0.610823
C        6.794636     1.977103    -0.398466
Hg       0.000000     0.000000     0.000000
I       -2.734119    -0.377204     0.001825
I       -0.141486     2.755675    -0.044984
H        6.149138    -2.845403    -2.658496
H        7.162846    -2.151205    -1.312950
H        6.605660    -1.106796    -2.681994
H        5.834882    -4.202698    -0.857894
H        4.639466    -5.715571     0.607671
H        2.697522    -4.984892     1.846735
H        1.503842    -3.784513     3.403481
H        0.442417    -4.168083     1.981600
H        0.049043    -2.782300     3.066869
H        2.962625     4.546184    -1.352475
H        3.865946     5.075629     0.094263
H        2.052002     4.922262     0.160393
H        3.809011     4.621659     2.270734
H        4.435761     3.717772     4.440289
H        4.416872     1.322295     4.858001
H        5.104376    -1.003452     4.507330
H        3.406329    -0.765973     5.107670
H        3.844536    -2.262957     4.213953
H        1.381040    -0.751581    -4.898814
H        0.707918     0.922547    -4.694369
H       -0.112144    -0.477110    -3.924910
H        2.969841     1.124018    -5.158435
H        5.168320     2.151497    -5.081632
H        6.411713     2.314993    -2.990044
H        7.180077     1.672058     0.594467
H        7.533722     1.648756    -1.158781
H        6.676864     3.081705    -0.420034
61
ex_0048 frame34 T-shaped I-Sb-ax/I-eq-conf2
C        1.634393    -1.639112     4.152984
O        2.156637    -0.976658     3.052562
C        2.916288     0.153550     3.105490
C        3.294187     0.707432     4.344795
C        4.089978     1.842049     4.395416
C        4.523659     2.444174     3.224430
C        4.152515     1.925390     1.969499
O        4.575597     2.514589     0.822812
C        5.334975     3.664632     0.770171
C        3.333361     0.786389     1.909242
Sb       2.710000     0.000000     0.000000
C        3.616063     1.171874    -1.569539
C        2.875603     2.193897    -2.205328
O        1.577671     2.408339    -1.859041
C        0.798814     3.460626    -2.315115
C        3.492954     2.982482    -3.194948
C        4.808517     2.743215    -3.563231
C        5.532937     1.722665    -2.952918
C        4.935982     0.919846    -1.959084
O        5.615035    -0.095535    -1.369553
C        6.929806    -0.434136    -1.594647
C        3.465998    -1.978775    -0.358650
C        4.342681    -2.616000     0.545053
O        4.749506    -1.973358     1.672787
C        5.580282    -2.518802     2.636647
C        4.787542    -3.923767     0.260478
C        4.385930    -4.569888    -0.903519
C        3.537879    -3.935977    -1.800010
C        3.062508    -2.641431    -1.534085
O        2.215722    -2.018091    -2.398858
C        1.768401    -2.543031    -3.596531
Hg       0.000000     0.000000     0.000000
I       -2.759428    -0.050964    -0.009325
I       -0.069157     2.718813     0.472171
H        0.824858    -1.039792     4.626332
H        1.226866    -2.620636     3.841063
H        2.432228    -1.843405     4.899199
H        2.974829     0.281584     5.283685
H        4.372790     2.261153     5.350102
H        5.133051     3.329645     3.313135
H        4.770641     4.508781     1.223879
H        6.286716     3.506113     1.321412
H        5.574820     3.911001    -0.281859
H       -0.271605     3.409126    -2.055972
H        0.772334     3.431724    -3.426273
H        1.245911     4.431490    -2.006115
H        2.965397     3.778201    -3.700964
H        5.259614     3.348301    -4.337483
H        6.546246     1.558580    -3.282773
H        7.593782     0.336772    -1.152058
H        7.124877    -0.540983    -2.682923
H        7.131931    -1.413661    -1.117798
H        6.537917    -2.845736     2.175716
H        5.087789    -3.389531     3.123442
H        5.813443    -1.759356     3.408814
H        5.444540    -4.458585     0.929128
H        4.731036    -5.571640    -1.114040
H        3.243152    -4.472684    -2.689327
H        1.258667    -3.516591    -3.427212
H        2.625973    -2.684822    -4.288575
H        1.040819    -1.847869    -4.061036
61
ex_0048 frame35 T-shaped I-Sb-ax/I-eq
C        0.855974     3.611737     2.045998
O        1.641288     2.545270     1.628747
C        2.864363     2.229635     2.137046
C        3.414876     2.981150     3.185285
C        4.656162     2.655865     3.704994
C        5.374088     1.576275     3.190280
C        4.847482     0.811026     2.126889
O        5.537622    -0.233515     1.599142
C        6.742208    -0.726893     2.056505
C        3.585018     1.137833     1.606869
Sb       2.710000     0.000000     0.000000
C        3.415069     0.877495    -1.815132
C        4.614109     1.614255    -1.853317
O        5.334279     1.798151    -0.715215
C        6.524642     2.496042    -0.619698
C        5.050202     2.152104    -3.078831
C        4.291557     1.985886    -4.231388
C        3.108677     1.261738    -4.195455
C        2.651391     0.708785    -2.989363
O        1.480004     0.012420    -2.941878
C        0.649000    -0.225417    -4.023967
C        3.334402    -2.011859     0.226182
C        3.781268    -2.738096    -0.887356
O        3.845733    -2.132979    -2.102427
C        4.156170    -2.747621    -3.298658
C        4.155651    -4.084554    -0.724050
C        4.111390    -4.679527     0.530578
C        3.691451    -3.956059     1.633906
C        3.297281    -2.614669     1.498604
O        2.883245    -1.901243     2.582488
C        2.829235    -2.418430     3.864352
Hg       0.000000     0.000000     0.000000
I       -2.759566    -0.043722     0.008734
I       -0.083822     2.678839    -0.660978
H       -0.123391     3.812910     1.603504
H        0.596531     3.443782     3.115098
H        1.443083     4.553949     1.984090
H        2.887806     3.821744     3.611283
H        5.051949     3.254014     4.512883
H        6.334817     1.355929     3.628203
H        7.510787     0.075309     2.070398
H        7.086332    -1.525301     1.369206
H        6.619844    -1.159527     3.072857
H        6.757751     2.688974     0.445805
H        6.436841     3.486646    -1.115359
H        7.351448     1.909836    -1.075476
H        5.952037     2.737990    -3.153713
H        4.613155     2.436718    -5.157971
H        2.538877     1.173068    -5.107152
H        1.148452    -0.912365    -4.740613
H        0.391695     0.728049    -4.535142
H       -0.300525    -0.685470    -3.683697
H        5.079943    -3.351832    -3.193337
H        4.359389    -1.971062    -4.062104
H        3.313535    -3.388640    -3.637790
H        4.477224    -4.691624    -1.552873
H        4.403158    -5.710578     0.654541
H        3.668428    -4.460617     2.587016
H        2.506718    -1.646528     4.589375
H        3.840781    -2.774654     4.158659
H        2.111849    -3.268223     3.899418
61
ex_0048 frame36 T-shaped I-I-ax/Sb-eq-conf4
C       -0.663059     1.888193    -4.425312
O       -0.282481     2.262442    -3.144703
C        0.798827     3.061236    -2.935921
C        1.557178     3.525106    -4.026602
C        2.655817     4.337339    -3.848859
C        3.016255     4.700255    -2.565118
C        2.285670     4.251779    -1.441290
O        2.667609     4.616830    -0.191618
C        3.761573     5.446158     0.025923
C        1.165857     3.426920    -1.636182
Sb       0.000000     2.710000     0.000000
C       -2.011327     3.321174    -0.115532
C       -2.408849     4.402650    -0.935537
O       -1.496012     5.125917    -1.649385
C       -1.890628     6.200229    -2.444864
C       -3.771348     4.731156    -1.010321
C       -4.727089     4.017117    -0.314663
C       -4.343725     2.932660     0.460908
C       -2.987990     2.628456     0.656669
O       -2.616958     1.685862     1.570870
C       -3.441899     0.734595     2.184346
C        0.862965     3.393804     1.777045
C        2.131847     2.916916     2.191229
O        2.832725     2.038551     1.425159
C        4.025752     1.472185     1.830691
C        2.665079     3.357668     3.402529
C        1.993380     4.280389     4.169874
C        0.764980     4.752668     3.750809
C        0.185786     4.324163     2.556366
O       -1.023829     4.813739     2.166422
C       -1.719556     5.725300     2.947927
Hg       0.000000     0.000000     0.000000
I        2.732236    -0.307656    -0.224226
I       -2.690406    -0.211799    -0.576154
H        0.127125     1.277331    -4.917058
H       -1.587135     1.287037    -4.437685
H       -0.784908     2.808594    -5.044303
H        1.291243     3.251641    -5.028983
H        3.216766     4.675457    -4.716023
H        3.876732     5.331984    -2.457332
H        4.027615     5.518713     1.093764
H        4.655847     5.066719    -0.522454
H        3.564392     6.467709    -0.369127
H       -2.558792     5.835591    -3.256054
H       -2.492463     6.930619    -1.851924
H       -1.039891     6.747417    -2.882836
H       -4.096512     5.562456    -1.602596
H       -5.771617     4.313623    -0.363937
H       -5.108483     2.440830     1.010103
H       -2.908695     0.352817     3.064549
H       -4.395228     1.193137     2.490286
H       -3.737061    -0.187590     1.657669
H        4.742456     2.259982     2.168121
H        4.536243     0.979502     0.978085
H        3.855706     0.717666     2.635145
H        3.616659     3.008764     3.749044
H        2.420390     4.642120     5.090703
H        0.249214     5.470066     4.347841
H       -1.084941     6.613210     3.192009
H       -2.615725     6.129214     2.446031
H       -1.977429     5.220012     3.905988
61
ex_0048 frame37 trans-conf6
C        6.816503    -2.145494     0.651227
O        5.517485    -1.666415     0.582320
C        4.475808    -2.298099     1.185538
C        4.687119    -3.487929     1.910678
C        3.640094    -4.144137     2.533764
C        2.359357    -3.638932     2.450546
C        2.109548    -2.447995     1.757418
O        0.856715    -1.930581     1.712872
C       -0.288914    -2.472139     2.300189
C        3.171848    -1.780762     1.099311
Sb       2.710000     0.000000     0.000000
C        3.087541     1.837141     0.962608
C        4.407930     2.253097     1.231837
O        5.471538     1.484313     0.869277
C        6.774962     1.890910     1.107191
C        4.615965     3.482784     1.885340
C        3.561063     4.277633     2.261639
C        2.274572     3.889170     1.993416
C        1.989197     2.675440     1.349676
O        0.668398     2.324305     1.108433
C       -0.351175     3.055915     1.718569
C        3.257211    -0.074891    -2.045435
C        2.950909    -1.222654    -2.796699
O        2.327957    -2.282434    -2.213071
C        1.950600    -3.402352    -2.931979
C        3.295243    -1.264134    -4.158510
C        3.933400    -0.205583    -4.762605
C        4.246179     0.919494    -4.027304
C        3.916767     1.001981    -2.656298
O        4.232801     2.107243    -1.936459
C        4.845877     3.201735    -2.506776
Hg       0.000000     0.000000     0.000000
I       -1.235833     2.237658    -1.039262
I       -1.557467    -2.239381    -0.421918
H        7.116915    -2.255749     1.717656
H        6.884210    -3.139154     0.150561
H        7.525560    -1.448264     0.175004
H        5.663950    -3.922861     2.007506
H        3.822703    -5.048356     3.093215
H        1.573169    -4.177593     2.949987
H       -0.071951    -2.830427     3.334990
H       -1.046677    -1.688702     2.399558
H       -0.629294    -3.391378     1.785965
H        6.907458     2.054859     2.201903
H        7.515793     1.149395     0.761220
H        6.966315     2.846551     0.568104
H        5.597282     3.854480     2.117614
H        3.739968     5.213423     2.765516
H        1.505376     4.565312     2.307708
H       -0.508684     3.961571     1.089599
H       -0.151681     3.355395     2.768990
H       -1.255928     2.426526     1.836570
H        2.845186    -3.834107    -3.435051
H        1.206644    -3.105134    -3.703029
H        1.508302    -4.178696    -2.282380
H        3.065101    -2.109647    -4.778917
H        4.182424    -0.265710    -5.810752
H        4.733931     1.722851    -4.553607
H        5.799563     2.871755    -2.974323
H        4.174974     3.623250    -3.288674
H        5.077085     3.971455    -1.749331
61
ex_0048 frame38 T-shaped I-Sb-ax/I-eq-conf6
C        6.795530    -2.166335     0.660845
O        5.499955    -1.664673     0.569911
C        4.455594    -2.285572     1.172770
C        4.665327    -3.466900     1.906167
C        3.623725    -4.126528     2.538177
C        2.346818    -3.611859     2.438956
C        2.101216    -2.438619     1.719820
O        0.843302    -1.941993     1.637382
C       -0.294430    -2.491566     2.217980
C        3.163129    -1.770472     1.078912
Sb       2.710000     0.000000     0.000000
C        3.085352     1.805209     0.974919
C        4.399924     2.259815     1.175231
O        5.468149     1.524938     0.760739
C        6.762147     1.904010     1.119807
C        4.598428     3.497039     1.816351
C        3.543236     4.262012     2.251915
C        2.260559     3.807044     2.062303
C        2.036009     2.621482     1.448779
O        0.747852     2.287810     1.328443
C       -0.358733     2.958214     1.788937
C        3.243604    -0.070288    -2.031513
C        2.935833    -1.209923    -2.770161
O        2.305273    -2.271411    -2.186856
C        1.967432    -3.390491    -2.935152
C        3.284387    -1.251416    -4.127005
C        3.929921    -0.205956    -4.750597
C        4.235725     0.923947    -4.019413
C        3.898672     1.004608    -2.646257
O        4.204926     2.111140    -1.926383
C        4.837847     3.183428    -2.512379
Hg       0.000000     0.000000     0.000000
I       -2.759894    -0.003173     0.000091
I        0.285768     2.505614    -1.115984
H        7.089089    -2.289112     1.730815
H        6.885897    -3.159874     0.158057
H        7.533955    -1.489247     0.218695
H        5.659077    -3.863850     1.976494
H        3.817870    -5.033619     3.098037
H        1.547833    -4.132007     2.930453
H       -0.113987    -2.907254     3.234363
H       -1.023114    -1.672572     2.356426
H       -0.725929    -3.320053     1.608761
H        6.838607     2.098342     2.217424
H        7.542653     1.204712     0.771091
H        6.947162     2.857989     0.574918
H        5.581991     3.877399     1.978096
H        3.730619     5.212199     2.738479
H        1.454038     4.408931     2.404146
H       -0.404772     3.905870     1.055791
H       -0.311353     3.413357     2.733932
H       -1.260394     2.415238     1.449939
H        2.868129    -3.777001    -3.482766
H        1.227280    -3.080407    -3.701976
H        1.513485    -4.197978    -2.332434
H        3.062194    -2.103441    -4.722528
H        4.183000    -0.289636    -5.802269
H        4.737308     1.734547    -4.522521
H        5.767696     2.813501    -3.009895
H        4.157252     3.573894    -3.300421
H        5.104862     3.974930    -1.779830
61
ex_0048 frame39 T-shaped I-I-ax/Sb-eq-conf6
C        0.577036     6.784835     2.199856
O        0.390250     5.488490     1.707998
C        0.201270     4.445387     2.558355
C        0.194787     4.655225     3.956531
C        0.003666     3.613914     4.847557
C       -0.181939     2.347380     4.343374
C       -0.179393     2.110694     2.970238
O       -0.364303     0.852935     2.516178
C       -0.572723    -0.292008     3.291393
C        0.013146     3.166599     2.069307
Sb       0.000000     2.710000     0.000000
C       -1.754899     3.091255    -1.044990
C       -2.243776     4.396790    -1.213121
O       -1.558938     5.458212    -0.696832
C       -1.956796     6.759497    -1.028149
C       -3.448126     4.588798    -1.921084
C       -4.153750     3.535575    -2.452366
C       -3.660730     2.263278    -2.285195
C       -2.521680     2.018206    -1.621825
O       -2.174059     0.721832    -1.547915
C       -2.819496    -0.384619    -2.091355
C        1.774721     3.268262    -0.997983
C        2.996029     2.999666    -0.405938
O        3.076567     2.461992     0.848621
C        4.293160     2.000523     1.357613
C        4.156180     3.283958    -1.104582
C        4.149718     3.927732    -2.320851
C        2.937945     4.237529    -2.897891
C        1.731192     3.904084    -2.240490
O        0.524787     4.194557    -2.802537
C        0.466903     4.838235    -4.027408
Hg       0.000000     0.000000     0.000000
I        2.744527    -0.227691    -0.080729
I       -2.621060     0.068931     0.868687
H       -0.270466     7.086724     2.866125
H        1.524241     6.890854     2.776493
H        0.592785     7.537761     1.394297
H        0.346399     5.669539     4.302568
H        0.005906     3.821276     5.910458
H       -0.328991     1.541380     5.047620
H       -1.220240    -0.113731     4.183058
H       -1.127045    -1.021231     2.666749
H        0.371674    -0.731652     3.678201
H       -2.996453     6.820098    -0.631389
H       -1.293583     7.548751    -0.632152
H       -1.991400     6.946123    -2.134491
H       -3.825603     5.580541    -2.047287
H       -5.074367     3.737106    -2.985432
H       -4.211120     1.442757    -2.699496
H       -2.818015    -0.423436    -2.997562
H       -3.913250    -0.294338    -1.548102
H       -2.440198    -1.270819    -1.375766
H        4.961736     2.869858     1.369026
H        4.768957     1.235998     0.673609
H        4.197321     1.514010     2.346336
H        5.111719     3.063220    -0.677164
H        5.095029     4.181793    -2.796994
H        2.923612     4.739626    -3.849018
H        1.103213     5.761971    -3.968988
H        0.942869     4.152947    -4.764664
H       -0.570437     5.111250    -4.322496
