55
ex_0124 frame0 OC-6-chelate-2
Fe       0.000000     0.000000     0.000000
C        1.268307     5.256375     0.000105
N        0.472017     4.125768     0.000055
C       -1.039948     4.061516    -0.000022
C       -1.354771     2.657331    -0.000060
N       -0.111228     2.127094     0.000000
C        0.992310     2.693197     0.000054
C        2.334364     2.339043     0.000099
O        3.245655     3.206183     0.000168
C        2.673712     0.975076     0.000060
N        2.127094    -0.111228     0.000000
C        2.607098    -1.357547    -0.000035
C        4.005731    -1.106048     0.000018
N        4.081027     0.411247     0.000086
C        5.251465     1.146001     0.000161
H        0.598341     6.109085     0.285783
H        1.731534     5.498169    -0.964113
H        2.032702     5.237925     0.818079
H       -1.688640     4.796538    -0.000037
H       -2.309762     2.250651    -0.000121
H        2.206019    -2.306218    -0.000096
H        4.759734    -1.735893     0.000011
H        6.068261     0.470784     0.306063
H        5.212710     2.079669     0.570282
H        5.470104     1.409968    -1.069751
N       -2.123860     0.000000    -0.161618
C       -2.588178     0.000000     0.956758
C       -2.237611     0.000001     2.316357
O       -3.137262     0.000002     3.196877
C       -0.898629     0.000002     2.731647
N        0.161618     0.000000     2.123860
C        1.434718     0.000001     2.634720
C        1.132173     0.000007     4.020966
N       -0.368836     0.000012     4.142242
C       -1.119051     0.000025     5.296389
N       -4.007142     0.000002     0.415334
C       -5.184794     0.000011     1.093224
C       -3.974776    -0.000008    -1.112784
C       -2.556212    -0.000003    -1.379063
H        2.369820     0.000013     2.188705
H        1.821926     0.000012     4.759938
H       -2.058630    -0.559126     5.211460
H       -0.517619    -0.446922     6.137737
H       -1.254219     1.071370     5.613552
H       -5.129899     0.488792     2.078343
H       -5.492686    -1.075719     1.206387
H       -5.977687     0.493254     0.471086
H       -4.649614    -0.000017    -1.773665
H       -2.140283    -0.000008    -2.323289
N        0.000000    -2.130000     0.000000
C        0.000000    -3.379547     0.000000
Se      -0.034923    -5.382952     0.000000
N        0.000000     0.000000    -2.130000
C        0.000000     0.000000    -3.379547
Se      -0.016282    -0.030896    -5.382952
55
ex_0124 frame1 OC-6-chelate-2-conf2
Fe       0.000000     0.000000     0.000000
C        5.195019     1.161581    -0.000033
N        4.028029     0.433479    -0.000019
C        4.011849    -1.088173     0.000027
C        2.605972    -1.383653     0.000040
N        2.123670    -0.164087     0.000000
C        2.606882     0.950802    -0.000031
C        2.263994     2.312775    -0.000065
O        3.149595     3.223656    -0.000117
C        0.902909     2.697832    -0.000035
N       -0.164087     2.123670     0.000000
C       -1.432588     2.600230     0.000031
C       -1.140606     3.976996     0.000011
N        0.364931     4.114474    -0.000041
C        1.110677     5.256167    -0.000083
H        6.009911     0.525451    -0.446885
H        5.505067     1.364065     1.042575
H        5.081065     2.065976    -0.626829
H        4.719671    -1.740181     0.000056
H        2.215643    -2.326694     0.000075
H       -2.367533     2.148832     0.000075
H       -1.796057     4.734493     0.000026
H        0.428802     6.113088     0.241411
H        1.929421     5.184808     0.729021
H        1.467974     5.459930    -1.019433
N       -2.123860     0.000000    -0.161618
C       -2.588178     0.000000     0.956758
C       -2.237611     0.000001     2.316357
O       -3.137262     0.000002     3.196877
C       -0.898629     0.000002     2.731647
N        0.161618     0.000000     2.123860
C        1.434718     0.000001     2.634720
C        1.132173     0.000007     4.020966
N       -0.368836     0.000012     4.142242
C       -1.119051     0.000025     5.296389
N       -4.007142     0.000002     0.415334
C       -5.184794     0.000011     1.093224
C       -3.974776    -0.000008    -1.112784
C       -2.556212    -0.000003    -1.379063
H        2.369820     0.000013     2.188705
H        1.821926     0.000012     4.759938
H       -2.058630    -0.559126     5.211460
H       -0.517619    -0.446922     6.137737
H       -1.254219     1.071370     5.613552
H       -5.129899     0.488792     2.078343
H       -5.492686    -1.075719     1.206387
H       -5.977687     0.493254     0.471086
H       -4.649614    -0.000017    -1.773665
H       -2.140283    -0.000008    -2.323289
N        0.000000    -2.130000     0.000000
C        0.000000    -3.379547     0.000000
Se      -0.034923    -5.382952     0.000000
N        0.000000     0.000000    -2.130000
C        0.000000     0.000000    -3.379547
Se      -0.016282    -0.030896    -5.382952
55
ex_0124 frame2 OC-6-chelate-3
Fe       0.000000     0.000000     0.000000
C        1.268307     5.256375     0.000105
N        0.472017     4.125768     0.000055
C       -1.039948     4.061516    -0.000022
C       -1.354771     2.657331    -0.000060
N       -0.111228     2.127094     0.000000
C        0.992310     2.693197     0.000054
C        2.334364     2.339043     0.000099
O        3.245655     3.206183     0.000168
C        2.673712     0.975076     0.000060
N        2.127094    -0.111228     0.000000
C        2.607098    -1.357547    -0.000035
C        4.005731    -1.106048     0.000018
N        4.081027     0.411247     0.000086
C        5.251465     1.146001     0.000161
H        0.598341     6.109085     0.285783
H        1.731534     5.498169    -0.964113
H        2.032702     5.237925     0.818079
H       -1.688640     4.796538    -0.000037
H       -2.309762     2.250651    -0.000121
H        2.206019    -2.306218    -0.000096
H        4.759734    -1.735893     0.000011
H        6.068261     0.470784     0.306063
H        5.212710     2.079669     0.570282
H        5.470104     1.409968    -1.069751
N       -2.123860     0.000000     0.161618
C       -2.588178    -0.000000    -0.956758
C       -2.237611    -0.000001    -2.316357
O       -3.137262    -0.000002    -3.196877
C       -0.898629    -0.000002    -2.731647
N        0.161618     0.000000    -2.123860
C        1.434718    -0.000001    -2.634720
C        1.132173    -0.000007    -4.020966
N       -0.368836    -0.000012    -4.142242
C       -1.119051    -0.000025    -5.296389
N       -4.007142    -0.000002    -0.415334
C       -5.184794    -0.000011    -1.093224
C       -3.974776     0.000008     1.112784
C       -2.556212     0.000003     1.379063
H        2.369820    -0.000013    -2.188705
H        1.821926    -0.000012    -4.759938
H       -2.058630     0.559126    -5.211460
H       -0.517619     0.446922    -6.137737
H       -1.254219    -1.071370    -5.613552
H       -5.129899    -0.488792    -2.078343
H       -5.492686     1.075719    -1.206387
H       -5.977687    -0.493254    -0.471086
H       -4.649614     0.000017     1.773665
H       -2.140283     0.000008     2.323289
N        0.000000    -2.130000     0.000000
C        0.000000    -3.379547     0.000000
Se      -0.034923    -5.382952     0.000000
N        0.000000     0.000000     2.130000
C        0.000000     0.000000     3.379547
Se      -0.016282    -0.030896     5.382952
55
ex_0124 frame3 OC-6-chelate-3-conf2
Fe       0.000000     0.000000     0.000000
C        5.195019     1.161581    -0.000033
N        4.028029     0.433479    -0.000019
C        4.011849    -1.088173     0.000027
C        2.605972    -1.383653     0.000040
N        2.123670    -0.164087     0.000000
C        2.606882     0.950802    -0.000031
C        2.263994     2.312775    -0.000065
O        3.149595     3.223656    -0.000117
C        0.902909     2.697832    -0.000035
N       -0.164087     2.123670     0.000000
C       -1.432588     2.600230     0.000031
C       -1.140606     3.976996     0.000011
N        0.364931     4.114474    -0.000041
C        1.110677     5.256167    -0.000083
H        6.009911     0.525451    -0.446885
H        5.505067     1.364065     1.042575
H        5.081065     2.065976    -0.626829
H        4.719671    -1.740181     0.000056
H        2.215643    -2.326694     0.000075
H       -2.367533     2.148832     0.000075
H       -1.796057     4.734493     0.000026
H        0.428802     6.113088     0.241411
H        1.929421     5.184808     0.729021
H        1.467974     5.459930    -1.019433
N       -2.123860     0.000000     0.161618
C       -2.588178    -0.000000    -0.956758
C       -2.237611    -0.000001    -2.316357
O       -3.137262    -0.000002    -3.196877
C       -0.898629    -0.000002    -2.731647
N        0.161618     0.000000    -2.123860
C        1.434718    -0.000001    -2.634720
C        1.132173    -0.000007    -4.020966
N       -0.368836    -0.000012    -4.142242
C       -1.119051    -0.000025    -5.296389
N       -4.007142    -0.000002    -0.415334
C       -5.184794    -0.000011    -1.093224
C       -3.974776     0.000008     1.112784
C       -2.556212     0.000003     1.379063
H        2.369820    -0.000013    -2.188705
H        1.821926    -0.000012    -4.759938
H       -2.058630     0.559126    -5.211460
H       -0.517619     0.446922    -6.137737
H       -1.254219    -1.071370    -5.613552
H       -5.129899    -0.488792    -2.078343
H       -5.492686     1.075719    -1.206387
H       -5.977687    -0.493254    -0.471086
H       -4.649614     0.000017     1.773665
H       -2.140283     0.000008     2.323289
N        0.000000    -2.130000     0.000000
C        0.000000    -3.379547     0.000000
Se      -0.034923    -5.382952     0.000000
N        0.000000     0.000000     2.130000
C        0.000000     0.000000     3.379547
Se      -0.016282    -0.030896     5.382952
