60
ex_0358 frame0 Isomer 1
C       -2.543079    -2.162206    -1.096993
C       -1.100845    -1.933931    -1.240504
O       -0.311508    -2.527777    -1.903911
Pt      -0.344621    -0.394772    -0.159996
Cl       1.555081     0.379846    -1.200859
P        0.006234    -0.895604     1.983901
C        1.745926    -1.034501     2.264315
C        2.658274    -0.070578     1.785384
C        4.024581    -0.207328     2.088647
C        4.464729    -1.287508     2.850870
C        3.542128    -2.232975     3.277461
C        2.198063    -2.093563     2.954849
C       -0.855551    -2.444598     2.275785
C       -0.558728    -3.578377     1.543104
C       -1.184865    -4.782779     1.856946
C       -2.129497    -4.838288     2.874839
C       -2.451898    -3.686630     3.569884
C       -1.833543    -2.488557     3.256850
C       -0.852265     0.537242     2.728790
C       -2.208379     0.875426     2.068384
As      -1.985082     1.445391     0.279986
C       -1.034876     2.994200    -0.073740
C       -1.663658     3.892092    -0.812231
C       -1.139316     5.140881    -1.011397
C        0.102937     5.473325    -0.510996
C        0.830316     4.517999     0.193652
C        0.272136     3.240734     0.392582
C       -3.315383     1.034094    -1.014033
C       -3.007306     0.756416    -2.350104
C       -4.074164     0.601742    -3.237727
C       -5.400421     0.672282    -2.782057
C       -5.643348     0.875624    -1.442062
C       -4.590827     1.022399    -0.576345
H       -2.754714    -3.161546    -0.635724
H       -3.052062    -1.437376    -0.455041
H       -3.061973    -2.130411    -2.089394
H        2.372229     0.764996     1.200790
H        4.725293     0.533223     1.748526
H        5.512941    -1.384992     3.097983
H        3.875003    -3.068220     3.867402
H        1.483505    -2.806932     3.284997
H        0.174215    -3.534711     0.768695
H       -0.922627    -5.663794     1.309384
H       -2.612624    -5.759684     3.123314
H       -3.177621    -3.737114     4.351928
H       -2.078841    -1.610472     3.805528
H       -1.101239     0.271962     3.776924
H       -0.195503     1.411181     2.739007
H       -2.920059     0.021125     2.153777
H       -2.588060     1.785729     2.526650
H       -2.643412     3.656455    -1.193734
H       -1.709743     5.864553    -1.552990
H        0.479171     6.467026    -0.689549
H        1.794203     4.793864     0.576516
H        0.850013     2.541704     0.950214
H       -1.980401     0.709481    -2.720324
H       -3.893402     0.446120    -4.269760
H       -6.239946     0.565404    -3.442994
H       -6.647695     0.937851    -1.057766
H       -4.766126     1.193998     0.457067
60
ex_0358 frame1 Isomer 1_mirror
C       -2.543079    -2.162206     1.096993
C       -1.100845    -1.933931     1.240504
O       -0.311508    -2.527777     1.903911
Pt      -0.344621    -0.394772     0.159996
Cl       1.555081     0.379846     1.200859
P        0.006234    -0.895604    -1.983901
C        1.745926    -1.034501    -2.264315
C        2.658274    -0.070578    -1.785384
C        4.024581    -0.207328    -2.088647
C        4.464729    -1.287508    -2.850870
C        3.542128    -2.232975    -3.277461
C        2.198063    -2.093563    -2.954849
C       -0.855551    -2.444598    -2.275785
C       -0.558728    -3.578377    -1.543104
C       -1.184865    -4.782779    -1.856946
C       -2.129497    -4.838288    -2.874839
C       -2.451898    -3.686630    -3.569884
C       -1.833543    -2.488557    -3.256850
C       -0.852265     0.537242    -2.728790
C       -2.208379     0.875426    -2.068384
As      -1.985082     1.445391    -0.279986
C       -1.034876     2.994200     0.073740
C       -1.663658     3.892092     0.812231
C       -1.139316     5.140881     1.011397
C        0.102937     5.473325     0.510996
C        0.830316     4.517999    -0.193652
C        0.272136     3.240734    -0.392582
C       -3.315383     1.034094     1.014033
C       -3.007306     0.756416     2.350104
C       -4.074164     0.601742     3.237727
C       -5.400421     0.672282     2.782057
C       -5.643348     0.875624     1.442062
C       -4.590827     1.022399     0.576345
H       -2.754714    -3.161546     0.635724
H       -3.052062    -1.437376     0.455041
H       -3.061973    -2.130411     2.089394
H        2.372229     0.764996    -1.200790
H        4.725293     0.533223    -1.748526
H        5.512941    -1.384992    -3.097983
H        3.875003    -3.068220    -3.867402
H        1.483505    -2.806932    -3.284997
H        0.174215    -3.534711    -0.768695
H       -0.922627    -5.663794    -1.309384
H       -2.612624    -5.759684    -3.123314
H       -3.177621    -3.737114    -4.351928
H       -2.078841    -1.610472    -3.805528
H       -1.101239     0.271962    -3.776924
H       -0.195503     1.411181    -2.739007
H       -2.920059     0.021125    -2.153777
H       -2.588060     1.785729    -2.526650
H       -2.643412     3.656455     1.193734
H       -1.709743     5.864553     1.552990
H        0.479171     6.467026     0.689549
H        1.794203     4.793864    -0.576516
H        0.850013     2.541704    -0.950214
H       -1.980401     0.709481     2.720324
H       -3.893402     0.446120     4.269760
H       -6.239946     0.565404     3.442994
H       -6.647695     0.937851     1.057766
H       -4.766126     1.193998    -0.457067
