75
ex_0265 frame0 SP-4-chelate-1
Ni       0.000000     0.000000     0.000000
C       -3.489723     0.556332     2.381857
C       -3.740463     0.621541     0.913357
C       -4.978181     1.457206     0.682021
C       -2.620222     1.118645     0.087063
C       -2.209687     2.208118    -0.510484
C       -0.946833     2.457258    -1.163754
N        0.060199     1.767790    -0.820851
C        1.244533     2.546072    -0.785462
N        2.347029     2.187924    -0.282877
C        2.728875     0.842804     0.072792
C        3.964485     0.665626     0.392259
C        4.802651     1.729473     0.631651
C        6.121956     1.417944     0.920894
C        6.560201     0.100355     0.988251
C        5.679329    -0.965448     0.762546
C        4.390042    -0.656915     0.428478
N        3.589224    -1.667201     0.148068
C        2.330146    -1.286781    -0.183684
N        1.943450    -0.145578     0.065655
N       -1.948426    -0.042723     0.065655
C       -2.648922    -1.079244    -0.257696
N       -2.224503    -2.093904    -0.868284
C       -0.915895    -2.492906    -1.202598
N        0.163054    -1.761283    -0.820851
C        1.354371    -2.188715    -0.845572
N        1.659584    -3.399807    -1.452075
C        0.655380    -4.084615    -1.974565
C        0.935513    -5.280362    -2.585014
C       -0.104621    -6.002968    -3.131775
C       -1.396445    -5.529937    -3.064660
C       -1.715112    -4.323431    -2.454824
C       -0.671477    -3.637210    -1.881355
C       -3.974443    -0.728531     0.265601
C       -4.976477    -0.670314    -0.858266
C       -4.453312    -1.685789     1.331741
C        0.869697     3.853919    -1.470843
C        1.874945     4.238341    -2.497935
C        0.506630     4.940873    -0.519457
C       -0.386665     3.367977    -2.231837
C       -1.376131     4.441031    -2.475315
C       -0.068247     2.588324    -3.447543
H       -4.425921     0.343688     2.917447
H       -3.095830     1.573424     2.671310
H       -2.658392    -0.148886     2.651680
H       -4.912293     2.370064     1.327222
H       -5.846276     0.885137     1.061533
H       -5.090895     1.786509    -0.370327
H       -2.926978     3.036769    -0.535936
H        4.424705     2.731929     0.570409
H        6.838815     2.234834     1.101400
H        7.580288    -0.171645     1.213547
H        6.048990    -1.977365     0.821499
H        1.944682    -5.648759    -2.636348
H        0.118036    -6.959361    -3.620020
H       -2.212895    -6.093843    -3.492263
H       -2.722955    -3.939402    -2.394241
H       -4.850840    -1.650264    -1.404549
H       -4.660207     0.133080    -1.551530
H       -6.014733    -0.594784    -0.505561
H       -5.269337    -1.184777     1.880416
H       -3.640214    -2.034280     1.986673
H       -4.873523    -2.570647     0.811771
H        2.711026     4.852130    -2.124804
H        1.375625     4.833248    -3.293430
H        2.278190     3.297693    -2.953871
H        1.157332     4.967410     0.392232
H       -0.523526     4.885392    -0.124301
H        0.580739     5.898563    -1.072386
H       -0.884754     5.327475    -2.920950
H       -2.105614     4.088862    -3.210037
H       -1.955413     4.671987    -1.559161
H        0.191760     3.184527    -4.330917
H        0.696586     1.801240    -3.224701
H       -0.984585     2.011224    -3.719806
75
ex_0265 frame1 SP-4-chelate-1-beta
Ni       0.000000     0.000000     0.000000
C        1.257537    -4.636930    -2.527619
C        0.377436    -3.513131    -2.169728
C       -0.108642    -2.791882    -3.386984
C        1.043115    -2.491800    -1.258855
C        2.227922    -2.154841    -0.859960
C        2.549111    -1.006145     0.011474
N        1.948121     0.038831     0.076259
C        2.652423     1.112491    -0.128960
N        2.220804     2.145016    -0.712219
C        0.926842     2.525544    -1.096783
C        0.693485     3.669844    -1.775472
C        1.755179     4.399789    -2.257477
C        1.446214     5.598069    -2.907448
C        0.146383     6.022065    -3.082652
C       -0.897386     5.261921    -2.612270
C       -0.635061     4.089270    -1.944614
N       -1.652874     3.387273    -1.478644
C       -1.348613     2.208135    -0.820393
N       -0.166153     1.776611    -0.786477
N       -0.059313    -1.783378    -0.786477
C       -1.218060    -2.583437    -0.648109
N       -2.318638    -2.231374    -0.127929
C       -2.712475    -0.870412     0.147208
N       -1.943055     0.145671     0.076259
C       -2.330555     1.274241    -0.206878
N       -3.622147     1.639527     0.040979
C       -4.397270     0.617154     0.341783
C       -5.725543     0.887307     0.508480
C       -6.580239    -0.172781     0.827169
C       -6.102453    -1.457634     0.971050
C       -4.762949    -1.736754     0.804754
C       -3.956503    -0.683974     0.434222
C       -0.810424    -3.914413    -1.260517
C       -1.960537    -4.462473    -2.018030
C       -0.408690    -4.833530    -0.162639
C        3.940555     0.722251     0.482976
C        4.382503     1.626740     1.591701
C        5.008536     0.642267    -0.558396
C        3.573735    -0.670655     1.024626
C        4.786336    -1.548529     0.896102
C        3.107800    -0.637735     2.441528
H        0.738495    -5.614022    -2.649464
H        1.729324    -4.456387    -3.529492
H        2.097649    -4.815895    -1.825085
H       -0.323583    -3.464867    -4.243047
H       -0.984059    -2.140542    -3.133013
H        0.695191    -2.070364    -3.704899
H        3.068825    -2.743130    -1.194942
H        2.768640     4.060908    -2.116422
H        2.245793     6.211520    -3.284304
H       -0.062896     6.959209    -3.593188
H       -1.914235     5.613282    -2.760443
H       -6.131924     1.902360     0.399522
H       -7.616660     0.098959     0.946948
H       -6.783299    -2.255990     1.216738
H       -4.348368    -2.738772     0.910123
H       -1.654606    -5.253573    -2.732653
H       -2.651615    -4.984387    -1.298407
H       -2.598017    -3.676934    -2.490198
H       -0.471293    -5.916169    -0.446459
H        0.579089    -4.585342     0.284931
H       -1.138992    -4.706563     0.673665
H        4.817354     2.561434     1.197209
H        3.548240     1.926434     2.262868
H        5.181205     1.092090     2.159847
H        4.748342    -0.016371    -1.408936
H        5.988522     0.383060    -0.110157
H        5.137119     1.665421    -0.966997
H        4.701249    -2.463264     1.534485
H        4.987488    -1.853585    -0.140188
H        5.655586    -0.994061     1.357297
H        3.955082    -0.449758     3.111319
H        2.294516     0.109070     2.615043
H        2.732321    -1.650891     2.693703
75
ex_0265 frame2 SP-4-chelate-1-conf2
Ni       0.000000     0.000000     0.000000
C       -2.961123    -0.317974    -2.946598
C       -3.629656     0.384735    -1.805433
C       -4.746280     1.264225    -2.141695
C       -2.573420     1.076110    -0.932254
C       -2.238549     2.220083    -0.491332
C       -1.091258     2.519505     0.312617
N        0.018806     1.928093     0.290865
C        1.182436     2.616224     0.141904
N        2.230197     2.215311    -0.376087
C        2.614735     0.925891    -0.741612
C        3.802781     0.658395    -1.307692
C        4.616502     1.711346    -1.700436
C        5.851596     1.381927    -2.244825
C        6.250219     0.069462    -2.411112
C        5.411079    -0.964192    -2.029515
C        4.213121    -0.674980    -1.466850
N        3.456006    -1.689081    -1.078055
C        2.219950    -1.354053    -0.503456
N        1.865080    -0.159324    -0.546437
N       -1.871235    -0.048868    -0.546437
C       -2.635105    -1.168049    -0.267247
N       -2.246659    -2.263957     0.262862
C       -0.933519    -2.659842     0.481378
N        0.129262    -1.923847     0.290865
C        1.310667    -2.284804     0.080711
N        1.628292    -3.608715     0.435424
C        0.609468    -4.379722     0.817882
C        0.919246    -5.663710     1.102770
C       -0.138485    -6.501339     1.507612
C       -1.413811    -6.018498     1.601446
C       -1.724684    -4.714508     1.311906
C       -0.693226    -3.900338     0.865149
C       -4.006984    -0.727098    -0.753787
C       -4.666873    -1.872146    -1.400523
C       -4.843431    -0.144102     0.339909
C        0.755397     3.952130     0.761950
C        1.704779     4.206424     1.874125
C        0.621765     5.006946    -0.261406
C       -0.672739     3.571305     1.375162
C       -0.494020     2.981274     2.738907
C       -1.527779     4.719250     1.339743
H       -2.568113     0.426933    -3.663589
H       -3.665112    -0.994572    -3.466221
H       -2.106389    -0.940360    -2.610066
H       -4.791230     2.156495    -1.487442
H       -5.741463     0.780603    -2.101672
H       -4.627080     1.645901    -3.181972
H       -2.872732     3.058689    -0.745806
H        4.283178     2.731075    -1.560297
H        6.488381     2.211187    -2.533503
H        7.224828    -0.094853    -2.842940
H        5.731661    -1.988245    -2.163536
H        1.934656    -6.059146     1.031164
H        0.151106    -7.511005     1.724396
H       -2.182472    -6.710447     1.917124
H       -2.734414    -4.323536     1.382606
H       -3.990335    -2.634063    -1.816815
H       -5.241124    -2.401204    -0.591414
H       -5.439202    -1.527412    -2.111831
H       -4.675499    -0.750530     1.254229
H       -5.911707    -0.287659     0.032071
H       -4.610701     0.901880     0.612214
H        1.215109     4.835599     2.614564
H        2.047745     3.271656     2.361725
H        2.597792     4.713312     1.456884
H        0.433419     6.006727     0.175565
H        1.641081     5.103024    -0.731216
H       -0.098589     4.740937    -1.071226
H        0.279538     2.192654     2.811309
H       -1.472619     2.573724     3.016077
H       -0.282486     3.835560     3.401383
H       -0.975381     5.562445     1.847171
H       -1.889311     4.996628     0.326540
H       -2.443879     4.600746     1.949290
75
ex_0265 frame3 SP-4-chelate-1-conf3
Ni       0.000000     0.000000     0.000000
C        1.257537    -4.636930    -2.527619
C        0.377436    -3.513131    -2.169728
C       -0.108642    -2.791882    -3.386984
C        1.043115    -2.491800    -1.258855
C        2.227922    -2.154841    -0.859960
C        2.549111    -1.006145     0.011474
N        1.948121     0.038831     0.076259
C        2.652423     1.112491    -0.128960
N        2.220804     2.145016    -0.712219
C        0.926842     2.525544    -1.096783
C        0.693485     3.669844    -1.775472
C        1.755179     4.399789    -2.257477
C        1.446214     5.598069    -2.907448
C        0.146383     6.022065    -3.082652
C       -0.897386     5.261921    -2.612270
C       -0.635061     4.089270    -1.944614
N       -1.652874     3.387273    -1.478644
C       -1.348613     2.208135    -0.820393
N       -0.166153     1.776611    -0.786477
N       -0.059313    -1.783378    -0.786477
C       -1.218060    -2.583437    -0.648109
N       -2.318638    -2.231374    -0.127929
C       -2.712475    -0.870412     0.147208
N       -1.943055     0.145671     0.076259
C       -2.330555     1.274241    -0.206878
N       -3.622147     1.639527     0.040979
C       -4.397270     0.617154     0.341783
C       -5.725543     0.887307     0.508480
C       -6.580239    -0.172781     0.827169
C       -6.102453    -1.457634     0.971050
C       -4.762949    -1.736754     0.804754
C       -3.956503    -0.683974     0.434222
C       -0.810424    -3.914413    -1.260517
C       -1.960537    -4.462473    -2.018030
C       -0.408690    -4.833530    -0.162639
C        3.940555     0.722251     0.482976
C        4.382503     1.626740     1.591701
C        5.008536     0.642267    -0.558396
C        3.573735    -0.670655     1.024626
C        4.786336    -1.548529     0.896102
C        3.107800    -0.637735     2.441528
H        0.738495    -5.614022    -2.649464
H        1.729324    -4.456387    -3.529492
H        2.097649    -4.815895    -1.825085
H       -0.323583    -3.464867    -4.243047
H       -0.984059    -2.140542    -3.133013
H        0.695191    -2.070364    -3.704899
H        3.068825    -2.743130    -1.194942
H        2.768640     4.060908    -2.116422
H        2.245793     6.211520    -3.284304
H       -0.062896     6.959209    -3.593188
H       -1.914235     5.613282    -2.760443
H       -6.131924     1.902360     0.399522
H       -7.616660     0.098959     0.946948
H       -6.783299    -2.255990     1.216738
H       -4.348368    -2.738772     0.910123
H       -1.654606    -5.253573    -2.732653
H       -2.651615    -4.984387    -1.298407
H       -2.598017    -3.676934    -2.490198
H       -0.471293    -5.916169    -0.446459
H        0.579089    -4.585342     0.284931
H       -1.138992    -4.706563     0.673665
H        4.817354     2.561434     1.197209
H        3.548240     1.926434     2.262868
H        5.181205     1.092090     2.159847
H        4.748342    -0.016371    -1.408936
H        5.988522     0.383060    -0.110157
H        5.137119     1.665421    -0.966997
H        4.701249    -2.463264     1.534485
H        4.987488    -1.853585    -0.140188
H        5.655586    -0.994061     1.357297
H        3.955082    -0.449758     3.111319
H        2.294516     0.109070     2.615043
H        2.732321    -1.650891     2.693703
75
ex_0265 frame4 SP-4-chelate-1-conf4
Ni       0.000000     0.000000     0.000000
C       -0.006647    -3.131585     2.708500
C        0.505756    -3.674927     1.416423
C        1.410786    -4.841027     1.600209
C        1.100139    -2.610876     0.572855
C        2.245188    -2.217480     0.066478
C        2.536924    -1.019749    -0.663664
N        1.883543     0.031763    -0.503742
C        2.614309     1.184296    -0.392969
N        2.215959     2.282730     0.111020
C        0.905787     2.675802     0.458115
C        0.665548     3.874958     0.914056
C        1.732299     4.687196     1.222329
C        1.427606     5.975044     1.672553
C        0.118898     6.403171     1.818867
C       -0.945094     5.547530     1.514326
C       -0.658815     4.316533     1.043406
N       -1.677331     3.543821     0.708989
C       -1.303310     2.292297     0.232237
N       -0.140695     1.914762     0.341160
N       -0.017889    -1.919841     0.341160
C       -1.095717    -2.638003     0.028329
N       -2.176106    -2.235533    -0.518586
C       -2.604199    -0.912493    -0.771899
N       -1.877459     0.154568    -0.503742
C       -2.255709     1.323820    -0.388188
N       -3.524744     1.666904    -0.834367
C       -4.242939     0.648751    -1.266025
C       -5.513905     0.921974    -1.695626
C       -6.346093    -0.060487    -2.163436
C       -5.861509    -1.348783    -2.189825
C       -4.587873    -1.673156    -1.767741
C       -3.798529    -0.657119    -1.264438
C       -0.676701    -3.980725     0.487151
C       -1.771811    -4.704954     1.218864
C       -0.220336    -4.751587    -0.713391
C        3.925378     0.793055    -0.997960
C        4.285574     1.848486    -1.995758
C        5.019221     0.539167    -0.019376
C        3.493656    -0.519946    -1.703661
C        4.660889    -1.422168    -1.882121
C        2.817046    -0.189211    -2.987264
H        0.796931    -2.594881     3.266969
H       -0.340987    -3.953997     3.375427
H       -0.832553    -2.415194     2.491124
H        0.857491    -5.814361     1.712055
H        2.143430    -4.968930     0.781305
H        1.976143    -4.725837     2.556980
H        3.090177    -2.904797     0.221350
H        2.753172     4.346735     1.105898
H        2.252144     6.638259     1.907074
H       -0.044113     7.411837     2.173243
H       -1.927838     5.972662     1.660698
H       -5.917991     1.937616    -1.683022
H       -7.353609     0.122154    -2.509459
H       -6.463212    -2.190756    -2.548953
H       -4.204624    -2.695178    -1.789093
H       -2.427450    -5.151595     0.439312
H       -2.396389    -4.003408     1.779203
H       -1.329968    -5.516504     1.808007
H       -0.407578    -5.850296    -0.644724
H        0.850736    -4.580941    -0.949884
H       -0.814213    -4.413115    -1.591407
H        4.959688     1.371526    -2.734493
H        3.410260     2.361122    -2.437631
H        4.921245     2.598568    -1.441980
H        4.860595    -0.353406     0.593944
H        5.963876     0.500110    -0.595283
H        5.076919     1.415200     0.649548
H        4.930466    -1.919191    -0.952696
H        5.525322    -0.865659    -2.310327
H        4.366730    -2.205867    -2.608658
H        2.099647     0.634825    -2.830592
H        2.286277    -1.106530    -3.328361
H        3.590771     0.036687    -3.739020
