39
ex_0023 frame0 OC-6-chelate-2
Cu       0.000000     0.000000     0.000000
N        0.107234     2.027166    -0.000000
C       -0.918335     2.667757    -0.000010
C       -0.734708     4.174715     0.000003
C        0.538053     4.625977     0.000027
C        1.704310     3.715842     0.000040
C        1.489806     2.422133     0.000019
C        2.455935     1.350082     0.000012
N        2.027166     0.107234    -0.000000
C        2.939421    -0.853221    -0.000012
C        4.170657    -0.210106    -0.000004
N        3.866904     1.229039     0.000014
H       -1.886889     2.222296    -0.000019
H       -1.584170     4.809318    -0.000001
H        0.721546     5.698685     0.000023
H        2.720757     4.054486     0.000063
H        2.790144    -1.930077    -0.000020
H        5.123353    -0.674151    -0.000014
H        4.503401     2.023146     0.000020
N       -0.107234    -0.000000     2.027166
C        0.918335    -0.000010     2.667757
C        0.734708     0.000003     4.174715
C       -0.538053     0.000027     4.625977
C       -1.704310     0.000040     3.715842
C       -1.489806     0.000019     2.422133
C       -2.455935     0.000012     1.350082
N       -2.027166    -0.000000     0.107234
C       -2.939421    -0.000012    -0.853221
C       -4.170657    -0.000004    -0.210106
N       -3.866904     0.000014     1.229039
H        1.886889    -0.000019     2.222296
H        1.584170    -0.000001     4.809318
H       -0.721546     0.000023     5.698685
H       -2.720757     0.000063     4.054486
H       -2.790144    -0.000020    -1.930077
H       -5.123353    -0.000014    -0.674151
H       -4.503401     0.000020     2.023146
Cl       0.000000    -2.340000     0.000000
Cl       0.000000     0.000000    -2.340000
39
ex_0023 frame1 OC-6-chelate-2-reembed1
Cu       0.000000     0.000000     0.000000
N        0.107234     2.027166    -0.000000
C       -0.918335     2.667757    -0.000010
C       -0.734708     4.174715     0.000003
C        0.538053     4.625977     0.000027
C        1.704310     3.715842     0.000040
C        1.489806     2.422133     0.000019
C        2.455935     1.350082     0.000012
N        2.027166     0.107234    -0.000000
C        2.939421    -0.853221    -0.000012
C        4.170657    -0.210106    -0.000004
N        3.866904     1.229039     0.000014
H       -1.886889     2.222296    -0.000019
H       -1.584170     4.809318    -0.000001
H        0.721546     5.698685     0.000023
H        2.720757     4.054486     0.000063
H        2.790144    -1.930077    -0.000020
H        5.123353    -0.674151    -0.000014
H        4.503401     2.023146     0.000020
N       -0.107234    -0.000000     2.027166
C        0.918335    -0.000010     2.667757
C        0.734708     0.000003     4.174715
C       -0.538053     0.000027     4.625977
C       -1.704310     0.000040     3.715842
C       -1.489806     0.000019     2.422133
C       -2.455935     0.000012     1.350082
N       -2.027166    -0.000000     0.107234
C       -2.939421    -0.000012    -0.853221
C       -4.170657    -0.000004    -0.210106
N       -3.866904     0.000014     1.229039
H        1.886889    -0.000019     2.222296
H        1.584170    -0.000001     4.809318
H       -0.721546     0.000023     5.698685
H       -2.720757     0.000063     4.054486
H       -2.790144    -0.000020    -1.930077
H       -5.123353    -0.000014    -0.674151
H       -4.503401     0.000020     2.023146
Cl       0.000000    -2.340000     0.000000
Cl       0.000000     0.000000    -2.340000
39
ex_0023 frame2 OC-6-chelate-3
Cu       0.000000     0.000000     0.000000
N        0.107234     2.027166    -0.000000
C       -0.918335     2.667757    -0.000010
C       -0.734708     4.174715     0.000003
C        0.538053     4.625977     0.000027
C        1.704310     3.715842     0.000040
C        1.489806     2.422133     0.000019
C        2.455935     1.350082     0.000012
N        2.027166     0.107234    -0.000000
C        2.939421    -0.853221    -0.000012
C        4.170657    -0.210106    -0.000004
N        3.866904     1.229039     0.000014
H       -1.886889     2.222296    -0.000019
H       -1.584170     4.809318    -0.000001
H        0.721546     5.698685     0.000023
H        2.720757     4.054486     0.000063
H        2.790144    -1.930077    -0.000020
H        5.123353    -0.674151    -0.000014
H        4.503401     2.023146     0.000020
N       -0.107234     0.000000    -2.027166
C        0.918335     0.000010    -2.667757
C        0.734708    -0.000003    -4.174715
C       -0.538053    -0.000027    -4.625977
C       -1.704310    -0.000040    -3.715842
C       -1.489806    -0.000019    -2.422133
C       -2.455935    -0.000012    -1.350082
N       -2.027166     0.000000    -0.107234
C       -2.939421     0.000012     0.853221
C       -4.170657     0.000004     0.210106
N       -3.866904    -0.000014    -1.229039
H        1.886889     0.000019    -2.222296
H        1.584170     0.000001    -4.809318
H       -0.721546    -0.000023    -5.698685
H       -2.720757    -0.000063    -4.054486
H       -2.790144     0.000020     1.930077
H       -5.123353     0.000014     0.674151
H       -4.503401    -0.000020    -2.023146
Cl       0.000000    -2.340000     0.000000
Cl       0.000000     0.000000     2.340000
39
ex_0023 frame3 OC-6-chelate-3-reembed1
Cu       0.000000     0.000000     0.000000
N        0.107234     2.027166    -0.000000
C       -0.918335     2.667757    -0.000010
C       -0.734708     4.174715     0.000003
C        0.538053     4.625977     0.000027
C        1.704310     3.715842     0.000040
C        1.489806     2.422133     0.000019
C        2.455935     1.350082     0.000012
N        2.027166     0.107234    -0.000000
C        2.939421    -0.853221    -0.000012
C        4.170657    -0.210106    -0.000004
N        3.866904     1.229039     0.000014
H       -1.886889     2.222296    -0.000019
H       -1.584170     4.809318    -0.000001
H        0.721546     5.698685     0.000023
H        2.720757     4.054486     0.000063
H        2.790144    -1.930077    -0.000020
H        5.123353    -0.674151    -0.000014
H        4.503401     2.023146     0.000020
N       -0.107234     0.000000    -2.027166
C        0.918335     0.000010    -2.667757
C        0.734708    -0.000003    -4.174715
C       -0.538053    -0.000027    -4.625977
C       -1.704310    -0.000040    -3.715842
C       -1.489806    -0.000019    -2.422133
C       -2.455935    -0.000012    -1.350082
N       -2.027166     0.000000    -0.107234
C       -2.939421     0.000012     0.853221
C       -4.170657     0.000004     0.210106
N       -3.866904    -0.000014    -1.229039
H        1.886889     0.000019    -2.222296
H        1.584170     0.000001    -4.809318
H       -0.721546    -0.000023    -5.698685
H       -2.720757    -0.000063    -4.054486
H       -2.790144     0.000020     1.930077
H       -5.123353     0.000014     0.674151
H       -4.503401    -0.000020    -2.023146
Cl       0.000000    -2.340000     0.000000
Cl       0.000000     0.000000     2.340000
