93
ex_0283 frame0 see-saw C-N1-ax-conf5
C       -2.926344     6.951018     0.236164
C       -2.578509     5.883211    -0.751901
C       -1.461741     6.048359    -1.582047
C       -1.137997     5.076868    -2.524036
C       -1.907772     3.917320    -2.636211
C       -1.519977     2.900656    -3.660883
N       -0.700239     1.933680    -2.988655
C        0.699745     1.893590    -3.070578
C        1.128188     0.798098    -2.476500
C        2.479181     0.321851    -2.299612
C        3.347215     0.183955    -3.470727
C        4.628760     0.735490    -3.504019
C        5.402681     0.591312    -4.648211
C        4.884638    -0.087220    -5.758015
C        3.601623    -0.643928    -5.712276
C        2.839641    -0.525234    -4.559572
C        2.869701     0.013019    -0.937588
C        4.152711    -0.291293    -0.539373
C        4.115657    -0.381421     0.803928
C        2.800721    -0.158819     1.179589
N        1.996250    -0.006027     0.089588
Ni       0.000000     0.000000     0.000000
C        0.036378     0.006695    -1.948837
C       -1.103875     0.728784    -2.414282
C       -2.468638     0.266724    -2.297311
C       -3.332245     0.119795    -3.462980
C       -2.789604    -0.577013    -4.545316
C       -3.501793    -0.680160    -5.717941
C       -4.789551    -0.145408    -5.791597
C       -5.357378     0.501352    -4.684620
C       -4.625971     0.637634    -3.512143
C       -2.859186    -0.019375    -0.932222
C       -4.143694    -0.323581    -0.527506
C       -4.106537    -0.406728     0.816935
C       -2.794434    -0.166883     1.185510
N       -1.995532    -0.016943     0.092221
C       -2.366227    -0.092081     2.571878
C       -3.410871    -0.061820     3.675837
C       -4.412360    -1.039890     3.860902
C       -5.349656    -0.907675     4.898217
C       -5.291618     0.185811     5.767175
C       -4.297817     1.148044     5.607129
C       -3.370026     1.025131     4.576247
C       -1.064268    -0.050252     2.870642
C       -0.650453    -0.042973     4.193732
C        0.670701    -0.043130     4.193028
C        1.079788    -0.054584     2.870107
C        2.380951    -0.098852     2.570974
C        3.434656    -0.086774     3.673027
C        4.423433    -1.083765     3.814028
C        5.381548    -1.001116     4.835354
C        5.361881     0.065350     5.736963
C        4.381967     1.049627     5.625888
C        3.429092     0.975170     4.607902
N        0.006215    -0.010394     2.000729
C       -3.018437     3.734866    -1.791323
C       -3.355649     4.719323    -0.857910
H       -3.876234     6.720701     0.762576
H       -3.044053     7.921669    -0.291437
H       -2.111632     7.034726     0.984344
H       -0.844156     6.933164    -1.509676
H       -0.271112     5.213204    -3.157706
H       -0.932228     3.367040    -4.478688
H       -2.408411     2.444037    -4.141810
H        1.330467     2.651864    -3.515167
H        5.020185     1.280395    -2.651337
H        6.393698     1.019828    -4.673284
H        5.473668    -0.176907    -6.654938
H        3.187158    -1.158619    -6.566073
H        1.839122    -0.946062    -4.521451
H        5.044836    -0.408164    -1.134346
H        4.985288    -0.580711     1.410777
H       -1.779471    -0.976654    -4.498293
H       -3.034292    -1.163666    -6.561362
H       -5.339653    -0.226590    -6.710700
H       -6.351629     0.916695    -4.736073
H       -5.051958     1.169145    -2.667963
H       -5.035044    -0.460219    -1.119281
H       -4.971009    -0.616437     1.428973
H       -4.472263    -1.906578     3.215356
H       -6.123863    -1.652422     5.033307
H       -6.014496     0.291004     6.566163
H       -4.242912     1.996676     6.276819
H       -2.614710     1.793579     4.467968
H       -1.220462    -0.095318     5.111067
H        1.242633    -0.093535     5.109198
H        4.455523    -1.931178     3.142651
H        6.142487    -1.765194     4.930611
H        6.104420     0.129915     6.523028
H        4.360948     1.876410     6.325389
H        2.686597     1.760619     4.539913
H       -3.623665     2.841321    -1.845866
H       -4.215712     4.572565    -0.214874
93
ex_0283 frame1 see-saw C-N1-ax-conf3
C       -1.563468     2.410738    -9.534289
C       -1.595311     2.470567    -8.039224
C       -0.429394     2.802680    -7.353831
C       -0.422674     2.888728    -5.968287
C       -1.585609     2.658683    -5.233003
C       -1.543509     2.814626    -3.736985
N       -0.705248     1.829751    -3.115782
C        0.696950     1.773907    -3.081203
C        1.089928     0.694059    -2.448073
C        2.431855     0.180924    -2.217141
C        3.273297    -0.001969    -3.377228
C        2.710577    -0.681929    -4.450232
C        3.438384    -0.825396    -5.615360
C        4.741412    -0.331641    -5.684802
C        5.316060     0.309068    -4.583660
C        4.581299     0.476922    -3.421792
C        2.850316    -0.114897    -0.877328
C        4.127603    -0.515771    -0.486063
C        4.101147    -0.565599     0.859276
C        2.787590    -0.216483     1.232542
N        1.993466    -0.020146     0.143131
Ni       0.000000     0.000000     0.000000
C       -0.014497    -0.021361    -1.947420
C       -1.144055     0.677706    -2.447278
C       -2.480096     0.170746    -2.238500
C       -3.374326    -0.024759    -3.336186
C       -4.672141     0.472268    -3.302715
C       -5.511148     0.220898    -4.367917
C       -5.026204    -0.490352    -5.471202
C       -3.706756    -0.956495    -5.500022
C       -2.874305    -0.731663    -4.422831
C       -2.856072    -0.127225    -0.895854
C       -4.115518    -0.549482    -0.497440
C       -4.078759    -0.598947     0.841808
C       -2.776741    -0.230540     1.213003
N       -1.994623    -0.019656     0.121779
C       -2.367455    -0.103630     2.598046
C       -3.447763    -0.084767     3.644696
C       -4.509570     0.820281     3.470376
C       -5.550644     0.883291     4.393681
C       -5.543845     0.040924     5.504908
C       -4.492329    -0.857446     5.700350
C       -3.446562    -0.921169     4.778551
C       -1.074950    -0.008315     2.905836
C       -0.663938     0.075478     4.262490
C        0.666080     0.079946     4.264725
C        1.071502    -0.002618     2.910411
C        2.373130    -0.091195     2.614296
C        3.467357    -0.067989     3.658893
C        4.530152     0.833328     3.461966
C        5.584613     0.913787     4.363812
C        5.599394     0.090795     5.491468
C        4.549130    -0.807749     5.714135
C        3.486283    -0.887634     4.807508
N       -0.003971     0.021459     2.002803
C       -2.759839     2.288375    -5.914338
C       -2.766046     2.201389    -7.314547
H       -1.043416     3.307392    -9.940559
H       -1.023194     1.496765    -9.865044
H       -2.593765     2.407574    -9.936718
H        0.471273     3.029125    -7.898948
H        0.486575     3.180383    -5.474863
H       -1.137018     3.809862    -3.496506
H       -2.559145     2.761608    -3.290377
H        1.367318     2.492662    -3.485114
H        1.689968    -1.046756    -4.390508
H        2.987078    -1.307774    -6.464101
H        5.301362    -0.443793    -6.594496
H        6.321533     0.689914    -4.631132
H        5.025754     0.990991    -2.576693
H        5.007504    -0.760239    -1.082251
H        4.974598    -0.869351     1.452952
H       -5.031254     1.029765    -2.441759
H       -6.526529     0.582970    -4.331187
H       -5.667101    -0.679204    -6.308352
H       -3.326746    -1.490217    -6.351329
H       -1.841813    -1.083354    -4.430584
H       -4.984338    -0.818362    -1.093820
H       -4.933392    -0.924849     1.435702
H       -4.513775     1.485616     2.614093
H       -6.363991     1.581524     4.246029
H       -6.355852     0.084437     6.213109
H       -4.488395    -1.512735     6.560538
H       -2.651220    -1.635816     4.942427
H       -1.211594     0.108890     5.221598
H        1.220071     0.114627     5.223146
H        4.534511     1.487808     2.599303
H        6.383455     1.618551     4.170524
H        6.423853     0.148910     6.188743
H        4.554187    -1.452223     6.583390
H        2.698275    -1.604659     4.996025
H       -3.670019     2.086140    -5.371803
H       -3.674775     1.927710    -7.835880
93
ex_0283 frame2 tetrahedral-conf6
C       -2.174925    -1.959029    -6.939859
C       -1.221641    -2.416338    -5.889799
C        0.150133    -2.216427    -6.053007
C        1.038735    -2.645773    -5.067373
C        0.572055    -3.286131    -3.915258
C        1.633601    -3.810316    -2.802152
N        1.756728    -2.746155    -1.847605
C        2.758900    -1.758279    -1.827759
C        2.559099    -0.939658    -0.806106
C        3.318694     0.147378    -0.320456
C        4.880249    -0.175474    -0.218728
C        5.809922     0.701903    -0.766219
C        7.163491     0.412283    -0.668681
C        7.592164    -0.754143    -0.041446
C        6.657685    -1.628851     0.495985
C        5.302828    -1.336197     0.418996
C        2.766810     1.301393     0.004439
C        3.454923     2.463226     0.371918
C        2.495040     3.400853     0.492902
C        1.243545     2.763348     0.223194
N        1.399774     1.429391    -0.001924
Ni       0.000000     0.000000     0.000000
C        1.391744    -1.359926    -0.091568
C        0.904437    -2.496075    -0.763493
C       -0.183444    -3.244112    -0.283202
C        0.174470    -4.845614    -0.182132
C        1.366568    -5.220503     0.431707
C        1.708177    -6.551616     0.516995
C        0.849210    -7.525467     0.012534
C       -0.354614    -7.146722    -0.592167
C       -0.693762    -5.803282    -0.697999
C       -1.306999    -2.753488     0.030896
C       -2.464034    -3.438269     0.407780
C       -3.400436    -2.478743     0.523440
C       -2.762885    -1.232972     0.237569
N       -1.434440    -1.393811     0.007979
C       -3.431475     0.066423     0.185507
C       -4.905445     0.069800     0.173854
C       -5.715954    -0.540276     1.142245
C       -7.104065    -0.473120     1.002726
C       -7.673410     0.201148    -0.078683
C       -6.861678     0.810625    -1.027459
C       -5.493111     0.743073    -0.901163
C       -2.767980     1.247363     0.145499
C       -3.429047     2.491969     0.152438
C       -2.481318     3.439005     0.149968
C       -1.237298     2.779197     0.145922
C       -0.057655     3.442904     0.182516
C       -0.059469     4.923123     0.181510
C        0.569547     5.694348     1.164663
C        0.537557     7.080079     1.087055
C       -0.126635     7.708361     0.040087
C       -0.764588     6.948177    -0.936980
C       -0.731500     5.564368    -0.867067
N       -1.408671     1.416374     0.094133
C       -0.805269    -3.461212    -3.747438
C       -1.693855    -3.047380    -4.736497
H       -3.201164    -2.299553    -6.710407
H       -1.897035    -2.364299    -7.938226
H       -2.170805    -0.850637    -6.931591
H        0.523090    -1.734815    -6.945568
H        2.095940    -2.489417    -5.196923
H        2.527474    -3.858065    -3.380683
H        1.327307    -4.735560    -2.460811
H        3.560734    -1.688501    -2.539621
H        5.501696     1.605673    -1.264281
H        7.877829     1.092186    -1.084267
H        8.644309    -0.986303     0.029087
H        6.994959    -2.529495     0.968938
H        4.573501    -2.020203     0.824339
H        4.535329     2.663709     0.545142
H        2.768203     4.420238     0.778144
H        2.050554    -4.471750     0.811634
H        2.643261    -6.809304     0.977044
H        1.123840    -8.566673     0.091945
H       -1.024344    -7.888523    -0.983790
H       -1.620596    -5.520433    -1.179605
H       -2.658248    -4.514751     0.600590
H       -4.415340    -2.747442     0.823404
H       -5.284269    -1.048243     1.997885
H       -7.750980    -0.933964     1.725307
H       -8.743391     0.253138    -0.182914
H       -7.272991     1.338467    -1.868700
H       -4.871468     1.217630    -1.651438
H       -4.493366     2.758682     0.175419
H       -2.749132     4.499964     0.171887
H        1.073426     5.238129     1.998446
H        1.026507     7.667150     1.843144
H       -0.140819     8.783945    -0.001677
H       -1.282274     7.425609    -1.749269
H       -1.224522     4.980872    -1.635457
H       -1.202035    -3.937813    -2.874429
H       -2.752534    -3.205471    -4.595092
93
ex_0283 frame3 trans-conf5
C       -2.922645    -0.053129    -6.948501
C       -2.572031    -1.018820    -5.868887
C       -1.460446    -1.852029    -6.007259
C       -1.135691    -2.754256    -4.994385
C       -1.918682    -2.842576    -3.839072
C       -1.538239    -3.932672    -2.690122
N       -0.699356    -3.235408    -1.757617
C        0.707324    -3.245355    -1.737267
C        1.145849    -2.491273    -0.739895
C        2.449323    -2.245437    -0.259009
C        3.327366    -3.578075    -0.117553
C        4.605249    -3.631492    -0.664290
C        5.357822    -4.789967    -0.531866
C        4.835662    -5.898536     0.129271
C        3.556057    -5.840491     0.665567
C        2.804976    -4.678271     0.553682
C        2.876324    -1.033188     0.032150
C        4.183026    -0.686358     0.386798
C        4.167702     0.658264     0.467255
C        2.832742     1.083139     0.188955
N        2.000075     0.021889    -0.000298
Ni       0.000000     0.000000     0.000000
C        0.021211    -1.947003    -0.054213
C       -1.126121    -2.419913    -0.700392
C       -2.421760    -2.165325    -0.225550
C       -3.303567    -3.551847    -0.082316
C       -2.725751    -4.641211     0.565099
C       -3.425338    -5.821088     0.685375
C       -4.721266    -5.917035     0.182997
C       -5.304835    -4.816733    -0.455275
C       -4.594583    -3.630647    -0.596537
C       -2.870551    -1.018414     0.055714
C       -4.171737    -0.672509     0.420605
C       -4.155424     0.670984     0.496273
C       -2.824099     1.091530     0.200178
N       -1.999586     0.030841     0.005170
C       -2.377585     2.480235     0.108484
C       -3.418218     3.524542     0.061005
C       -4.423811     3.694855     1.024209
C       -5.358370     4.719055     0.854279
C       -5.284183     5.565764    -0.253100
C       -4.279180     5.394448    -1.197442
C       -3.358763     4.383092    -1.040863
C       -1.073144     2.843203     0.064455
C       -0.661219     4.189494     0.021969
C        0.678181     4.189312     0.019884
C        1.091343     2.844419     0.065305
C        2.394513     2.482000     0.107253
C        3.439242     3.530224     0.069480
C        4.429609     3.659388     1.049063
C        5.386974     4.659167     0.941745
C        5.361631     5.541436    -0.132473
C        4.373123     5.425864    -1.106932
C        3.418029     4.426379    -1.007303
N        0.008482     1.997448     0.054556
C       -3.016686    -1.987715    -3.696338
C       -3.352383    -1.096625    -4.712650
H       -3.889106     0.438942    -6.733746
H       -3.012485    -0.566343    -7.931660
H       -2.135409     0.727074    -6.965028
H       -0.855688    -1.802130    -6.901534
H       -0.277170    -3.394821    -5.105067
H       -0.939949    -4.613744    -3.250825
H       -2.409286    -4.356855    -2.338742
H        1.324271    -3.786790    -2.431281
H        5.025731    -2.789322    -1.188340
H        6.344049    -4.826739    -0.946921
H        5.415456    -6.803998     0.226789
H        3.156742    -6.701232     1.164640
H        1.805192    -4.634263     0.958037
H        5.087240    -1.303733     0.574655
H        5.081587     1.194905     0.732546
H       -1.712447    -4.584154     0.943669
H       -2.946458    -6.650856     1.170284
H       -5.263337    -6.844445     0.289798
H       -6.303054    -4.879516    -0.845763
H       -5.049423    -2.790085    -1.104215
H       -5.068919    -1.291271     0.628959
H       -5.063336     1.207606     0.777012
H       -4.477929     3.056333     1.899521
H       -6.141688     4.871694     1.573356
H       -6.004034     6.355717    -0.380990
H       -4.197083     6.033440    -2.058230
H       -2.583921     4.256524    -1.787718
H       -1.226360     5.129971     0.014679
H        1.238479     5.128746     0.011587
H        4.462568     3.005112     1.902976
H        6.147776     4.751183     1.695787
H        6.111874     6.310682    -0.197728
H        4.344438     6.104883    -1.940223
H        2.656838     4.339133    -1.773570
H       -3.634197    -2.018123    -2.821485
H       -4.212896    -0.455819    -4.590527
93
ex_0283 frame4 trans-conf2
C       -1.896274    -0.672050    -7.178999
C       -1.845254    -1.524533    -5.966311
C       -2.809857    -1.465538    -4.944913
C       -2.706674    -2.304183    -3.831077
C       -1.629712    -3.189383    -3.751017
C       -1.455016    -4.101282    -2.605806
N       -0.677217    -3.404650    -1.617911
C        0.716294    -3.392639    -1.562736
C        1.147608    -2.606383    -0.584458
C        2.469184    -2.387490    -0.101486
C        3.387834    -3.485778     0.191402
C        3.691932    -4.524517    -0.688478
C        4.546726    -5.533524    -0.265998
C        5.123696    -5.495638     0.996866
C        4.841722    -4.443956     1.849218
C        3.975131    -3.446383     1.451488
C        2.866861    -1.020082     0.098810
C        4.184947    -0.655974     0.412325
C        4.161631     0.683806     0.486347
C        2.825632     1.097552     0.191756
N        1.999798     0.029725     0.000950
Ni       0.000000     0.000000     0.000000
C        0.016972    -1.957226    -0.010612
C       -1.127602    -2.556924    -0.582322
C       -2.485084    -2.359625    -0.200850
C       -3.368284    -3.501387    -0.102340
C       -4.633429    -3.498199    -0.687690
C       -5.442053    -4.606062    -0.555798
C       -4.984369    -5.718978     0.139896
C       -3.708228    -5.723974     0.713773
C       -2.898583    -4.603715     0.603128
C       -2.871682    -1.016377     0.060697
C       -4.182923    -0.666326     0.397167
C       -4.168620     0.675921     0.464815
C       -2.831921     1.095021     0.182188
N       -1.999841     0.029253     0.004342
C       -2.391288     2.491049     0.092239
C       -3.426743     3.555782     0.063457
C       -3.406718     4.457237    -1.010030
C       -4.323967     5.496422    -1.078668
C       -5.285727     5.631342    -0.080132
C       -5.329430     4.731513     0.976598
C       -4.408345     3.694932     1.049830
C       -1.083124     2.848600     0.035138
C       -0.669770     4.195824    -0.005855
C        0.672578     4.195176    -0.008443
C        1.083239     2.850557     0.038307
C        2.385623     2.492516     0.098284
C        3.440494     3.528838     0.070195
C        4.393552     3.650261     1.086974
C        5.379054     4.625756     1.003159
C        5.414561     5.492296    -0.083102
C        4.465164     5.387065    -1.087434
C        3.479909     4.416182    -1.016171
N        0.000840     1.998580     0.009139
C       -0.682794    -3.231829    -4.765038
C       -0.782289    -2.411209    -5.866455
H       -0.912629    -0.170584    -7.283752
H       -2.702937     0.086332    -7.142162
H       -2.042777    -1.342370    -8.049141
H       -3.636780    -0.786306    -5.019681
H       -3.447705    -2.270627    -3.040953
H       -0.878030    -4.995805    -2.937981
H       -2.446936    -4.416626    -2.244242
H        1.313821    -3.929930    -2.260229
H        3.276560    -4.591209    -1.680081
H        4.770740    -6.352245    -0.911400
H        5.789675    -6.279883     1.316647
H        5.292374    -4.408040     2.819740
H        3.772511    -2.633345     2.125520
H        5.090517    -1.272329     0.623944
H        5.069406     1.223969     0.763483
H       -5.007308    -2.648112    -1.240173
H       -6.423481    -4.597862    -0.996535
H       -5.633786    -6.569413     0.220262
H       -3.356317    -6.590952     1.242002
H       -1.895543    -4.579614     1.027489
H       -5.087035    -1.284099     0.592259
H       -5.082255     1.213629     0.726524
H       -2.660506     4.351562    -1.785090
H       -4.284635     6.195085    -1.900052
H       -6.005095     6.427968    -0.108378
H       -6.073898     4.847334     1.745474
H       -4.449607     3.032755     1.893204
H       -1.235100     5.137315    -0.013098
H        1.239058     5.131143    -0.018330
H        4.378346     3.003330     1.948777
H        6.116009     4.715509     1.779083
H        6.173282     6.251133    -0.154627
H        4.498108     6.059719    -1.923169
H        2.759497     4.353324    -1.819536
H        0.142950    -3.905058    -4.689503
H       -0.026104    -2.459781    -6.642548
93
ex_0283 frame5 trans
C       -1.896198    -0.672419    -7.178531
C       -1.845258    -1.524722    -5.965965
C       -2.809661    -1.466062    -4.944562
C       -2.706921    -2.304278    -3.830437
C       -1.630390    -3.189191    -3.750309
C       -1.455435    -4.101353    -2.605566
N       -0.677204    -3.406219    -1.618381
C        0.718002    -3.393642    -1.564406
C        1.153461    -2.601410    -0.598666
C        2.470026    -2.378875    -0.106493
C        3.387566    -3.480875     0.189915
C        3.691012    -4.522252    -0.688773
C        4.545799    -5.531850    -0.265433
C        5.123057    -5.494488     0.996828
C        4.841029    -4.442801     1.848012
C        3.974816    -3.444634     1.449584
C        2.864465    -1.006791     0.099112
C        4.183396    -0.650748     0.415879
C        4.162497     0.688923     0.487863
C        2.827062     1.109923     0.195441
N        1.999432     0.046554     0.004092
Ni       0.000000     0.000000     0.000000
C        0.023511    -1.946656    -0.050701
C       -1.123156    -2.549398    -0.595549
C       -2.481111    -2.349639    -0.205452
C       -3.365545    -3.497551    -0.103564
C       -4.632335    -3.496769    -0.687446
C       -5.441123    -4.605302    -0.555682
C       -4.983595    -5.717983     0.139674
C       -3.707376    -5.722708     0.713102
C       -2.897159    -4.601642     0.602047
C       -2.868094    -1.002589     0.060082
C       -4.181353    -0.661098     0.398754
C       -4.170760     0.681260     0.465604
C       -2.834827     1.108159     0.185236
N       -1.999501     0.047140     0.005698
C       -2.393394     2.498929     0.099259
C       -3.426359     3.559797     0.062764
C       -3.406822     4.457845    -1.010506
C       -4.323635     5.496366    -1.078708
C       -5.285290     5.631050    -0.080078
C       -5.329274     4.731477     0.976375
C       -4.408475     3.695735     1.048915
C       -1.085438     2.851668     0.053279
C       -0.670187     4.197993    -0.001327
C        0.671335     4.197569    -0.004545
C        1.081002     2.853255     0.055617
C        2.385442     2.499622     0.105327
C        3.438888     3.532186     0.069128
C        4.392914     3.650273     1.085995
C        5.378512     4.625134     1.002796
C        5.414225     5.491712    -0.082997
C        4.465166     5.386571    -1.087190
C        3.479977     4.416547    -1.016700
N       -0.005287     1.998068     0.052417
C       -0.683661    -3.231066    -4.764416
C       -0.782451    -2.410978    -5.866228
H       -0.912150    -0.172080    -7.283555
H       -2.702187     0.086655    -7.142313
H       -2.042734    -1.342890    -8.048359
H       -3.636014    -0.787209    -5.019824
H       -3.447765    -2.271083    -3.040430
H       -0.876935    -4.994894    -2.938918
H       -2.447345    -4.415569    -2.244661
H        1.312704    -3.930121    -2.260024
H        3.276628    -4.591679    -1.679950
H        4.770185    -6.350999    -0.909732
H        5.789102    -6.279260     1.316755
H        5.291817    -4.408047     2.818479
H        3.773129    -2.632964     2.124121
H        5.090324    -1.272234     0.625858
H        5.071390     1.223188     0.763856
H       -5.007703    -2.647917    -1.239546
H       -6.422916    -4.597369    -0.996237
H       -5.633862    -6.568044     0.219652
H       -3.356640    -6.590176     1.241461
H       -1.894437    -4.577879     1.026380
H       -5.086590    -1.283872     0.593286
H       -5.085422     1.212752     0.727453
H       -2.660261     4.351400    -1.784498
H       -4.284407     6.194962    -1.899751
H       -6.004756     6.427086    -0.107735
H       -6.073652     4.847317     1.745146
H       -4.449548     3.033709     1.892131
H       -1.235297     5.139685    -0.016286
H        1.238280     5.133388    -0.021673
H        4.378224     3.003970     1.948288
H        6.115411     4.715326     1.778379
H        6.172537     6.250741    -0.154936
H        4.498137     6.059230    -1.922465
H        2.759670     4.354052    -1.819380
H        0.141457    -3.903989    -4.688997
H       -0.026013    -2.459609    -6.642649
93
ex_0283 frame6 see-saw N2-N2-ax-conf6
C       -0.498929     7.088860    -2.417878
C       -1.389818     5.910355    -2.168767
C       -2.278723     5.935657    -1.087631
C       -3.120631     4.859515    -0.846165
C       -3.103714     3.745096    -1.683954
C       -4.155349     2.513646    -1.378528
N       -3.374683     1.639624    -0.562514
C       -3.404718     1.606290     0.842297
C       -2.563048     0.685036     1.270232
C       -2.265583     0.144991     2.526929
C       -3.524474    -0.202835     3.540503
C       -4.572746     0.672183     3.858287
C       -5.594783     0.249641     4.706783
C       -5.558818    -1.031030     5.260879
C       -4.502551    -1.893722     4.966158
C       -3.494852    -1.486062     4.100140
C       -1.036317    -0.066665     2.899313
C       -0.641565    -0.363573     4.193961
C        0.686641    -0.449489     4.160791
C        1.078157    -0.181992     2.837681
N        0.008434    -0.009796     2.000623
Ni       0.000000     0.000000     0.000000
C       -1.944203     0.076765     0.103005
C       -2.464056     0.685222    -1.007424
C       -2.142286     0.188037    -2.266805
C       -3.543495    -0.054623    -3.160955
C       -4.591561    -0.776664    -2.577335
C       -5.761431    -0.939884    -3.272544
C       -5.866099    -0.428171    -4.566756
C       -4.798514     0.264247    -5.154841
C       -3.629282     0.460388    -4.443395
C       -1.015307    -0.080092    -2.798385
C       -0.643032    -0.451178    -4.066974
C        0.713251    -0.508560    -4.054953
C        1.118701    -0.194805    -2.756072
N        0.042969     0.003794    -1.998928
C        2.494538    -0.086626    -2.269454
C        3.541849    -0.014370    -3.286200
C        4.360632     1.124627    -3.282534
C        5.368817     1.253220    -4.222449
C        5.562011     0.244955    -5.168605
C        4.745046    -0.890179    -5.174417
C        3.736092    -1.024876    -4.230099
C        2.843234    -0.048335    -0.971662
C        4.169440     0.020640    -0.536953
C        4.158235     0.038159     0.800793
C        2.831202    -0.052485     1.184558
C        2.475939    -0.115486     2.477427
C        3.493873    -0.120833     3.604669
C        3.391952     0.752900     4.716391
C        4.350745     0.720993     5.737452
C        5.417986    -0.174587     5.667968
C        5.528607    -1.041655     4.581372
C        4.578672    -1.013270     3.562378
N        1.994889    -0.069750     0.083610
C       -2.199985     3.694754    -2.760476
C       -1.347140     4.779671    -3.003545
H       -0.405751     7.283221    -3.506541
H        0.506304     6.896825    -1.992520
H       -0.916632     7.997658    -1.930654
H       -2.318756     6.784801    -0.420826
H       -3.789916     4.886785     0.002888
H       -4.900490     3.002861    -0.790365
H       -4.474162     2.170430    -2.282994
H       -4.016659     2.232542     1.465282
H       -4.613051     1.671808     3.450968
H       -6.414793     0.913448     4.937062
H       -6.348578    -1.353448     5.920430
H       -4.461852    -2.880048     5.402477
H       -2.679604    -2.163129     3.877580
H       -1.240139    -0.537070     5.093016
H        1.262881    -0.710919     5.051844
H       -4.519133    -1.156308    -1.557977
H       -6.575956    -1.454657    -2.791076
H       -6.779185    -0.563530    -5.108339
H       -4.878965     0.661900    -6.151077
H       -2.801518     1.021864    -4.869588
H       -1.277166    -0.690143    -4.910042
H        1.286598    -0.797400    -4.919048
H        4.203295     1.912247    -2.549330
H        5.994085     2.133895    -4.211679
H        6.345872     0.342669    -5.897720
H        4.893868    -1.669138    -5.905309
H        3.115787    -1.915121    -4.228344
H        5.090481     0.058753    -1.101329
H        5.062880     0.115394     1.396469
H        2.579539     1.465838     4.798032
H        4.271451     1.391039     6.584375
H        6.156737    -0.198372     6.458077
H        6.348467    -1.743213     4.521462
H        4.677426    -1.708305     2.740970
H       -2.161849     2.833884    -3.415477
H       -0.668672     4.746670    -3.847366
93
ex_0283 frame7 see-saw N2-N2-ax-conf8
C       -9.756547    -2.300888    -1.381785
C       -8.261071    -2.375994    -1.409607
C       -7.578340    -2.721763    -0.242021
C       -6.190468    -2.821189    -0.237283
C       -5.451239    -2.562310    -1.395347
C       -4.060870    -2.656086    -1.376218
N       -3.309358    -1.739004    -0.551141
C       -3.295881    -1.699006     0.861195
C       -2.494281    -0.728972     1.256465
C       -2.207683    -0.202130     2.525215
C       -3.556625     0.014305     3.457346
C       -4.638913     0.706084     2.916398
C       -5.802783     0.854767     3.654016
C       -5.873269     0.346992     4.952790
C       -4.774885    -0.313345     5.513667
C       -3.612881    -0.487010     4.765671
C       -1.012165     0.067342     2.897683
C       -0.634021     0.441210     4.182683
C        0.697251     0.489340     4.162950
C        1.094405     0.175421     2.843833
N        0.029889     0.000541     2.002388
Ni       0.000000     0.000000     0.000000
C       -1.944914    -0.088426     0.088041
C       -2.462495    -0.728983    -1.011042
C       -2.172503    -0.188132    -2.252676
C       -3.533911     0.100037    -3.202504
C       -3.525609    -0.395339    -4.495763
C       -4.593083    -0.124051    -5.324038
C       -5.687049     0.597199    -4.830520
C       -5.705382     1.054844    -3.508036
C       -4.621584     0.814071    -2.688122
C       -1.047082     0.116781    -2.772939
C       -0.664991     0.559454    -4.015898
C        0.694939     0.616412    -3.993690
C        1.096856     0.239998    -2.715598
N        0.019670     0.001282    -1.994241
C        2.482172     0.121607    -2.241306
C        3.485127     0.083705    -3.299629
C        3.286467    -0.816633    -4.352958
C        4.197943    -0.874474    -5.391331
C        5.316632    -0.039656    -5.375632
C        5.524468     0.850249    -4.316930
C        4.611209     0.912394    -3.275836
C        2.843714     0.049151    -0.949790
C        4.171387    -0.067786    -0.513741
C        4.165789    -0.078714     0.824953
C        2.838203     0.026444     1.205499
C        2.486373     0.065857     2.496371
C        3.485942     0.000428     3.636785
C        3.264675    -0.905800     4.699908
C        4.165018    -1.002991     5.761404
C        5.302580    -0.193728     5.785774
C        5.535299     0.713420     4.747537
C        4.635421     0.810857     3.682733
N        1.994608     0.077842     0.102486
C       -6.134744    -2.207154    -2.574190
C       -7.533730    -2.107313    -2.579663
H      -10.169276    -3.203817    -0.879627
H      -10.076790    -1.398586    -0.818608
H      -10.166639    -2.265245    -2.410569
H       -8.126238    -2.948440     0.660644
H       -5.698688    -3.127699     0.669643
H       -3.723009    -3.760450    -0.986406
H       -3.525018    -2.697079    -2.396649
H       -3.841796    -2.343840     1.529080
H       -4.586758     1.083526     1.901033
H       -6.649507     1.352579     3.208500
H       -6.782538     0.461459     5.518953
H       -4.827527    -0.705592     6.518737
H       -2.776274    -1.020639     5.203164
H       -1.229171     0.658811     5.075914
H        1.272038     0.758807     5.058316
H       -2.675378    -0.965640    -4.857995
H       -4.561175    -0.482023    -6.339345
H       -6.523115     0.797196    -5.469897
H       -6.550369     1.594294    -3.114116
H       -4.628785     1.162555    -1.654240
H       -1.295736     0.790885    -4.861475
H        1.294621     0.979882    -4.811265
H        2.417903    -1.471517    -4.356971
H        4.030741    -1.564596    -6.203863
H        6.020969    -0.082257    -6.186313
H        6.385196     1.499367    -4.301161
H        4.765979     1.618751    -2.466009
H        5.094671    -0.162982    -1.067133
H        5.074384    -0.182462     1.418192
H        2.395446    -1.552595     4.702173
H        3.973492    -1.711091     6.559274
H        6.001575    -0.267889     6.608594
H        6.411731     1.347826     4.761577
H        4.829007     1.533309     2.902111
H       -5.592687    -2.008105    -3.486987
H       -8.050320    -1.823618    -3.489795
93
ex_0283 frame8 trans-conf4
C       -2.779770    -0.418515     7.176324
C       -2.411673    -1.316136     6.040422
C       -1.176903    -1.979920     5.993136
C       -0.871815    -2.811289     4.908461
C       -1.802928    -3.005679     3.886137
C       -1.479076    -4.002399     2.671711
N       -0.679037    -3.267729     1.724667
C        0.717878    -3.261788     1.668003
C        1.156144    -2.490931     0.688450
C        2.431912    -2.217653     0.165334
C        3.379944    -3.488717    -0.130249
C        3.626206    -4.536765     0.757787
C        4.459593    -5.577295     0.368546
C        5.058963    -5.565671    -0.887280
C        4.817317    -4.513302    -1.753453
C        3.972806    -3.487567    -1.384941
C        2.872792    -1.015140    -0.072236
C        4.188342    -0.659999    -0.403332
C        4.167337     0.681055    -0.487672
C        2.830175     1.099439    -0.195563
N        1.999962     0.035817    -0.002905
Ni       0.000000     0.000000     0.000000
C        0.021581    -1.946758     0.047843
C       -1.125044    -2.429655     0.692212
C       -2.434532    -2.172228     0.239190
C       -3.350896    -3.531721     0.113811
C       -2.818959    -4.632802    -0.547813
C       -3.552122    -5.791963    -0.659421
C       -4.834312    -5.847991    -0.129675
C       -5.380212    -4.742800     0.527990
C       -4.632914    -3.575840     0.660217
C       -2.877766    -1.017756    -0.041483
C       -4.183238    -0.666516    -0.394373
C       -4.161675     0.675190    -0.471418
C       -2.824577     1.091454    -0.189081
N       -1.999764     0.027104    -0.003211
C       -2.376977     2.484188    -0.105649
C       -3.420701     3.529172    -0.075302
C       -4.403510     3.666236    -1.063270
C       -5.352111     4.676543    -0.937733
C       -5.321607     5.548564     0.149846
C       -4.347529     5.420792     1.123857
C       -3.402644     4.417155     1.011692
C       -1.074577     2.846254    -0.056220
C       -0.667295     4.194935    -0.005427
C        0.671150     4.199056    -0.003599
C        1.085091     2.851841    -0.057073
C        2.387394     2.491916    -0.104018
C        3.425955     3.534455    -0.061779
C        4.418536     3.687731    -1.039616
C        5.367398     4.695064    -0.904314
C        5.313170     5.551350     0.198658
C        4.322858     5.405392     1.160997
C        3.384167     4.401341     1.034105
N        0.007040     1.997909    -0.048033
C       -3.022923    -2.322874     3.929556
C       -3.327662    -1.494441     5.000221
H       -3.372552    -0.979981     7.931273
H       -1.887774     0.061628     7.633277
H       -3.424462     0.385049     6.767932
H       -0.459706    -1.859126     6.791880
H        0.069790    -3.337104     4.864866
H       -0.951692    -4.807498     3.134842
H       -2.412913    -4.273593     2.298703
H        1.320883    -3.811624     2.334426
H        3.188278    -4.579704     1.737412
H        4.642008    -6.393001     1.038957
H        5.710776    -6.364084    -1.201567
H        5.281717    -4.495790    -2.715831
H        3.802595    -2.678004    -2.073886
H        5.091714    -1.283416    -0.604979
H        5.078259     1.217669    -0.765148
H       -1.816711    -4.592844    -0.945940
H       -3.121389    -6.642594    -1.158657
H       -5.391862    -6.757569    -0.235595
H       -6.376439    -4.806593     0.930852
H       -5.045792    -2.720847     1.179256
H       -5.089515    -1.277022    -0.590652
H       -5.072584     1.214155    -0.739842
H       -4.436554     3.012604    -1.928243
H       -6.113447     4.792882    -1.681899
H       -6.051834     6.329737     0.245628
H       -4.335163     6.101691     1.961122
H       -2.649917     4.320358     1.778726
H       -1.235536     5.133091    -0.002239
H        1.234724     5.138937    -0.004831
H        4.455341     3.045830    -1.905861
H        6.136466     4.809670    -1.655550
H        6.032273     6.336723     0.323570
H        4.292983     6.074267     2.003138
H        2.613718     4.282559     1.790337
H       -3.754089    -2.432542     3.149852
H       -4.283682    -0.989246     5.013616
93
ex_0283 frame9 trans-conf6
C       -1.552416    -9.751020    -2.316371
C       -1.600478    -8.257402    -2.391167
C       -0.452828    -7.569393    -2.736451
C       -0.445880    -6.186420    -2.825460
C       -1.588998    -5.443458    -2.562762
C       -1.539849    -4.058460    -2.649492
N       -0.707521    -3.315091    -1.723911
C        0.697173    -3.261881    -1.672997
C        1.118569    -2.472593    -0.684969
C        2.393374    -2.162460    -0.162315
C        3.268120    -3.527251     0.048963
C        2.701927    -4.608993     0.710981
C        3.423764    -5.781657     0.866341
C        4.723192    -5.863752     0.383979
C        5.296715    -4.771798    -0.260226
C        4.570103    -3.605060    -0.430638
C        2.862109    -1.000845     0.121916
C        4.161115    -0.664414     0.551383
C        4.151805     0.681203     0.592522
C        2.828261     1.108192     0.216024
N        1.999891     0.052254    -0.004531
Ni       0.000000     0.000000     0.000000
C        0.004680    -1.946744    -0.010810
C       -1.131306    -2.477544    -0.665541
C       -2.404745    -2.209072    -0.152799
C       -3.345159    -3.496849     0.073417
C       -4.649409    -3.476330    -0.434558
C       -5.501018    -4.538641    -0.181223
C       -5.016599    -5.635136     0.534822
C       -3.696237    -5.661524     0.994651
C       -2.850438    -4.592931     0.761120
C       -2.845748    -1.040136     0.136799
C       -4.126179    -0.692272     0.581135
C       -4.105967     0.652489     0.618543
C       -2.796796     1.078400     0.231930
N       -1.998815     0.018318     0.010622
C       -2.365644     2.478180     0.089770
C       -3.449786     3.471880     0.040705
C       -4.502225     3.269176    -0.861484
C       -5.545100     4.184281    -0.927448
C       -5.534639     5.299814    -0.093010
C       -4.487093     5.508811     0.803131
C       -3.445429     4.598481     0.868556
C       -1.063870     2.855273     0.006708
C       -0.659195     4.212704    -0.096679
C        0.687417     4.223614    -0.097347
C        1.106086     2.871166     0.003712
C        2.407549     2.506749     0.080155
C        3.488007     3.496146     0.031252
C        4.533131     3.263024    -0.869881
C        5.582903     4.153532    -0.955385
C        5.598996     5.289065    -0.141759
C        4.549680     5.523311     0.754642
C        3.493402     4.632465     0.842666
N        0.020450     1.999766     0.010672
C       -2.758633    -6.132117    -2.216837
C       -2.764000    -7.532556    -2.124497
H       -1.025667   -10.172338    -3.206621
H       -1.034084   -10.078420    -1.381884
H       -2.585216   -10.135445    -2.337475
H        0.440730    -8.117223    -2.956495
H        0.465768    -5.713419    -3.120252
H       -1.118095    -3.752619    -3.736408
H       -2.549296    -3.494466    -2.752038
H        1.342977    -3.782057    -2.334682
H        1.691061    -4.557705     1.076717
H        2.991376    -6.635180     1.357645
H        5.286820    -6.772321     0.508198
H        6.302695    -4.823799    -0.636976
H        5.030938    -2.782252    -0.937886
H        5.050088    -1.278074     0.828927
H        5.037798     1.238617     0.918152
H       -5.028872    -2.630542    -0.988955
H       -6.526074    -4.517614    -0.536468
H       -5.644763    -6.480255     0.741747
H       -3.326573    -6.509087     1.539090
H       -1.817737    -4.599725     1.110987
H       -5.012256    -1.293407     0.883623
H       -4.973942     1.209995     0.967164
H       -4.491115     2.400244    -1.509230
H       -6.363488     4.036679    -1.616886
H       -6.343876     6.001667    -0.142513
H       -4.483285     6.372317     1.451593
H       -2.650297     4.766108     1.580295
H       -1.225685     5.154388    -0.178478
H        1.240290     5.172720    -0.180393
H        4.524504     2.384511    -1.511438
H        6.368805     3.936186    -1.657333
H        6.421474     5.982263    -0.205670
H        4.543273     6.387130     1.391523
H        2.697165     4.819205     1.556807
H       -3.656937    -5.593441    -2.017147
H       -3.661462    -8.056213    -1.844889
93
ex_0283 frame10 see-saw N2-N2-ax
C       -0.670454    -7.167012    -1.768068
C       -1.525715    -5.954425    -1.702393
C       -1.464349    -4.924388    -2.659359
C       -2.308105    -3.815531    -2.541339
C       -3.206293    -3.751944    -1.467612
C       -4.264891    -2.454183    -1.289204
N       -3.438944    -1.601708    -0.512055
C       -3.427783    -1.561884     0.885133
C       -2.555564    -0.669982     1.297698
C       -2.240104    -0.153650     2.554705
C       -3.483274     0.164796     3.587566
C       -4.527397    -0.717372     3.890802
C       -5.537862    -0.310649     4.755321
C       -5.496438     0.952420     5.341223
C       -4.443653     1.815854     5.063015
C       -3.446505     1.429336     4.182292
C       -1.017136     0.061683     2.922708
C       -0.634127     0.349987     4.248554
C        0.693991     0.431959     4.223224
C        1.094513     0.174788     2.871140
N        0.025003     0.020113     2.002702
Ni       0.000000     0.000000     0.000000
C       -1.943122    -0.073642     0.121435
C       -2.508567    -0.668971    -0.984933
C       -2.219736    -0.225430    -2.289792
C       -3.524232    -0.066937    -3.199711
C       -3.520938    -0.647889    -4.458712
C       -4.628921    -0.508386    -5.261156
C       -5.742131     0.188450    -4.792720
C       -5.744885     0.755900    -3.513025
C       -4.623206     0.642808    -2.714382
C       -1.027239     0.049934    -2.790839
C       -0.664060     0.409468    -4.061207
C        0.690850     0.481449    -4.048539
C        1.111669     0.192578    -2.749089
N        0.036825    -0.011025    -1.994478
C        2.498424     0.115643    -2.252589
C        3.563561     0.089518    -3.258438
C        4.463137    -0.984641    -3.238730
C        5.498515    -1.042006    -4.157497
C        5.631394    -0.032291    -5.111052
C        4.730156     1.030125    -5.142653
C        3.697021     1.095508    -4.218294
C        2.849339     0.068220    -0.948365
C        4.184062     0.016763    -0.504933
C        4.175677    -0.000363     0.832061
C        2.838798     0.055454     1.208724
C        2.489665     0.090601     2.503256
C        3.530884     0.043473     3.601988
C        3.652721     1.047937     4.584047
C        4.632747     0.955477     5.576434
C        5.502850    -0.132819     5.602634
C        5.395470    -1.132163     4.642238
C        4.420195    -1.048798     3.651402
N        1.994688     0.063065     0.102850
C       -3.243186    -4.766766    -0.519017
C       -2.415916    -5.863368    -0.635723
H       -0.152689    -7.277827    -0.792185
H        0.077394    -7.116131    -2.583861
H       -1.337631    -8.040674    -1.919810
H       -0.781496    -4.985277    -3.492869
H       -2.271074    -3.018351    -3.276173
H       -5.014834    -2.920739    -0.717789
H       -4.433664    -2.220254    -2.267714
H       -4.044815    -2.174279     1.502661
H       -4.583803    -1.706871     3.464097
H       -6.356220    -0.971538     4.973205
H       -6.278277     1.263882     6.012516
H       -4.401682     2.786937     5.523494
H       -2.633113     2.109321     3.976502
H       -1.226949     0.507275     5.181626
H        1.228862     0.656107     5.164357
H       -2.663605    -1.203361    -4.820619
H       -4.618452    -0.945997    -6.242849
H       -6.598526     0.277864    -5.430232
H       -6.607856     1.280011    -3.141483
H       -4.604438     1.062523    -1.706636
H       -1.298755     0.633706    -4.911103
H        1.244045     0.770142    -4.918612
H        4.354346    -1.770537    -2.497820
H        6.193217    -1.866531    -4.123561
H        6.431220    -0.062617    -5.828786
H        4.839167     1.808296    -5.878918
H        3.022672     1.939847    -4.241587
H        5.118405     0.007367    -1.055249
H        5.095022    -0.021666     1.424659
H        3.004896     1.912901     4.579442
H        4.723515     1.730442     6.322849
H        6.264014    -0.206666     6.364018
H        6.070828    -1.973096     4.665248
H        4.355334    -1.845871     2.923747
H       -3.918166    -4.699956     0.316131
H       -2.463320    -6.643519     0.111987
93
ex_0283 frame11 trans-conf3
C       -2.544873    -0.504898     7.113938
C       -2.313790    -1.389230     5.925969
C       -1.234704    -2.269983     5.929896
C       -1.005396    -3.099759     4.843374
C       -1.853393    -3.085809     3.740350
C       -1.555836    -4.135282     2.499010
N       -0.725461    -3.366457     1.633221
C        0.680881    -3.370744     1.601668
C        1.117616    -2.537327     0.675090
C        2.380424    -2.222717     0.133881
C        3.352707    -3.502629    -0.211150
C        3.655247    -4.557966     0.648115
C        4.491462    -5.578004     0.203872
C        5.036257    -5.546526    -1.069534
C        4.742651    -4.488437    -1.910746
C        3.896282    -3.480704    -1.488966
C        2.850360    -1.039337    -0.104055
C        4.156120    -0.682634    -0.476283
C        4.132710     0.661386    -0.545972
C        2.806952     1.079355    -0.212439
N        1.999237     0.018515     0.011403
Ni       0.000000     0.000000     0.000000
C       -0.007656    -1.946583     0.055307
C       -1.153394    -2.463753     0.652842
C       -2.428332    -2.153393     0.169972
C       -3.317123    -3.492910    -0.013749
C       -2.743433    -4.551430    -0.711529
C       -3.447464    -5.711883    -0.876499
C       -4.735835    -5.812713    -0.369456
C       -5.317425    -4.746106     0.319391
C       -4.604930    -3.568209     0.511983
C       -2.877558    -0.997452    -0.096712
C       -4.188895    -0.656410    -0.470321
C       -4.179633     0.685158    -0.518484
C       -2.842581     1.106583    -0.198758
N       -2.000365     0.048504    -0.016856
C       -2.407736     2.489884    -0.073194
C       -3.448332     3.526095     0.012690
C       -3.441347     4.342413     1.154636
C       -4.374099     5.353219     1.293954
C       -5.320338     5.538781     0.291565
C       -5.348216     4.727116    -0.838653
C       -4.415711     3.715533    -0.981420
C       -1.101778     2.849264    -0.031994
C       -0.691189     4.195937     0.042021
C        0.653732     4.193374     0.049625
C        1.068940     2.846995    -0.047787
C        2.371813     2.477617    -0.129482
C        3.446867     3.487641    -0.140363
C        4.547326     3.393915     0.720091
C        5.549655     4.351254     0.666386
C        5.473499     5.408489    -0.226316
C        4.376400     5.510861    -1.073343
C        3.367646     4.563360    -1.028568
N       -0.013460     1.997876    -0.054624
C       -2.927479    -2.191718     3.709492
C       -3.157886    -1.353616     4.806510
H       -3.629841    -0.369152     7.293031
H       -2.106042     0.496694     6.945268
H       -2.051332    -0.937922     8.013415
H       -0.560972    -2.318468     6.769009
H       -0.164688    -3.769874     4.853990
H       -0.968020    -4.859471     3.001950
H       -2.465289    -4.469184     2.181057
H        1.303882    -3.963668     2.236796
H        3.260804    -4.619798     1.643250
H        4.731237    -6.406171     0.833008
H        5.684862    -6.345642    -1.396275
H        5.167342    -4.456092    -2.892230
H        3.684332    -2.666718    -2.156859
H        5.047283    -1.301801    -0.730685
H        5.015157     1.217062    -0.872082
H       -1.731218    -4.486624    -1.097635
H       -2.977785    -6.521198    -1.401444
H       -5.275149    -6.725998    -0.515984
H       -6.314768    -4.863385     0.694212
H       -5.044511    -2.733220     1.056916
H       -5.093327    -1.269592    -0.705666
H       -5.092393     1.221530    -0.803371
H       -2.702727     4.190599     1.931033
H       -4.363666     5.993587     2.169501
H       -6.038864     6.316258     0.386084
H       -6.088900     4.892724    -1.605031
H       -4.442310     3.113342    -1.875581
H       -1.261436     5.133610     0.088771
H        1.215565     5.132084     0.119374
H        4.639261     2.589285     1.432473
H        6.392582     4.275007     1.316882
H        6.273426     6.135292    -0.248875
H        4.304291     6.319315    -1.771339
H        2.540048     4.664872    -1.713010
H       -3.594164    -2.154923     2.860926
H       -3.996966    -0.686929     4.792849
93
ex_0283 frame12 see-saw N2-N2-ax-conf7
C       -0.052973    -6.919876    -2.797561
C       -1.020192    -5.843004    -2.435090
C       -1.852380    -5.994864    -1.321154
C       -2.759126    -4.990813    -0.985812
C       -2.850548    -3.829241    -1.759199
C       -3.941507    -2.699454    -1.367336
N       -3.235209    -1.770745    -0.542907
C       -3.255741    -1.751824     0.864604
C       -2.493174    -0.764237     1.283681
C       -2.255469    -0.282018     2.581474
C       -3.580797    -0.149905     3.510981
C       -3.625266    -0.710450     4.794429
C       -4.783759    -0.584595     5.558683
C       -5.895124     0.084774     5.043339
C       -5.843898     0.639364     3.767456
C       -4.684754     0.535388     3.010208
C       -1.029031     0.005834     2.927505
C       -0.667910     0.334236     4.247558
C        0.666388     0.415921     4.231403
C        1.080198     0.167101     2.879950
N        0.017819     0.007630     2.003398
Ni       0.000000     0.000000     0.000000
C       -1.941965    -0.097413     0.120278
C       -2.414021    -0.736010    -0.988534
C       -2.144846    -0.235829    -2.265059
C       -3.576136    -0.049264    -3.128230
C       -4.658533     0.605853    -2.533463
C       -5.839813     0.727979    -3.225505
C       -5.932977     0.231924    -4.525969
C       -4.835946    -0.403934    -5.121286
C       -3.652850    -0.551424    -4.417488
C       -1.030987     0.057148    -2.791063
C       -0.673290     0.439632    -4.055308
C        0.683695     0.521052    -4.040873
C        1.106918     0.215445    -2.744137
N        0.035392    -0.004626    -1.994745
C        2.487348     0.130718    -2.240105
C        3.532984     0.086790    -3.250974
C        3.702614     1.065429    -4.234400
C        4.721322     0.908547    -5.171041
C        5.567926    -0.202526    -5.108382
C        5.399866    -1.161443    -4.112770
C        4.388890    -1.016454    -3.191217
C        2.844323     0.089041    -0.938431
C        4.180326     0.045080    -0.497340
C        4.172302     0.026353     0.837546
C        2.833610     0.071344     1.217295
C        2.479329     0.092781     2.512697
C        3.529388     0.039482     3.601187
C        3.657176     1.006705     4.618946
C        4.661422     0.890905     5.583900
C        5.547900    -0.183758     5.549787
C        5.431088    -1.150890     4.552979
C        4.429429    -1.041901     3.592513
N        1.993250     0.083397     0.111379
C       -1.995415    -3.666060    -2.858866
C       -1.100510    -4.677426    -3.205395
H        0.443874    -6.695361    -3.761988
H       -0.571441    -7.898775    -2.895591
H        0.721957    -6.960598    -2.005381
H       -1.802626    -6.893042    -0.720736
H       -3.398488    -5.112250    -0.123383
H       -4.634699    -3.248965    -0.763891
H       -4.361335    -2.326410    -2.233090
H       -3.803742    -2.431523     1.498885
H       -2.780594    -1.246254     5.205273
H       -4.821688    -1.013920     6.545032
H       -6.799085     0.173170     5.625629
H       -6.704971     1.143678     3.365359
H       -4.645540     0.951651     2.012570
H       -1.265289     0.477957     5.178094
H        1.197484     0.632016     5.177300
H       -4.597124     0.975122    -1.512321
H       -6.671823     1.205083    -2.739268
H       -6.857059     0.338674    -5.065195
H       -4.897119    -0.790744    -6.121973
H       -2.808208    -1.061083    -4.866954
H       -1.310653     0.673943    -4.900069
H        1.235498     0.828765    -4.905820
H        3.057254     1.938495    -4.273046
H        4.863120     1.643147    -5.944893
H        6.355565    -0.322260    -5.830124
H        6.040149    -2.023758    -4.042290
H        4.256081    -1.772604    -2.423539
H        5.115630     0.037247    -1.047761
H        5.096096     0.007872     1.422885
H        3.003711     1.864346     4.663731
H        4.758394     1.640352     6.355358
H        6.323528    -0.260726     6.296957
H        6.114193    -1.986415     4.516354
H        4.347581    -1.804546     2.828881
H       -2.028086    -2.778820    -3.466278
H       -0.460343    -4.546759    -4.066605
93
ex_0283 frame13 see-saw N2-N2-ax-conf2
C       -0.420031     7.149405    -2.652685
C       -1.318177     6.016367    -2.273342
C       -1.978491     5.981946    -1.034296
C       -2.812243     4.903698    -0.717397
C       -3.011480     3.874964    -1.643185
C       -4.001280     2.682660    -1.312740
N       -3.266319     1.740611    -0.520896
C       -3.276045     1.689139     0.879155
C       -2.498981     0.712366     1.291861
C       -2.237604     0.188909     2.564603
C       -3.494703    -0.107197     3.562838
C       -4.537788     0.789984     3.821983
C       -5.577083     0.412391     4.665375
C       -5.563570    -0.841860     5.274508
C       -4.511109    -1.718267     5.039065
C       -3.486308    -1.359112     4.180603
C       -1.014937    -0.034885     2.924325
C       -0.639236    -0.333314     4.253771
C        0.690243    -0.428592     4.229181
C        1.093219    -0.165232     2.874590
N        0.028832     0.005466     2.003265
Ni       0.000000     0.000000     0.000000
C       -1.943237     0.080489     0.115671
C       -2.427820     0.727959    -0.987664
C       -2.153728     0.245707    -2.275170
C       -3.555048     0.081248    -3.174944
C       -4.649265    -0.588376    -2.623988
C       -5.810245    -0.701260    -3.350494
C       -5.868442    -0.178079    -4.638991
C       -4.764072     0.477458    -5.194152
C       -3.599380     0.616305    -4.454756
C       -1.028596    -0.051754    -2.796805
C       -0.667251    -0.421532    -4.062620
C        0.687864    -0.502029    -4.043689
C        1.108683    -0.212255    -2.744036
N        0.034240    -0.009377    -1.994551
C        2.491772    -0.129661    -2.239024
C        3.537323    -0.099944    -3.253072
C        3.672581    -1.103208    -4.215097
C        4.677617    -0.992302    -5.167177
C        5.549293     0.098583    -5.147853
C        5.422610     1.086004    -4.179653
C        4.420898     0.987736    -3.233432
C        2.847210    -0.079617    -0.939426
C        4.183822    -0.029134    -0.501272
C        4.178559    -0.017740     0.832968
C        2.837707    -0.063424     1.212197
C        2.484357    -0.087589     2.504352
C        3.531668    -0.033514     3.588238
C        3.687455    -0.996961     4.607435
C        4.700651    -0.852424     5.561410
C        5.562113     0.247493     5.502449
C        5.413115     1.202829     4.503492
C        4.404726     1.066529     3.560098
N        1.993994    -0.070732     0.109018
C       -2.331505     3.902097    -2.866552
C       -1.499766     4.968297    -3.181335
H       -0.985027     7.898546    -3.248253
H        0.051863     7.617268    -1.762854
H        0.391452     6.746141    -3.292115
H       -1.856923     6.787883    -0.323113
H       -3.333651     4.873637     0.230213
H       -4.821013     3.124205    -0.779508
H       -4.286459     2.280220    -2.239632
H       -3.832415     2.346710     1.505554
H       -4.573770     1.767994     3.372000
H       -6.393073     1.090947     4.842755
H       -6.362810    -1.143589     5.930110
H       -4.490110    -2.681014     5.514124
H       -2.676578    -2.052685     4.008479
H       -1.238033    -0.499391     5.187634
H        1.220023    -0.667300     5.175904
H       -4.608055    -0.979016    -1.611663
H       -6.658849    -1.192743    -2.908903
H       -6.776247    -0.282415    -5.198842
H       -4.816975     0.879443    -6.190679
H       -2.740950     1.138504    -4.864712
H       -1.297718    -0.633312    -4.916993
H        1.240329    -0.785745    -4.913092
H        3.010208    -1.964847    -4.229643
H        4.785305    -1.750410    -5.920268
H        6.328036     0.185535    -5.881587
H        6.097641     1.926632    -4.167513
H        4.317359     1.764459    -2.484600
H        5.117514    -0.020844    -1.054082
H        5.105665    -0.003594     1.417587
H        3.048447    -1.867442     4.658333
H        4.820932    -1.597297     6.338121
H        6.351339     0.372456     6.224132
H        6.081757     2.049116     4.458651
H        4.292703     1.819957     2.789198
H       -2.446747     3.110320    -3.587900
H       -0.995586     4.975096    -4.138003
93
ex_0283 frame14 see-saw C-N1-ax
C       -1.896671     7.188453    -0.405461
C       -1.844894     5.983135    -1.270339
C       -2.810813     4.961242    -1.218186
C       -2.705084     3.857601    -2.070358
C       -1.628263     3.789580    -2.962232
C       -1.459883     2.658344    -3.891950
N       -0.672981     1.669140    -3.232808
C        0.728788     1.622086    -3.224323
C        1.162610     0.620450    -2.495422
C        2.480550     0.122635    -2.236311
C        3.397377    -0.165777    -3.314395
C        3.701502     0.729968    -4.334635
C        4.553900     0.321146    -5.345942
C        5.128671    -0.946365    -5.315797
C        4.845912    -1.815971    -4.272187
C        3.977652    -1.430263    -3.273602
C        2.873303    -0.095570    -0.873443
C        4.177383    -0.399238    -0.474480
C        4.141702    -0.486809     0.860883
C        2.808275    -0.204241     1.236755
N        1.994807    -0.022027     0.142411
Ni       0.000000     0.000000     0.000000
C        0.024964     0.015870    -1.946146
C       -1.124490     0.608976    -2.443050
C       -2.488698     0.218972    -2.201519
C       -3.379718     0.134564    -3.320842
C       -4.641128     0.722000    -3.302250
C       -5.449947     0.600718    -4.410186
C       -4.991284    -0.087029    -5.531317
C       -3.716334    -0.664491    -5.543005
C       -2.910481    -0.567538    -4.424439
C       -2.876448    -0.061981    -0.865825
C       -4.175207    -0.392177    -0.483205
C       -4.147637    -0.468665     0.855811
C       -2.812708    -0.195504     1.237175
N       -1.994617    -0.027496     0.145005
C       -2.380444    -0.111286     2.623777
C       -3.417644    -0.092663     3.729552
C       -3.400701     0.967239     4.658891
C       -4.323671     1.025684     5.702206
C       -5.287616     0.026925     5.829342
C       -5.328525    -1.022894     4.917772
C       -4.402438    -1.086392     3.875655
C       -1.072098    -0.052588     2.913530
C       -0.660393    -0.020199     4.281680
C        0.668696    -0.017061     4.280214
C        1.075822    -0.055808     2.913908
C        2.378484    -0.118021     2.622447
C        3.434701    -0.100955     3.702645
C        4.390284    -1.123496     3.832962
C        5.378450    -1.049107     4.814606
C        5.414836     0.031100     5.692025
C        4.462036     1.036864     5.595755
C        3.473452     0.972509     4.617679
N        0.001607    -0.016910     2.005041
C       -0.676793     4.800133    -2.995249
C       -0.780892     5.891009    -2.160924
H       -0.916038     7.286575     0.105181
H       -2.707885     7.140353     0.347489
H       -2.042803     8.067431    -1.066030
H       -3.641568     5.026290    -0.535943
H       -3.447528     3.066891    -2.042594
H       -0.890404     2.986586    -4.785122
H       -2.447447     2.285521    -4.208346
H        1.332343     2.340702    -3.706737
H        3.278557     1.723561    -4.377319
H        4.774759     0.982500    -6.156185
H        5.793944    -1.257056    -6.100244
H        5.295641    -2.788419    -4.238719
H        3.766020    -2.110633    -2.461112
H        5.080361    -0.585996    -1.075240
H        5.045340    -0.748960     1.419945
H       -5.004403     1.270224    -2.441594
H       -6.429433     1.044265    -4.396558
H       -5.634415    -0.161597    -6.385673
H       -3.355524    -1.183444    -6.412448
H       -1.905781    -0.993013    -4.406568
H       -5.076160    -0.563516    -1.087659
H       -5.057574    -0.713515     1.412169
H       -2.660554     1.750201     4.565392
H       -4.286031     1.843245     6.409190
H       -6.007101     0.053253     6.630831
H       -6.075893    -1.794175     5.026028
H       -4.448888    -1.925557     3.204043
H       -1.214519    -0.047334     5.251313
H        1.223571    -0.040929     5.245645
H        4.378596    -1.978548     3.175139
H        6.118170    -1.828682     4.894601
H        6.178033     0.093342     6.450565
H        4.496249     1.870977     6.276988
H        2.756871     1.780543     4.561027
H        0.153224     4.731382    -3.672191
H       -0.026211     6.665558    -2.202564
93
ex_0283 frame15 see-saw C-N1-ax-conf2
C       -2.780482    -7.179704    -0.151242
C       -2.412492    -6.052199    -1.060092
C       -1.176119    -6.012087    -1.723514
C       -0.870490    -4.937198    -2.565933
C       -1.801100    -3.915236    -2.766371
C       -1.481433    -2.795881    -3.699255
N       -0.677086    -1.809111    -3.042163
C        0.724220    -1.731929    -3.075713
C        1.157952    -0.666899    -2.436565
C        2.476415    -0.159778    -2.222054
C        3.371065     0.107973    -3.323623
C        3.632599    -0.802488    -4.343287
C        4.463892    -0.424469    -5.384736
C        5.061825     0.834256    -5.382904
C        4.820722     1.716229    -4.339497
C        3.975307     1.358613    -3.312777
C        2.876016     0.082274    -0.868532
C        4.183611     0.393298    -0.479630
C        4.152345     0.489611     0.857070
C        2.815919     0.208741     1.238309
N        1.994606     0.024788     0.147358
Ni       0.000000     0.000000     0.000000
C        0.024998    -0.011288    -1.945863
C       -1.123923    -0.657733    -2.381611
C       -2.493959    -0.241001    -2.198386
C       -3.356696    -0.154062    -3.351162
C       -2.824578     0.510808    -4.449838
C       -3.556134     0.608216    -5.607992
C       -4.838913     0.074959    -5.658247
C       -5.385553    -0.573084    -4.546091
C       -4.639566    -0.693943    -3.379889
C       -2.882199     0.054095    -0.866570
C       -4.179648     0.390715    -0.483743
C       -4.145931     0.476291     0.854971
C       -2.808251     0.201912     1.235072
N       -1.994605     0.026744     0.142440
C       -2.368583     0.119216     2.618887
C       -3.413944     0.103831     3.703745
C       -4.398899     1.096804     3.849852
C       -5.351443     0.984584     4.865223
C       -5.322674    -0.094735     5.748048
C       -4.345608    -1.069816     5.627893
C       -3.396378    -0.968870     4.618527
C       -1.064158     0.058330     2.914241
C       -0.657277     0.035786     4.287553
C        0.670321     0.040439     4.289340
C        1.081017     0.063288     2.915822
C        2.383798     0.120450     2.620810
C        3.422766     0.093946     3.705424
C        4.415481     1.075174     3.869082
C        5.365727     0.949466     4.882635
C        5.315044    -0.144450     5.750591
C        4.322751    -1.107514     5.612756
C        3.380590    -0.989355     4.601538
N        0.008195     0.011475     2.003535
C       -3.025268    -3.952158    -2.089031
C       -3.329552    -5.014061    -1.248997
H       -3.371640    -7.939912    -0.706472
H       -1.887117    -7.633150     0.328909
H       -3.423825    -6.768779     0.652708
H       -0.458458    -6.810295    -1.595992
H        0.072879    -4.901335    -3.092237
H       -0.955897    -3.185475    -4.589790
H       -2.416829    -2.343420    -4.059449
H        1.336857    -2.479223    -3.493660
H        3.188362    -1.783703    -4.366305
H        4.644516    -1.106008    -6.192049
H        5.712461     1.137241    -6.183815
H        5.284725     2.680110    -4.327503
H        3.798354     2.054176    -2.505400
H        5.085830     0.574142    -1.088298
H        5.059443     0.757176     1.411252
H       -1.818063     0.908734    -4.412406
H       -3.123016     1.096452    -6.462302
H       -5.398937     0.168433    -6.567223
H       -6.380132    -0.980780    -4.599783
H       -5.047358    -1.208672    -2.516883
H       -5.084204     0.565272    -1.083341
H       -5.054263     0.732512     1.409846
H       -4.436533     1.954865     3.188725
H       -6.115506     1.733054     4.973191
H       -6.055526    -0.182315     6.530748
H       -4.332413    -1.903210     6.316533
H       -2.648619    -1.742034     4.531773
H       -1.215221     0.060473     5.257647
H        1.219193     0.067971     5.263447
H        4.457225     1.935381     3.219239
H        6.136460     1.701323     4.990671
H        6.038109    -0.259234     6.537464
H        4.291907    -1.946824     6.289421
H        2.616295    -1.752075     4.494309
H       -3.755521    -3.171027    -2.209352
H       -4.285452    -5.023909    -0.743924
93
ex_0283 frame16 see-saw C-N1-ax-conf4
C       -2.544892    -7.118572    -0.238795
C       -2.311853    -5.939989    -1.135984
C       -1.231552    -5.953920    -2.019579
C       -1.002257    -4.876864    -2.861283
C       -1.845394    -3.769405    -2.847950
C       -1.550094    -2.660000    -3.796147
N       -0.707737    -1.700319    -3.153074
C        0.701970    -1.662854    -3.181331
C        1.151836    -0.634513    -2.489864
C        2.458807    -0.111459    -2.247980
C        3.350817     0.192511    -3.341881
C        3.664498    -0.690867    -4.369066
C        4.496848    -0.259761    -5.391140
C        5.039969     1.018577    -5.367027
C        4.745870     1.878076    -4.317934
C        3.899687     1.468890    -3.308193
C        2.860346     0.115406    -0.888639
C        4.153359     0.460843    -0.494692
C        4.116711     0.542358     0.844822
C        2.792571     0.221336     1.224671
N        1.994834     0.008489     0.133463
Ni       0.000000     0.000000     0.000000
C        0.029823    -0.002503    -1.945419
C       -1.125067    -0.593677    -2.408588
C       -2.476441    -0.155327    -2.172781
C       -3.318436    -0.021319    -3.314936
C       -2.748405     0.677557    -4.371134
C       -3.452051     0.829190    -5.532536
C       -4.741559     0.317136    -5.628492
C       -5.323900    -0.363373    -4.554856
C       -4.608551    -0.543835    -3.378600
C       -2.876305     0.111186    -0.851877
C       -4.176669     0.463099    -0.473311
C       -4.152676     0.517969     0.866715
C       -2.816700     0.205364     1.245260
N       -1.993940     0.038614     0.155998
C       -2.385483     0.080275     2.619986
C       -3.436109     0.017976     3.698502
C       -3.433845    -1.109644     4.546453
C       -4.373939    -1.240135     5.561860
C       -5.324832    -0.239879     5.742930
C       -5.347636     0.882493     4.917664
C       -4.407793     1.016922     3.899380
C       -1.078599     0.022265     2.914150
C       -0.676764    -0.026492     4.286041
C        0.656463    -0.029183     4.287055
C        1.071256     0.042818     2.917039
C        2.371942     0.143292     2.613905
C        3.442579     0.180662     3.668245
C        4.547717    -0.684950     3.593121
C        5.553501    -0.628130     4.552800
C        5.475133     0.276668     5.602979
C        4.377028     1.127074     5.700451
C        3.364891     1.076500     4.747926
N       -0.001282     0.002267     2.003589
C       -2.927370    -3.732390    -1.958599
C       -3.158338    -4.819765    -1.106990
H       -3.630948    -7.301879    -0.109879
H       -2.106794    -6.934021     0.761072
H       -2.053074    -8.023505    -0.661316
H       -0.558780    -6.795627    -2.057425
H       -0.159154    -4.896733    -3.531361
H       -0.971460    -3.054762    -4.645686
H       -2.462408    -2.225368    -4.253027
H        1.312666    -2.392429    -3.651927
H        3.261652    -1.690814    -4.406253
H        4.731993    -0.906129    -6.209226
H        5.687806     1.338757    -6.164208
H        5.169750     2.860901    -4.288130
H        3.679041     2.141630    -2.493463
H        5.039234     0.692863    -1.104575
H        4.995079     0.860600     1.417932
H       -1.734465     1.061785    -4.306192
H       -2.982255     1.343103    -6.348762
H       -5.283710     0.450430    -6.541365
H       -6.321737    -0.747495    -4.655880
H       -5.043083    -1.085942    -2.537731
H       -5.077398     0.673396    -1.075462
H       -5.065321     0.787490     1.419256
H       -2.701977    -1.894184     4.405383
H       -4.363632    -2.111479     6.207860
H       -6.047802    -0.329955     6.526202
H       -6.090518     1.652001     5.073404
H       -4.439670     1.905528     3.287029
H       -1.244388    -0.025167     5.254391
H        1.202139    -0.054884     5.259272
H        4.639009    -1.406098     2.793086
H        6.400476    -1.283284     4.481467
H        6.271528     0.310699     6.331887
H        4.305974     1.835660     6.505557
H        2.537171     1.762171     4.841303
H       -3.593439    -2.881655    -1.931228
H       -4.001221    -4.797648    -0.438094
93
ex_0283 frame17 see-saw N2-N2-ax-conf4
C       -4.173081    -7.192500     0.511393
C       -4.414549    -5.761313     0.113049
C       -5.351610    -4.966561     0.793280
C       -5.572164    -3.635184     0.405214
C       -4.844120    -3.069431    -0.657372
C       -5.052571    -1.619819    -1.087343
N       -3.975444    -0.806226    -0.498412
C       -3.964546    -0.562660     0.810588
C       -2.763447    -0.031756     1.178539
C       -2.337687     0.170281     2.512257
C       -3.401172     0.052815     3.715030
C       -4.701764     0.573063     3.658922
C       -5.585240     0.404620     4.726431
C       -5.166777    -0.241792     5.890589
C       -3.870440    -0.748317     5.978227
C       -2.994175    -0.616326     4.897217
C       -1.002652     0.395663     2.856105
C       -0.581062     0.845292     4.082455
C        0.753917     0.793944     4.062095
C        1.097450     0.394822     2.793432
N        0.019443     0.186067     1.990684
Ni       0.000000     0.000000     0.000000
C       -1.950087    -0.002512     0.049926
C       -2.772160    -0.405233    -0.995957
C       -2.388350    -0.378840    -2.413010
C       -3.292682    -0.574801    -3.552497
C       -3.023068    -1.629435    -4.428628
C       -3.800004    -1.796665    -5.560451
C       -4.885477    -0.944963    -5.785255
C       -5.185442     0.079997    -4.875242
C       -4.385794     0.268279    -3.750166
C       -1.005251    -0.136829    -2.807764
C       -0.611756     0.178069    -4.102509
C        0.735273     0.296016    -4.079627
C        1.103582     0.061235    -2.780065
N        0.042153    -0.186461    -1.987422
C        2.478957     0.086070    -2.344720
C        3.619199     0.343890    -3.226520
C        4.085552     1.652047    -3.377294
C        5.201751     1.881904    -4.178343
C        5.821234     0.808038    -4.833330
C        5.325669    -0.493331    -4.684811
C        4.210679    -0.720444    -3.893007
C        2.833381    -0.145686    -0.982207
C        4.092852    -0.555793    -0.580060
C        4.069451    -0.556626     0.760768
C        2.822554    -0.093695     1.104169
C        2.461513     0.299951     2.406286
C        3.566937     0.611113     3.346405
C        4.295840     1.734945     2.919336
C        5.382121     2.184382     3.669994
C        5.738745     1.519000     4.847268
C        5.005670     0.407466     5.276687
C        3.926775    -0.050920     4.522372
N        1.997197     0.006042     0.045244
C       -3.903251    -3.873190    -1.331315
C       -3.695658    -5.206332    -0.953582
H       -3.112610    -7.325827     0.814671
H       -4.819510    -7.497832     1.361913
H       -4.386464    -7.865628    -0.346408
H       -5.909180    -5.376807     1.626753
H       -6.292646    -3.041340     0.951208
H       -5.090036    -1.616997    -2.182408
H       -6.028803    -1.226175    -0.733269
H       -4.797362    -0.748153     1.472713
H       -5.036881     1.102278     2.777497
H       -6.591092     0.792967     4.653746
H       -5.846108    -0.345529     6.726087
H       -3.540907    -1.235866     6.888369
H       -1.995162    -1.019013     5.008938
H       -1.178731     1.126377     4.936549
H        1.402677     1.026438     4.895054
H       -2.164954    -2.274105    -4.257336
H       -3.543857    -2.579487    -6.259564
H       -5.487350    -1.077659    -6.668598
H       -6.024568     0.737339    -5.046190
H       -4.594707     1.070642    -3.049793
H       -1.241611     0.364796    -4.961789
H        1.375739     0.586045    -4.902985
H        3.613575     2.472911    -2.844517
H        5.589969     2.886028    -4.279051
H        6.690518     0.979866    -5.446755
H        5.803362    -1.331974    -5.167768
H        3.829379    -1.725708    -3.745732
H        4.936448    -0.844175    -1.191198
H        4.877359    -0.844265     1.424949
H        4.037802     2.241193     1.995321
H        5.954405     3.037655     3.330214
H        6.586964     1.859759     5.423195
H        5.280099    -0.111280     6.184236
H        3.372765    -0.925007     4.843186
H       -3.331312    -3.471420    -2.156611
H       -2.971831    -5.808787    -1.491116
93
ex_0283 frame18 tetrahedral
C        3.304186    -2.969692    -7.253819
C        3.109647    -3.362033    -5.818939
C        1.837207    -3.677644    -5.317457
C        1.681654    -4.036505    -3.972065
C        2.799561    -4.097448    -3.114280
C        2.633375    -4.483153    -1.658450
N        2.348095    -3.254660    -0.899832
C        3.276625    -2.319176    -0.719892
C        2.701033    -1.172640    -0.242711
C        3.444373     0.044489     0.045711
C        4.932144     0.044275     0.076276
C        5.634787     1.086033    -0.549798
C        7.023662     1.105912    -0.504655
C        7.713610     0.064253     0.122802
C        7.012808    -0.986533     0.721653
C        5.626145    -0.981687     0.721209
C        2.711019     1.270198     0.304760
C        3.291454     2.432503     0.778398
C        2.321130     3.367400     0.789721
C        1.179297     2.733427     0.357464
N        1.390907     1.429086     0.119430
Ni       0.000000     0.000000     0.000000
C        1.356466    -1.396036    -0.103064
C        1.178287    -2.729379    -0.458932
C       -0.082236    -3.445509    -0.337245
C       -0.239054    -4.901260    -0.454976
C       -1.029411    -5.469076    -1.459206
C       -1.192905    -6.845468    -1.505488
C       -0.532715    -7.652839    -0.572627
C        0.281338    -7.078043     0.413829
C        0.430641    -5.696128     0.473389
C       -1.292895    -2.715501    -0.070516
C       -2.477570    -3.350845     0.270961
C       -3.396055    -2.385900     0.427359
C       -2.746371    -1.206821     0.159993
N       -1.435259    -1.385223    -0.113348
C       -3.431462     0.044730     0.184873
C       -4.860513     0.185846     0.508530
C       -5.818505    -0.388513    -0.318157
C       -7.163226    -0.239918    -0.011530
C       -7.543902     0.481076     1.127315
C       -6.573922     1.055866     1.959179
C       -5.224897     0.902929     1.653659
C       -2.732526     1.232500    -0.110856
C       -3.342285     2.346185    -0.651084
C       -2.392505     3.294087    -0.679821
C       -1.271627     2.710143    -0.121805
C       -0.085136     3.407564     0.220910
C       -0.195197     4.859066     0.437761
C       -1.184474     5.287301     1.340516
C       -1.317543     6.647408     1.607248
C       -0.463206     7.563933     0.980999
C        0.511754     7.121942     0.080242
C        0.625914     5.773465    -0.206234
N       -1.421938     1.398040     0.100079
C        4.067515    -3.795860    -3.628227
C        4.218544    -3.414325    -4.963871
H        2.370330    -3.089427    -7.843063
H        3.628570    -1.909120    -7.308229
H        4.088727    -3.610887    -7.709278
H        0.966023    -3.632357    -5.962077
H        0.688317    -4.258994    -3.601288
H        3.544715    -4.965612    -1.249659
H        1.850521    -5.248051    -1.630806
H        4.304217    -2.428883    -1.035828
H        5.110050     1.897212    -1.044381
H        7.557970     1.929910    -0.956264
H        8.790553     0.070723     0.146560
H        7.533867    -1.803665     1.196740
H        5.086608    -1.790964     1.200577
H        4.306854     2.587177     1.113169
H        2.434140     4.389777     1.122514
H       -1.544488    -4.833473    -2.174406
H       -1.832398    -7.275901    -2.263185
H       -0.655368    -8.722645    -0.613258
H        0.794343    -7.696298     1.134853
H        1.052726    -5.238001     1.234940
H       -2.642326    -4.401901     0.469618
H       -4.415237    -2.521243     0.769429
H       -5.509151    -0.933101    -1.203852
H       -7.900421    -0.681010    -0.664701
H       -8.589660     0.597947     1.360066
H       -6.861927     1.622469     2.834043
H       -4.466113     1.356662     2.285621
H       -4.366514     2.451193    -0.991642
H       -2.509924     4.307311    -1.044879
H       -1.852788     4.576073     1.820528
H       -2.081919     6.987007     2.293344
H       -0.556155     8.616785     1.187734
H        1.180125     7.812597    -0.408330
H        1.369523     5.420590    -0.912512
H        4.937636    -3.833920    -2.987931
H        5.204618    -3.168507    -5.336438
93
ex_0283 frame19 see-saw N2-N2-ax-conf9
C       -4.634477    -7.286727     0.184680
C       -4.746968    -5.817487    -0.125122
C       -5.616514    -4.990244     0.603009
C       -5.727086    -3.625282     0.294666
C       -4.963903    -3.059543    -0.743020
C       -5.083914    -1.580055    -1.102754
N       -3.979974    -0.810062    -0.498965
C       -3.962169    -0.578901     0.811856
C       -2.763547    -0.034064     1.174664
C       -2.325912     0.172702     2.503040
C       -3.389364     0.054590     3.707344
C       -4.676540     0.599942     3.644382
C       -5.565740     0.449311     4.707192
C       -5.165319    -0.211338     5.870169
C       -3.880911    -0.749674     5.960286
C       -2.998853    -0.634081     4.882344
C       -0.997941     0.398964     2.853843
C       -0.581629     0.848572     4.080767
C        0.754241     0.791604     4.063863
C        1.096930     0.392226     2.795835
N        0.021808     0.189068     1.991622
Ni       0.000000     0.000000     0.000000
C       -1.950159    -0.000054     0.049975
C       -2.778267    -0.396072    -0.993451
C       -2.398843    -0.336880    -2.405620
C       -3.324728    -0.475468    -3.530068
C       -3.166983    -1.516733    -4.446053
C       -3.998856    -1.587658    -5.549979
C       -5.022619    -0.647324    -5.706045
C       -5.206491     0.368054    -4.755599
C       -4.356569     0.453330    -3.656530
C       -1.014961    -0.115666    -2.799213
C       -0.626292     0.201321    -4.092674
C        0.719649     0.340682    -4.066507
C        1.096477     0.077889    -2.772679
N        0.037195    -0.186730    -1.987980
C        2.474976     0.088220    -2.327992
C        3.619400     0.355221    -3.204687
C        4.487607     1.406886    -2.881681
C        5.603325     1.633352    -3.675919
C        5.819266     0.837157    -4.807425
C        4.924621    -0.191048    -5.133933
C        3.821936    -0.430393    -4.329046
C        2.824763    -0.168540    -0.967276
C        4.068932    -0.625026    -0.567216
C        4.048923    -0.619124     0.775190
C        2.817207    -0.118944     1.117774
C        2.453268     0.290592     2.406588
C        3.562202     0.608385     3.325318
C        4.035470    -0.100553     4.430347
C        5.118686     0.385436     5.157732
C        5.736801     1.580644     4.776275
C        5.259360     2.299613     3.674243
C        4.166391     1.819737     2.949480
N        1.996506     0.002412     0.058496
C       -4.075562    -3.892044    -1.453785
C       -3.976155    -5.258731    -1.153768
H       -4.887001    -7.883896    -0.717926
H       -3.597273    -7.531762     0.497059
H       -5.325352    -7.588473     1.001241
H       -6.212743    -5.403268     1.407839
H       -6.406373    -3.011493     0.870172
H       -5.134883    -1.530276    -2.196422
H       -6.043484    -1.161421    -0.731910
H       -4.792786    -0.772719     1.474359
H       -4.992919     1.137633     2.760802
H       -6.560890     0.862439     4.629998
H       -5.849792    -0.301175     6.702333
H       -3.565466    -1.248353     6.869233
H       -2.007108    -1.057719     4.989931
H       -1.182991     1.131182     4.932333
H        1.404308     1.020225     4.897552
H       -2.358251    -2.232297    -4.322970
H       -3.835560    -2.367131    -6.279918
H       -5.667928    -0.704457    -6.566491
H       -5.996287     1.094757    -4.872044
H       -4.478065     1.242517    -2.921350
H       -1.258889     0.397258    -4.947865
H        1.350342     0.657647    -4.886483
H        4.324378     2.005961    -1.988164
H        6.298113     2.416222    -3.404579
H        6.683013     1.010048    -5.426270
H        5.082362    -0.815405    -5.998661
H        3.132960    -1.237649    -4.553927
H        4.899908    -0.936705    -1.184972
H        4.847314    -0.929958     1.440123
H        3.570320    -1.038359     4.710683
H        5.485109    -0.176890     6.004972
H        6.590013     1.943816     5.330662
H        5.745135     3.218044     3.372019
H        3.814804     2.365654     2.080784
H       -3.476658    -3.491695    -2.260597
H       -3.304417    -5.886757    -1.728776
93
ex_0283 frame20 see-saw N2-N2-ax-conf5
C       -4.131146    -7.229446     0.364859
C       -4.379236    -5.792588    -0.003658
C       -5.241502    -5.001649     0.771566
C       -5.485994    -3.663329     0.424127
C       -4.841514    -3.084904    -0.685067
C       -5.062463    -1.626915    -1.071052
N       -3.977169    -0.826630    -0.480870
C       -3.952139    -0.607626     0.830578
C       -2.759655    -0.053593     1.182992
C       -2.340265     0.191329     2.518800
C       -3.406787     0.128554     3.704681
C       -4.677961     0.698229     3.570113
C       -5.606020     0.617344     4.605334
C       -5.260861     0.003110     5.810435
C       -3.991456    -0.555733     5.971727
C       -3.071270    -0.513089     4.920200
C       -0.996498     0.420512     2.850076
C       -0.578157     0.886105     4.072689
C        0.758595     0.846088     4.049444
C        1.099058     0.432389     2.786042
N        0.025018     0.202655     1.988576
Ni       0.000000     0.000000     0.000000
C       -1.949656    -0.021986     0.059006
C       -2.776208    -0.414402    -0.980457
C       -2.392030    -0.368605    -2.392996
C       -3.299474    -0.560303    -3.519775
C       -3.023460    -1.604447    -4.405759
C       -3.817028    -1.775967    -5.524623
C       -4.917055    -0.935550    -5.725781
C       -5.213900     0.082173    -4.806340
C       -4.399099     0.273917    -3.696528
C       -1.016121    -0.112533    -2.793292
C       -0.630018     0.255290    -4.075295
C        0.720345     0.350976    -4.057306
C        1.092656     0.073298    -2.765202
N        0.035626    -0.198487    -1.985998
C        2.458932     0.085844    -2.317135
C        3.582107     0.352483    -3.199951
C        3.955480    -0.556800    -4.173255
C        5.049029    -0.278695    -4.973715
C        5.751112     0.922416    -4.803545
C        5.356915     1.844456    -3.823237
C        4.259861     1.562677    -3.017834
C        2.821604    -0.160060    -0.968710
C        4.062829    -0.617060    -0.567259
C        4.051135    -0.579270     0.773600
C        2.819286    -0.078642     1.113204
C        2.465048     0.304290     2.415205
C        3.574347     0.559859     3.353945
C        3.983539     1.903682     3.339062
C        5.061599     2.297997     4.141115
C        5.705781     1.359941     4.959542
C        5.271240     0.032011     4.983374
C        4.200420    -0.360164     4.191363
N        1.996452     0.025868     0.055873
C       -3.971841    -3.883995    -1.451047
C       -3.753975    -5.226900    -1.123092
H       -5.093069    -7.754576     0.545230
H       -3.515319    -7.273812     1.287726
H       -3.591097    -7.769529    -0.443052
H       -5.731770    -5.427486     1.639235
H       -6.157583    -3.075665     1.035668
H       -5.118769    -1.591911    -2.163490
H       -6.036362    -1.249076    -0.693061
H       -4.776455    -0.810960     1.498080
H       -4.953680     1.195305     2.649670
H       -6.589202     1.044345     4.470821
H       -5.977318    -0.035858     6.618945
H       -3.719429    -1.017804     6.913103
H       -2.093484    -0.954113     5.076573
H       -1.177118     1.173734     4.923590
H        1.410371     1.095489     4.876149
H       -2.154774    -2.239862    -4.248596
H       -3.563775    -2.553181    -6.230835
H       -5.533391    -1.070641    -6.597532
H       -6.062494     0.731545    -4.954735
H       -4.603245     1.067473    -2.984273
H       -1.267715     0.490810    -4.917226
H        1.358016     0.670419    -4.871889
H        3.411488    -1.491046    -4.270933
H        5.347165    -1.005712    -5.711674
H        6.604345     1.131371    -5.425255
H        5.901727     2.766864    -3.677080
H        3.956703     2.257306    -2.237027
H        4.879244    -0.966061    -1.185425
H        4.847164    -0.899978     1.436180
H        3.496870     2.627337     2.694062
H        5.405928     3.324019     4.122887
H        6.544630     1.655947     5.572490
H        5.763418    -0.702583     5.604327
H        3.870347    -1.392466     4.196066
H       -3.458950    -3.468739    -2.306744
H       -3.079284    -5.819065    -1.730479
93
ex_0283 frame21 see-saw N2-N2-ax-conf3
C       -4.100559    -7.363073    -0.065366
C       -4.352956    -5.902318    -0.306314
C       -5.246119    -5.176491     0.498790
C       -5.470993    -3.812962     0.257588
C       -4.805626    -3.155987    -0.792618
C       -5.035288    -1.681409    -1.079997
N       -3.955761    -0.883188    -0.472235
C       -3.935488    -0.682983     0.842880
C       -2.756132    -0.104322     1.197318
C       -2.342514     0.146426     2.518655
C       -3.362746     0.085998     3.745002
C       -2.968543    -0.504927     4.969682
C       -3.828892    -0.489232     6.067017
C       -5.108613     0.051973     5.938211
C       -5.524588     0.583990     4.715157
C       -4.652060     0.611590     3.630321
C       -1.003547     0.401081     2.840742
C       -0.590713     0.913003     4.049023
C        0.740862     0.899332     4.027030
C        1.089786     0.446951     2.777582
N        0.022644     0.167895     1.991544
Ni       0.000000     0.000000     0.000000
C       -1.948875    -0.034653     0.073015
C       -2.766226    -0.425459    -0.963647
C       -2.382814    -0.316025    -2.366472
C       -3.345071    -0.426984    -3.439072
C       -4.401386     0.477577    -3.430492
C       -5.335345     0.420475    -4.453182
C       -5.194934    -0.531862    -5.474187
C       -4.125819    -1.436464    -5.463639
C       -3.210777    -1.397821    -4.429129
C       -1.012234    -0.076188    -2.781840
C       -0.625194     0.279259    -4.064249
C        0.731316     0.376422    -4.043735
C        1.105268     0.089490    -2.753273
N        0.041725    -0.166331    -1.989366
C        2.457032     0.092155    -2.287616
C        3.569776     0.388886    -3.148181
C        4.243342    -0.578136    -3.869838
C        5.310904    -0.216522    -4.662023
C        5.690627     1.128181    -4.741750
C        5.002658     2.108649    -4.007035
C        3.924673     1.740676    -3.202563
C        2.822314    -0.185091    -0.958719
C        4.034928    -0.703587    -0.534608
C        4.009325    -0.660198     0.805391
C        2.802744    -0.093101     1.121300
C        2.444971     0.335684     2.401182
C        3.528611     0.669898     3.339020
C        4.320406     1.719220     2.849777
C        5.389564     2.184614     3.607429
C        5.667012     1.602517     4.849343
C        4.872092     0.556466     5.333220
C        3.811323     0.080695     4.570419
N        1.996096     0.036692     0.057012
C       -3.908310    -3.890120    -1.590075
C       -3.687313    -5.250171    -1.351449
H       -3.049150    -7.506000     0.262343
H       -4.774850    -7.771437     0.717029
H       -4.265810    -7.936389    -1.002808
H       -5.760079    -5.662971     1.319243
H       -6.153837    -3.269891     0.897564
H       -6.005220    -1.340193    -0.659758
H       -5.127265    -1.587592    -2.166829
H       -4.754614    -0.913151     1.508053
H       -1.976716    -0.921858     5.106291
H       -3.496170    -0.884682     7.019179
H       -5.776382     0.064695     6.786992
H       -6.515915     0.997650     4.607097
H       -4.974168     1.057784     2.699014
H       -1.191472     1.219622     4.891536
H        1.379725     1.192674     4.847545
H       -4.491801     1.205825    -2.629057
H       -6.159767     1.115508    -4.446372
H       -5.912461    -0.569460    -6.273523
H       -3.996493    -2.168790    -6.246158
H       -2.373438    -2.092492    -4.404222
H       -1.264501     0.516987    -4.902835
H        1.371418     0.699658    -4.854972
H        3.941572    -1.618364    -3.779528
H        5.831396    -0.990865    -5.202007
H        6.522064     1.402147    -5.367140
H        5.304957     3.145393    -4.056777
H        3.393420     2.485017    -2.613644
H        4.839577    -1.105792    -1.133224
H        4.775166    -1.014276     1.489441
H        4.115388     2.158085     1.878053
H        6.005467     2.985661     3.222603
H        6.500910     1.957392     5.433887
H        5.080510     0.100992     6.290001
H        3.202913    -0.741910     4.930505
H       -3.389055    -3.415157    -2.410278
H       -3.003874    -5.800110    -1.988450
93
ex_0283 frame22 tetrahedral-conf2
C        2.550878    -3.301056    -7.331563
C        2.597142    -3.614345    -5.865663
C        3.817262    -3.655945    -5.171092
C        3.841912    -3.947149    -3.801012
C        2.646984    -4.193833    -3.106736
C        2.650027    -4.495953    -1.623126
N        2.355371    -3.254585    -0.879409
C        3.281494    -2.309329    -0.723591
C        2.719523    -1.186218    -0.171839
C        3.367734     0.052769     0.053997
C        4.929962     0.157353    -0.030865
C        5.500900     1.276298    -0.669259
C        6.880064     1.434541    -0.690664
C        7.699280     0.449969    -0.135598
C        7.136430    -0.691004     0.444774
C        5.755324    -0.829205     0.509812
C        2.694756     1.277471     0.307846
C        3.259021     2.434062     0.801233
C        2.291436     3.371802     0.779427
C        1.160657     2.729560     0.335822
N        1.387201     1.434575     0.082227
Ni       0.000000     0.000000     0.000000
C        1.365170    -1.390721    -0.080376
C        1.191169    -2.729142    -0.412466
C       -0.063032    -3.440272    -0.237519
C       -0.184505    -4.897665    -0.298135
C        0.584036    -5.614726     0.616185
C        0.506105    -7.001850     0.623804
C       -0.344187    -7.659796    -0.276168
C       -1.114482    -6.929085    -1.188208
C       -1.018113    -5.546379    -1.213671
C       -1.276928    -2.712849     0.024868
C       -2.449914    -3.335288     0.426133
C       -3.379908    -2.367350     0.529894
C       -2.739915    -1.201134     0.189201
N       -1.432903    -1.389989    -0.078444
C       -3.411590     0.047162     0.164505
C       -4.824125     0.201016     0.481006
C       -5.844088     0.125056    -0.456498
C       -7.156750     0.308069    -0.063628
C       -7.450777     0.551063     1.281915
C       -6.419960     0.619776     2.232580
C       -5.093023     0.437783     1.834608
C       -2.741698     1.228836    -0.164765
C       -3.321916     2.334813    -0.756787
C       -2.368857     3.275283    -0.773148
C       -1.274121     2.696394    -0.168996
C       -0.105533     3.361592     0.226688
C       -0.248375     4.774753     0.535244
C       -1.147743     4.998566     1.590558
C       -1.367850     6.300380     2.027608
C       -0.698900     7.362651     1.405711
C        0.186010     7.121700     0.347550
C        0.395611     5.827126    -0.096341
N       -1.431815     1.389868     0.076887
C        1.429086    -4.157617    -3.810375
C        1.404784    -3.869720    -5.177293
H        2.035364    -2.329007    -7.482817
H        3.570692    -3.235556    -7.766023
H        1.990310    -4.095231    -7.869056
H        4.747671    -3.447866    -5.685087
H        4.789361    -3.958504    -3.278499
H        3.636180    -4.882681    -1.291756
H        1.944914    -5.322486    -1.474422
H        4.325079    -2.441612    -0.968196
H        4.884346     2.060381    -1.096043
H        7.305301     2.329444    -1.124551
H        8.769645     0.574497    -0.150046
H        7.763233    -1.460134     0.868633
H        5.323557    -1.697561     0.993577
H        4.281306     2.593961     1.101068
H        2.407596     4.407646     1.058304
H        1.240497    -5.091552     1.303868
H        1.107767    -7.558231     1.325918
H       -0.407582    -8.734798    -0.266821
H       -1.782719    -7.423503    -1.878860
H       -1.611905    -4.969687    -1.918301
H       -2.604236    -4.376994     0.675218
H       -4.402924    -2.491496     0.865996
H       -5.600336    -0.049827    -1.499765
H       -7.932308     0.263361    -0.813002
H       -8.476925     0.691289     1.580570
H       -6.648493     0.818577     3.270856
H       -4.287946     0.504368     2.560621
H       -4.325066     2.439645    -1.156857
H       -2.459952     4.277760    -1.175766
H       -1.677712     4.172109     2.058621
H       -2.060792     6.481638     2.837957
H       -0.868332     8.372970     1.737639
H        0.706421     7.928659    -0.142913
H        1.065087     5.624640    -0.925876
H        0.495203    -4.357256    -3.304025
H        0.456322    -3.851184    -5.702254
93
ex_0283 frame23 tetrahedral-conf3
C        3.096863    -3.435491    -7.315869
C        2.988903    -3.705388    -5.846904
C        4.137701    -3.762457    -5.043486
C        4.029122    -4.025410    -3.675256
C        2.770884    -4.222912    -3.086980
C        2.647611    -4.498689    -1.603409
N        2.331013    -3.248986    -0.882727
C        3.249361    -2.295090    -0.744100
C        2.694639    -1.178189    -0.166556
C        3.323879     0.053007     0.043514
C        4.876864     0.146451    -0.101344
C        5.709095    -0.841789     0.421013
C        7.082397    -0.742784     0.262908
C        7.632210     0.369469    -0.381052
C        6.802644     1.371122    -0.892904
C        5.424395     1.253334    -0.772985
C        2.676870     1.276074     0.330556
C        3.237335     2.414629     0.870544
C        2.268062     3.357353     0.865272
C        1.144681     2.723549     0.377948
N        1.379808     1.441402     0.085590
Ni       0.000000     0.000000     0.000000
C        1.357912    -1.400130    -0.026822
C        1.170738    -2.725627    -0.404026
C       -0.081824    -3.430758    -0.260512
C       -0.269876    -4.865821    -0.377327
C       -1.089849    -5.412766    -1.364800
C       -1.301965    -6.779445    -1.385797
C       -0.650891    -7.593656    -0.451207
C        0.206937    -7.033993     0.507854
C        0.405756    -5.660646     0.540602
C       -1.278875    -2.702018     0.036474
C       -2.437187    -3.319802     0.491611
C       -3.356167    -2.349908     0.632542
C       -2.729263    -1.191064     0.226674
N       -1.435922    -1.386128    -0.079308
C       -3.398789     0.055733     0.154574
C       -4.802280     0.223641     0.441364
C       -5.162447     1.103541     1.462902
C       -6.507478     1.292936     1.730998
C       -7.465531     0.582349     0.991139
C       -7.073772    -0.306638    -0.020805
C       -5.733977    -0.482641    -0.294596
C       -2.723022     1.224488    -0.205533
C       -3.309776     2.315205    -0.827603
C       -2.356310     3.263912    -0.825503
C       -1.268086     2.694201    -0.189944
C       -0.119108     3.344162     0.242190
C       -0.299595     4.728825     0.553560
C        0.139930     5.791503    -0.208276
C       -0.107671     7.078281     0.220284
C       -0.803921     7.290865     1.417222
C       -1.249207     6.204843     2.187250
C       -0.994590     4.907368     1.756702
N       -1.427443     1.397113     0.022204
C        1.619851    -4.161435    -3.895377
C        1.728924    -3.903402    -5.265830
H        2.578839    -4.241586    -7.876771
H        2.623391    -2.459643    -7.552713
H        4.158376    -3.408712    -7.641719
H        5.117939    -3.593749    -5.471936
H        4.925427    -4.055591    -3.070635
H        1.921789    -5.314061    -1.487987
H        3.608439    -4.882240    -1.199209
H        4.286216    -2.417465    -1.020427
H        5.284481    -1.692273     0.944144
H        7.713142    -1.524091     0.656498
H        8.701185     0.456280    -0.478713
H        7.220876     2.243200    -1.374998
H        4.792140     2.042131    -1.168851
H        4.258097     2.551210     1.190896
H        2.384030     4.385527     1.183931
H       -1.601728    -4.763649    -2.072363
H       -1.975365    -7.193061    -2.121872
H       -0.816304    -8.656314    -0.467549
H        0.711887    -7.654643     1.231193
H        1.055449    -5.205628     1.282181
H       -2.576436    -4.356237     0.772113
H       -4.369288    -2.495539     0.977183
H       -4.400334     1.657996     2.009976
H       -6.794681     1.991810     2.502821
H       -8.509918     0.722902     1.194840
H       -7.790843    -0.858452    -0.605479
H       -5.399785    -1.152127    -1.083272
H       -4.316545     2.416211    -1.231543
H       -2.440666     4.263984    -1.234809
H        0.661045     5.598293    -1.142033
H        0.237414     7.895714    -0.390784
H       -1.001562     8.297030     1.740142
H       -1.796453     6.364120     3.105545
H       -1.352759     4.053795     2.330031
H        0.638093    -4.322377    -3.469471
H        0.833614    -3.866655    -5.877114
93
ex_0283 frame24 tetrahedral-conf5
C        2.808437    -2.970834    -7.259273
C        2.774991    -3.376095    -5.820176
C        3.962344    -3.423283    -5.073194
C        3.934697    -3.809070    -3.728974
C        2.712521    -4.106853    -3.107206
C        2.644326    -4.471869    -1.643824
N        2.338830    -3.241538    -0.888075
C        3.255900    -2.286539    -0.756481
C        2.687853    -1.146769    -0.247383
C        3.418550     0.078271    -0.001043
C        4.896968     0.120850    -0.061240
C        5.676797    -0.894947     0.492991
C        7.057296    -0.843720     0.384320
C        7.667551     0.251955    -0.231885
C        6.891753     1.286645    -0.762398
C        5.506131     1.216021    -0.694248
C        2.684430     1.279961     0.306066
C        3.235994     2.416222     0.872614
C        2.259355     3.350428     0.894204
C        1.175334     2.750323     0.283363
N        1.377782     1.443412     0.080305
Ni       0.000000     0.000000     0.000000
C        1.364013    -1.392660    -0.039969
C        1.175797    -2.717738    -0.414011
C       -0.082703    -3.422212    -0.283823
C       -0.288169    -4.851901    -0.445841
C       -1.176528    -5.306044    -1.422792
C       -1.429133    -6.660124    -1.529487
C       -0.750159    -7.555975    -0.695662
C        0.173795    -7.089448     0.252341
C        0.407281    -5.727230     0.378372
C       -1.277972    -2.699519     0.043049
C       -2.427191    -3.314891     0.527870
C       -3.352543    -2.348681     0.657444
C       -2.746055    -1.211346     0.168870
N       -1.437241    -1.385437    -0.071905
C       -3.277007     0.009045     0.106863
C       -4.785794     0.208286     0.495125
C       -5.740854    -0.252992    -0.387980
C       -7.073592    -0.081234    -0.080352
C       -7.432812     0.541911     1.124163
C       -6.448132     1.002150     2.014187
C       -5.108320     0.833590     1.697996
C       -2.720686     1.215896    -0.205843
C       -3.332182     2.320166    -0.761994
C       -2.377781     3.266715    -0.776686
C       -1.232532     2.663065    -0.280635
C       -0.076471     3.205140     0.128487
C       -0.281814     4.763245     0.513259
C       -0.554884     5.080964     1.847196
C       -0.734679     6.422568     2.179003
C       -0.635110     7.406804     1.180838
C       -0.363919     7.051039    -0.145431
C       -0.183649     5.726144    -0.471127
N       -1.430893     1.393321     0.039289
C        1.528237    -4.064415    -3.862007
C        1.558923    -3.710680    -5.210114
H        3.673914    -3.443059    -7.768904
H        2.899437    -1.866273    -7.318081
H        1.880536    -3.287180    -7.782153
H        4.908456    -3.162803    -5.532194
H        4.857854    -3.835733    -3.164768
H        1.908977    -5.280173    -1.559528
H        3.610635    -4.880323    -1.279933
H        4.292195    -2.407643    -1.035456
H        5.207234    -1.737664     0.989548
H        7.646105    -1.651542     0.789889
H        8.741612     0.299491    -0.294915
H        7.358213     2.144970    -1.223798
H        4.913992     2.025604    -1.109210
H        4.235907     2.534928     1.268447
H        2.349750     4.352903     1.302435
H       -1.710766    -4.595425    -2.050643
H       -2.155643    -6.999568    -2.252674
H       -0.946071    -8.609618    -0.781762
H        0.702656    -7.773499     0.896751
H        1.107838    -5.341935     1.113663
H       -2.556195    -4.349582     0.820826
H       -4.363439    -2.494481     1.008487
H       -5.427246    -0.717216    -1.320319
H       -7.809426    -0.431301    -0.785640
H       -8.471895     0.671378     1.362066
H       -6.712181     1.490720     2.940581
H       -4.325302     1.194526     2.362871
H       -4.363048     2.442210    -1.084084
H       -2.497664     4.287919    -1.111522
H       -0.635338     4.305624     2.605611
H       -0.948583     6.696255     3.202187
H       -0.769186     8.444349     1.428382
H       -0.288280     7.784361    -0.931592
H        0.020199     5.421868    -1.495544
H        0.576263    -4.290787    -3.402316
H        0.629805    -3.667917    -5.766728
93
ex_0283 frame25 Isomer 1
C       -2.051074     6.358671     1.586110
C       -0.815700     5.521806     1.472896
C       -0.390353     5.012938     0.235286
C        0.765677     4.228738     0.163730
C        1.512002     3.957263     1.326939
C        2.748212     3.101583     1.253107
N        2.281366     1.718125     1.365369
C        1.804150     1.254177     2.512431
C        1.283602     0.010779     2.311124
C        0.729583    -0.780411     3.407919
C        0.930214    -0.393069     4.843741
C       -0.158141    -0.443074     5.731037
C        0.018705    -0.107205     7.069679
C        1.270400     0.323588     7.519216
C        2.349644     0.396964     6.633342
C        2.185756     0.016009     5.306461
C       -0.030991    -1.965457     3.087476
C       -0.404391    -2.917903     4.013597
C       -1.168708    -3.804876     3.340787
C       -1.296720    -3.286574     2.064831
N       -0.463312    -2.278912     1.852622
Ni       0.353536    -1.742084     0.113648
C        1.382502    -0.314737     0.954358
C        2.116126     0.731692     0.443457
C        2.632720     0.717678    -0.894236
C        3.587418     1.688607    -1.418484
C        3.215499     2.539980    -2.457439
C        4.147677     3.419975    -2.982264
C        5.438178     3.466072    -2.441507
C        5.793103     2.627325    -1.374786
C        4.861695     1.735434    -0.855321
C        2.207497    -0.313903    -1.806277
C        2.828849    -0.524160    -3.021538
C        2.123052    -1.492665    -3.634654
C        1.041037    -1.720656    -2.814033
N        1.193642    -1.172958    -1.606599
C        0.014718    -2.605057    -2.969976
C        0.045822    -3.473865    -4.338253
C       -0.178802    -2.770713    -5.502363
C       -0.204654    -3.449164    -6.701271
C        0.016064    -4.832684    -6.723106
C        0.264869    -5.535688    -5.533869
C        0.286692    -4.850702    -4.324780
C       -1.048974    -3.028217    -2.225649
C       -2.259798    -3.562240    -2.573144
C       -2.836595    -3.911902    -1.391239
C       -1.954699    -3.485745    -0.424278
C       -1.914806    -3.809252     0.928580
C       -2.818659    -5.119552     1.270757
C       -2.608886    -6.315142     0.578821
C       -3.425510    -7.401620     0.860215
C       -4.411249    -7.289619     1.851616
C       -4.580779    -6.091107     2.555673
C       -3.785944    -5.003842     2.256933
N       -0.879831    -2.899783    -0.947994
C        1.095771     4.488829     2.551419
C       -0.073021     5.243899     2.627721
H       -2.442742     6.647553     0.588306
H       -2.830898     5.789311     2.133815
H       -1.813527     7.284559     2.151931
H       -0.961511     5.203338    -0.666832
H        1.066903     3.818424    -0.793576
H        3.465062     3.312972     2.075067
H        3.252259     3.354038     0.316809
H        1.804477     1.818063     3.440412
H       -1.134977    -0.772424     5.393929
H       -0.817316    -0.182897     7.751798
H        1.405257     0.598766     8.553314
H        3.317953     0.740058     6.967746
H        3.030493     0.061621     4.629121
H       -0.125172    -2.985732     5.059813
H       -1.606104    -4.694942     3.769495
H        2.212495     2.485414    -2.872327
H        3.863693     4.054715    -3.808765
H        6.162371     4.149051    -2.852191
H        6.786315     2.658638    -0.953118
H        5.123072     1.074731    -0.034357
H        3.726119    -0.048023    -3.402738
H        2.354787    -1.928797    -4.595306
H       -0.357430    -1.699879    -5.451999
H       -0.403965    -2.890497    -7.599613
H       -0.010719    -5.355238    -7.661669
H        0.432015    -6.603411    -5.545193
H        0.467568    -5.381005    -3.390621
H       -2.655038    -3.731469    -3.563085
H       -3.786471    -4.417108    -1.251124
H       -1.843387    -6.384265    -0.192052
H       -3.294812    -8.319664     0.306129
H       -5.046448    -8.127204     2.074792
H       -5.326932    -5.985383     3.325961
H       -3.907141    -4.062748     2.786334
H        1.654536     4.282783     3.453898
H       -0.395025     5.621303     3.588980
93
ex_0283 frame26 tetrahedral-conf4
C        2.950081    -2.967490    -7.212935
C        2.890006    -3.377450    -5.772529
C        4.061368    -3.512661    -5.009708
C        3.988951    -3.889753    -3.663614
C        2.743719    -4.109893    -3.055855
C        2.641587    -4.464960    -1.586475
N        2.362447    -3.221824    -0.837483
C        3.294648    -2.273457    -0.717668
C        2.750079    -1.172545    -0.097376
C        3.329068     0.099088     0.118045
C        4.943639     0.177624    -0.102563
C        5.796610    -0.816576     0.386849
C        7.168602    -0.722690     0.186654
C        7.702097     0.387549    -0.473829
C        6.857144     1.387526    -0.965122
C        5.478604     1.273934    -0.801858
C        2.699897     1.309944     0.407592
C        3.283544     2.450861     0.880052
C        2.313015     3.390981     0.841622
C        1.250566     2.747348     0.287637
N        1.376782     1.430340     0.222478
Ni       0.000000     0.000000     0.000000
C        1.393380    -1.365014    -0.003479
C        1.224925    -2.713803    -0.284034
C       -0.050955    -3.360412    -0.139286
C       -0.287413    -4.852988    -0.358691
C       -1.168460    -5.293402    -1.354357
C       -1.454513    -6.646389    -1.461538
C       -0.809821    -7.558304    -0.619523
C        0.122166    -7.112879     0.328519
C        0.393080    -5.754399     0.453522
C       -1.290767    -2.697081     0.185653
C       -2.452928    -3.327090     0.588399
C       -3.384066    -2.353490     0.704664
C       -2.747719    -1.219927     0.290223
N       -1.441243    -1.375880     0.127804
C       -3.234639     0.003751     0.157893
C       -4.811474     0.222070     0.494551
C       -5.217417     0.478449     1.799321
C       -6.570626     0.653655     2.054750
C       -7.493942     0.570716     1.002061
C       -7.060646     0.315893    -0.306033
C       -5.710960     0.141822    -0.559555
C       -2.694674     1.253515    -0.191402
C       -3.303775     2.376063    -0.723274
C       -2.339994     3.315969    -0.801890
C       -1.186099     2.699553    -0.348699
C       -0.045381     3.127680     0.061716
C       -0.254569     4.787222     0.463190
C       -1.060244     5.005281     1.594195
C       -1.319457     6.315656     1.988646
C       -0.757504     7.380129     1.268568
C        0.056225     7.134444     0.156127
C        0.304817     5.835899    -0.241356
N       -1.394421     1.428194     0.003961
C        1.574351    -3.997003    -3.831391
C        1.647325    -3.629666    -5.177627
H        2.425244    -1.996931    -7.343885
H        3.998996    -2.853007    -7.558937
H        2.452830    -3.737365    -7.839176
H        5.029729    -3.308672    -5.449533
H        4.899830    -3.969185    -3.085573
H        1.876853    -5.244496    -1.512483
H        3.581591    -4.913571    -1.204056
H        4.328379    -2.399826    -1.003731
H        5.390690    -1.670481     0.916754
H        7.811660    -1.507208     0.559138
H        8.769598     0.472890    -0.602972
H        7.264360     2.255172    -1.466361
H        4.836275     2.057434    -1.187628
H        4.317639     2.608174     1.156262
H        2.436413     4.436909     1.083081
H       -1.685161    -4.577656    -1.988860
H       -2.186985    -6.977479    -2.184614
H       -1.039226    -8.608452    -0.697122
H        0.621752    -7.812471     0.980204
H        1.094979    -5.392814     1.197208
H       -2.616985    -4.384153     0.745369
H       -4.422671    -2.486345     0.969747
H       -4.484474     0.551139     2.598543
H       -6.894966     0.856528     3.064064
H       -8.542988     0.707909     1.197738
H       -7.758612     0.255752    -1.126530
H       -5.350940    -0.044519    -1.568414
H       -4.339580     2.511433    -0.998746
H       -2.468278     4.337961    -1.151886
H       -1.514126     4.173423     2.130350
H       -1.961749     6.504539     2.838637
H       -0.955990     8.396226     1.562526
H        0.491434     7.936724    -0.416395
H        0.915327     5.626067    -1.113545
H        0.602500    -4.178631    -3.391561
H        0.734776    -3.532722    -5.755497
