39
ex_0089 frame0 trans-OC-6-1
Fe       0.000000     0.000000     0.000000
Cl       2.440000     0.000000     0.000000
Cl      -2.440000     0.000000     0.000000
N        0.000000     2.130000     0.000000
C        1.132964     2.901000    -0.031657
N        0.700303     4.262284    -0.019563
C       -0.739675     4.314009     0.020670
C       -1.162273     2.951707     0.032476
H        2.079087     2.615029    -0.058097
H        1.295642     5.034003    -0.036196
H       -1.250371     5.206183     0.034939
H       -2.097048     2.567317     0.058594
N        0.000000    -2.130000     0.000000
C       -0.136113    -2.901000    -1.125203
N       -0.084138    -4.262284    -0.695506
C        0.088862    -4.314009     0.734609
C        0.139634    -2.951707     1.154311
H       -0.249775    -2.615029    -2.064846
H       -0.155663    -5.034003    -1.286766
H        0.150216    -5.206183     1.241807
H        0.251938    -2.567317     2.082683
N        0.000000     0.000000     2.130000
C        1.123631     0.148536     2.901000
N        0.694535     0.091808     4.262284
C       -0.733582    -0.096976     4.314009
C       -1.152698    -0.152378     2.951707
H        2.061960     0.272579     2.615029
H        1.284969     0.169857     5.034003
H       -1.240071    -0.163930     5.206183
H       -2.079773    -0.274930     2.567317
N        0.000000     0.000000    -2.130000
C        1.130856     0.075987    -2.901000
N        0.699000     0.046973    -4.262284
C       -0.738299    -0.049608    -4.314009
C       -1.160110    -0.077953    -2.951707
H        2.075219     0.139440    -2.615029
H        1.293230     0.086905    -5.034003
H       -1.248045    -0.083860    -5.206183
H       -2.093146    -0.140649    -2.567317
39
ex_0089 frame1 trans-OC-6-1-conf2
Fe       0.000000     0.000000     0.000000
Cl       2.440000     0.000000     0.000000
Cl      -2.440000     0.000000     0.000000
N        0.000000     2.130000     0.000000
C        1.132964     2.901000    -0.031657
N        0.700303     4.262284    -0.019563
C       -0.739675     4.314009     0.020670
C       -1.162273     2.951707     0.032476
H        2.079087     2.615029    -0.058097
H        1.295642     5.034003    -0.036196
H       -1.250371     5.206183     0.034939
H       -2.097048     2.567317     0.058594
N        0.000000    -2.130000     0.000000
C        1.051634    -2.901000    -0.422699
N        0.650031    -4.262284    -0.261281
C       -0.686579    -4.314009     0.275965
C       -1.078839    -2.951707     0.433634
H        1.929842    -2.615029    -0.775686
H        1.202632    -5.034003    -0.483399
H       -1.160614    -5.206183     0.466501
H       -1.946511    -2.567317     0.782391
N        0.000000     0.000000     2.130000
C        1.123631     0.148536     2.901000
N        0.694535     0.091808     4.262284
C       -0.733582    -0.096976     4.314009
C       -1.152698    -0.152378     2.951707
H        2.061960     0.272579     2.615029
H        1.284969     0.169857     5.034003
H       -1.240071    -0.163930     5.206183
H       -2.079773    -0.274930     2.567317
N        0.000000     0.000000    -2.130000
C        0.631235    -0.941356    -2.901000
N        0.390180    -0.581865    -4.262284
C       -0.412111     0.614582    -4.314009
C       -0.647565     0.965708    -2.951707
H        1.158368    -1.727472    -2.615029
H        0.721877    -1.076518    -5.034003
H       -0.696648     1.038909    -5.206183
H       -1.168379     1.742393    -2.567317
39
ex_0089 frame2 trans-OC-6-1-conf3
Fe       0.000000     0.000000     0.000000
Cl       2.440000     0.000000     0.000000
Cl      -2.440000     0.000000     0.000000
N        0.000000     2.130000     0.000000
C        1.132964     2.901000    -0.031657
N        0.700303     4.262284    -0.019563
C       -0.739675     4.314009     0.020670
C       -1.162273     2.951707     0.032476
H        2.079087     2.615029    -0.058097
H        1.295642     5.034003    -0.036196
H       -1.250371     5.206183     0.034939
H       -2.097048     2.567317     0.058594
N        0.000000    -2.130000     0.000000
C        1.051634    -2.901000    -0.422699
N        0.650031    -4.262284    -0.261281
C       -0.686579    -4.314009     0.275965
C       -1.078839    -2.951707     0.433634
H        1.929842    -2.615029    -0.775686
H        1.202632    -5.034003    -0.483399
H       -1.160614    -5.206183     0.466501
H       -1.885798    -2.628791     0.843764
N        0.000000     0.000000     2.130000
C        0.434601     1.050581     2.900836
N        0.270037     0.652765     4.266496
C       -0.282807    -0.683789     4.314009
C       -0.443411    -1.040992     2.962200
H        0.794919     1.921999     2.615029
H        0.495385     1.197744     5.034003
H       -0.478068    -1.155898     5.206183
H       -0.931978    -1.860526     2.627389
N        0.000000     0.000000    -2.130000
C        1.130856     0.075987    -2.901000
N        0.699000     0.046973    -4.262284
C       -0.738299    -0.049608    -4.314009
C       -1.160110    -0.077953    -2.951707
H        2.075219     0.139440    -2.615029
H        1.293230     0.086905    -5.034003
H       -1.248045    -0.083860    -5.206183
H       -2.093146    -0.140649    -2.567317
39
ex_0089 frame3 trans-OC-6-1-conf4
Fe       0.000000     0.000000     0.000000
Cl       2.440000     0.000000     0.000000
Cl      -2.440000     0.000000     0.000000
N        0.000000     2.130000     0.000000
C        1.132964     2.901000    -0.031657
N        0.700303     4.262284    -0.019563
C       -0.739675     4.314009     0.020670
C       -1.162273     2.951707     0.032476
H        2.079087     2.615029    -0.058097
H        1.295642     5.034003    -0.036196
H       -1.250371     5.206183     0.034939
H       -2.097048     2.567317     0.058594
N        0.000000    -2.130000     0.000000
C        0.159749    -2.901000    -1.122091
N        0.098739    -4.262284    -0.693583
C       -0.104297    -4.314009     0.732577
C       -0.163882    -2.951707     1.151119
H        0.293157    -2.615029    -2.059135
H        0.182680    -5.034003    -1.283209
H       -0.176305    -5.206183     1.238372
H       -0.328291    -2.614505     2.042269
N        0.000000     0.000000     2.130000
C       -0.692327     0.901182     2.900874
N       -0.429740     0.559392     4.265771
C        0.450775    -0.586813     4.314009
C        0.698233    -0.895829     2.959024
H       -1.267041     1.649420     2.615029
H       -0.789585     1.027888     5.034003
H        0.762003    -0.991968     5.206183
H        1.351480    -1.598781     2.602115
N        0.000000     0.000000    -2.130000
C        1.130856     0.075987    -2.901000
N        0.699000     0.046973    -4.262284
C       -0.738299    -0.049608    -4.314009
C       -1.160110    -0.077953    -2.951707
H        2.075219     0.139440    -2.615029
H        1.293230     0.086905    -5.034003
H       -1.248045    -0.083860    -5.206183
H       -2.093146    -0.140649    -2.567317
39
ex_0089 frame4 trans-OC-6-1-conf5
Fe       0.000000     0.000000     0.000000
Cl       2.440000     0.000000     0.000000
Cl      -2.440000     0.000000     0.000000
N        0.000000     2.130000     0.000000
C        1.132964     2.901000    -0.031657
N        0.700303     4.262284    -0.019563
C       -0.739675     4.314009     0.020670
C       -1.162273     2.951707     0.032476
H        2.079087     2.615029    -0.058097
H        1.295642     5.034003    -0.036196
H       -1.250371     5.206183     0.034939
H       -2.097048     2.567317     0.058594
N        0.000000    -2.130000     0.000000
C       -1.132108    -2.901000     0.054222
N       -0.699774    -4.262284     0.033514
C        0.739117    -4.314009    -0.035404
C        1.161395    -2.951707    -0.055625
H       -2.077517    -2.615028     0.099501
H       -1.294663    -5.034003     0.062009
H        1.249427    -5.206183    -0.059848
H        2.095464    -2.567317    -0.100360
N        0.000000     0.000000     2.130000
C        1.123631     0.148536     2.901000
N        0.694535     0.091808     4.262284
C       -0.733582    -0.096976     4.314009
C       -1.152698    -0.152378     2.951707
H        2.061960     0.272579     2.615029
H        1.284969     0.169857     5.034003
H       -1.240071    -0.163930     5.206183
H       -2.079773    -0.274930     2.567317
N        0.000000     0.000000    -2.130000
C        1.130856     0.075987    -2.901000
N        0.699000     0.046973    -4.262284
C       -0.738299    -0.049608    -4.314009
C       -1.160110    -0.077953    -2.951707
H        2.075219     0.139440    -2.615029
H        1.293230     0.086905    -5.034003
H       -1.248045    -0.083860    -5.206183
H       -2.093146    -0.140649    -2.567317
39
ex_0089 frame5 trans-OC-6-1-conf6
Fe       0.000000     0.000000     0.000000
Cl       2.440000     0.000000     0.000000
Cl      -2.440000     0.000000     0.000000
N        0.000000     2.130000     0.000000
C        0.539066     2.901000    -0.997004
N        0.333209     4.262284    -0.616262
C       -0.351937     4.314009     0.650913
C       -0.553011     2.951707     1.022796
H        0.989230     2.615029    -1.829591
H        0.616474     5.034003    -1.140156
H       -0.594927     5.206183     1.100323
H       -0.997780     2.567317     1.845394
N        0.000000    -2.130000     0.000000
C        0.949554    -2.901000    -0.618834
N        0.586935    -4.262284    -0.382511
C       -0.619933    -4.314009     0.404017
C       -0.974118    -2.951707     0.634843
H        1.742514    -2.615029    -1.135616
H        1.085898    -5.034003    -0.707689
H       -1.047955    -5.206182     0.682963
H       -1.757568    -2.567317     1.145425
N        0.000000     0.000000     2.130000
C        1.123631     0.148536     2.901000
N        0.694535     0.091808     4.262284
C       -0.733582    -0.096976     4.314009
C       -1.152698    -0.152378     2.951707
H        2.061960     0.272579     2.615029
H        1.284969     0.169857     5.034003
H       -1.240071    -0.163930     5.206183
H       -2.079773    -0.274930     2.567317
N        0.000000     0.000000    -2.130000
C        1.130856     0.075987    -2.901000
N        0.699000     0.046973    -4.262284
C       -0.738299    -0.049608    -4.314009
C       -1.160110    -0.077953    -2.951707
H        2.075219     0.139440    -2.615029
H        1.293230     0.086905    -5.034003
H       -1.248045    -0.083860    -5.206183
H       -2.093146    -0.140649    -2.567317
39
ex_0089 frame6 trans-OC-6-1-conf7
Fe       0.000000     0.000000     0.000000
Cl       2.440000     0.000000     0.000000
Cl      -2.440000     0.000000     0.000000
N        0.000000     2.130000     0.000000
C       -0.593898     2.901000    -0.965347
N       -0.367094     4.262284    -0.596699
C        0.387738     4.314009     0.630243
C        0.609261     2.951707     0.990320
H       -1.089857     2.615029    -1.771494
H       -0.679167     5.034003    -1.103961
H        0.655444     5.206183     1.065384
H        1.099268     2.567317     1.786800
N        0.000000    -2.130000     0.000000
C       -0.136113    -2.901000    -1.125203
N       -0.084138    -4.262284    -0.695506
C        0.088862    -4.314009     0.734609
C        0.139634    -2.951707     1.154311
H       -0.249775    -2.615029    -2.064846
H       -0.155663    -5.034003    -1.286766
H        0.150216    -5.206183     1.241807
H        0.251938    -2.567317     2.082683
N        0.000000     0.000000     2.130000
C        1.123631     0.148536     2.901000
N        0.694535     0.091808     4.262284
C       -0.733582    -0.096976     4.314009
C       -1.152698    -0.152378     2.951707
H        2.061960     0.272579     2.615029
H        1.284969     0.169857     5.034003
H       -1.240071    -0.163930     5.206183
H       -2.079773    -0.274930     2.567317
N        0.000000     0.000000    -2.130000
C        1.130856     0.075987    -2.901000
N        0.699000     0.046973    -4.262284
C       -0.738299    -0.049608    -4.314009
C       -1.160110    -0.077953    -2.951707
H        2.075219     0.139440    -2.615029
H        1.293230     0.086905    -5.034003
H       -1.248045    -0.083860    -5.206183
H       -2.093146    -0.140649    -2.567317
39
ex_0089 frame7 trans-OC-6-1-conf8
Fe       0.000000     0.000000     0.000000
Cl       2.440000     0.000000     0.000000
Cl      -2.440000     0.000000     0.000000
N        0.000000     2.130000     0.000000
C        1.132964     2.901000    -0.031657
N        0.700303     4.262284    -0.019563
C       -0.739675     4.314009     0.020670
C       -1.162273     2.951707     0.032476
H        2.079087     2.615029    -0.058097
H        1.295642     5.034003    -0.036196
H       -1.250371     5.206183     0.034939
H       -2.097048     2.567317     0.058594
N        0.000000    -2.130000     0.000000
C       -0.136113    -2.901000    -1.125203
N       -0.084138    -4.262284    -0.695506
C        0.088862    -4.314009     0.734609
C        0.139634    -2.951707     1.154311
H       -0.249775    -2.615029    -2.064846
H       -0.155663    -5.034003    -1.286766
H        0.150216    -5.206183     1.241807
H        0.251938    -2.567317     2.082683
N        0.000000     0.000000     2.130000
C        1.123631     0.148536     2.901000
N        0.694535     0.091808     4.262284
C       -0.733582    -0.096976     4.314009
C       -1.152698    -0.152378     2.951707
H        2.061960     0.272579     2.615029
H        1.284969     0.169857     5.034003
H       -1.240071    -0.163930     5.206183
H       -2.079773    -0.274930     2.567317
N        0.000000     0.000000    -2.130000
C       -1.130856    -0.075987    -2.901000
N       -0.699000    -0.046973    -4.262284
C        0.738299     0.049608    -4.314009
C        1.160110     0.077953    -2.951707
H       -2.075219    -0.139440    -2.615029
H       -1.293230    -0.086905    -5.034003
H        1.248045     0.083860    -5.206183
H        2.093146     0.140649    -2.567317
39
ex_0089 frame8 trans-OC-6-1-conf9
Fe       0.000000     0.000000     0.000000
Cl       2.440000     0.000000     0.000000
Cl      -2.440000     0.000000     0.000000
N        0.000000     2.130000     0.000000
C        1.132964     2.901000    -0.031657
N        0.700303     4.262284    -0.019563
C       -0.739675     4.314009     0.020670
C       -1.162273     2.951707     0.032476
H        2.079087     2.615029    -0.058097
H        1.295642     5.034003    -0.036196
H       -1.250371     5.206183     0.034939
H       -2.097048     2.567317     0.058594
N        0.000000    -2.130000     0.000000
C        1.051634    -2.901000    -0.422699
N        0.650031    -4.262284    -0.261281
C       -0.686579    -4.314009     0.275965
C       -1.078839    -2.951707     0.433634
H        2.050403    -2.683683    -0.739139
H        1.202632    -5.034003    -0.483399
H       -1.160614    -5.206183     0.466501
H       -1.885798    -2.628791     0.843764
N        0.000000     0.000000     2.130000
C        0.434601     1.050581     2.900836
N        0.270037     0.652765     4.266496
C       -0.282807    -0.683789     4.314009
C       -0.443411    -1.040992     2.962200
H        0.794919     1.921999     2.615029
H        0.495385     1.197744     5.034003
H       -0.478068    -1.155898     5.206183
H       -0.931978    -1.860526     2.627389
N        0.000000     0.000000    -2.130000
C       -0.491219    -0.978139    -2.916533
N       -0.308820    -0.628838    -4.262284
C        0.329412     0.670519    -4.319595
C        0.514547     1.047569    -2.951667
H       -1.058969    -1.706634    -2.732670
H       -0.571353    -1.163423    -5.034003
H        0.551397     1.122769    -5.206183
H        0.924767     1.883042    -2.567317
39
ex_0089 frame9 trans-OC-6-1-conf10
Fe       0.000000     0.000000     0.000000
Cl       2.440000     0.000000     0.000000
Cl      -2.440000     0.000000     0.000000
N        0.000000     2.130000     0.000000
C        1.132964     2.901000    -0.031657
N        0.700303     4.262284    -0.019563
C       -0.739675     4.314009     0.020670
C       -1.162273     2.951707     0.032476
H        2.079087     2.615029    -0.058097
H        1.295642     5.034003    -0.036196
H       -1.250371     5.206183     0.034939
H       -2.097048     2.567317     0.058594
N        0.000000    -2.130000     0.000000
C        1.051634    -2.901000    -0.422699
N        0.650031    -4.262284    -0.261281
C       -0.686579    -4.314009     0.275965
C       -1.078839    -2.951707     0.433634
H        1.929842    -2.615029    -0.775686
H        1.202632    -5.034003    -0.483399
H       -1.160614    -5.206183     0.466501
H       -1.932803    -2.614505     0.736826
N        0.000000     0.000000     2.130000
C       -0.692327     0.901182     2.900874
N       -0.429740     0.559392     4.265771
C        0.450775    -0.586813     4.314009
C        0.698233    -0.895829     2.959024
H       -1.267041     1.649420     2.615029
H       -0.789585     1.027888     5.034003
H        0.762003    -0.991968     5.206183
H        1.351480    -1.598781     2.602115
N        0.000000     0.000000    -2.130000
C        0.631235    -0.941356    -2.901000
N        0.390180    -0.581865    -4.262284
C       -0.412111     0.614582    -4.314009
C       -0.647565     0.965708    -2.951707
H        1.158368    -1.727472    -2.615029
H        0.721877    -1.076518    -5.034003
H       -0.696648     1.038909    -5.206183
H       -1.168379     1.742393    -2.567317
39
ex_0089 frame10 cis-OC-6-2
Fe       0.000000     0.000000     0.000000
Cl       2.440000     0.000000     0.000000
N       -2.130000     0.000000     0.000000
C       -2.901000     1.126643    -0.123635
N       -4.262284     0.696396    -0.076417
C       -4.314009    -0.735548     0.080719
C       -2.951707    -1.155788     0.126834
H       -2.615029     2.067487    -0.226885
H       -5.034003     1.288413    -0.141381
H       -5.206183    -1.243395     0.136449
H       -2.567317    -2.085348     0.228840
Cl       0.000000     2.440000     0.000000
N        0.000000    -2.130000     0.000000
C       -0.136113    -2.901000    -1.125203
N       -0.084138    -4.262284    -0.695506
C        0.088862    -4.314009     0.734609
C        0.139634    -2.951707     1.154311
H       -0.249775    -2.615029    -2.064846
H       -0.155663    -5.034003    -1.286766
H        0.150216    -5.206183     1.241807
H        0.251938    -2.567317     2.082683
N        0.000000     0.000000     2.130000
C        1.123631     0.148536     2.901000
N        0.694535     0.091808     4.262284
C       -0.733582    -0.096976     4.314009
C       -1.152698    -0.152378     2.951707
H        2.061960     0.272579     2.615029
H        1.284969     0.169857     5.034003
H       -1.240071    -0.163930     5.206183
H       -2.079773    -0.274930     2.567317
N        0.000000     0.000000    -2.130000
C        1.130856     0.075987    -2.901000
N        0.699000     0.046973    -4.262284
C       -0.738299    -0.049608    -4.314009
C       -1.160110    -0.077953    -2.951707
H        2.075219     0.139440    -2.615029
H        1.293230     0.086905    -5.034003
H       -1.248045    -0.083860    -5.206183
H       -2.093146    -0.140649    -2.567317
39
ex_0089 frame11 cis-OC-6-2-conf2
Fe       0.000000     0.000000     0.000000
Cl       2.440000     0.000000     0.000000
N       -2.130000     0.000000     0.000000
C       -2.901000     1.126643    -0.123635
N       -4.262284     0.696396    -0.076417
C       -4.314009    -0.735548     0.080719
C       -2.951707    -1.155788     0.126834
H       -2.615029     2.067487    -0.226885
H       -5.034003     1.288413    -0.141381
H       -5.206183    -1.243395     0.136449
H       -2.567317    -2.085348     0.228840
Cl       0.000000     2.440000     0.000000
N        0.000000    -2.130000     0.000000
C        0.680479    -2.901000     0.906398
N        0.420618    -4.262284     0.560257
C       -0.444261    -4.314009    -0.591759
C       -0.698082    -2.951707    -0.929846
H        1.248735    -2.615029     1.663322
H        0.778191    -5.034003     1.036540
H       -0.750995    -5.206183    -1.000328
H       -1.259526    -2.567317    -1.677688
N        0.000000     0.000000     2.130000
C        1.123631     0.148536     2.901000
N        0.694535     0.091808     4.262284
C       -0.733582    -0.096976     4.314009
C       -1.152698    -0.152378     2.951707
H        2.061960     0.272579     2.615029
H        1.284969     0.169857     5.034003
H       -1.240071    -0.163930     5.206183
H       -2.079773    -0.274930     2.567317
N        0.000000     0.000000    -2.130000
C        0.631235    -0.941356    -2.901000
N        0.390180    -0.581865    -4.262284
C       -0.412111     0.614582    -4.314009
C       -0.647565     0.965708    -2.951707
H        1.158368    -1.727472    -2.615029
H        0.721877    -1.076518    -5.034003
H       -0.696648     1.038909    -5.206183
H       -1.168379     1.742393    -2.567317
39
ex_0089 frame12 cis-OC-6-2-conf3
Fe       0.000000     0.000000     0.000000
Cl       2.440000     0.000000     0.000000
N       -2.130000     0.000000     0.000000
C       -2.901000     1.126643    -0.123635
N       -4.262284     0.696396    -0.076417
C       -4.314009    -0.735548     0.080719
C       -2.951707    -1.155788     0.126834
H       -2.615029     2.067487    -0.226885
H       -5.034003     1.288413    -0.141381
H       -5.206183    -1.243395     0.136449
H       -2.567317    -2.085348     0.228840
Cl       0.000000     2.440000     0.000000
N        0.000000    -2.130000     0.000000
C        0.680479    -2.901000     0.906398
N        0.420618    -4.262284     0.560257
C       -0.444261    -4.314009    -0.591759
C       -0.698082    -2.951707    -0.929846
H        1.248735    -2.615029     1.663322
H        0.778191    -5.034003     1.036540
H       -0.750995    -5.206183    -1.000328
H       -1.303094    -2.628791    -1.603158
N        0.000000     0.000000     2.130000
C        0.434601     1.050581     2.900836
N        0.270037     0.652765     4.266496
C       -0.282807    -0.683789     4.314009
C       -0.443411    -1.040992     2.962200
H        0.794919     1.921999     2.615029
H        0.495385     1.197744     5.034003
H       -0.478068    -1.155898     5.206183
H       -0.931978    -1.860526     2.627389
N        0.000000     0.000000    -2.130000
C        1.130856     0.075987    -2.901000
N        0.699000     0.046973    -4.262284
C       -0.738299    -0.049608    -4.314009
C       -1.160110    -0.077953    -2.951707
H        2.075219     0.139440    -2.615029
H        1.293230     0.086905    -5.034003
H       -1.248045    -0.083860    -5.206183
H       -2.093146    -0.140649    -2.567317
39
ex_0089 frame13 cis-OC-6-2-conf4
Fe       0.000000     0.000000     0.000000
Cl       2.440000     0.000000     0.000000
N       -2.130000     0.000000     0.000000
C       -2.901000    -1.037519    -0.456250
N       -4.262284    -0.641305    -0.282019
C       -4.314009     0.677363     0.297869
C       -2.951707     1.064358     0.468053
H       -2.615029    -1.903938    -0.837255
H       -5.034003    -1.186489    -0.521767
H       -5.206183     1.145036     0.503529
H       -2.643068     1.851081     0.877514
Cl       0.000000     2.440000     0.000000
N        0.000000    -2.130000     0.000000
C        0.952487    -2.900833    -0.620848
N        0.591863    -4.266551    -0.385783
C       -0.619933    -4.314009     0.404017
C       -0.940887    -2.962469     0.627854
H        1.742514    -2.615029    -1.135616
H        1.085898    -5.034003    -0.707689
H       -1.047955    -5.206182     0.682963
H       -1.655507    -2.628026     1.260410
N        0.000000     0.000000     2.130000
C        1.123631     0.148536     2.901000
N        0.694535     0.091808     4.262284
C       -0.733582    -0.096976     4.314009
C       -1.152698    -0.152378     2.951707
H        2.061960     0.272579     2.615029
H        1.284969     0.169857     5.034003
H       -1.240071    -0.163930     5.206183
H       -2.079773    -0.274930     2.567317
N        0.000000     0.000000    -2.130000
C        1.130856     0.075987    -2.901000
N        0.699000     0.046973    -4.262284
C       -0.738299    -0.049608    -4.314009
C       -1.160110    -0.077953    -2.951707
H        2.075219     0.139440    -2.615029
H        1.293230     0.086905    -5.034003
H       -1.248045    -0.083860    -5.206183
H       -2.093146    -0.140649    -2.567317
39
ex_0089 frame14 cis-OC-6-2-conf5
Fe       0.000000     0.000000     0.000000
Cl       2.440000     0.000000     0.000000
N       -2.130000     0.000000     0.000000
C       -2.901000     1.126643    -0.123635
N       -4.262284     0.696396    -0.076417
C       -4.314009    -0.735548     0.080719
C       -2.951707    -1.155788     0.126834
H       -2.615029     2.067487    -0.226885
H       -5.034003     1.288413    -0.141381
H       -5.206183    -1.243395     0.136449
H       -2.567317    -2.085348     0.228840
Cl       0.000000     2.440000     0.000000
N        0.000000    -2.130000     0.000000
C        0.444724    -2.901000    -1.042511
N        0.274887    -4.262284    -0.644395
C       -0.290348    -4.314009     0.680621
C       -0.456229    -2.951707     1.069480
H        0.844642    -2.720870    -1.813364
H        0.508574    -5.034003    -1.192204
H       -0.490812    -5.206183     1.150544
H       -0.823157    -2.567317     1.929626
N        0.000000     0.000000     2.130000
C        1.123631     0.148536     2.901000
N        0.694535     0.091808     4.262284
C       -0.733582    -0.096976     4.314009
C       -1.152698    -0.152378     2.951707
H        2.061960     0.272579     2.615029
H        1.284969     0.169857     5.034003
H       -1.240071    -0.163930     5.206183
H       -2.079773    -0.274930     2.567317
N        0.000000     0.000000    -2.130000
C       -0.491219    -0.978139    -2.916533
N       -0.308820    -0.628838    -4.262284
C        0.329412     0.670519    -4.319595
C        0.514547     1.047569    -2.951667
H       -1.058969    -1.706634    -2.732670
H       -0.571353    -1.163423    -5.034003
H        0.551397     1.122769    -5.206183
H        0.924767     1.883042    -2.567317
39
ex_0089 frame15 cis-OC-6-2-conf6
Fe       0.000000     0.000000     0.000000
Cl       2.440000     0.000000     0.000000
N       -2.130000     0.000000     0.000000
C       -2.901000     1.126643    -0.123635
N       -4.262284     0.696396    -0.076417
C       -4.314009    -0.735548     0.080719
C       -2.951707    -1.155788     0.126834
H       -2.615029     2.067487    -0.226885
H       -5.034003     1.288413    -0.141381
H       -5.206183    -1.243395     0.136449
H       -2.567317    -2.085348     0.228840
Cl       0.000000     2.440000     0.000000
N        0.000000    -2.130000     0.000000
C        0.159749    -2.901000    -1.122091
N        0.098739    -4.262284    -0.693583
C       -0.104297    -4.314009     0.732577
C       -0.163882    -2.951707     1.151119
H        0.293157    -2.615029    -2.059135
H        0.182680    -5.034003    -1.283209
H       -0.176305    -5.206183     1.238372
H       -0.328291    -2.614505     2.042269
N        0.000000     0.000000     2.130000
C       -0.692327     0.901182     2.900874
N       -0.429740     0.559392     4.265771
C        0.450775    -0.586813     4.314009
C        0.698233    -0.895829     2.959024
H       -1.267041     1.649420     2.615029
H       -0.789585     1.027888     5.034003
H        0.762003    -0.991968     5.206183
H        1.351480    -1.598781     2.602115
N        0.000000     0.000000    -2.130000
C        1.130856     0.075987    -2.901000
N        0.699000     0.046973    -4.262284
C       -0.738299    -0.049608    -4.314009
C       -1.160110    -0.077953    -2.951707
H        2.075219     0.139440    -2.615029
H        1.293230     0.086905    -5.034003
H       -1.248045    -0.083860    -5.206183
H       -2.093146    -0.140649    -2.567317
39
ex_0089 frame16 cis-OC-6-2-conf7
Fe       0.000000     0.000000     0.000000
Cl       2.440000     0.000000     0.000000
N       -2.130000     0.000000     0.000000
C       -2.900687     0.918504    -0.673823
N       -4.269438     0.572861    -0.420255
C       -4.314009    -0.596644     0.437679
C       -2.975377    -0.889795     0.658667
H       -2.615029     1.677053    -1.230231
H       -5.034003     1.045108    -0.766646
H       -5.206183    -1.008587     0.739866
H       -2.747834    -1.554555     1.196799
Cl       0.000000     2.440000     0.000000
N        0.000000    -2.130000     0.000000
C       -1.068024    -2.930172     0.048160
N       -0.699774    -4.262284     0.033514
C        0.750014    -4.322590    -0.035894
C        1.167989    -2.951609    -0.055919
H       -1.943569    -2.792541     0.079711
H       -1.294663    -5.034003     0.062009
H        1.249427    -5.206183    -0.059848
H        2.095464    -2.567317    -0.100360
N        0.000000     0.000000     2.130000
C        1.123631     0.148536     2.901000
N        0.694535     0.091808     4.262284
C       -0.733582    -0.096976     4.314009
C       -1.152698    -0.152378     2.951707
H        2.061960     0.272579     2.615029
H        1.284969     0.169857     5.034003
H       -1.240071    -0.163930     5.206183
H       -2.079773    -0.274930     2.567317
N        0.000000     0.000000    -2.130000
C        1.130856     0.075987    -2.901000
N        0.699000     0.046973    -4.262284
C       -0.738299    -0.049608    -4.314009
C       -1.160110    -0.077953    -2.951707
H        2.075219     0.139440    -2.615029
H        1.293230     0.086905    -5.034003
H       -1.248045    -0.083860    -5.206183
H       -2.093146    -0.140649    -2.567317
39
ex_0089 frame17 cis-OC-6-2-conf8
Fe       0.000000     0.000000     0.000000
Cl       2.440000     0.000000     0.000000
N       -2.130000     0.000000     0.000000
C       -2.901000     1.056254    -0.411019
N       -4.262284     0.652889    -0.254054
C       -4.314009    -0.689594     0.268343
C       -2.951707    -1.083578     0.421652
H       -2.615029     1.938317    -0.754259
H       -5.034003     1.207920    -0.470029
H       -5.206183    -1.165712     0.453614
H       -2.567317    -1.955063     0.760771
Cl       0.000000     2.440000     0.000000
N        0.000000    -2.130000     0.000000
C        0.891885    -2.901000     0.699393
N        0.551291    -4.262284     0.432302
C       -0.582282    -4.314009    -0.456612
C       -0.914958    -2.951707    -0.717485
H        1.665315    -2.683683     1.406132
H        1.019952    -5.034003     0.799810
H       -0.984309    -5.206183    -0.771871
H       -1.673620    -2.628791    -1.211267
N        0.000000     0.000000     2.130000
C        0.434601     1.050581     2.900836
N        0.270037     0.652765     4.266496
C       -0.282807    -0.683789     4.314009
C       -0.443411    -1.040992     2.962200
H        0.794919     1.921999     2.615029
H        0.495385     1.197744     5.034003
H       -0.478068    -1.155898     5.206183
H       -0.931978    -1.860526     2.627389
N        0.000000     0.000000    -2.130000
C       -0.491219    -0.978139    -2.916533
N       -0.308820    -0.628838    -4.262284
C        0.329412     0.670519    -4.319595
C        0.514547     1.047569    -2.951667
H       -1.058969    -1.706634    -2.732670
H       -0.571353    -1.163423    -5.034003
H        0.551397     1.122769    -5.206183
H        0.924767     1.883042    -2.567317
39
ex_0089 frame18 cis-OC-6-2-conf9
Fe       0.000000     0.000000     0.000000
Cl       2.440000     0.000000     0.000000
N       -2.130000     0.000000     0.000000
C       -2.901000     1.056254    -0.411019
N       -4.262284     0.652889    -0.254054
C       -4.314009    -0.689594     0.268343
C       -2.951707    -1.083578     0.421652
H       -2.615029     1.938317    -0.754259
H       -5.034003     1.207920    -0.470029
H       -5.206183    -1.165712     0.453614
H       -2.567317    -1.955063     0.760771
Cl       0.000000     2.440000     0.000000
N        0.000000    -2.130000     0.000000
C        0.891885    -2.901000     0.699393
N        0.551291    -4.262284     0.432302
C       -0.582282    -4.314009    -0.456612
C       -0.914958    -2.951707    -0.717485
H        1.636685    -2.615029     1.283449
H        1.019952    -5.034003     0.799810
H       -0.984309    -5.206183    -0.771871
H       -1.604512    -2.614505    -1.305443
N        0.000000     0.000000     2.130000
C       -0.901980     0.691287     2.900874
N       -0.559878     0.429106     4.265771
C        0.587293    -0.450149     4.314009
C        0.906299    -0.684589     2.959024
H       -1.650769     1.265283     2.615029
H       -1.028717     0.788504     5.034003
H        0.992778    -0.760947     5.206183
H        1.719224    -1.194515     2.602115
N        0.000000     0.000000    -2.130000
C        0.631235    -0.941356    -2.901000
N        0.390180    -0.581865    -4.262284
C       -0.412111     0.614582    -4.314009
C       -0.647565     0.965708    -2.951707
H        1.158368    -1.727472    -2.615029
H        0.721877    -1.076518    -5.034003
H       -0.696648     1.038909    -5.206183
H       -1.168379     1.742393    -2.567317
39
ex_0089 frame19 cis-OC-6-2-conf10
Fe       0.000000     0.000000     0.000000
Cl       2.440000     0.000000     0.000000
N       -2.130000     0.000000     0.000000
C       -2.901000    -0.884080    -0.709233
N       -4.262284    -0.546461    -0.438392
C       -4.314009     0.577188     0.463034
C       -2.951707     0.906950     0.727581
H       -2.615029    -1.622366    -1.301502
H       -5.034003    -1.011017    -0.811074
H       -5.206183     0.975697     0.782729
H       -2.643068     1.560889     1.326709
Cl       0.000000     2.440000     0.000000
N        0.000000    -2.130000     0.000000
C        0.952487    -2.900833    -0.620848
N        0.591863    -4.266551    -0.385783
C       -0.619933    -4.314009     0.404017
C       -0.940887    -2.962469     0.627854
H        1.742514    -2.615029    -1.135616
H        1.085898    -5.034003    -0.707689
H       -1.047955    -5.206182     0.682963
H       -1.655507    -2.628026     1.260410
N        0.000000     0.000000     2.130000
C        1.123631     0.148536     2.901000
N        0.694535     0.091808     4.262284
C       -0.733582    -0.096976     4.314009
C       -1.152698    -0.152378     2.951707
H        2.061960     0.272579     2.615029
H        1.284969     0.169857     5.034003
H       -1.240071    -0.163930     5.206183
H       -2.079773    -0.274930     2.567317
N        0.000000     0.000000    -2.130000
C       -0.499621    -1.017344    -2.901000
N       -0.308820    -0.628838    -4.262284
C        0.326188     0.664190    -4.314009
C        0.512546     1.043662    -2.951707
H       -0.916851    -1.866912    -2.615029
H       -0.571353    -1.163423    -5.034003
H        0.551397     1.122769    -5.206183
H        0.924767     1.883042    -2.567317
