63
ex_0009 frame0 Cl-Sb-conf5
C        3.739214     5.368062    -3.457423
C        3.529147     4.125989    -2.652757
C        4.261357     3.921942    -1.480409
C        4.074108     2.768433    -0.710052
C        4.877399     2.590502     0.544349
C        3.124584     1.802547    -1.124695
Sb       2.750000     0.000000     0.000000
Au       0.000000     0.000000     0.000000
Cl      -2.280052     0.006370     0.000795
C        3.480728    -1.818862    -0.912167
C        3.117076    -3.054589    -0.329456
C        2.253283    -3.104459     0.905060
C        3.559943    -4.247904    -0.899193
C        4.362562    -4.237613    -2.039979
C        4.807510    -5.527946    -2.651724
C        4.749269    -3.019230    -2.608969
C        4.305367    -1.804805    -2.066418
C        4.716045    -0.516689    -2.723836
C        3.543822     0.032305     2.019182
C        2.722371     0.527588     3.065978
C        1.322213     1.017710     2.789100
C        3.210827     0.565022     4.375759
C        4.487917     0.082627     4.669221
C        4.992707     0.092337     6.078791
C        5.297617    -0.411185     3.641896
C        4.846784    -0.429991     2.316194
C        5.765602    -0.943002     1.246278
C        2.385199     2.014802    -2.314020
C        1.358832     1.008346    -2.782275
C        2.602270     3.168308    -3.070029
H        2.835579     5.612995    -4.055117
H        3.960616     6.227605    -2.790132
H        4.598711     5.204893    -4.139036
H        4.974023     4.672905    -1.162469
H        5.492856     3.489070     0.761094
H        4.204916     2.456574     1.410859
H        5.567728     1.732678     0.431182
H        2.612243    -2.400633     1.679116
H        2.283576    -4.110006     1.373894
H        1.203364    -2.863551     0.636830
H        3.269193    -5.191204    -0.453788
H        4.669208    -5.494187    -3.753248
H        5.875062    -5.699372    -2.408997
H        4.206133    -6.376933    -2.260526
H        5.368783    -3.017944    -3.497940
H        3.885346    -0.123449    -3.342760
H        5.579753    -0.676993    -3.401248
H        5.051535     0.224340    -1.976015
H        0.668983     0.144386     2.574551
H        1.296022     1.727269     1.937282
H        0.896544     1.547690     3.668552
H        2.576717     0.932608     5.174755
H        5.930773     0.682863     6.130198
H        5.193483    -0.949532     6.404481
H        4.253475     0.544261     6.774355
H        6.288182    -0.781619     3.874611
H        5.463286    -0.646021     0.232746
H        6.780221    -0.518296     1.386532
H        5.813109    -2.049443     1.312710
H        1.145999     1.124973    -3.864717
H        0.416085     1.177082    -2.220365
H        1.682644    -0.041737    -2.643222
H        2.021892     3.334331    -3.969808
63
ex_0009 frame1 Cl-Sb
C        4.636248    -0.252393    -6.187447
C        4.231244    -0.194719    -4.746596
C        3.301863    -1.109926    -4.249259
C        2.888499    -1.051284    -2.915675
C        1.873672    -2.049653    -2.412256
C        3.421612    -0.059147    -2.055900
Sb       2.750000     0.000000     0.000000
Au       0.000000     0.000000     0.000000
Cl      -2.279526     0.005609     0.010600
C        3.210625     1.853940     1.016318
C        4.239759     1.941486     1.981559
C        5.070571     0.742509     2.337424
C        4.488274     3.169264     2.617000
C        3.729385     4.304558     2.300592
C        3.989188     5.606914     2.992731
C        2.726111     4.220432     1.335070
C        2.449171     3.009219     0.699690
C        1.336315     2.952397    -0.319591
C        3.389103    -1.786261     1.052427
C        2.619408    -2.244447     2.152644
C        1.384448    -1.502149     2.602628
C        3.005870    -3.403478     2.836854
C        4.136745    -4.119586     2.436733
C        4.518732    -5.386316     3.141658
C        4.915696    -3.652745     1.374123
C        4.545900    -2.500276     0.664417
C        5.387553    -2.049083    -0.493553
C        4.371118     0.861942    -2.556592
C        4.949353     1.934470    -1.679088
C        4.780049     0.772631    -3.895487
H        4.756434    -1.307022    -6.514065
H        3.841561     0.226130    -6.799687
H        5.594286     0.281862    -6.358604
H        2.879293    -1.857289    -4.910989
H        0.881829    -1.554722    -2.329771
H        1.779627    -2.911759    -3.107184
H        2.162563    -2.472805    -1.428689
H        5.836044     0.988205     3.102950
H        4.426120    -0.052334     2.756687
H        5.602830     0.373577     1.439730
H        5.268508     3.243854     3.364591
H        4.350248     5.439056     4.029076
H        3.055260     6.207853     3.052165
H        4.744899     6.178897     2.417297
H        2.133545     5.097553     1.100210
H        0.442052     2.485781     0.146795
H        1.048675     3.972068    -0.655195
H        1.627851     2.389694    -1.229336
H        1.098072    -1.793158     3.636662
H        1.545170    -0.404270     2.621988
H        0.537090    -1.751590     1.928055
H        2.400724    -3.765336     3.660371
H        3.783826    -5.654908     3.930552
H        4.552874    -6.217696     2.404732
H        5.517770    -5.267925     3.607124
H        5.791047    -4.214414     1.072883
H        4.857116    -2.279051    -1.438410
H        5.611585    -0.966952    -0.431245
H        6.359673    -2.584642    -0.516052
H        5.727505     2.521728    -2.210108
H        5.417883     1.490055    -0.779099
H        4.149697     2.642376    -1.390168
H        5.496672     1.483315    -4.288332
63
ex_0009 frame2 linear
C        0.813953    -6.395556    -0.290924
C        0.733230    -4.909562    -0.415708
C        0.300796    -4.320424    -1.606172
C        0.252056    -2.930677    -1.730857
C       -0.170858    -2.326974    -3.048807
C        0.602706    -2.110982    -0.633528
Sb       0.469473     0.031973    -0.891271
Au       1.268686     1.134692    -3.280365
Cl       2.824579     0.378793    -4.765300
C        1.592250     1.060969     0.669360
C        0.992977     1.478719     1.887682
C       -0.448363     1.210171     2.199313
C        1.764896     2.164006     2.834341
C        3.120339     2.412677     2.606514
C        3.941075     3.139730     3.621725
C        3.715756     1.981632     1.425683
C        2.968454     1.322567     0.449738
C        3.649418     0.901386    -0.825335
C       -1.526257     0.843261    -0.729307
C       -1.704578     2.244547    -0.855089
C       -0.540193     3.175386    -1.094860
C       -2.984313     2.790129    -0.756678
C       -4.091759     1.972025    -0.539022
C       -5.456351     2.571401    -0.439780
C       -3.925911     0.593092    -0.413806
C       -2.656779     0.015066    -0.503694
C       -2.529459    -1.472035    -0.357846
C        1.026592    -2.716569     0.582065
C        1.407864    -1.909392     1.786217
C        1.092477    -4.109562     0.664583
H        1.875245    -6.688591    -0.150899
H        0.409941    -6.903321    -1.190653
H        0.226057    -6.716628     0.594453
H        0.045136    -4.937859    -2.457568
H       -0.839259    -3.013662    -3.604121
H        0.747167    -2.152147    -3.649455
H       -0.727030    -1.374608    -2.953086
H       -0.856865     0.347818     1.651353
H       -1.036234     2.130255     2.005005
H       -0.551657     0.944318     3.272118
H        1.305304     2.491464     3.758899
H        4.455803     3.994661     3.134706
H        4.698357     2.440780     4.033273
H        3.314631     3.526324     4.452133
H        4.762453     2.196166     1.247028
H        3.346417    -0.115017    -1.146610
H        3.443071     1.652144    -1.618028
H        4.748833     0.861141    -0.677171
H       -0.631428     4.075071    -0.452075
H        0.453409     2.755898    -0.883388
H       -0.551828     3.478179    -2.160999
H       -3.110047     3.862071    -0.845209
H       -6.221959     1.843012    -0.779666
H       -5.531780     3.477653    -1.076451
H       -5.648438     2.842233     0.618515
H       -4.792062    -0.037519    -0.257736
H       -3.454084    -1.902342     0.079131
H       -1.727721    -1.723252     0.355920
H       -2.385588    -1.943311    -1.351205
H        2.224523    -1.212340     1.539158
H        1.808565    -2.563635     2.589800
H        0.521226    -1.396130     2.201260
H        1.425824    -4.580773     1.581158
63
ex_0009 frame3 Cl-Sb-conf6
C        4.000276    -4.511481     4.551117
C        3.730327    -3.474666     3.502921
C        4.780783    -2.937570     2.747288
C        4.532361    -1.964207     1.759566
C        5.672186    -1.409744     0.960811
C        3.209618    -1.527309     1.528624
Sb       2.750000     0.000000     0.000000
Au       0.000000     0.000000     0.000000
Cl      -2.279118     0.016992     0.055068
C        3.343234     2.032345     0.616072
C        4.594533     2.590170     0.244955
C        5.599685     1.821402    -0.566627
C        4.911818     3.900695     0.644161
C        4.008799     4.662275     1.397006
C        4.328486     6.072166     1.788037
C        2.799875     4.107465     1.788487
C        2.443782     2.818584     1.404630
C        1.103217     2.308735     1.848404
C        3.100469    -0.515394    -2.087563
C        3.306289    -1.868739    -2.475053
C        3.259417    -2.998863    -1.480667
C        3.560835    -2.173574    -3.816684
C        3.574112    -1.173154    -4.788497
C        3.790798    -1.532523    -6.226374
C        3.385255     0.158524    -4.415563
C        3.114745     0.498958    -3.086644
C        2.845727     1.947209    -2.763631
C        2.151459    -2.089733     2.300453
C        0.727286    -1.681336     2.089074
C        2.429261    -3.042615     3.278463
H        3.058972    -4.843719     5.043292
H        4.665910    -4.088296     5.330666
H        4.478041    -5.397215     4.085795
H        5.789468    -3.288547     2.924108
H        6.626108    -1.922518     1.205912
H        5.478931    -1.558733    -0.121355
H        5.791642    -0.332426     1.181128
H        6.541451     1.714032     0.010722
H        5.266472     0.815279    -0.863957
H        5.814942     2.386741    -1.496572
H        5.855128     4.335898     0.339833
H        3.518207     6.741160     1.423416
H        5.289068     6.413211     1.352425
H        4.381140     6.147613     2.894488
H        2.100220     4.700224     2.369073
H        0.308238     2.969127     1.439630
H        0.890844     1.308687     1.510105
H        1.032651     2.302250     2.955619
H        4.275826    -3.374506    -1.244855
H        2.670910    -3.832454    -1.918784
H        2.709614    -2.743858    -0.566119
H        3.693335    -3.207421    -4.114109
H        3.845105    -0.628832    -6.869687
H        4.732300    -2.107722    -6.338844
H        2.937025    -2.155082    -6.570077
H        3.381331     0.935240    -5.171282
H        2.004121     2.291546    -3.401289
H        2.521440     2.136130    -1.734034
H        3.734840     2.573399    -2.980830
H        0.028152    -2.241897     2.744495
H        0.587010    -0.616432     2.330894
H        0.449083    -1.927693     1.047198
H        1.615408    -3.464214     3.858043
63
ex_0009 frame4 Cl-Sb-conf4
C        3.988651     4.433333     4.480548
C        3.698441     3.413125     3.435772
C        4.612650     2.388979     3.212353
C        4.369728     1.400465     2.266661
C        5.382800     0.307868     2.109771
C        3.190871     1.460232     1.490687
Sb       2.750000     0.000000     0.000000
Au       0.000000     0.000000     0.000000
Cl      -2.279998     0.000612     0.000551
C        3.290537     0.557505    -2.008107
C        4.173032     1.629113    -2.262782
C        4.770037     2.422435    -1.138561
C        4.495746     1.956024    -3.587499
C        3.939041     1.237847    -4.652668
C        4.270354     1.595300    -6.063380
C        3.069466     0.181680    -4.398410
C        2.741154    -0.171254    -3.092680
C        1.802476    -1.328709    -2.870449
C        3.327890    -2.012664     0.512210
C        4.305222    -2.714406    -0.232307
C        5.007547    -2.085145    -1.396141
C        4.628308    -4.027736     0.121428
C        4.014164    -4.640010     1.217661
C        4.372711    -6.036138     1.602880
C        3.060114    -3.944534     1.957938
C        2.707239    -2.639697     1.615710
C        1.666436    -1.925772     2.435845
C        2.265522     2.520293     1.699953
C        1.000772     2.637598     0.877212
C        2.523169     3.476882     2.683981
H        3.112751     5.086267     4.672650
H        4.844862     5.047108     4.135711
H        4.267902     3.915534     5.422952
H        5.516954     2.342633     3.803008
H        5.667201    -0.055913     3.118428
H        5.038266    -0.566000     1.555815
H        6.280061     0.720773     1.607966
H        3.972397     2.953419    -0.579737
H        5.478617     3.187188    -1.517524
H        5.330936     1.745516    -0.464738
H        5.163322     2.783464    -3.791108
H        5.241317     2.128038    -6.120033
H        4.338701     0.672155    -6.678770
H        3.461264     2.237137    -6.468173
H        2.640280    -0.372697    -5.224550
H        0.755209    -0.962060    -2.868585
H        1.915391    -2.061247    -3.697551
H        2.018839    -1.897320    -1.948162
H        6.050452    -2.454454    -1.439156
H        5.121892    -0.998169    -1.262851
H        4.497686    -2.355092    -2.345416
H        5.365486    -4.568362    -0.459235
H        5.160093    -6.449417     0.939227
H        4.752169    -6.025412     2.646282
H        3.472249    -6.681566     1.543311
H        2.578605    -4.426381     2.800009
H        1.700553    -2.276634     3.487208
H        0.665536    -2.152419     2.011449
H        1.816915    -0.831677     2.480180
H        1.191154     2.440301    -0.199471
H        0.611112     3.676177     0.919863
H        0.202698     1.977022     1.273965
H        1.811680     4.277573     2.850334
63
ex_0009 frame5 Cl-Sb-conf3
C        4.760394    -0.662433     6.076990
C        4.300997    -0.484820     4.661325
C        3.431669    -1.393637     4.089030
C        3.009476    -1.247649     2.775637
C        2.072274    -2.260394     2.195627
C        3.456570    -0.161945     2.003057
Sb       2.750000     0.000000     0.000000
Au       0.000000     0.000000     0.000000
Cl      -2.279426    -0.005817    -0.017490
C        3.412079    -1.706500    -1.113643
C        4.674210    -2.280494    -0.874173
C        5.595305    -1.714572     0.144417
C        5.075284    -3.395180    -1.596887
C        4.246808    -3.941495    -2.577702
C        4.686060    -5.121895    -3.364598
C        3.003824    -3.380080    -2.821438
C        2.575062    -2.267035    -2.103150
C        1.223221    -1.688439    -2.402856
C        3.166313     1.879231    -0.911670
C        4.044148     2.017341    -2.011643
C        4.734223     0.831595    -2.597478
C        4.266428     3.290095    -2.556855
C        3.623601     4.417254    -2.024925
C        3.865523     5.769385    -2.601769
C        2.754131     4.268592    -0.950657
C        2.530720     3.024262    -0.390767
C        1.603043     2.913567     0.777221
C        4.345533     0.773642     2.568147
C        4.865316     1.932444     1.784754
C        4.756241     0.613093     3.908510
H        3.955035    -1.122957     6.689523
H        5.628092    -1.361907     6.092806
H        5.051728     0.298925     6.547251
H        3.072203    -2.232736     4.666906
H        2.270336    -2.432012     1.127145
H        1.024373    -1.968712     2.390194
H        2.289412    -3.227156     2.673042
H        5.411239    -0.639097     0.287046
H        5.472786    -2.271964     1.092184
H        6.624366    -1.816822    -0.233288
H        6.050066    -3.818536    -1.409132
H        5.652957    -5.525075    -2.985655
H        3.913693    -5.909130    -3.305975
H        4.827005    -4.808244    -4.419113
H        2.352552    -3.816188    -3.570395
H        0.905774    -2.053242    -3.406784
H        0.452605    -2.036593    -1.682415
H        1.285611    -0.581761    -2.493463
H        3.996551     0.083516    -2.950088
H        5.325072     1.153176    -3.481935
H        5.443228     0.396976    -1.861482
H        4.933726     3.414410    -3.398385
H        4.827168     5.780778    -3.151413
H        3.054618     6.029899    -3.315943
H        3.920253     6.532700    -1.795409
H        2.261183     5.133568    -0.532315
H        1.887064     2.100662     1.467409
H        1.704061     3.833411     1.371501
H        0.562354     2.816158     0.410231
H        4.242536     2.838342     1.945530
H        5.880484     2.162601     2.165473
H        5.032552     1.677818     0.727443
H        5.445356     1.325727     4.345735
63
ex_0009 frame6 Cl-Sb-conf2
C        3.408912     6.185998    -1.378736
C        3.263724     4.730242    -1.059816
C        2.472677     4.338991     0.011137
C        2.309940     3.003453     0.326422
C        1.440724     2.642054     1.484457
C        2.964227     2.022305    -0.448622
Sb       2.750000     0.000000     0.000000
Au       0.000000     0.000000     0.000000
Cl      -2.279934     0.001970    -0.012964
C        3.190299    -1.421071    -1.499409
C        4.320277    -2.213977    -1.376653
C        5.213762    -2.060779    -0.200236
C        4.617801    -3.157469    -2.360822
C        3.792776    -3.309063    -3.473763
C        4.116791    -4.303691    -4.531828
C        2.658782    -2.525412    -3.596489
C        2.350776    -1.575095    -2.624228
C        1.125670    -0.735853    -2.802069
C        3.298261    -0.635513     1.956995
C        2.719650    -1.785740     2.535462
C        1.711587    -2.593543     1.786108
C        3.098177    -2.175272     3.834682
C        4.041405    -1.425423     4.541616
C        4.458486    -1.803312     5.929354
C        4.599869    -0.313922     3.948573
C        4.235576     0.088105     2.676848
C        4.862663     1.294622     2.109684
C        3.760709     2.406394    -1.523586
C        4.456214     1.385021    -2.361041
C        3.910692     3.757437    -1.821410
H        4.324878     6.619513    -0.918608
H        3.515557     6.312629    -2.471283
H        2.495464     6.721637    -1.027260
H        1.980181     5.078545     0.601092
H        0.416172     2.610606     1.098006
H        1.655003     1.661993     1.936352
H        1.461851     3.461955     2.240350
H        4.761583    -2.635716     0.627885
H        5.434123    -0.996724     0.059909
H        6.173014    -2.525170    -0.420546
H        5.499412    -3.767897    -2.258208
H        4.588349    -3.736625    -5.348500
H        4.835014    -5.071963    -4.172489
H        3.187736    -4.760347    -4.952273
H        2.013425    -2.643753    -4.455733
H        1.269848     0.292454    -2.427163
H        0.974800    -0.620448    -3.883312
H        0.216776    -1.246745    -2.419159
H        1.872544    -3.634879     2.076493
H        0.666860    -2.328341     2.059386
H        1.893044    -2.559673     0.694210
H        2.667201    -3.040244     4.300730
H        5.536641    -1.557671     6.111425
H        3.881009    -1.159346     6.605490
H        4.202545    -2.850158     6.192259
H        5.333727     0.256158     4.484331
H        4.869235     1.339581     1.007891
H        4.295671     2.154931     2.479122
H        5.879063     1.371262     2.524575
H        3.800562     0.945128    -3.137771
H        5.254462     1.896261    -2.884762
H        4.967086     0.608326    -1.757626
H        4.517694     4.044799    -2.659449
63
ex_0009 frame7 Cl-Sb-conf5
C        3.739214     5.368062    -3.457423
C        3.529147     4.125989    -2.652757
C        4.261357     3.921942    -1.480409
C        4.071310     2.770281    -0.707986
C        4.877399     2.590502     0.544349
C        3.122483     1.803945    -1.123147
Sb       2.750000     0.000000     0.000000
Au       0.000000     0.000000     0.000000
Cl      -2.280052     0.006370     0.000795
C        3.480628    -1.818866    -0.912239
C        3.117041    -3.054590    -0.329480
C        2.253283    -3.104459     0.905060
C        3.559943    -4.247904    -0.899193
C        4.362562    -4.237613    -2.039979
C        4.807510    -5.527946    -2.651724
C        4.749269    -3.019230    -2.608969
C        4.305333    -1.804807    -2.066442
C        4.716045    -0.516689    -2.723836
C        3.542975     0.030139     2.019547
C        2.722086     0.526848     3.066106
C        1.322213     1.017710     2.789100
C        3.210827     0.565022     4.375759
C        4.487917     0.082627     4.669221
C        4.992707     0.092337     6.078791
C        5.297617    -0.411185     3.641896
C        4.846496    -0.430736     2.316303
C        5.765602    -0.943002     1.246278
C        2.384484     2.015284    -2.313491
C        1.358832     1.008346    -2.782275
C        2.602270     3.168308    -3.070029
H        2.835579     5.612995    -4.055117
H        3.960616     6.227605    -2.790132
H        4.598711     5.204893    -4.139036
H        4.974023     4.672905    -1.162469
H        5.492856     3.489070     0.761094
H        4.204916     2.456574     1.410859
H        5.567728     1.732678     0.431182
H        2.612243    -2.400633     1.679116
H        2.283576    -4.110006     1.373894
H        1.203364    -2.863551     0.636830
H        3.269193    -5.191204    -0.453788
H        4.669208    -5.494187    -3.753248
H        5.875062    -5.699372    -2.408997
H        4.206133    -6.376933    -2.260526
H        5.368783    -3.017944    -3.497940
H        3.885346    -0.123449    -3.342760
H        5.579753    -0.676993    -3.401248
H        5.051535     0.224340    -1.976015
H        0.668983     0.144386     2.574551
H        1.296022     1.727269     1.937282
H        0.896544     1.547690     3.668552
H        2.576717     0.932608     5.174755
H        5.930773     0.682863     6.130198
H        5.193483    -0.949532     6.404481
H        4.253475     0.544261     6.774355
H        6.288182    -0.781619     3.874611
H        5.463286    -0.646021     0.232746
H        6.780221    -0.518296     1.386532
H        5.813109    -2.049443     1.312710
H        1.145999     1.124973    -3.864717
H        0.416085     1.177082    -2.220365
H        1.682644    -0.041737    -2.643222
H        2.021892     3.334331    -3.969808
63
ex_0009 frame8 Cl-Sb
C        4.636248    -0.252393    -6.187447
C        4.231244    -0.194719    -4.746596
C        3.301863    -1.109926    -4.249259
C        2.887849    -1.050738    -2.915901
C        1.873672    -2.049653    -2.412256
C        3.421123    -0.058736    -2.056071
Sb       2.750000     0.000000     0.000000
Au       0.000000     0.000000     0.000000
Cl      -2.279526     0.005609     0.010600
C        3.209803     1.853648     1.017222
C        4.239479     1.941383     1.981867
C        5.070571     0.742509     2.337424
C        4.488274     3.169264     2.617000
C        3.729385     4.304558     2.300592
C        3.989188     5.606914     2.992731
C        2.726111     4.220432     1.335070
C        2.448892     3.009120     0.700000
C        1.336315     2.952397    -0.319591
C        3.388170    -1.787208     1.051383
C        2.619086    -2.244766     2.152286
C        1.384448    -1.502149     2.602628
C        3.005870    -3.403478     2.836854
C        4.136745    -4.119586     2.436733
C        4.518732    -5.386316     3.141658
C        4.915696    -3.652745     1.374123
C        4.545581    -2.500599     0.664059
C        5.387553    -2.049083    -0.493553
C        4.370951     0.862081    -2.556652
C        4.949353     1.934470    -1.679088
C        4.780049     0.772631    -3.895487
H        4.756434    -1.307022    -6.514065
H        3.841561     0.226130    -6.799687
H        5.594286     0.281862    -6.358604
H        2.879293    -1.857289    -4.910989
H        0.881829    -1.554722    -2.329771
H        1.779627    -2.911759    -3.107184
H        2.162563    -2.472805    -1.428689
H        5.836044     0.988205     3.102950
H        4.426120    -0.052334     2.756687
H        5.602830     0.373577     1.439730
H        5.268508     3.243854     3.364591
H        4.350248     5.439056     4.029076
H        3.055260     6.207853     3.052165
H        4.744899     6.178897     2.417297
H        2.133545     5.097553     1.100210
H        0.442052     2.485781     0.146795
H        1.048675     3.972068    -0.655195
H        1.627851     2.389694    -1.229336
H        1.098072    -1.793158     3.636662
H        1.545170    -0.404270     2.621988
H        0.537090    -1.751590     1.928055
H        2.400724    -3.765336     3.660371
H        3.783826    -5.654908     3.930552
H        4.552874    -6.217696     2.404732
H        5.517770    -5.267925     3.607124
H        5.791047    -4.214414     1.072883
H        4.857116    -2.279051    -1.438410
H        5.611585    -0.966952    -0.431245
H        6.359673    -2.584642    -0.516052
H        5.727505     2.521728    -2.210108
H        5.417883     1.490055    -0.779099
H        4.149697     2.642376    -1.390168
H        5.496672     1.483315    -4.288332
63
ex_0009 frame9 linear
C        0.813953    -6.395556    -0.290924
C        0.733230    -4.909562    -0.415708
C        0.300796    -4.320424    -1.606172
C        0.254291    -2.930667    -1.731574
C       -0.170858    -2.326974    -3.048807
C        0.604376    -2.110944    -0.634089
Sb       0.469473     0.031973    -0.891271
Au       1.268686     1.134692    -3.280365
Cl       2.824579     0.378793    -4.765300
C        1.591828     1.062567     0.668607
C        0.992819     1.479260     1.887419
C       -0.448363     1.210171     2.199313
C        1.764896     2.164006     2.834341
C        3.120339     2.412677     2.606514
C        3.941075     3.139730     3.621725
C        3.715756     1.981632     1.425683
C        2.968310     1.323113     0.449480
C        3.649418     0.901386    -0.825335
C       -1.526351     0.843181    -0.730072
C       -1.704610     2.244519    -0.855352
C       -0.540193     3.175386    -1.094860
C       -2.984313     2.790129    -0.756678
C       -4.091759     1.972025    -0.539022
C       -5.456351     2.571401    -0.439780
C       -3.925911     0.593092    -0.413806
C       -2.656810     0.015038    -0.503955
C       -2.529459    -1.472035    -0.357846
C        1.027164    -2.716554     0.581874
C        1.407864    -1.909392     1.786217
C        1.092477    -4.109562     0.664583
H        1.875245    -6.688591    -0.150899
H        0.409941    -6.903321    -1.190653
H        0.226057    -6.716628     0.594453
H        0.045136    -4.937859    -2.457568
H       -0.839259    -3.013662    -3.604121
H        0.747167    -2.152147    -3.649455
H       -0.727030    -1.374608    -2.953086
H       -0.856865     0.347818     1.651353
H       -1.036234     2.130255     2.005005
H       -0.551657     0.944318     3.272118
H        1.305304     2.491464     3.758899
H        4.455803     3.994661     3.134706
H        4.698357     2.440780     4.033273
H        3.314631     3.526324     4.452133
H        4.762453     2.196166     1.247028
H        3.346417    -0.115017    -1.146610
H        3.443071     1.652144    -1.618028
H        4.748833     0.861141    -0.677171
H       -0.631428     4.075071    -0.452075
H        0.453409     2.755898    -0.883388
H       -0.551828     3.478179    -2.160999
H       -3.110047     3.862071    -0.845209
H       -6.221959     1.843012    -0.779666
H       -5.531780     3.477653    -1.076451
H       -5.648438     2.842233     0.618515
H       -4.792062    -0.037519    -0.257736
H       -3.454084    -1.902342     0.079131
H       -1.727721    -1.723252     0.355920
H       -2.385588    -1.943311    -1.351205
H        2.224523    -1.212340     1.539158
H        1.808565    -2.563635     2.589800
H        0.521226    -1.396130     2.201260
H        1.425824    -4.580773     1.581158
63
ex_0009 frame10 Cl-Sb-conf6
C        4.000276    -4.511481     4.551117
C        3.730327    -3.474666     3.502921
C        4.780783    -2.937570     2.747288
C        4.532055    -1.966016     1.757866
C        5.672186    -1.409744     0.960811
C        3.209394    -1.528669     1.527331
Sb       2.750000     0.000000     0.000000
Au       0.000000     0.000000     0.000000
Cl      -2.279118     0.016992     0.055068
C        3.341963     2.033495     0.613488
C        4.594100     2.590548     0.244059
C        5.599685     1.821402    -0.566627
C        4.911818     3.900695     0.644161
C        4.008799     4.662275     1.397006
C        4.328486     6.072166     1.788037
C        2.799875     4.107465     1.788487
C        2.443339     2.818972     1.403741
C        1.103217     2.308735     1.848404
C        3.095997    -0.515914    -2.088176
C        3.304760    -1.868902    -2.475308
C        3.259417    -2.998863    -1.480667
C        3.560835    -2.173574    -3.816684
C        3.574112    -1.173154    -4.788497
C        3.790798    -1.532523    -6.226374
C        3.385255     0.158524    -4.415563
C        3.113221     0.498733    -3.086898
C        2.845727     1.947209    -2.763631
C        2.151389    -2.090202     2.300016
C        0.727286    -1.681336     2.089074
C        2.429261    -3.042615     3.278463
H        3.058972    -4.843719     5.043292
H        4.665910    -4.088296     5.330666
H        4.478041    -5.397215     4.085795
H        5.789468    -3.288547     2.924108
H        6.626108    -1.922518     1.205912
H        5.478931    -1.558733    -0.121355
H        5.791642    -0.332426     1.181128
H        6.541451     1.714032     0.010722
H        5.266472     0.815279    -0.863957
H        5.814942     2.386741    -1.496572
H        5.855128     4.335898     0.339833
H        3.518207     6.741160     1.423416
H        5.289068     6.413211     1.352425
H        4.381140     6.147613     2.894488
H        2.100220     4.700224     2.369073
H        0.308238     2.969127     1.439630
H        0.890844     1.308687     1.510105
H        1.032651     2.302250     2.955619
H        4.275826    -3.374506    -1.244855
H        2.670910    -3.832454    -1.918784
H        2.709614    -2.743858    -0.566119
H        3.693335    -3.207421    -4.114109
H        3.845105    -0.628832    -6.869687
H        4.732300    -2.107722    -6.338844
H        2.937025    -2.155082    -6.570077
H        3.381331     0.935240    -5.171282
H        2.004121     2.291546    -3.401289
H        2.521440     2.136130    -1.734034
H        3.734840     2.573399    -2.980830
H        0.028152    -2.241897     2.744495
H        0.587010    -0.616432     2.330894
H        0.449083    -1.927693     1.047198
H        1.615408    -3.464214     3.858043
63
ex_0009 frame11 Cl-Sb-conf4
C        3.988651     4.433333     4.480548
C        3.698441     3.413125     3.435772
C        4.612650     2.388979     3.212353
C        4.370389     1.401213     2.265712
C        5.382800     0.307868     2.109771
C        3.191362     1.460800     1.489985
Sb       2.750000     0.000000     0.000000
Au       0.000000     0.000000     0.000000
Cl      -2.279998     0.000612     0.000551
C        3.289685     0.558199    -2.008143
C        4.172742     1.629349    -2.262795
C        4.770037     2.422435    -1.138561
C        4.495746     1.956024    -3.587499
C        3.939041     1.237847    -4.652668
C        4.270354     1.595300    -6.063380
C        3.069466     0.181680    -4.398410
C        2.740861    -0.171018    -3.092690
C        1.802476    -1.328709    -2.870449
C        3.326499    -2.013360     0.511036
C        4.304747    -2.714633    -0.232717
C        5.007547    -2.085145    -1.396141
C        4.628308    -4.027736     0.121428
C        4.014164    -4.640010     1.217661
C        4.372711    -6.036138     1.602880
C        3.060114    -3.944534     1.957938
C        2.706761    -2.639932     1.615308
C        1.666436    -1.925772     2.435845
C        2.265693     2.520489     1.699717
C        1.000772     2.637598     0.877212
C        2.523169     3.476882     2.683981
H        3.112751     5.086267     4.672650
H        4.844862     5.047108     4.135711
H        4.267902     3.915534     5.422952
H        5.516954     2.342633     3.803008
H        5.667201    -0.055913     3.118428
H        5.038266    -0.566000     1.555815
H        6.280061     0.720773     1.607966
H        3.972397     2.953419    -0.579737
H        5.478617     3.187188    -1.517524
H        5.330936     1.745516    -0.464738
H        5.163322     2.783464    -3.791108
H        5.241317     2.128038    -6.120033
H        4.338701     0.672155    -6.678770
H        3.461264     2.237137    -6.468173
H        2.640280    -0.372697    -5.224550
H        0.755209    -0.962060    -2.868585
H        1.915391    -2.061247    -3.697551
H        2.018839    -1.897320    -1.948162
H        6.050452    -2.454454    -1.439156
H        5.121892    -0.998169    -1.262851
H        4.497686    -2.355092    -2.345416
H        5.365486    -4.568362    -0.459235
H        5.160093    -6.449417     0.939227
H        4.752169    -6.025412     2.646282
H        3.472249    -6.681566     1.543311
H        2.578605    -4.426381     2.800009
H        1.700553    -2.276634     3.487208
H        0.665536    -2.152419     2.011449
H        1.816915    -0.831677     2.480180
H        1.191154     2.440301    -0.199471
H        0.611112     3.676177     0.919863
H        0.202698     1.977022     1.273965
H        1.811680     4.277573     2.850334
63
ex_0009 frame12 Cl-Sb-conf3
C        4.760394    -0.662433     6.076990
C        4.300997    -0.484820     4.661325
C        3.431669    -1.393637     4.089030
C        3.009189    -1.247449     2.775752
C        2.072274    -2.260394     2.195627
C        3.456356    -0.161794     2.003145
Sb       2.750000     0.000000     0.000000
Au       0.000000     0.000000     0.000000
Cl      -2.279426    -0.005817    -0.017490
C        3.412158    -1.706382    -1.113776
C        4.674237    -2.280455    -0.874219
C        5.595305    -1.714572     0.144417
C        5.075284    -3.395180    -1.596887
C        4.246808    -3.941495    -2.577702
C        4.686060    -5.121895    -3.364598
C        3.003824    -3.380080    -2.821438
C        2.575089    -2.266995    -2.103196
C        1.223221    -1.688439    -2.402856
C        3.164939     1.878985    -0.912800
C        4.043682     2.017259    -2.012026
C        4.734223     0.831595    -2.597478
C        4.266428     3.290095    -2.556855
C        3.623601     4.417254    -2.024925
C        3.865523     5.769385    -2.601769
C        2.754131     4.268592    -0.950657
C        2.530249     3.024175    -0.391149
C        1.603043     2.913567     0.777221
C        4.345459     0.773694     2.568176
C        4.865316     1.932444     1.784754
C        4.756241     0.613093     3.908510
H        3.955035    -1.122957     6.689523
H        5.628092    -1.361907     6.092806
H        5.051728     0.298925     6.547251
H        3.072203    -2.232736     4.666906
H        2.270336    -2.432012     1.127145
H        1.024373    -1.968712     2.390194
H        2.289412    -3.227156     2.673042
H        5.411239    -0.639097     0.287046
H        5.472786    -2.271964     1.092184
H        6.624366    -1.816822    -0.233288
H        6.050066    -3.818536    -1.409132
H        5.652957    -5.525075    -2.985655
H        3.913693    -5.909130    -3.305975
H        4.827005    -4.808244    -4.419113
H        2.352552    -3.816188    -3.570395
H        0.905774    -2.053242    -3.406784
H        0.452605    -2.036593    -1.682415
H        1.285611    -0.581761    -2.493463
H        3.996551     0.083516    -2.950088
H        5.325072     1.153176    -3.481935
H        5.443228     0.396976    -1.861482
H        4.933726     3.414410    -3.398385
H        4.827168     5.780778    -3.151413
H        3.054618     6.029899    -3.315943
H        3.920253     6.532700    -1.795409
H        2.261183     5.133568    -0.532315
H        1.887064     2.100662     1.467409
H        1.704061     3.833411     1.371501
H        0.562354     2.816158     0.410231
H        4.242536     2.838342     1.945530
H        5.880484     2.162601     2.165473
H        5.032552     1.677818     0.727443
H        5.445356     1.325727     4.345735
