33
ex_0053 frame0 T-shaped N0-N1-ax/N1-eq
C        4.790247     0.010263    -0.018148
C        3.339062     0.049378    -0.004694
N        2.135516    -0.071522    -0.003521
Ag       0.000000     0.000000     0.000000
N       -2.118503     0.132165     0.023251
C       -2.965039    -0.924385     0.030666
C       -4.303790    -0.727445    -0.377840
C       -5.286954    -1.848650    -0.342022
C       -4.651096     0.524648    -0.802436
C       -3.681325     1.584272    -0.825307
C       -2.398048     1.386699    -0.413743
C       -1.384158     2.396087    -0.421803
C       -1.585366     3.681940    -0.825749
C       -0.544708     4.660284    -0.810420
C        0.711166     4.319110    -0.385947
C        1.821721     5.314631    -0.355327
C        0.917375     2.983684     0.023753
N       -0.146125     2.111754    -0.017722
H        5.176890    -0.108645    -1.043998
H        5.177526    -0.847177     0.579126
H        5.150675     0.929283     0.497095
H       -2.617174    -1.900470     0.378889
H       -4.896796    -2.580711     0.388862
H       -5.335457    -2.388796    -1.310004
H       -6.304623    -1.548694    -0.029893
H       -5.677594     0.658737    -1.109535
H       -3.974255     2.545544    -1.158125
H       -2.546371     3.974597    -1.158455
H       -0.706638     5.690032    -1.125508
H        2.694466     4.877495    -0.881494
H        1.537013     6.251973    -0.860432
H        2.077773     5.478128     0.718833
H        1.858168     2.590404     0.374951
33
ex_0053 frame1 T-shaped N0-N1-ax/N1-eq-conf17
C        4.788372     0.012480    -0.017197
C        3.325662     0.041634    -0.011049
N        2.142028    -0.036176    -0.009002
Ag       0.000000     0.000000     0.000000
N       -2.107731     0.107288    -0.004586
C       -2.963565    -0.906646     0.024560
C       -4.316174    -0.675758    -0.374038
C       -5.288868    -1.802878    -0.334987
C       -4.684169     0.559777    -0.777841
C       -3.685819     1.595302    -0.786307
C       -2.407181     1.388890    -0.408106
C       -1.389452     2.404729    -0.408030
C       -1.595435     3.684235    -0.785881
C       -0.554924     4.676900    -0.773894
C        0.680007     4.313736    -0.371349
C        1.735321     5.360998    -0.367112
C        0.917049     2.957225     0.027958
N       -0.107943     2.111015    -0.007777
H        5.176926    -0.108900    -1.043885
H        5.177969    -0.847268     0.579065
H        5.150517     0.929113     0.497633
H       -2.634653    -1.891041     0.352824
H       -6.237671    -1.537992    -0.852433
H       -4.859927    -2.693227    -0.820400
H       -5.517708    -2.065145     0.718047
H       -5.707115     0.728099    -1.076511
H       -3.991151     2.569366    -1.108068
H       -2.564662     3.992093    -1.107045
H       -0.753616     5.703043    -1.081800
H        1.863244     5.866243    -1.337030
H        2.654338     4.875832    -0.004381
H        1.503462     6.164658     0.383051
H        1.897137     2.643790     0.352093
33
ex_0053 frame2 T-shaped N0-N1-ax/N1-eq-conf4
C        4.790541    -0.006080     0.004734
C        3.330764    -0.046266     0.002368
N        2.142486     0.024415     0.005063
Ag       0.000000     0.000000     0.000000
N       -2.109329     0.095118    -0.045475
C       -2.957471    -0.919835     0.030591
C       -4.311009    -0.723759    -0.380931
C       -5.286837    -1.847931    -0.341934
C       -4.652131     0.518127    -0.800946
C       -3.673770     1.585710    -0.823656
C       -2.395111     1.378103    -0.441833
C       -1.378940     2.395294    -0.436754
C       -1.586271     3.674371    -0.823958
C       -0.538357     4.661406    -0.808845
C        0.707187     4.325532    -0.389030
C        1.821607     5.315070    -0.355625
C        0.913977     2.977505     0.023471
N       -0.118431     2.102533    -0.026643
H        5.080182    -1.045005    -0.217086
H        5.090374     0.702508    -0.775551
H        5.180647     0.370981     0.980917
H       -2.617231    -1.900750     0.379262
H       -4.896525    -2.580395     0.388802
H       -5.335456    -2.389136    -1.309827
H       -6.304613    -1.548969    -0.030126
H       -5.677530     0.658104    -1.109333
H       -3.973397     2.545375    -1.157820
H       -2.546178     3.973808    -1.158191
H       -0.706137     5.690261    -1.125440
H        2.694424     4.877320    -0.881318
H        1.537024     6.251523    -0.860624
H        2.077561     5.477965     0.719115
H        1.857696     2.589854     0.375220
33
ex_0053 frame3 T-shaped N0-N1-ax/N1-eq-conf20
C        4.790299    -0.008075     0.006051
C        3.322073    -0.036364     0.003031
N        2.142519     0.015577     0.002626
Ag       0.000000     0.000000     0.000000
N       -2.109289     0.084577    -0.029262
C       -2.959485    -0.904600     0.024640
C       -4.319767    -0.672508    -0.375892
C       -5.288307    -1.802931    -0.334961
C       -4.685721     0.555806    -0.777093
C       -3.680744     1.595402    -0.785113
C       -2.408061     1.385916    -0.419365
C       -1.387538     2.405272    -0.415057
C       -1.595740     3.679339    -0.784771
C       -0.550346     4.678681    -0.773275
C        0.678117     4.315907    -0.372857
C        1.734700     5.361110    -0.368280
C        0.914651     2.952388     0.028146
N       -0.095556     2.103156    -0.013246
H        5.079605    -1.044899    -0.217073
H        5.090087     0.702467    -0.775166
H        5.180745     0.371239     0.981091
H       -2.634678    -1.891081     0.352987
H       -6.237639    -1.537967    -0.852563
H       -4.859962    -2.693160    -0.820159
H       -5.517808    -2.065105     0.718019
H       -5.707020     0.727801    -1.076414
H       -3.990791     2.569474    -1.107999
H       -2.564687     3.991710    -1.106952
H       -0.753507     5.703094    -1.081790
H        1.863141     5.866417    -1.336724
H        2.654011     4.875680    -0.004191
H        1.503580     6.164846     0.383243
H        1.897078     2.643951     0.352180
33
ex_0053 frame4 T-shaped N0-N1-ax/N1-eq-conf3
C        4.788126     0.003621     0.009816
C        3.332582     0.016561     0.010760
N        2.145581    -0.041749     0.007976
Ag       0.000000     0.000000     0.000000
N       -2.108372     0.125117    -0.001516
C       -2.959479    -0.921202     0.030370
C       -4.308831    -0.724683    -0.380152
C       -5.286924    -1.848157    -0.342004
C       -4.651863     0.520357    -0.801448
C       -3.676395     1.585229    -0.824272
C       -2.397159     1.382701    -0.424128
C       -1.381283     2.395981    -0.428458
C       -1.586093     3.676932    -0.824593
C       -0.540520     4.661107    -0.809410
C        0.708265     4.323547    -0.388171
C        1.821634     5.314879    -0.355471
C        0.915250     2.979462     0.023409
N       -0.116195     2.117675    -0.022162
H        5.111225     0.338802     1.005062
H        5.173495    -1.025083    -0.227437
H        5.076223     0.691294    -0.807641
H       -2.617230    -1.900673     0.379142
H       -4.896615    -2.580501     0.388823
H       -5.335456    -2.389024    -1.309884
H       -6.304618    -1.548878    -0.030048
H       -5.677552     0.658314    -1.109400
H       -3.973679     2.545431    -1.157927
H       -2.546242     3.974070    -1.158280
H       -0.706302     5.690183    -1.125465
H        2.694437     4.877377    -0.881378
H        1.537022     6.251672    -0.860563
H        2.077630     5.478018     0.719020
H        1.857861     2.590045     0.375119
33
ex_0053 frame5 T-shaped N0-N1-ax/N1-eq-conf21
C        4.789095     0.000319    -0.012914
C        3.323500     0.009482    -0.026050
N        2.134133    -0.030786     0.003737
Ag       0.000000     0.000000     0.000000
N       -2.111580     0.090294    -0.022927
C       -2.959884    -0.904722     0.024573
C       -4.319371    -0.672859    -0.375709
C       -5.288341    -1.802916    -0.334970
C       -4.685558     0.556261    -0.777184
C       -3.681320     1.595457    -0.785267
C       -2.408527     1.386893    -0.415766
C       -1.388507     2.406568    -0.411103
C       -1.595782     3.679892    -0.784939
C       -0.550857     4.678481    -0.773333
C        0.678326     4.315663    -0.372599
C        1.734793     5.361055    -0.368175
C        0.914888     2.952983     0.028398
N       -0.096344     2.111346    -0.005506
H        5.108817     0.134494    -1.054117
H        5.197095    -0.941382     0.424238
H        5.171202     0.806210     0.665538
H       -2.634675    -1.891078     0.352966
H       -6.237644    -1.537968    -0.852547
H       -4.859960    -2.693168    -0.820188
H       -5.517796    -2.065111     0.718022
H       -5.707028     0.727841    -1.076426
H       -3.990842     2.569465    -1.108010
H       -2.564686     3.991762    -1.106966
H       -0.753523     5.703085    -1.081789
H        1.863154     5.866393    -1.336759
H        2.654054     4.875699    -0.004213
H        1.503565     6.164823     0.383221
H        1.897090     2.643923     0.352168
33
ex_0053 frame6 T-shaped N0-N1-ax/N1-eq-conf6
C        4.829695    -0.042803     0.153358
C        3.324676     0.000000     0.000000
N        2.150000     0.000000     0.000000
Ag       0.000000     0.000000     0.000000
N       -2.135187     0.223581    -0.062456
C       -3.049480    -0.860530     0.003469
C       -4.333357    -0.672194    -0.358717
C       -5.304795    -1.822196    -0.328547
C       -4.792771     0.686266    -0.792197
C       -3.955497     1.747306    -0.814547
C       -2.530535     1.525732    -0.464622
C       -1.576236     2.497433    -0.510007
C       -1.838577     3.923664    -0.839557
C       -0.788567     4.782389    -0.837865
C        0.593755     4.334220    -0.461077
C        1.735960     5.314488    -0.395692
C        0.818649     3.045836    -0.178429
N       -0.248871     2.121018    -0.224114
H        5.159807    -1.065341     0.421939
H        5.277910     0.229672    -0.828631
H        5.161476     0.693302     0.911463
H       -2.688345    -1.846664     0.295874
H       -4.887903    -2.699408     0.213976
H       -5.533716    -2.133983    -1.369211
H       -6.243601    -1.517943     0.178296
H       -5.825960     0.821081    -1.096076
H       -4.329412     2.706338    -1.145025
H       -2.816362     4.291322    -1.121127
H       -0.945870     5.819822    -1.113419
H        2.570225     4.970467    -1.046842
H        1.426775     6.327523    -0.720582
H        2.117030     5.378675     0.647420
H        1.807870     2.699888     0.100508
33
ex_0053 frame7 T-shaped N0-N1-ax/N1-eq-conf5
C        4.790278    -0.003816    -0.008339
C        3.331738     0.014235    -0.034705
N        2.136162    -0.024151     0.019540
Ag       0.000000     0.000000     0.000000
N       -2.112868     0.104910    -0.035029
C       -2.957201    -0.919550     0.030469
C       -4.311046    -0.723683    -0.380999
C       -5.286818    -1.847941    -0.341932
C       -4.652186     0.518080    -0.800942
C       -3.673731     1.585816    -0.823687
C       -2.396617     1.379885    -0.435815
C       -1.380851     2.398327    -0.429797
C       -1.586395     3.674310    -0.824042
C       -0.538319     4.661474    -0.808827
C        0.707074     4.325587    -0.388907
C        1.821620     5.315091    -0.355680
C        0.913807     2.977527     0.023957
N       -0.119193     2.113918    -0.011443
H        5.109188     0.134513    -1.054270
H        5.196860    -0.941421     0.424009
H        5.171022     0.806273     0.665162
H       -2.617237    -1.900756     0.379250
H       -4.896528    -2.580397     0.388800
H       -5.335456    -2.389136    -1.309829
H       -6.304610    -1.548966    -0.030126
H       -5.677529     0.658110    -1.109336
H       -3.973408     2.545372    -1.157824
H       -2.546178     3.973817    -1.158196
H       -0.706145     5.690267    -1.125439
H        2.694426     4.877322    -0.881317
H        1.537018     6.251520    -0.860621
H        2.077563     5.477967     0.719117
H        1.857687     2.589818     0.375235
33
ex_0053 frame8 T-shaped N0-N1-ax/N1-eq-conf19
C        4.787521    -0.000917     0.010170
C        3.321676     0.009336     0.017145
N        2.142474    -0.022433     0.003759
Ag       0.000000     0.000000     0.000000
N       -2.108402     0.091943    -0.001643
C       -2.959962    -0.904853     0.024572
C       -4.319363    -0.672847    -0.375710
C       -5.288337    -1.802920    -0.334991
C       -4.685549     0.556297    -0.777157
C       -3.681348     1.595409    -0.785303
C       -2.409733     1.388216    -0.409533
C       -1.388570     2.406228    -0.410557
C       -1.595774     3.679913    -0.784944
C       -0.550876     4.678478    -0.773344
C        0.678376     4.315605    -0.372681
C        1.734773     5.361076    -0.368181
C        0.915099     2.953170     0.028085
N       -0.090603     2.110216    -0.009497
H        5.110788     0.338688     1.004930
H        5.173669    -1.025382    -0.227678
H        5.075700     0.691218    -0.807920
H       -2.634678    -1.891079     0.352961
H       -6.237643    -1.537970    -0.852548
H       -4.859958    -2.693168    -0.820186
H       -5.517796    -2.065110     0.718022
H       -5.707030     0.727834    -1.076424
H       -3.990828     2.569462    -1.108013
H       -2.564684     3.991750    -1.106963
H       -0.753516     5.703089    -1.081791
H        1.863153     5.866397    -1.336759
H        2.654047     4.875697    -0.004212
H        1.503567     6.164824     0.383220
H        1.897083     2.643921     0.352168
33
ex_0053 frame9 T-shaped N0-N1-ax/N1-eq-conf11
C        4.789482    -0.001112    -0.013228
C        3.328075     0.007206    -0.030811
N        2.141546    -0.010192     0.005814
Ag       0.000000     0.000000     0.000000
N       -2.107341     0.103166    -0.000171
C       -2.948137    -0.916714    -0.038242
C       -4.278601    -0.713530     0.449831
C       -5.248028    -1.850204     0.397855
C       -4.628299     0.496831     0.945185
C       -3.632898     1.545391     0.961761
C       -2.380025     1.362684     0.497291
C       -1.362490     2.380862     0.498463
C       -1.545698     3.632915     0.961800
C       -0.487243     4.618832     0.938728
C        0.720357     4.275241     0.446546
C        1.834148     5.240392     0.400519
C        0.906087     2.953794    -0.032796
N       -0.106421     2.112876     0.007467
H        5.108995     0.134463    -1.054240
H        5.197004    -0.941310     0.424171
H        5.171092     0.806317     0.665289
H       -2.604136    -1.866751    -0.448138
H       -6.198546    -1.519002     0.854551
H       -5.351599    -2.190527    -0.646227
H       -4.843146    -2.708397     0.979013
H       -5.634105     0.643714     1.311363
H       -3.921697     2.488029     1.353373
H       -2.503495     3.918980     1.357324
H       -0.631690     5.637338     1.308549
H        2.276700     5.246148    -0.625946
H        1.579483     6.239125     0.759609
H        2.644017     4.849587     1.062340
H        1.851748     2.638716    -0.432462
33
ex_0053 frame10 T-shaped N0-N1-ax/N1-eq-conf2
C        4.790810     0.015607     0.000525
C        3.322072     0.015081     0.004717
N        2.143174    -0.017827     0.005009
Ag       0.000000     0.000000     0.000000
N       -2.119444     0.073356    -0.015581
C       -2.947929    -0.913734     0.030973
C       -4.320192    -0.719064    -0.384649
C       -5.286562    -1.847201    -0.341911
C       -4.653466     0.510167    -0.798939
C       -3.664485     1.587720    -0.821954
C       -2.402654     1.379339    -0.433650
C       -1.379176     2.402496    -0.432165
C       -1.587647     3.665070    -0.822096
C       -0.530559     4.662860    -0.806894
C        0.702154     4.333642    -0.392590
C        1.821538     5.315484    -0.355975
C        0.909133     2.969617     0.023987
N       -0.083934     2.112615    -0.010529
H        5.175554    -0.730634     0.749959
H        5.117826    -0.305033    -1.000690
H        5.199022     1.015720     0.241421
H       -2.617346    -1.901140     0.379661
H       -4.896241    -2.580059     0.388732
H       -5.335454    -2.389531    -1.309630
H       -6.304593    -1.549270    -0.030389
H       -5.677455     0.657414    -1.109117
H       -3.972469     2.545170    -1.157527
H       -2.545968     3.972970    -1.157912
H       -0.705603     5.690530    -1.125369
H        2.694383     4.877132    -0.881116
H        1.537015     6.250985    -0.860839
H        2.077326     5.477787     0.719446
H        1.857157     2.589127     0.375555
33
ex_0053 frame11 T-shaped N0-N1-ax/N1-eq-conf10
C        4.790412    -0.007061     0.006435
C        3.325935    -0.039435     0.000854
N        2.143523     0.017314     0.003430
Ag       0.000000     0.000000     0.000000
N       -2.108757     0.096340    -0.022265
C       -2.947970    -0.916750    -0.038342
C       -4.278845    -0.713262     0.449974
C       -5.248024    -1.850216     0.397851
C       -4.628405     0.496552     0.945106
C       -3.632546     1.545413     0.961689
C       -2.381762     1.364216     0.492137
C       -1.362368     2.379863     0.499282
C       -1.545725     3.632566     0.961675
C       -0.486936     4.618890     0.938675
C        0.720239     4.275432     0.446804
C        1.834068     5.240421     0.400507
C        0.905965     2.953494    -0.032344
N       -0.103825     2.109985     0.015867
H        5.079897    -1.044965    -0.217059
H        5.090237     0.702460    -0.775363
H        5.180696     0.371129     0.981013
H       -2.604144    -1.866755    -0.448137
H       -6.198526    -1.518984     0.854562
H       -5.351582    -2.190531    -0.646217
H       -4.843142    -2.708402     0.979008
H       -5.634101     0.643692     1.311355
H       -3.921663     2.488021     1.353364
H       -2.503509     3.918949     1.357317
H       -0.631670     5.637351     1.308551
H        2.276718     5.246126    -0.625948
H        1.579495     6.239101     0.759608
H        2.644022     4.849582     1.062344
H        1.851732     2.638727    -0.432467
33
ex_0053 frame12 T-shaped N0-N1-ax/N1-eq-conf18
C        4.791533     0.008257     0.019276
C        3.330658     0.033370    -0.000180
N        2.143344    -0.014141     0.005135
Ag       0.000000     0.000000     0.000000
N       -2.113393     0.071656    -0.012726
C       -2.954782    -0.902190     0.024849
C       -4.323646    -0.668962    -0.377876
C       -5.287581    -1.802991    -0.334964
C       -4.687323     0.551739    -0.776287
C       -3.675555     1.595504    -0.783949
C       -2.412126     1.386778    -0.415065
C       -1.387832     2.408942    -0.412640
C       -1.596124     3.674327    -0.783730
C       -0.545564     4.680540    -0.772610
C        0.676232     4.318053    -0.374245
C        1.734048     5.361179    -0.369599
C        0.912127     2.947262     0.028840
N       -0.075393     2.109806    -0.004824
H        5.175633    -0.730805     0.750041
H        5.117755    -0.304982    -1.000615
H        5.199046     1.015652     0.241488
H       -2.634721    -1.891134     0.353144
H       -6.237608    -1.537938    -0.852696
H       -4.860000    -2.693093    -0.819914
H       -5.517912    -2.065066     0.717990
H       -5.706922     0.727505    -1.076316
H       -3.990441     2.569581    -1.107942
H       -2.564713     3.991338    -1.106864
H       -0.753413     5.703139    -1.081778
H        1.863036     5.866592    -1.336409
H        2.653686     4.875529    -0.003999
H        1.503700     6.165039     0.383440
H        1.897022     2.644104     0.352269
33
ex_0053 frame13 T-shaped N0-N1-ax/N1-eq-conf12
C        4.790082     0.010379    -0.018594
C        3.338098     0.048186    -0.007414
N        2.132458    -0.063778    -0.012465
Ag       0.000000     0.000000     0.000000
N       -2.106951     0.142576     0.003607
C       -2.976841    -0.911732     0.046377
C       -4.197624    -0.822466    -0.665573
C       -5.240488    -1.882896    -0.655939
C       -4.421669     0.300770    -1.397842
C       -3.444215     1.343231    -1.433808
C       -2.278759     1.267945    -0.734674
C       -1.266323     2.276327    -0.737715
C       -1.347389     3.444505    -1.436236
C       -0.321506     4.435217    -1.418471
C        0.811992     4.218674    -0.682527
C        1.897856     5.247617    -0.650291
C        0.890924     2.994254     0.026785
N       -0.143908     2.116520    -0.026203
H        5.176896    -0.108677    -1.043968
H        5.177566    -0.847177     0.579122
H        5.150657     0.929288     0.497133
H       -2.761231    -1.795001     0.642388
H       -4.871598    -2.829322    -0.248205
H       -5.613966    -2.049596    -1.686723
H       -6.123474    -1.576297    -0.052350
H       -5.348426     0.386686    -1.950103
H       -3.643863     2.205899    -2.012611
H       -2.222215     3.639700    -2.019159
H       -0.375441     5.366303    -1.953772
H        2.465528     5.155095     0.308409
H        2.559833     5.161928    -1.530601
H        1.481122     6.283095    -0.686010
H        1.747595     2.748696     0.623236
33
ex_0053 frame14 T-shaped N0-N1-ax/N1-eq-conf8
C        4.790223     0.014873    -0.000313
C        3.318485     0.018749     0.006215
N        2.142024    -0.021035     0.005220
Ag       0.000000     0.000000     0.000000
N       -2.116713     0.072813    -0.009624
C       -2.941122    -0.913494    -0.039149
C       -4.284831    -0.707278     0.453661
C       -5.248269    -1.850501     0.397089
C       -4.631061     0.489640     0.943793
C       -3.624351     1.546536     0.959582
C       -2.385190     1.361897     0.498384
C       -1.361228     2.385159     0.500833
C       -1.546508     3.624525     0.959565
C       -0.479779     4.620537     0.937100
C        0.716146     4.281243     0.449669
C        1.832478     5.240969     0.400448
C        0.901602     2.946224    -0.033584
N       -0.080835     2.109111     0.002479
H        5.175600    -0.730726     0.750037
H        5.117769    -0.305061    -1.000654
H        5.199059     1.015647     0.241425
H       -2.603905    -1.866697    -0.448564
H       -6.198075    -1.518575     0.854813
H       -5.351213    -2.190619    -0.645976
H       -4.843067    -2.708528     0.978913
H       -5.634003     0.643238     1.311179
H       -3.921018     2.487893     1.353110
H       -2.503830     3.918312     1.357212
H       -0.631299     5.637646     1.308521
H        2.277126     5.245651    -0.626015
H        1.579766     6.238538     0.759581
H        2.644177     4.849461     1.062431
H        1.851378     2.638861    -0.432630
33
ex_0053 frame15 T-shaped N0-N1-ax/N1-eq-conf16
C        4.790112    -0.006522    -0.007589
C        3.330833     0.015823    -0.036536
N        2.135995    -0.021825     0.006435
Ag       0.000000     0.000000     0.000000
N       -2.109111     0.096711    -0.047987
C       -2.970396    -0.906726     0.046693
C       -4.201846    -0.820863    -0.669147
C       -5.239905    -1.882114    -0.656263
C       -4.423953     0.293652    -1.395753
C       -3.437019     1.344852    -1.430954
C       -2.274587     1.257020    -0.754764
C       -1.260685     2.275831    -0.747104
C       -1.347817     3.437097    -1.432628
C       -0.316220     4.437429    -1.416641
C        0.810580     4.223694    -0.686347
C        1.897268     5.247171    -0.651059
C        0.885682     2.987848     0.026981
N       -0.121430     2.107817    -0.018553
H        5.109124     0.134479    -1.054265
H        5.196907    -0.941377     0.424082
H        5.171045     0.806290     0.665189
H       -2.761559    -1.795091     0.642719
H       -4.871918    -2.829072    -0.248566
H       -5.614235    -2.049199    -1.686598
H       -6.123605    -1.576564    -0.052220
H       -5.348323     0.386391    -1.949904
H       -3.643086     2.205777    -2.012093
H       -2.222507     3.639039    -2.018949
H       -0.374718     5.366142    -1.953266
H        2.465445     5.155161     0.308790
H        2.559769     5.162151    -1.530451
H        1.481210     6.283327    -0.686265
H        1.747080     2.748804     0.623540
33
ex_0053 frame16 T-shaped N0-N1-ax/N1-eq-conf15
C        4.790405    -0.006593     0.004316
C        3.326845    -0.043470     0.003952
N        2.141028     0.021042     0.000587
Ag       0.000000     0.000000     0.000000
N       -2.109859     0.082858    -0.043564
C       -2.968033    -0.904946     0.047146
C       -4.203223    -0.820291    -0.670234
C       -5.239729    -1.881886    -0.656388
C       -4.424668     0.291442    -1.395063
C       -3.434777     1.345300    -1.430090
C       -2.274822     1.255364    -0.757312
C       -1.257772     2.272620    -0.752298
C       -1.348000     3.434769    -1.431495
C       -0.314600     4.438099    -1.416096
C        0.810180     4.225314    -0.687721
C        1.897082     5.247043    -0.651290
C        0.883882     2.985540     0.026595
N       -0.104553     2.100563    -0.028235
H        5.079871    -1.044947    -0.217096
H        5.090222     0.702506    -0.775354
H        5.180700     0.371101     0.980993
H       -2.761701    -1.795135     0.642835
H       -4.872010    -2.829000    -0.248670
H       -5.614311    -2.049086    -1.686562
H       -6.123642    -1.576642    -0.052183
H       -5.348301     0.386319    -1.949857
H       -3.642886     2.205743    -2.011967
H       -2.222574     3.638876    -2.018894
H       -0.374513     5.366095    -1.953128
H        2.465420     5.155180     0.308903
H        2.559750     5.162217    -1.530407
H        1.481235     6.283391    -0.686337
H        1.746956     2.748827     0.623601
33
ex_0053 frame17 T-shaped N0-N1-ax/N1-eq-conf14
C        4.787923     0.002882     0.008478
C        3.329726     0.014117     0.013098
N        2.142860    -0.040055     0.010608
Ag       0.000000     0.000000     0.000000
N       -2.101832     0.110022    -0.026523
C       -2.970717    -0.907103     0.046712
C       -4.201272    -0.820994    -0.668735
C       -5.239963    -1.882227    -0.656230
C       -4.423681     0.294516    -1.395982
C       -3.437930     1.344614    -1.431335
C       -2.275898     1.259414    -0.749385
C       -1.260395     2.272774    -0.747704
C       -1.347884     3.437961    -1.433048
C       -0.316899     4.437159    -1.416913
C        0.810734     4.223071    -0.686101
C        1.897331     5.247227    -0.650963
C        0.886356     2.988473     0.026434
N       -0.109404     2.110542    -0.028704
H        5.111103     0.338798     1.005026
H        5.173553    -1.025192    -0.227477
H        5.076035     0.691240    -0.807740
H       -2.761555    -1.795089     0.642689
H       -4.871876    -2.829103    -0.248521
H       -5.614200    -2.049251    -1.686614
H       -6.123587    -1.576531    -0.052237
H       -5.348342     0.386432    -1.949934
H       -3.643195     2.205793    -2.012170
H       -2.222458     3.639134    -2.018975
H       -0.374808     5.366162    -1.953339
H        2.465453     5.155152     0.308743
H        2.559777     5.162123    -1.530470
H        1.481199     6.283296    -0.686232
H        1.747154     2.748783     0.623480
33
ex_0053 frame18 T-shaped N0-N1-ax/N1-eq-conf9
C        4.787122    -0.004357     0.013631
C        3.312408     0.015023     0.015411
N        2.142828    -0.024386     0.005595
Ag       0.000000     0.000000     0.000000
N       -2.115839     0.067518     0.003311
C       -2.939002    -0.912449    -0.039382
C       -4.286541    -0.705600     0.454706
C       -5.248348    -1.850585     0.396869
C       -4.631874     0.487594     0.943409
C       -3.621930     1.546999     0.959006
C       -2.385226     1.360175     0.503182
C       -1.360289     2.386426     0.502900
C       -1.546940     3.622122     0.958992
C       -0.477677     4.621075     0.936648
C        0.715008     4.282913     0.450515
C        1.832016     5.241120     0.400430
C        0.900516     2.944436    -0.033787
N       -0.068763     2.115648     0.001185
H        5.110408     0.338515     1.004807
H        5.173782    -1.025557    -0.227928
H        5.075346     0.691255    -0.808126
H       -2.603843    -1.866686    -0.448674
H       -6.197950    -1.518456     0.854884
H       -5.351115    -2.190644    -0.645905
H       -4.843049    -2.708564     0.978888
H       -5.633968     0.643122     1.311131
H       -3.920855     2.487861     1.353046
H       -2.503925     3.918152     1.357191
H       -0.631206     5.637726     1.308516
H        2.277242     5.245523    -0.626035
H        1.579838     6.238377     0.759573
H        2.644226     4.849428     1.062458
H        1.851288     2.638896    -0.432680
33
ex_0053 frame19 T-shaped N0-N1-ax/N1-eq-conf13
C        4.790507     0.015934     0.000383
C        3.320125     0.014586     0.004299
N        2.143682    -0.017448     0.004233
Ag       0.000000     0.000000     0.000000
N       -2.115917     0.072651    -0.016934
C       -2.960269    -0.898949     0.048029
C       -4.207230    -0.818587    -0.673578
C       -5.239086    -1.881271    -0.656636
C       -4.426812     0.284882    -1.393038
C       -3.428190     1.346837    -1.427614
C       -2.281668     1.257826    -0.753149
C       -1.258730     2.278670    -0.750743
C       -1.348566     3.427905    -1.428348
C       -0.309844     4.440155    -1.414474
C        0.808694     4.230296    -0.691460
C        1.896554     5.246540    -0.651956
C        0.877678     2.978104     0.027090
N       -0.081534     2.109153    -0.012941
H        5.175585    -0.730684     0.749993
H        5.117795    -0.305038    -1.000664
H        5.199038     1.015698     0.241428
H       -2.762107    -1.795310     0.643160
H       -4.872288    -2.828798    -0.248971
H       -5.614530    -2.048754    -1.686459
H       -6.123757    -1.576862    -0.052072
H       -5.348217     0.386125    -1.949718
H       -3.642318     2.205645    -2.011603
H       -2.222805     3.638418    -2.018764
H       -0.373932     5.365949    -1.952710
H        2.465366     5.155245     0.309234
H        2.559694     5.162406    -1.530276
H        1.481298     6.283582    -0.686543
H        1.746631     2.748914     0.623837
33
ex_0053 frame20 T-shaped N0-N1-ax/N1-eq-conf7
C        4.788687     0.019667    -0.007942
C        3.327620     0.011027    -0.039189
N        2.141983    -0.006987     0.012860
Ag       0.000000     0.000000     0.000000
N       -2.107138     0.108333     0.005048
C       -2.949599    -0.917402    -0.038062
C       -4.277354    -0.714799     0.449057
C       -5.247973    -1.850150     0.398000
C       -4.627733     0.498292     0.945472
C       -3.634643     1.545165     0.962202
C       -2.378754     1.362546     0.497991
C       -1.362674     2.379835     0.498236
C       -1.545522     3.634636     0.962250
C       -0.488766     4.618478     0.939059
C        0.721212     4.274039     0.445920
C        1.834500     5.240268     0.400532
C        0.906976     2.955272    -0.032643
N       -0.111883     2.113831     0.008526
H        5.176955    -0.108472    -1.043865
H        5.177969    -0.847426     0.578775
H        5.150444     0.929024     0.497991
H       -2.604185    -1.866763    -0.448049
H       -6.198642    -1.519089     0.854497
H       -5.351679    -2.190508    -0.646279
H       -4.843163    -2.708370     0.979034
H       -5.634126     0.643816     1.311402
H       -3.921844     2.488059     1.353429
H       -2.503424     3.919123     1.357348
H       -0.631774     5.637272     1.308555
H        2.276611     5.246252    -0.625931
H        1.579424     6.239246     0.759615
H        2.643985     4.849613     1.062322
H        1.851829     2.638683    -0.432425
33
ex_0053 frame21 T-shaped N0-N1-ax/N1-eq
C        4.790247     0.010263    -0.018148
C        3.339062     0.049378    -0.004694
N        2.135516    -0.071522    -0.003521
Ag       0.000000     0.000000     0.000000
N       -2.118503     0.132165     0.023251
C       -2.965039    -0.924385     0.030666
C       -4.303790    -0.727445    -0.377840
C       -5.286954    -1.848650    -0.342022
C       -4.651096     0.524648    -0.802436
C       -3.681325     1.584272    -0.825307
C       -2.398122     1.386776    -0.413475
C       -1.384182     2.396112    -0.421713
C       -1.585366     3.681940    -0.825749
C       -0.544708     4.660284    -0.810420
C        0.711166     4.319110    -0.385947
C        1.821721     5.314631    -0.355327
C        0.917375     2.983684     0.023753
N       -0.146125     2.111754    -0.017722
H        5.176890    -0.108645    -1.043998
H        5.177526    -0.847177     0.579126
H        5.150675     0.929283     0.497095
H       -2.617174    -1.900470     0.378889
H       -4.896796    -2.580711     0.388862
H       -5.335457    -2.388796    -1.310004
H       -6.304623    -1.548694    -0.029893
H       -5.677594     0.658737    -1.109535
H       -3.974255     2.545544    -1.158125
H       -2.546371     3.974597    -1.158455
H       -0.706638     5.690032    -1.125508
H        2.694466     4.877495    -0.881494
H        1.537013     6.251973    -0.860432
H        2.077773     5.478128     0.718833
H        1.858168     2.590404     0.374951
33
ex_0053 frame22 T-shaped N0-N1-ax/N1-eq-conf20
C        4.790299    -0.008075     0.006051
C        3.322073    -0.036364     0.003031
N        2.142519     0.015577     0.002626
Ag       0.000000     0.000000     0.000000
N       -2.109289     0.084577    -0.029262
C       -2.959485    -0.904600     0.024640
C       -4.319767    -0.672508    -0.375892
C       -5.288307    -1.802931    -0.334961
C       -4.685721     0.555806    -0.777093
C       -3.680744     1.595402    -0.785113
C       -2.408025     1.385881    -0.419510
C       -1.387526     2.405260    -0.415106
C       -1.595740     3.679339    -0.784771
C       -0.550346     4.678681    -0.773275
C        0.678117     4.315907    -0.372857
C        1.734700     5.361110    -0.368280
C        0.914651     2.952388     0.028146
N       -0.095556     2.103156    -0.013246
H        5.079605    -1.044899    -0.217073
H        5.090087     0.702467    -0.775166
H        5.180745     0.371239     0.981091
H       -2.634678    -1.891081     0.352987
H       -6.237639    -1.537967    -0.852563
H       -4.859962    -2.693160    -0.820159
H       -5.517808    -2.065105     0.718019
H       -5.707020     0.727801    -1.076414
H       -3.990791     2.569474    -1.107999
H       -2.564687     3.991710    -1.106952
H       -0.753507     5.703094    -1.081790
H        1.863141     5.866417    -1.336724
H        2.654011     4.875680    -0.004191
H        1.503580     6.164846     0.383243
H        1.897078     2.643951     0.352180
33
ex_0053 frame23 T-shaped N0-N1-ax/N1-eq-conf6
C        4.829695    -0.042803     0.153358
C        3.324676     0.000000     0.000000
N        2.150000     0.000000     0.000000
Ag       0.000000     0.000000     0.000000
N       -2.135187     0.223581    -0.062456
C       -3.049480    -0.860530     0.003469
C       -4.333357    -0.672194    -0.358717
C       -5.304795    -1.822196    -0.328547
C       -4.792771     0.686266    -0.792197
C       -3.955497     1.747306    -0.814547
C       -2.530251     1.525390    -0.466003
C       -1.576157     2.497333    -0.510504
C       -1.838577     3.923664    -0.839557
C       -0.788567     4.782389    -0.837865
C        0.593755     4.334220    -0.461077
C        1.735960     5.314488    -0.395692
C        0.818649     3.045836    -0.178429
N       -0.248871     2.121018    -0.224114
H        5.159807    -1.065341     0.421939
H        5.277910     0.229672    -0.828631
H        5.161476     0.693302     0.911463
H       -2.688345    -1.846664     0.295874
H       -4.887903    -2.699408     0.213976
H       -5.533716    -2.133983    -1.369211
H       -6.243601    -1.517943     0.178296
H       -5.825960     0.821081    -1.096076
H       -4.329412     2.706338    -1.145025
H       -2.816362     4.291322    -1.121127
H       -0.945870     5.819822    -1.113419
H        2.570225     4.970467    -1.046842
H        1.426775     6.327523    -0.720582
H        2.117030     5.378675     0.647420
H        1.807870     2.699888     0.100508
33
ex_0053 frame24 T-shaped N0-N1-ax/N1-eq-conf18
C        4.791533     0.008257     0.019276
C        3.330658     0.033370    -0.000180
N        2.143344    -0.014141     0.005135
Ag       0.000000     0.000000     0.000000
N       -2.113393     0.071656    -0.012726
C       -2.954782    -0.902190     0.024849
C       -4.323646    -0.668962    -0.377876
C       -5.287581    -1.802991    -0.334964
C       -4.687323     0.551739    -0.776287
C       -3.675555     1.595504    -0.783949
C       -2.412123     1.386775    -0.415077
C       -1.387831     2.408941    -0.412644
C       -1.596124     3.674327    -0.783730
C       -0.545564     4.680540    -0.772610
C        0.676232     4.318053    -0.374245
C        1.734048     5.361179    -0.369599
C        0.912127     2.947262     0.028840
N       -0.075393     2.109806    -0.004824
H        5.175633    -0.730805     0.750041
H        5.117755    -0.304982    -1.000615
H        5.199046     1.015652     0.241488
H       -2.634721    -1.891134     0.353144
H       -6.237608    -1.537938    -0.852696
H       -4.860000    -2.693093    -0.819914
H       -5.517912    -2.065066     0.717990
H       -5.706922     0.727505    -1.076316
H       -3.990441     2.569581    -1.107942
H       -2.564713     3.991338    -1.106864
H       -0.753413     5.703139    -1.081778
H        1.863036     5.866592    -1.336409
H        2.653686     4.875529    -0.003999
H        1.503700     6.165039     0.383440
H        1.897022     2.644104     0.352269
33
ex_0053 frame25 T-shaped N0-N1-ax/N1-eq-conf12
C        4.790082     0.010379    -0.018594
C        3.338098     0.048186    -0.007414
N        2.132458    -0.063778    -0.012465
Ag       0.000000     0.000000     0.000000
N       -2.106951     0.142576     0.003607
C       -2.976841    -0.911732     0.046377
C       -4.197624    -0.822466    -0.665573
C       -5.240488    -1.882896    -0.655939
C       -4.421669     0.300770    -1.397842
C       -3.444215     1.343231    -1.433808
C       -2.278961     1.268150    -0.734315
C       -1.266391     2.276395    -0.737593
C       -1.347389     3.444505    -1.436236
C       -0.321506     4.435217    -1.418471
C        0.811992     4.218674    -0.682527
C        1.897856     5.247617    -0.650291
C        0.890924     2.994254     0.026785
N       -0.143908     2.116520    -0.026203
H        5.176896    -0.108677    -1.043968
H        5.177566    -0.847177     0.579122
H        5.150657     0.929288     0.497133
H       -2.761231    -1.795001     0.642388
H       -4.871598    -2.829322    -0.248205
H       -5.613966    -2.049596    -1.686723
H       -6.123474    -1.576297    -0.052350
H       -5.348426     0.386686    -1.950103
H       -3.643863     2.205899    -2.012611
H       -2.222215     3.639700    -2.019159
H       -0.375441     5.366303    -1.953772
H        2.465528     5.155095     0.308409
H        2.559833     5.161928    -1.530601
H        1.481122     6.283095    -0.686010
H        1.747595     2.748696     0.623236
33
ex_0053 frame26 T-shaped N0-N1-ax/N1-eq-conf8
C        4.790223     0.014873    -0.000313
C        3.318485     0.018749     0.006215
N        2.142024    -0.021035     0.005220
Ag       0.000000     0.000000     0.000000
N       -2.116713     0.072813    -0.009624
C       -2.941122    -0.913494    -0.039149
C       -4.284831    -0.707278     0.453661
C       -5.248269    -1.850501     0.397089
C       -4.631061     0.489640     0.943793
C       -3.624351     1.546536     0.959582
C       -2.385244     1.361952     0.498217
C       -1.361246     2.385177     0.500777
C       -1.546508     3.624525     0.959565
C       -0.479779     4.620537     0.937100
C        0.716146     4.281243     0.449669
C        1.832478     5.240969     0.400448
C        0.901602     2.946224    -0.033584
N       -0.080835     2.109111     0.002479
H        5.175600    -0.730726     0.750037
H        5.117769    -0.305061    -1.000654
H        5.199059     1.015647     0.241425
H       -2.603905    -1.866697    -0.448564
H       -6.198075    -1.518575     0.854813
H       -5.351213    -2.190619    -0.645976
H       -4.843067    -2.708528     0.978913
H       -5.634003     0.643238     1.311179
H       -3.921018     2.487893     1.353110
H       -2.503830     3.918312     1.357212
H       -0.631299     5.637646     1.308521
H        2.277126     5.245651    -0.626015
H        1.579766     6.238538     0.759581
H        2.644177     4.849461     1.062431
H        1.851378     2.638861    -0.432630
33
ex_0053 frame27 T-shaped N0-N1-ax/N1-eq-conf16
C        4.790112    -0.006522    -0.007589
C        3.330833     0.015823    -0.036536
N        2.135995    -0.021825     0.006435
Ag       0.000000     0.000000     0.000000
N       -2.109111     0.096711    -0.047987
C       -2.970396    -0.906726     0.046693
C       -4.201846    -0.820863    -0.669147
C       -5.239905    -1.882114    -0.656263
C       -4.423953     0.293652    -1.395753
C       -3.437019     1.344852    -1.430954
C       -2.274648     1.257080    -0.754651
C       -1.260706     2.275851    -0.747067
C       -1.347817     3.437097    -1.432628
C       -0.316220     4.437429    -1.416641
C        0.810580     4.223694    -0.686347
C        1.897268     5.247171    -0.651059
C        0.885682     2.987848     0.026981
N       -0.121430     2.107817    -0.018553
H        5.109124     0.134479    -1.054265
H        5.196907    -0.941377     0.424082
H        5.171045     0.806290     0.665189
H       -2.761559    -1.795091     0.642719
H       -4.871918    -2.829072    -0.248566
H       -5.614235    -2.049199    -1.686598
H       -6.123605    -1.576564    -0.052220
H       -5.348323     0.386391    -1.949904
H       -3.643086     2.205777    -2.012093
H       -2.222507     3.639039    -2.018949
H       -0.374718     5.366142    -1.953266
H        2.465445     5.155161     0.308790
H        2.559769     5.162151    -1.530451
H        1.481210     6.283327    -0.686265
H        1.747080     2.748804     0.623540
33
ex_0053 frame28 T-shaped N0-N1-ax/N1-eq-conf15
C        4.790405    -0.006593     0.004316
C        3.326845    -0.043470     0.003952
N        2.141028     0.021042     0.000587
Ag       0.000000     0.000000     0.000000
N       -2.109859     0.082858    -0.043564
C       -2.968033    -0.904946     0.047146
C       -4.203223    -0.820291    -0.670234
C       -5.239729    -1.881886    -0.656388
C       -4.424668     0.291442    -1.395063
C       -3.434777     1.345300    -1.430090
C       -2.274740     1.255283    -0.757464
C       -1.257744     2.272593    -0.752349
C       -1.348000     3.434769    -1.431495
C       -0.314600     4.438099    -1.416096
C        0.810180     4.225314    -0.687721
C        1.897082     5.247043    -0.651290
C        0.883882     2.985540     0.026595
N       -0.104553     2.100563    -0.028235
H        5.079871    -1.044947    -0.217096
H        5.090222     0.702506    -0.775354
H        5.180700     0.371101     0.980993
H       -2.761701    -1.795135     0.642835
H       -4.872010    -2.829000    -0.248670
H       -5.614311    -2.049086    -1.686562
H       -6.123642    -1.576642    -0.052183
H       -5.348301     0.386319    -1.949857
H       -3.642886     2.205743    -2.011967
H       -2.222574     3.638876    -2.018894
H       -0.374513     5.366095    -1.953128
H        2.465420     5.155180     0.308903
H        2.559750     5.162217    -1.530407
H        1.481235     6.283391    -0.686337
H        1.746956     2.748827     0.623601
33
ex_0053 frame29 T-shaped N0-N1-ax/N1-eq-conf9
C        4.787122    -0.004357     0.013631
C        3.312408     0.015023     0.015411
N        2.142828    -0.024386     0.005595
Ag       0.000000     0.000000     0.000000
N       -2.115839     0.067518     0.003311
C       -2.939002    -0.912449    -0.039382
C       -4.286541    -0.705600     0.454706
C       -5.248348    -1.850585     0.396869
C       -4.631874     0.487594     0.943409
C       -3.621930     1.546999     0.959006
C       -2.385263     1.360212     0.503067
C       -1.360301     2.386438     0.502862
C       -1.546940     3.622122     0.958992
C       -0.477677     4.621075     0.936648
C        0.715008     4.282913     0.450515
C        1.832016     5.241120     0.400430
C        0.900516     2.944436    -0.033787
N       -0.068763     2.115648     0.001185
H        5.110408     0.338515     1.004807
H        5.173782    -1.025557    -0.227928
H        5.075346     0.691255    -0.808126
H       -2.603843    -1.866686    -0.448674
H       -6.197950    -1.518456     0.854884
H       -5.351115    -2.190644    -0.645905
H       -4.843049    -2.708564     0.978888
H       -5.633968     0.643122     1.311131
H       -3.920855     2.487861     1.353046
H       -2.503925     3.918152     1.357191
H       -0.631206     5.637726     1.308516
H        2.277242     5.245523    -0.626035
H        1.579838     6.238377     0.759573
H        2.644226     4.849428     1.062458
H        1.851288     2.638896    -0.432680
