57
ex_0020 frame0 Isomer 1
C       -0.217186     1.934077     2.460325
C        0.821920     1.882996     1.389794
C        1.858671     2.672005     1.310417
C        2.819368     2.466072     0.146687
C        2.605432     1.507782    -0.779573
C        3.451463     1.281171    -1.862973
C        3.165570     0.249841    -2.807740
C        2.026634    -0.533318    -2.639630
C        1.244144    -0.268033    -1.576931
C        1.536448     0.748473    -0.646165
N        0.716902     0.976244     0.424580
Cu      -0.743884    -0.352622     0.240080
N        0.135249    -1.023967    -1.417822
C       -0.319406    -2.014697    -2.135591
C       -1.597580    -2.680808    -1.687190
C        0.395238    -2.341966    -3.200613
C        1.655419    -1.550295    -3.482806
N       -1.195351    -1.573424     1.747655
C       -0.312569    -2.354909     2.326637
C        1.106613    -2.320462     1.808193
C       -0.760283    -3.108940     3.324583
C       -2.223820    -3.010037     3.699677
C       -3.044843    -2.151409     3.012587
C       -4.408608    -1.978597     3.272096
C       -5.183550    -1.047229     2.488245
C       -4.576403    -0.311185     1.465583
C       -5.226744     0.594599     0.666806
C       -4.460617     1.326486    -0.411698
C       -3.166554     1.076477    -0.550565
C       -2.254249     1.713176    -1.565480
N       -2.639695     0.210051     0.255413
C       -3.266991    -0.513790     1.261859
C       -2.516623    -1.421119     2.021332
H       -0.683648     0.925695     2.623335
H       -0.957964     2.716225     2.207116
H        0.274084     2.203731     3.398603
H        2.013614     3.409821     2.039134
H        3.676529     3.082030     0.051186
H        4.312397     1.894108    -1.966590
H        3.803871     0.065551    -3.640422
H       -1.335941    -3.580228    -1.096494
H       -2.161999    -2.976656    -2.572442
H       -2.259861    -1.993685    -1.077153
H        0.127876    -3.114561    -3.860136
H        2.212593    -1.834072    -4.355210
H        1.529981    -3.321372     1.908476
H        1.663763    -1.517714     2.336757
H        1.178185    -2.060886     0.711466
H       -0.152837    -3.771751     3.862600
H       -2.556108    -3.635163     4.508057
H       -4.852296    -2.545591     4.052845
H       -6.219116    -0.901399     2.668886
H       -6.271676     0.826584     0.754592
H       -4.974566     2.017689    -1.009191
H       -2.341496     1.231540    -2.563134
H       -1.176968     1.774782    -1.231745
H       -2.601472     2.737146    -1.639965
57
ex_0020 frame1 Isomer 2
C        2.479446     2.451833    -0.276485
C        1.999701     1.997934     1.055715
C        2.516150     2.536295     2.152087
C        1.994951     2.041371     3.430499
C        1.054188     1.101599     3.484241
C        0.591127     0.663584     4.706230
C       -0.384647    -0.311477     4.741005
C       -0.901590    -0.852294     3.578212
C       -0.439296    -0.415630     2.343860
C        0.543248     0.566415     2.311037
N        1.042502     1.043132     1.211868
Cu       0.000000     0.000000     0.000000
N       -1.031407    -1.031102     1.231893
C       -1.898086    -1.897308     1.239885
C       -2.474602    -2.499653     0.000027
C       -2.410902    -2.383390     2.504455
C       -1.926890    -1.876146     3.641722
N       -1.055937     1.052723    -1.217119
C       -1.920910     1.940543    -1.138758
C       -2.089977     2.762614     0.086595
C       -2.788063     2.180897    -2.272415
C       -2.648890     1.437894    -3.383775
C       -1.620033     0.412454    -3.386041
C       -1.438405    -0.379621    -4.501066
C       -0.459323    -1.355642    -4.495447
C        0.368509    -1.593693    -3.416150
C        1.387971    -2.613352    -3.410327
C        2.148355    -2.787962    -2.332543
C        1.928857    -1.931296    -1.181237
C        2.781120    -2.140818     0.020682
N        1.052331    -1.056684    -1.217818
C        0.190494    -0.794204    -2.295087
C       -0.796880     0.193456    -2.296807
H        3.452115     2.939339    -0.154006
H        2.454060     1.647728    -1.022314
H        1.785497     3.248479    -0.664703
H        3.282602     3.302333     2.121604
H        2.373411     2.439018     4.371044
H        0.973104     1.064658     5.642113
H       -0.770334    -0.677744     5.694005
H       -3.565825    -2.384981     0.036557
H       -2.259355    -3.602113     0.106965
H       -2.018154    -2.089870    -0.919695
H       -3.170785    -3.142701     2.532438
H       -2.294748    -2.224371     4.601722
H       -1.163416     2.769049     0.696251
H       -2.885369     2.282068     0.717396
H       -2.474128     3.751457    -0.185844
H       -3.546118     2.938787    -2.272502
H       -3.300492     1.636806    -4.216975
H       -2.086544    -0.197440    -5.358823
H       -0.306563    -1.980749    -5.364836
H        1.538865    -3.236957    -4.280386
H        2.920210    -3.546780    -2.308061
H        3.836859    -1.936569    -0.300295
H        2.769474    -3.186016     0.377040
H        2.549489    -1.395781     0.800813
57
ex_0020 frame2 conf6
C        2.479100     2.451986    -0.276616
C        2.000083     1.998522     1.055674
C        2.516182     2.536240     2.152248
C        1.995118     2.041545     3.430889
C        1.054170     1.101609     3.484465
C        0.591065     0.663526     4.706410
C       -0.384840    -0.311663     4.741369
C       -0.902555    -0.853260     3.578471
C       -0.440104    -0.416404     2.344945
C        0.543343     0.566620     2.311956
N        1.051266     1.052136     1.212426
Cu       0.000000     0.000000     0.000000
N       -1.034654    -1.034110     1.245001
C       -1.900584    -1.899944     1.241069
C       -2.474337    -2.499862     0.000266
C       -2.410725    -2.383261     2.502344
C       -1.925441    -1.874676     3.642803
N       -1.056499     1.043893    -1.231978
C       -1.900804     1.966524    -1.139350
C       -1.662755     3.134245    -0.245190
C       -3.111624     1.872630    -1.919818
C       -3.310281     0.788270    -2.710795
C       -2.307436    -0.254234    -2.746201
C       -2.492037    -1.380671    -3.544047
C       -1.518047    -2.380697    -3.560156
C       -0.384909    -2.235888    -2.780897
C        0.597151    -3.312164    -2.829903
C        1.679166    -3.142858    -2.058027
C        1.888412    -1.974255    -1.233370
C        3.100147    -1.814772    -0.363230
N        1.040262    -1.060073    -1.236139
C       -0.163536    -1.128501    -1.989246
C       -1.146946    -0.134047    -1.984476
H        3.452273     2.939362    -0.154141
H        2.454165     1.647604    -1.022330
H        1.785580     3.248357    -0.664653
H        3.282613     3.302351     2.121619
H        2.373499     2.439104     4.370959
H        0.973095     1.064648     5.642090
H       -0.770251    -0.677661     5.693992
H       -3.565919    -2.384884     0.036432
H       -2.259374    -3.601991     0.106774
H       -2.019601    -2.091100    -0.918187
H       -3.170856    -3.142771     2.532453
H       -2.294774    -2.224397     4.601713
H       -0.611077     3.462179    -0.288295
H       -2.385363     3.925854    -0.522122
H       -1.847682     2.861107     0.820955
H       -3.883283     2.649091    -1.915980
H       -4.215841     0.708432    -3.318612
H       -3.388310    -1.436784    -4.131572
H       -1.642020    -3.253283    -4.174942
H        0.456441    -4.190877    -3.458664
H        2.431118    -3.939212    -2.085094
H        2.863560    -1.670804     0.700585
H        3.631526    -0.878042    -0.698295
H        3.792109    -2.656323    -0.498713
57
ex_0020 frame3 Isomer 1
C        0.573847    -3.455489     0.372266
C        0.987681    -2.647200     1.524569
C        1.397307    -3.171132     2.705361
C        1.792340    -2.230805     3.801267
C        1.748940    -0.918155     3.637899
C        2.094245     0.018096     4.592297
C        2.013333     1.404843     4.319578
C        1.586331     1.866910     3.089653
C        1.249110     0.933768     2.158055
C        1.329730    -0.449511     2.430470
N        0.994066    -1.344358     1.503163
Cu       0.463445    -0.260021    -0.030609
N        0.836893     1.368447     0.970503
C        0.684305     2.578606     0.499252
C        0.207243     2.828739    -0.867789
C        1.003695     3.541305     1.380472
C        1.479514     3.140685     2.746472
N        1.310080    -0.563743    -1.766657
C        2.502797    -0.528002    -1.947553
C        3.453591    -0.245523    -0.845872
C        2.905137    -0.784127    -3.324090
C        1.968832    -1.042088    -4.308078
C        0.576269    -1.059407    -3.976922
C       -0.478795    -1.300248    -4.841922
C       -1.822389    -1.285175    -4.366508
C       -2.097942    -1.030506    -3.035977
C       -3.394250    -0.983814    -2.418753
C       -3.506498    -0.715355    -1.067885
C       -2.333825    -0.474964    -0.244207
C       -2.369917    -0.181487     1.202394
N       -1.285788    -0.536010    -0.857771
C       -1.034505    -0.798514    -2.217731
C        0.259913    -0.812339    -2.671682
H        0.125899    -4.384653     0.769184
H       -0.227348    -2.883660    -0.177071
H        1.412194    -3.699171    -0.334511
H        1.433247    -4.235138     2.839902
H        2.123433    -2.602040     4.754711
H        2.426057    -0.342439     5.547619
H        2.281766     2.135526     5.061123
H        0.705179     3.770598    -1.203804
H       -0.880095     3.026111    -0.959503
H        0.557674     2.057959    -1.582845
H        0.915859     4.562451     1.098156
H        1.743024     3.876538     3.473275
H        3.655704     0.839619    -0.800583
H        4.400464    -0.801585    -1.022022
H        3.070783    -0.602692     0.132848
H        3.951605    -0.772551    -3.579329
H        2.258684    -1.230789    -5.319119
H       -0.246612    -1.493386    -5.857547
H       -2.649457    -1.468277    -5.016366
H       -4.256606    -1.161261    -3.030439
H       -4.483015    -0.682702    -0.615601
H       -3.297442     0.403452     1.369670
H       -2.424509    -1.074915     1.841433
H       -1.540224     0.515085     1.480793
57
ex_0020 frame4 conf14
C        0.053873     2.055790     2.889081
C        1.259421     1.959700     2.079074
C        2.262460     2.784600     2.253469
C        3.453160     2.616618     1.346651
C        3.501051     1.639428     0.372297
C        4.597864     1.469052    -0.473917
C        4.593213     0.449676    -1.483396
C        3.481355    -0.395954    -1.650181
C        2.429754    -0.230049    -0.816730
C        2.436565     0.800559     0.218996
N        1.361267     0.969560     1.089952
Cu       0.000000     0.000000     0.000000
N        1.342115    -1.085701    -0.995280
C        1.141748    -2.032840    -1.959746
C       -0.196491    -2.751453    -2.019033
C        2.149395    -2.263499    -2.793527
C        3.403683    -1.381843    -2.620121
N       -1.347216    -0.932647     1.052350
C       -1.300833    -1.958015     2.019811
C       -0.670901    -3.282124     1.676579
C       -1.817754    -1.737806     3.228377
C       -2.368719    -0.383595     3.549725
C       -2.374799     0.600513     2.613800
C       -2.889707     1.889575     2.891361
C       -2.876851     2.893986     1.879594
C       -2.359078     2.623706     0.605967
C       -2.329300     3.556308    -0.386380
C       -1.769996     3.237938    -1.736566
C       -1.262078     2.028398    -1.960097
C       -0.624857     1.692232    -3.284329
N       -1.327605     1.063310    -0.940621
C       -1.858580     1.360775     0.345810
C       -1.867320     0.346428     1.355002
H       -0.567151     1.930983     2.051173
H       -0.320227     3.060234     3.160670
H       -0.122405     1.214030     3.597081
H        2.140417     3.566908     3.003177
H        4.246660     3.324451     1.484026
H        5.426052     2.140197    -0.363744
H        5.426748     0.350509    -2.145133
H       -0.153401    -3.673829    -1.410791
H       -0.495808    -3.015045    -3.044421
H       -1.013758    -2.107196    -1.588108
H        2.023928    -3.005771    -3.573198
H        4.210480    -1.519631    -3.314398
H       -0.771375    -3.436730     0.597340
H        0.387023    -3.388392     1.992253
H       -1.286990    -4.089107     2.133503
H       -1.792150    -2.550010     3.939762
H       -2.772804    -0.152634     4.524288
H       -3.288735     2.097618     3.873142
H       -3.267947     3.879717     2.083988
H       -2.726563     4.533722    -0.155633
H       -1.729493     3.950343    -2.547269
H       -0.445302     0.607269    -3.411181
H       -1.339820     2.015674    -4.091220
H        0.323089     2.243469    -3.437189
57
ex_0020 frame5 conf7
C       -0.308742     1.876556     2.653207
C        0.966305     1.820762     1.936502
C        2.014313     2.649100     2.192916
C        3.256847     2.493715     1.377520
C        3.356321     1.585449     0.424375
C        4.458575     1.376440    -0.377970
C        4.460357     0.377174    -1.377989
C        3.359097    -0.427216    -1.589895
C        2.275362    -0.219057    -0.787549
C        2.273927     0.780842     0.213557
N        1.235651     0.999011     1.001727
Cu       0.000000     0.000000     0.000000
N        1.235242    -1.002189    -0.999531
C        0.976046    -1.946596    -1.835627
C       -0.304283    -2.658656    -1.882731
C        2.017849    -2.195278    -2.652606
C        3.265680    -1.379651    -2.499739
N       -1.213695    -1.054210     1.052189
C       -1.158023    -1.927091     1.933419
C        0.102463    -2.186316     2.677939
C       -2.373285    -2.696924     2.219878
C       -3.509994    -2.467523     1.545815
C       -3.499400    -1.437775     0.524264
C       -4.679544    -1.208915    -0.170514
C       -4.643717    -0.225744    -1.139705
C       -3.510740     0.510310    -1.428782
C       -3.510503     1.534383    -2.456388
C       -2.375069     2.203463    -2.680979
C       -1.153564     1.940260    -1.931993
C        0.090048     2.715736    -2.227977
N       -1.213465     1.052402    -1.054937
C       -2.354601     0.266580    -0.724223
C       -2.344816    -0.711345     0.258028
H       -0.470404     2.924855     2.964071
H       -1.125186     1.593639     1.927777
H       -0.349287     1.195888     3.546415
H        1.938835     3.386068     2.969792
H        4.113979     3.123163     1.551822
H        5.318774     1.999786    -0.211425
H        5.322769     0.211824    -2.001162
H       -0.063640    -3.706288    -2.193351
H       -1.029841    -2.293442    -2.637510
H       -0.759073    -2.765797    -0.877880
H        1.938787    -2.966115    -3.381119
H        4.115061    -1.554000    -3.124761
H        0.953814    -2.256658     1.959968
H        0.076673    -3.124321     3.236514
H        0.292995    -1.288115     3.302656
H       -2.358078    -3.470559     2.999555
H       -4.424045    -3.041290     1.761824
H       -5.579420    -1.773253     0.041656
H       -5.531938     0.004370    -1.717463
H       -4.412550     1.739832    -3.014938
H       -2.383264     2.968641    -3.449570
H        0.110257     3.064562    -3.274401
H        0.999850     2.135768    -1.966932
H        0.084593     3.610664    -1.559057
57
ex_0020 frame6 conf9
C       -0.300899     1.845014     2.676843
C        0.963152     1.815164     1.941182
C        1.998763     2.665945     2.182558
C        3.230770     2.532726     1.344262
C        3.332612     1.627361     0.389364
C        4.424780     1.439458    -0.431952
C        4.428640     0.440533    -1.432956
C        3.338391    -0.384374    -1.626229
C        2.265404    -0.197476    -0.804903
C        2.262127     0.801256     0.196321
N        1.235049     0.999314     1.002320
Cu       0.000000     0.000000     0.000000
N        1.235058    -1.002286    -0.999676
C        0.980428    -1.946642    -1.831094
C       -0.284288    -2.685916    -1.864084
C        2.015504    -2.177718    -2.670964
C        3.247239    -1.336978    -2.535038
N       -1.213592    -1.054172     1.052023
C       -1.158014    -1.927111     1.933379
C        0.102463    -2.186316     2.677940
C       -2.373289    -2.696925     2.219876
C       -3.509993    -2.467525     1.545817
C       -3.499396    -1.437783     0.524253
C       -4.679545    -1.208916    -0.170514
C       -4.643715    -0.225745    -1.139704
C       -3.510739     0.510308    -1.428782
C       -3.510501     1.534386    -2.456391
C       -2.375073     2.203462    -2.680980
C       -1.153560     1.940252    -1.931996
C        0.090048     2.715736    -2.227978
N       -1.213377     1.052296    -1.054826
C       -2.354606     0.266581    -0.724256
C       -2.344825    -0.711405     0.258011
H       -1.144184     1.557594     2.007980
H       -0.493949     2.889190     2.990534
H       -0.275857     1.217274     3.596461
H        1.915998     3.390571     2.954033
H        4.077901     3.178525     1.505085
H        5.270169     2.076954    -0.278256
H        5.274753     0.294134    -2.063439
H       -0.192147    -3.628098    -1.289046
H       -0.469833    -2.987006    -2.932426
H       -1.163607    -2.078263    -1.568053
H        1.939507    -2.947944    -3.398559
H        4.096759    -1.494322    -3.178949
H        0.953814    -2.256658     1.959968
H        0.076673    -3.124321     3.236514
H        0.292994    -1.288115     3.302656
H       -2.358078    -3.470559     2.999555
H       -4.424045    -3.041290     1.761824
H       -5.579420    -1.773253     0.041656
H       -5.531938     0.004370    -1.717463
H       -4.412549     1.739832    -3.014937
H       -2.383264     2.968641    -3.449570
H        0.110257     3.064562    -3.274400
H        0.999845     2.135775    -1.966939
H        0.084594     3.610663    -1.559057
57
ex_0020 frame7 Isomer 2
C        2.572477    -0.123554    -2.663582
C        2.937650    -1.280685    -1.831502
C        4.013868    -2.030365    -2.014496
C        4.310308    -3.184370    -1.125629
C        3.462432    -3.440343    -0.142492
C        3.649302    -4.505065     0.752144
C        2.713667    -4.736357     1.786392
C        1.612275    -3.917472     1.921555
C        1.486822    -2.905244     1.026736
C        2.388068    -2.667698     0.015825
N        2.233807    -1.693562    -0.817248
Cu       0.627326    -0.760788    -0.304939
N        0.467393    -2.123671     1.129693
C       -0.537906    -2.124017     1.990468
C       -1.633904    -1.145995     1.959001
C       -0.484901    -3.118480     2.930929
C        0.681017    -4.052784     2.855581
N       -0.905988    -0.927294    -1.555278
C       -1.078197    -1.880500    -2.273078
C       -0.156282    -3.042413    -2.262647
C       -2.261680    -1.820474    -3.162162
C       -3.080401    -0.708227    -3.119379
C       -2.784339     0.373064    -2.222443
C       -3.499696     1.540339    -2.063529
C       -3.079044     2.526094    -1.126666
C       -1.926598     2.318396    -0.352077
C       -1.416672     3.242897     0.617787
C       -0.282000     2.873020     1.279603
C        0.402646     1.625377     1.046256
C        1.636311     1.213084     1.759999
N       -0.117111     0.945161     0.217983
C       -1.257817     1.171631    -0.535594
C       -1.672926     0.232449    -1.439750
H        2.109242     0.709401    -2.146550
H        3.549901     0.300336    -3.034809
H        2.075587    -0.478034    -3.586218
H        4.677608    -1.787542    -2.826562
H        5.170636    -3.799206    -1.256272
H        4.505753    -5.140859     0.645391
H        2.829042    -5.539360     2.483038
H       -2.215952    -1.180487     0.993372
H       -2.400497    -1.549023     2.660093
H       -1.458497    -0.145476     2.351665
H       -1.245085    -3.209451     3.674041
H        0.781711    -4.853224     3.561573
H       -0.700704    -3.813822    -2.843693
H        0.786065    -2.958857    -2.777012
H       -0.127221    -3.541123    -1.251447
H       -2.475268    -2.627222    -3.824906
H       -3.942989    -0.628908    -3.745014
H       -4.368482     1.670874    -2.662559
H       -3.615067     3.425727    -0.991197
H       -1.923388     4.158538     0.784599
H        0.122965     3.549156     2.014946
H        2.326591     0.608328     1.182679
H        1.316025     0.827839     2.735779
H        2.181731     2.163604     1.995972
57
ex_0020 frame8 conf22
C       -0.309044     1.876648     2.653137
C        0.967881     1.820925     1.937838
C        2.013873     2.649146     2.193221
C        3.257450     2.494138     1.377650
C        3.356112     1.584367     0.424470
C        4.458971     1.376744    -0.377892
C        4.460750     0.377092    -1.378294
C        3.358899    -0.427282    -1.588889
C        2.276792    -0.220303    -0.786204
C        2.275509     0.779527     0.214924
N        1.241518     1.002709     1.008308
Cu       0.000000     0.000000     0.000000
N        1.239723    -1.009519    -1.003628
C        0.977412    -1.947741    -1.835428
C       -0.304187    -2.659250    -1.883040
C        2.017490    -2.195597    -2.652744
C        3.266157    -1.379784    -2.500097
N       -1.224564    -1.053650     1.047353
C       -1.130074    -1.903023     1.961431
C       -0.105243    -1.762722     3.034272
C       -2.038654    -3.028080     1.956248
C       -2.950396    -3.139622     0.960625
C       -2.989722    -2.132025    -0.079893
C       -3.912725    -2.229140    -1.117860
C       -3.931256    -1.253198    -2.116293
C       -3.030482    -0.206609    -2.055018
C       -3.088133     0.782664    -3.128827
C       -2.198390     1.777642    -3.043784
C       -1.238761     1.893705    -1.966370
C       -0.240682     3.012936    -1.901909
N       -1.229042     1.044900    -1.056444
C       -2.107610    -0.075823    -1.034231
C       -2.101461    -1.054197    -0.047938
H       -0.470473     2.924868     2.964115
H       -1.125148     1.593682     1.927872
H       -0.349411     1.196959     3.546442
H        1.938871     3.386142     2.969827
H        4.113971     3.123242     1.551905
H        5.318862     1.999769    -0.211488
H        5.322850     0.211890    -2.001139
H       -0.063696    -3.706259    -2.193316
H       -1.029752    -2.293407    -2.637558
H       -0.758047    -2.766614    -0.878403
H        1.938828    -2.966192    -3.381242
H        4.115099    -1.554088    -3.124869
H       -0.007319    -0.715030     3.359205
H       -0.372208    -2.457648     3.853527
H        0.903458    -2.053712     2.655124
H       -2.033548    -3.799565     2.732874
H       -3.652573    -3.977786     0.946493
H       -4.590883    -3.060779    -1.109184
H       -4.640964    -1.309695    -2.920966
H       -3.814228     0.709901    -3.937382
H       -2.228720     2.533522    -3.836888
H        0.802484     2.668919    -1.865468
H       -0.423261     3.570882    -0.938619
H       -0.390133     3.719538    -2.728807
57
ex_0020 frame9 conf24
C       -0.301209     1.845222     2.676862
C        0.964916     1.815327     1.942663
C        1.998297     2.665885     2.182807
C        3.231412     2.533212     1.344413
C        3.332417     1.626148     0.389490
C        4.425171     1.439774    -0.431876
C        4.428993     0.440473    -1.433233
C        3.338224    -0.384470    -1.625121
C        2.267025    -0.198892    -0.803413
C        2.263966     0.799802     0.197867
N        1.241355     1.003240     1.009557
Cu       0.000000     0.000000     0.000000
N        1.240294    -1.009907    -1.003893
C        0.981953    -1.947932    -1.831004
C       -0.284245    -2.686341    -1.864597
C        2.015121    -2.178025    -2.670978
C        3.247810    -1.337127    -2.535479
N       -1.225051    -1.053840     1.047309
C       -1.130159    -1.903113     1.961538
C       -0.105231    -1.762730     3.034264
C       -2.038577    -3.028026     1.956291
C       -2.950416    -3.139580     0.960507
C       -2.989858    -2.132258    -0.079550
C       -3.912774    -2.229145    -1.117847
C       -3.931273    -1.253211    -2.116275
C       -3.030692    -0.206371    -2.055065
C       -3.088153     0.782560    -3.128748
C       -2.198305     1.777724    -3.043758
C       -1.238845     1.893844    -1.966421
C       -0.240692     3.012945    -1.901903
N       -1.229656     1.044848    -1.056633
C       -2.107634    -0.075083    -1.034402
C       -2.100704    -1.054413    -0.046353
H       -1.144169     1.557579     2.008001
H       -0.493988     2.889202     2.990554
H       -0.275943     1.218208     3.596535
H        1.916041     3.390712     2.954125
H        4.077894     3.178609     1.505172
H        5.270294     2.076957    -0.278325
H        5.274900     0.294195    -2.063462
H       -0.192153    -3.628090    -1.289007
H       -0.469868    -2.986984    -2.932328
H       -1.159836    -2.082125    -1.572755
H        1.939549    -2.948034    -3.398696
H        4.096754    -1.494407    -3.179031
H       -0.007376    -0.714970     3.359203
H       -0.372204    -2.457646     3.853532
H        0.903455    -2.053710     2.655123
H       -2.033543    -3.799561     2.732873
H       -3.652568    -3.977786     0.946493
H       -4.590888    -3.060781    -1.109192
H       -4.640968    -1.309698    -2.920969
H       -3.814226     0.709903    -3.937383
H       -2.228717     2.533519    -3.836884
H        0.802487     2.668915    -1.865473
H       -0.423259     3.570879    -0.938626
H       -0.390132     3.719540    -2.728812
57
ex_0020 frame10 conf26
C        0.378762     3.229266     1.301107
C        1.134243     2.027291     1.805756
C        1.668892     1.921996     2.963733
C        2.324520     0.583985     3.324643
C        2.363167    -0.410346     2.434079
C        2.941529    -1.656804     2.686585
C        2.939436    -2.669902     1.672086
C        2.366636    -2.429592     0.431780
C        1.862626    -1.332987     0.222082
C        1.860720    -0.214437     1.331285
N        1.300935     0.956729     1.051773
Cu       0.000000     0.000000     0.000000
N        1.301173    -1.056698    -0.953077
C        1.137825    -1.824152    -2.016298
C        0.377434    -1.334328    -3.231329
C        1.677726    -2.984460    -1.900495
C        2.331263    -3.331738    -0.558173
N       -1.313328    -1.051342     1.036917
C       -1.174199    -1.972431     2.008804
C       -0.114217    -1.772923     3.034593
C       -2.001868    -3.012328     1.989254
C       -2.974318    -3.118057     0.914433
C       -3.011091    -2.151554    -0.066346
C       -3.910511    -2.233090    -1.114116
C       -3.931452    -1.259566    -2.112378
C       -3.059863    -0.181527    -2.097771
C       -3.098512     0.738228    -3.092660
C       -2.153100     1.827711    -3.039890
C       -1.273899     1.938395    -2.028460
C       -0.251879     3.015473    -1.913859
N       -1.332552     1.008967    -1.064309
C       -2.176911    -0.065768    -1.075676
C       -2.160415    -1.106090    -0.009726
H       -0.726773     3.219620     1.478404
H        0.888602     4.083153     1.783854
H        0.676365     3.327973     0.290829
H        1.560550     2.678786     3.688472
H        2.726845     0.423779     4.279174
H        3.380435    -1.821808     3.626571
H        3.385200    -3.616345     1.849489
H        1.058296    -0.841005    -3.955347
H       -0.086383    -2.229731    -3.680223
H       -0.429214    -0.626285    -3.015300
H        1.580435    -3.711626    -2.654191
H        2.742790    -4.284299    -0.390525
H       -0.017791    -0.714373     3.364409
H       -0.368243    -2.456506     3.858080
H        0.835722    -2.080275     2.662061
H       -2.027997    -3.797139     2.732190
H       -3.651210    -3.975662     0.945597
H       -4.595335    -3.061353    -1.114426
H       -4.643813    -1.313091    -2.921513
H       -3.811898     0.709958    -3.935214
H       -2.224361     2.533292    -3.836026
H        0.803705     2.665008    -1.869009
H       -0.500908     3.589517    -1.028098
H       -0.388017     3.721117    -2.734062
57
ex_0020 frame11 conf11
C        0.365406     3.228195     1.291862
C        1.080822     2.018173     1.740912
C        1.606693     1.869692     2.977419
C        2.274991     0.570497     3.313797
C        2.343990    -0.419262     2.439545
C        2.923205    -1.651781     2.669796
C        2.930279    -2.658661     1.669803
C        2.349344    -2.439727     0.430562
C        1.806873    -1.227789     0.205010
C        1.805876    -0.203626     1.225204
N        1.277563     0.989770     1.013401
Cu       0.000000     0.000000     0.000000
N        1.276843    -1.014923    -0.991253
C        1.091720    -1.768199    -2.015040
C        0.379933    -1.330150    -3.224823
C        1.620780    -2.991727    -1.850101
C        2.287672    -3.322513    -0.548569
N       -1.242158    -1.058508     1.053414
C       -1.162098    -1.931265     1.939027
C        0.100670    -2.186660     2.678132
C       -2.367675    -2.696455     2.221430
C       -3.511885    -2.464591     1.542201
C       -3.501590    -1.440254     0.527435
C       -4.678684    -1.208328    -0.170786
C       -4.645179    -0.225222    -1.140819
C       -3.511062     0.512946    -1.430244
C       -3.513057     1.530273    -2.453226
C       -2.369685     2.205425    -2.680730
C       -1.158014     1.945296    -1.936257
C        0.090234     2.715551    -2.227513
N       -1.240552     1.053086    -1.059541
C       -2.355668     0.269817    -0.723615
C       -2.346867    -0.711650     0.262264
H       -0.727190     3.220584     1.477597
H        0.894088     4.080529     1.784837
H        0.600337     3.340800     0.205297
H        1.564082     2.676635     3.681512
H        2.725766     0.421160     4.269881
H        3.375007    -1.816261     3.621296
H        3.383436    -3.613221     1.844145
H        1.055640    -0.839867    -3.957324
H       -0.085247    -2.231552    -3.675546
H       -0.427480    -0.627059    -3.017864
H        1.583821    -3.704666    -2.652034
H        2.741967    -4.275339    -0.387727
H        0.936026    -2.259471     1.967806
H        0.076507    -3.124456     3.236963
H        0.291920    -1.288752     3.303302
H       -2.358084    -3.470405     2.999357
H       -4.423776    -3.041185     1.761824
H       -5.579491    -1.773187     0.041561
H       -5.532085     0.004153    -1.717305
H       -4.412579     1.739944    -3.015063
H       -2.383188     2.968662    -3.449597
H        0.110308     3.064536    -3.274550
H        0.999859     2.135623    -1.967015
H        0.083763     3.611061    -1.562154
