37
ex_0246 frame0 SP-4-chelate-1
Au       0.000000     0.000000     0.000000
C        4.495427    -2.120909    -3.540260
C        3.321374    -1.154414    -3.327287
C        3.915966     0.119317    -2.836968
N        2.875852     1.167248    -2.584004
C        2.542449     1.979748    -3.585708
Se       3.131914     2.052325    -5.244805
S        1.248855     3.114006    -2.884932
C        1.251491     2.227184    -1.341173
C        2.252115     1.214522    -1.459397
S        2.397298     0.247108    -0.000000
S        0.247108     2.397298    -0.000000
H        4.834770    -2.390130    -2.511273
H        5.368737    -1.616346    -3.999166
H        4.183448    -3.049712    -4.038699
H        2.701888    -1.661595    -2.559561
H        2.711464    -1.059606    -4.231765
H        4.461700    -0.083387    -1.899323
H        4.650871     0.567907    -3.523065
S       -0.009199    -2.409982     0.000000
C       -1.462208    -2.601913    -0.886515
C       -2.457594    -1.485002    -0.899832
S       -2.409982    -0.009199    -0.000000
N       -3.467575    -1.623870    -1.646090
C       -4.480062    -0.530510    -1.826509
C       -4.104223     0.336671    -3.005636
C       -5.062685     1.459450    -3.262708
C       -3.705328    -2.779078    -2.333122
Se      -5.115597    -3.186530    -3.446345
S       -2.335238    -3.864108    -1.932218
H       -4.481458     0.117599    -0.930350
H       -5.473547    -0.989369    -1.945525
H       -3.102983     0.774282    -2.764057
H       -4.001969    -0.273455    -3.943925
H       -5.873603     1.121012    -3.961621
H       -4.532991     2.308400    -3.754487
H       -5.500110     1.835115    -2.307685
37
ex_0246 frame1 SP-4-chelate-1-conf2
Au       0.000000     0.000000     0.000000
C        4.495427    -2.120909    -3.540260
C        3.321374    -1.154414    -3.327287
C        3.915966     0.119317    -2.836968
N        2.875852     1.167248    -2.584004
C        2.542449     1.979748    -3.585708
Se       3.131914     2.052325    -5.244805
S        1.248855     3.114006    -2.884932
C        1.251491     2.227184    -1.341173
C        2.252115     1.214522    -1.459397
S        2.397298     0.247108    -0.000000
S        0.247108     2.397298    -0.000000
H        4.834770    -2.390130    -2.511273
H        5.368737    -1.616346    -3.999166
H        4.183448    -3.049712    -4.038699
H        2.701888    -1.661595    -2.559561
H        2.711464    -1.059606    -4.231765
H        4.461700    -0.083387    -1.899323
H        4.650871     0.567907    -3.523065
S       -2.398131     0.238891    -0.000000
C       -2.547569    -1.557831    -0.006534
C       -1.442308    -2.567688    -0.005597
S        0.238891    -2.398131     0.000000
N       -1.829976    -3.762349    -0.007396
C       -0.855093    -4.900623    -0.001221
C       -0.520220    -5.300339    -1.414838
C        0.472012    -6.458855    -1.464002
C       -3.150768    -4.105897    -0.014109
Se      -3.968907    -5.648919    -0.021129
S       -4.021829    -2.445076    -0.014476
H       -1.268380    -5.717519     0.607132
H        0.076789    -4.568533     0.508975
H       -0.159165    -4.461186    -2.022708
H       -1.482399    -5.644049    -1.888554
H        1.076235    -6.430257    -2.391289
H        1.158346    -6.434161    -0.586651
H       -0.068642    -7.423496    -1.415809
37
ex_0246 frame2 SP-4-chelate-1-conf3
Au       0.000000     0.000000     0.000000
C       -0.304330     6.418361     3.104341
C        0.720817     5.357728     2.804915
C        0.081155     3.993666     2.932096
N        1.057422     2.920856     2.645075
C        1.809283     2.402463     3.677088
Se       1.664606     2.998188     5.487676
S        2.833808     1.193632     3.047988
C        2.139608     1.306151     1.425336
C        1.153896     2.314486     1.540991
S        0.341064     2.385744     0.000000
S        2.385744     0.341064    -0.000000
H       -1.323071     5.972355     3.281008
H       -0.382094     7.162177     2.292657
H        0.021049     6.948364     4.022893
H        1.579913     5.393629     3.534459
H        1.135238     5.470544     1.802575
H       -0.358793     3.810232     3.923816
H       -0.730711     3.974934     2.173925
S       -0.009199    -2.409982     0.000000
C       -1.462208    -2.601913    -0.886515
C       -2.457594    -1.485002    -0.899832
S       -2.409982    -0.009199    -0.000000
N       -3.467575    -1.623870    -1.646090
C       -4.480062    -0.530510    -1.826509
C       -4.104223     0.336671    -3.005636
C       -5.062685     1.459450    -3.262708
C       -3.705328    -2.779078    -2.333122
Se      -5.115597    -3.186530    -3.446345
S       -2.335238    -3.864108    -1.932218
H       -4.481458     0.117599    -0.930350
H       -5.473547    -0.989369    -1.945525
H       -3.102983     0.774282    -2.764057
H       -4.001969    -0.273455    -3.943925
H       -5.873603     1.121012    -3.961621
H       -4.532991     2.308400    -3.754487
H       -5.500110     1.835115    -2.307685
37
ex_0246 frame3 SP-4-chelate-1-conf4
Au       0.000000     0.000000     0.000000
C        4.495427    -2.120909    -3.540260
C        3.321374    -1.154414    -3.327287
C        3.915966     0.119317    -2.836968
N        2.875852     1.167248    -2.584004
C        2.542449     1.979748    -3.585708
Se       3.131914     2.052325    -5.244805
S        1.248855     3.114006    -2.884932
C        1.251491     2.227184    -1.341173
C        2.252115     1.214522    -1.459397
S        2.397298     0.247108    -0.000000
S        0.247108     2.397298    -0.000000
H        4.834770    -2.390130    -2.511273
H        5.368737    -1.616346    -3.999166
H        4.183448    -3.049712    -4.038699
H        2.701888    -1.661595    -2.559561
H        2.711464    -1.059606    -4.231765
H        4.461700    -0.083387    -1.899323
H        4.650871     0.567907    -3.523065
S       -2.390279    -0.307679     0.000000
C       -2.593917    -1.428280     1.489185
C       -1.421961    -2.368862     1.407782
S       -0.307679    -2.390279     0.000000
N       -1.359636    -3.076245     2.484032
C       -0.254031    -4.057953     2.719072
C        0.911837    -3.386854     3.361832
C        2.046793    -4.382052     3.607706
C       -2.287722    -2.958686     3.468893
Se      -2.300927    -3.854362     5.112483
S       -3.472588    -1.801114     2.896657
H       -0.589993    -4.873397     3.367316
H        0.023670    -4.520685     1.757282
H        1.348384    -2.650694     2.646969
H        0.653682    -2.937269     4.338296
H        2.988556    -3.821235     3.706326
H        1.819941    -4.954511     4.516892
H        2.174985    -5.053444     2.714093
37
ex_0246 frame4 SP-4-chelate-1-conf5
Au       0.000000     0.000000     0.000000
C       -0.304330     6.418361     3.104341
C        0.720817     5.357728     2.804915
C        0.081155     3.993666     2.932096
N        1.057422     2.920856     2.645075
C        1.809283     2.402463     3.677088
Se       1.664606     2.998188     5.487676
S        2.833808     1.193632     3.047988
C        2.139608     1.306151     1.425336
C        1.153896     2.314486     1.540991
S        0.341064     2.385744     0.000000
S        2.385744     0.341064    -0.000000
H       -1.323071     5.972355     3.281008
H       -0.382094     7.162177     2.292657
H        0.021049     6.948364     4.022893
H        1.579913     5.393629     3.534459
H        1.135238     5.470544     1.802575
H       -0.358793     3.810232     3.923816
H       -0.730711     3.974934     2.173925
S       -2.398131     0.238891    -0.000000
C       -2.547569    -1.557831    -0.006534
C       -1.442308    -2.567688    -0.005597
S        0.238891    -2.398131     0.000000
N       -1.829976    -3.762349    -0.007396
C       -0.855093    -4.900623    -0.001221
C       -0.520220    -5.300339    -1.414838
C        0.472012    -6.458855    -1.464002
C       -3.150768    -4.105897    -0.014109
Se      -3.968907    -5.648919    -0.021129
S       -4.021829    -2.445076    -0.014476
H       -1.268380    -5.717519     0.607132
H        0.076789    -4.568533     0.508975
H       -0.159165    -4.461186    -2.022708
H       -1.482399    -5.644049    -1.888554
H        1.076235    -6.430257    -2.391289
H        1.158346    -6.434161    -0.586651
H       -0.068642    -7.423496    -1.415809
37
ex_0246 frame5 SP-4-chelate-1-conf6
Au       0.000000     0.000000     0.000000
C        4.495427    -2.120909    -3.540260
C        3.321374    -1.154414    -3.327287
C        3.915966     0.119317    -2.836968
N        2.875852     1.167248    -2.584004
C        2.542449     1.979748    -3.585708
Se       3.131914     2.052325    -5.244805
S        1.248855     3.114006    -2.884932
C        1.251491     2.227184    -1.341173
C        2.252115     1.214522    -1.459397
S        2.397298     0.247108    -0.000000
S        0.247108     2.397298    -0.000000
H        4.834770    -2.390130    -2.511273
H        5.368737    -1.616346    -3.999166
H        4.183448    -3.049712    -4.038699
H        2.701888    -1.661595    -2.559561
H        2.711464    -1.059606    -4.231765
H        4.461700    -0.083387    -1.899323
H        4.650871     0.567907    -3.523065
S       -0.000588    -2.410000     0.000000
C       -1.402374    -2.412948    -1.028842
C       -2.365953    -1.414770    -1.082323
S       -2.410000    -0.000588     0.000000
N       -3.291940    -1.519476    -1.973106
C       -4.322853    -0.461912    -2.173741
C       -5.489339    -0.783611    -1.286636
C       -6.569567     0.268317    -1.455643
C       -3.344586    -2.614244    -2.755879
Se      -4.496124    -3.044219    -4.057187
S       -1.947591    -3.627762    -2.209956
H       -4.636960    -0.441757    -3.209790
H       -3.880679     0.531703    -1.941028
H       -5.102035    -0.744486    -0.229797
H       -5.890640    -1.777961    -1.519308
H       -6.549282     0.949228    -0.582236
H       -6.418232     0.800903    -2.428039
H       -7.548569    -0.251473    -1.447399
37
ex_0246 frame6 SP-4-chelate-1-conf7
Au       0.000000     0.000000     0.000000
C       -0.304330     6.418361     3.104341
C        0.720817     5.357728     2.804915
C        0.081155     3.993666     2.932096
N        1.057422     2.920856     2.645075
C        1.809283     2.402463     3.677088
Se       1.664606     2.998188     5.487676
S        2.833808     1.193632     3.047988
C        2.139608     1.306151     1.425336
C        1.153896     2.314486     1.540991
S        0.341064     2.385744     0.000000
S        2.385744     0.341064    -0.000000
H       -1.323071     5.972355     3.281008
H       -0.382094     7.162177     2.292657
H        0.021049     6.948364     4.022893
H        1.579913     5.393629     3.534459
H        1.135238     5.470544     1.802575
H       -0.358793     3.810232     3.923816
H       -0.730711     3.974934     2.173925
S       -2.390279    -0.307679     0.000000
C       -2.593917    -1.428280     1.489185
C       -1.421961    -2.368862     1.407782
S       -0.307679    -2.390279     0.000000
N       -1.359636    -3.076245     2.484032
C       -0.254031    -4.057953     2.719072
C        0.911837    -3.386854     3.361832
C        2.046793    -4.382052     3.607706
C       -2.287722    -2.958686     3.468893
Se      -2.300927    -3.854362     5.112483
S       -3.472588    -1.801114     2.896657
H       -0.589993    -4.873397     3.367316
H        0.023670    -4.520685     1.757282
H        1.348384    -2.650694     2.646969
H        0.653682    -2.937269     4.338296
H        2.988556    -3.821235     3.706326
H        1.819941    -4.954511     4.516892
H        2.174985    -5.053444     2.714093
37
ex_0246 frame7 SP-4-chelate-1-conf8
Au       0.000000     0.000000     0.000000
C        4.495427    -2.120909    -3.540260
C        3.321374    -1.154414    -3.327287
C        3.915966     0.119317    -2.836968
N        2.875852     1.167248    -2.584004
C        2.542449     1.979748    -3.585708
Se       3.131914     2.052325    -5.244805
S        1.248855     3.114006    -2.884932
C        1.251491     2.227184    -1.341173
C        2.252115     1.214522    -1.459397
S        2.397298     0.247108    -0.000000
S        0.247108     2.397298    -0.000000
H        4.834770    -2.390130    -2.511273
H        5.368737    -1.616346    -3.999166
H        4.183448    -3.049712    -4.038699
H        2.701888    -1.661595    -2.559561
H        2.711464    -1.059606    -4.231765
H        4.461700    -0.083387    -1.899323
H        4.650871     0.567907    -3.523065
S       -0.288424    -2.392679    -0.000000
C       -1.255637    -2.231897     1.381621
C       -2.207129    -1.237289     1.471729
S       -2.392679    -0.288424     0.000000
N       -2.802168    -1.089817     2.607404
C       -3.829826    -0.023886     2.816382
C       -5.213840    -0.465285     2.484882
C       -5.718387    -1.627539     3.279421
C       -2.490139    -1.878656     3.632572
Se      -3.045323    -1.901997     5.332044
S       -1.285734    -3.069814     3.012204
H       -3.749641     0.362814     3.833240
H       -3.592409     0.831548     2.148722
H       -5.223284    -0.790113     1.400568
H       -5.943142     0.367323     2.527665
H       -6.717223    -1.920572     2.850826
H       -5.905374    -1.392554     4.340317
H       -5.067136    -2.504908     3.101995
