87
ex_0332 frame0 OC-6-chelate-1
Ni       0.000000     0.000000     0.000000
C        3.701286     1.780682     0.000426
C        2.247010     1.605207     0.000365
N        1.921281     0.333437     0.000317
C        2.786989    -0.661144    -0.016337
C        3.610046    -0.902312     1.070423
C        4.567338    -1.894459     1.013808
C        4.697954    -2.689425    -0.102944
C        3.852424    -2.484873    -1.182429
C        2.895965    -1.490089    -1.119981
N       -1.918385     0.349714     0.000317
C       -2.802995    -0.605330     0.018562
C       -3.622998    -0.859548    -1.084055
C       -4.607198    -1.819332    -1.001319
C       -4.803307    -2.596566     0.133734
C       -3.961164    -2.374366     1.206435
C       -2.981028    -1.417501     1.122047
C       -2.187333     1.645803     0.000082
C       -3.644804     1.871904     0.000389
C       -1.175729     2.674265    -0.000167
N       -0.016278     1.949932     0.000000
C        1.272040     2.682158     0.000239
C        1.353304     3.998430     0.000297
C        0.037336     4.700011    -0.000157
C       -1.189499     4.128633    -0.000511
H        4.193056     1.287087    -0.868559
H        3.980971     2.871706    -0.067990
H        4.197218     1.379847     0.907239
H        3.478184    -0.256553     1.934218
H        5.228914    -2.067050     1.837365
H        5.441156    -3.477413    -0.176704
H        3.948971    -3.106942    -2.065849
H        2.249604    -1.359381    -1.988356
H       -3.472044    -0.252970    -1.973611
H       -5.237013    -1.955113    -1.861560
H       -5.575754    -3.349547     0.198090
H       -4.077189    -2.963208     2.124219
H       -2.345553    -1.278022     1.985334
H       -4.030204     1.559035    -0.998249
H       -4.152043     1.336930     0.839215
H       -3.880410     2.972712     0.099576
H        2.297180     4.429832     0.000549
H        0.062179     5.807927    -0.000212
H       -2.118986     4.599726    -0.000829
N        0.000517    -0.237131     1.935528
C        0.004039     0.804897     2.749256
C       -1.164618     1.280628     3.339384
C       -1.155615     2.344887     4.221897
C        0.036666     2.988430     4.528807
C        1.198083     2.546070     3.939397
C        1.180778     1.481548     3.058251
C        0.000398    -1.536840     2.285474
C        0.000643    -1.787317     3.737685
C        0.000065    -2.581255     1.269457
C       -0.000165    -3.899146     1.342244
C       -0.000436    -4.603606     0.032365
C       -0.000457    -4.016755    -1.186324
C       -0.000049    -2.563237    -1.168073
N        0.000000    -1.949954    -0.013377
C        0.000840    -1.550767    -2.202635
C        0.002183    -1.789220    -3.650494
N        0.000517    -0.250508    -1.933842
C        0.022299     0.743883    -2.731011
C        1.198980     1.448191    -3.000515
C        1.224887     2.465444    -3.935559
C        0.062368     2.846237    -4.600082
C       -1.128756     2.183987    -4.306401
C       -1.141355     1.169186    -3.370055
H       -2.135383     0.826204     3.147279
H       -2.047170     2.722307     4.705808
H        0.076045     3.830356     5.220800
H        2.124966     3.066473     4.194698
H        2.117980     1.169134     2.619643
H       -0.809804    -1.253398     4.289711
H        1.001318    -1.484468     4.128976
H       -0.131841    -2.876514     3.968447
H       -0.000135    -4.332509     2.288356
H       -0.000640    -5.712085     0.053312
H       -0.000637    -4.488713    -2.116361
H       -0.845131    -1.328044    -4.189135
H       -0.052739    -2.890365    -3.899554
H        0.992699    -1.492172    -4.104951
H        2.140805     1.183720    -2.502903
H        2.167287     2.960492    -4.141133
H        0.049972     3.632729    -5.331718
H       -2.062908     2.443500    -4.797340
H       -2.083772     0.665040    -3.156038
87
ex_0332 frame1 OC-6-chelate-1-conf2
Ni       0.000000     0.000000     0.000000
C        3.701286     1.780682     0.000426
C        2.247010     1.605207     0.000365
N        1.921281     0.333437     0.000317
C        2.786989    -0.661144    -0.016337
C        3.610046    -0.902312     1.070423
C        4.567338    -1.894459     1.013808
C        4.697954    -2.689425    -0.102944
C        3.852424    -2.484873    -1.182429
C        2.895965    -1.490089    -1.119981
N       -1.918385     0.349714     0.000317
C       -2.802995    -0.605330     0.018562
C       -3.622998    -0.859548    -1.084055
C       -4.607198    -1.819332    -1.001319
C       -4.803307    -2.596566     0.133734
C       -3.961164    -2.374366     1.206435
C       -2.981028    -1.417501     1.122047
C       -2.187333     1.645803     0.000082
C       -3.644804     1.871904     0.000389
C       -1.175729     2.674265    -0.000167
N       -0.016278     1.949932     0.000000
C        1.272040     2.682158     0.000239
C        1.353304     3.998430     0.000297
C        0.037336     4.700011    -0.000157
C       -1.189499     4.128633    -0.000511
H        4.193056     1.287087    -0.868559
H        3.980971     2.871706    -0.067990
H        4.197218     1.379847     0.907239
H        3.478184    -0.256553     1.934218
H        5.228914    -2.067050     1.837365
H        5.441156    -3.477413    -0.176704
H        3.948971    -3.106942    -2.065849
H        2.249604    -1.359381    -1.988356
H       -3.472044    -0.252970    -1.973611
H       -5.237013    -1.955113    -1.861560
H       -5.575754    -3.349547     0.198090
H       -4.077189    -2.963208     2.124219
H       -2.345553    -1.278022     1.985334
H       -4.030204     1.559035    -0.998249
H       -4.152043     1.336930     0.839215
H       -3.880410     2.972712     0.099576
H        2.297180     4.429832     0.000549
H        0.062179     5.807927    -0.000212
H       -2.118986     4.599726    -0.000829
N       -0.000290    -0.261911     1.932331
C        0.015286     0.708375     2.771138
C        1.090695     1.554466     2.943732
C        1.113404     2.545091     3.916252
C       -0.006292     2.714142     4.713385
C       -1.098879     1.895724     4.513151
C       -1.108930     0.913570     3.541946
C       -0.000249    -1.558558     2.247337
C       -0.000419    -1.751248     3.706270
C       -0.000067    -2.621778     1.256500
C        0.000035    -3.939109     1.329809
C        0.000202    -4.651239     0.023428
C        0.000248    -4.068759    -1.197549
C        0.000020    -2.620338    -1.186639
N        0.000000    -1.949719    -0.033097
C       -0.000721    -1.602662    -2.217909
C       -0.001998    -1.854800    -3.668055
N       -0.000290    -0.295009    -1.927555
C       -0.017589     0.690380    -2.775659
C       -1.140276     1.025377    -3.516851
C       -1.177143     2.112026    -4.365496
C       -0.060797     2.901184    -4.537860
C        1.100828     2.568442    -3.831246
C        1.119871     1.476999    -2.985843
H        1.966682     1.408371     2.306340
H        1.999689     3.165945     4.035888
H        0.010678     3.485079     5.470619
H       -1.980179     2.039435     5.151165
H       -2.009058     0.324548     3.461751
H       -0.961673    -1.530669     4.190712
H        0.320368    -2.817104     3.878211
H        0.797987    -1.152721     4.217995
H       -0.000017    -4.372664     2.281903
H        0.000296    -5.758157     0.049455
H        0.000366    -4.546747    -2.131787
H        0.837906    -1.401866    -4.213171
H        0.078891    -2.957224    -3.903805
H       -0.995001    -1.583673    -4.132713
H       -2.017604     0.408707    -3.384089
H       -2.059646     2.377694    -4.912209
H       -0.034212     3.763809    -5.189857
H        2.012873     3.157924    -3.929644
H        2.048975     1.260581    -2.458850
87
ex_0332 frame2 OC-6-chelate-1-conf3
Ni       0.000000     0.000000     0.000000
C        3.703681     1.786067     0.000000
C        2.243801     1.583418     0.000001
N        1.926690     0.300607     0.000004
C        2.778054    -0.701797    -0.015209
C        2.865992    -1.498606    -1.162308
C        3.790327    -2.512727    -1.274288
C        4.627901    -2.786676    -0.224094
C        4.522358    -2.035077     0.923958
C        3.594662    -1.007541     1.053713
N       -1.921223     0.333771     0.000004
C       -2.801113    -0.609487     0.000344
C       -3.348228    -1.207200     1.115894
C       -4.353383    -2.149409     1.050165
C       -4.820467    -2.568655    -0.182610
C       -4.258502    -2.023605    -1.328054
C       -3.252737    -1.081214    -1.236952
C       -2.212831     1.625626     0.000004
C       -3.655537     1.849610     0.000008
C       -1.188361     2.648084     0.000001
N       -0.033164     1.949718    -0.000000
C        1.256030     2.649336    -0.000000
C        1.339778     3.964903    -0.000002
C        0.029114     4.674052    -0.000001
C       -1.199813     4.101410    -0.000000
H        3.894619     2.851493    -0.264627
H        4.200801     1.144040    -0.764652
H        4.078925     1.533638     1.009689
H        2.220701    -1.303847    -2.000522
H        3.882175    -3.112413    -2.176256
H        5.364350    -3.580820    -0.288598
H        5.191760    -2.270568     1.733742
H        3.513380    -0.419493     1.954317
H       -2.979500    -0.876370     2.098195
H       -4.806852    -2.588863     1.950296
H       -5.611964    -3.310127    -0.264604
H       -4.601003    -2.329555    -2.327681
H       -2.849820    -0.688649    -2.173019
H       -4.077591     1.391539    -0.918670
H       -3.875631     2.948314    -0.119366
H       -4.172762     1.528877     0.927282
H        2.286634     4.396049     0.000002
H        0.056616     5.782287     0.000001
H       -2.122783     4.578186    -0.000001
N        0.000517    -0.237131     1.935528
C        0.004039     0.804897     2.749256
C       -1.164618     1.280628     3.339384
C       -1.155615     2.344887     4.221897
C        0.036666     2.988430     4.528807
C        1.198083     2.546070     3.939397
C        1.180778     1.481548     3.058251
C        0.000398    -1.536840     2.285474
C        0.000643    -1.787317     3.737685
C        0.000065    -2.581255     1.269457
C       -0.000165    -3.899146     1.342244
C       -0.000436    -4.603606     0.032365
C       -0.000457    -4.016755    -1.186324
C       -0.000049    -2.563237    -1.168073
N        0.000000    -1.949954    -0.013377
C        0.000840    -1.550767    -2.202635
C        0.002183    -1.789220    -3.650494
N        0.000517    -0.250508    -1.933842
C        0.022299     0.743883    -2.731011
C        1.198980     1.448191    -3.000515
C        1.224887     2.465444    -3.935559
C        0.062368     2.846237    -4.600082
C       -1.128756     2.183987    -4.306401
C       -1.141355     1.169186    -3.370055
H       -2.135383     0.826204     3.147279
H       -2.047170     2.722307     4.705808
H        0.076045     3.830356     5.220800
H        2.124966     3.066473     4.194698
H        2.117980     1.169134     2.619643
H       -0.809804    -1.253398     4.289711
H        1.001318    -1.484468     4.128976
H       -0.131841    -2.876514     3.968447
H       -0.000135    -4.332509     2.288356
H       -0.000640    -5.712085     0.053312
H       -0.000637    -4.488713    -2.116361
H       -0.845131    -1.328044    -4.189135
H       -0.052739    -2.890365    -3.899554
H        0.992699    -1.492172    -4.104951
H        2.140805     1.183720    -2.502903
H        2.167287     2.960492    -4.141133
H        0.049972     3.632729    -5.331718
H       -2.062908     2.443500    -4.797340
H       -2.083772     0.665040    -3.156038
87
ex_0332 frame3 OC-6-chelate-1-conf4
Ni       0.000000     0.000000     0.000000
C        3.703681     1.786067     0.000000
C        2.243801     1.583418     0.000001
N        1.926690     0.300607     0.000004
C        2.778054    -0.701797    -0.015209
C        2.865992    -1.498606    -1.162308
C        3.790327    -2.512727    -1.274288
C        4.627901    -2.786676    -0.224094
C        4.522358    -2.035077     0.923958
C        3.594662    -1.007541     1.053713
N       -1.921223     0.333771     0.000004
C       -2.801113    -0.609487     0.000344
C       -3.348228    -1.207200     1.115894
C       -4.353383    -2.149409     1.050165
C       -4.820467    -2.568655    -0.182610
C       -4.258502    -2.023605    -1.328054
C       -3.252737    -1.081214    -1.236952
C       -2.212831     1.625626     0.000004
C       -3.655537     1.849610     0.000008
C       -1.188361     2.648084     0.000001
N       -0.033164     1.949718    -0.000000
C        1.256030     2.649336    -0.000000
C        1.339778     3.964903    -0.000002
C        0.029114     4.674052    -0.000001
C       -1.199813     4.101410    -0.000000
H        3.894619     2.851493    -0.264627
H        4.200801     1.144040    -0.764652
H        4.078925     1.533638     1.009689
H        2.220701    -1.303847    -2.000522
H        3.882175    -3.112413    -2.176256
H        5.364350    -3.580820    -0.288598
H        5.191760    -2.270568     1.733742
H        3.513380    -0.419493     1.954317
H       -2.979500    -0.876370     2.098195
H       -4.806852    -2.588863     1.950296
H       -5.611964    -3.310127    -0.264604
H       -4.601003    -2.329555    -2.327681
H       -2.849820    -0.688649    -2.173019
H       -4.077591     1.391539    -0.918670
H       -3.875631     2.948314    -0.119366
H       -4.172762     1.528877     0.927282
H        2.286634     4.396049     0.000002
H        0.056616     5.782287     0.000001
H       -2.122783     4.578186    -0.000001
N       -0.000290    -0.261911     1.932331
C        0.015286     0.708375     2.771138
C        1.090695     1.554466     2.943732
C        1.113404     2.545091     3.916252
C       -0.006292     2.714142     4.713385
C       -1.098879     1.895724     4.513151
C       -1.108930     0.913570     3.541946
C       -0.000249    -1.558558     2.247337
C       -0.000419    -1.751248     3.706270
C       -0.000067    -2.621778     1.256500
C        0.000035    -3.939109     1.329809
C        0.000202    -4.651239     0.023428
C        0.000248    -4.068759    -1.197549
C        0.000020    -2.620338    -1.186639
N        0.000000    -1.949719    -0.033097
C       -0.000721    -1.602662    -2.217909
C       -0.001998    -1.854800    -3.668055
N       -0.000290    -0.295009    -1.927555
C       -0.017589     0.690380    -2.775659
C       -1.140276     1.025377    -3.516851
C       -1.177143     2.112026    -4.365496
C       -0.060797     2.901184    -4.537860
C        1.100828     2.568442    -3.831246
C        1.119871     1.476999    -2.985843
H        1.966682     1.408371     2.306340
H        1.999689     3.165945     4.035888
H        0.010678     3.485079     5.470619
H       -1.980179     2.039435     5.151165
H       -2.009058     0.324548     3.461751
H       -0.961673    -1.530669     4.190712
H        0.320368    -2.817104     3.878211
H        0.797987    -1.152721     4.217995
H       -0.000017    -4.372664     2.281903
H        0.000296    -5.758157     0.049455
H        0.000366    -4.546747    -2.131787
H        0.837906    -1.401866    -4.213171
H        0.078891    -2.957224    -3.903805
H       -0.995001    -1.583673    -4.132713
H       -2.017604     0.408707    -3.384089
H       -2.059646     2.377694    -4.912209
H       -0.034212     3.763809    -5.189857
H        2.012873     3.157924    -3.929644
H        2.048975     1.260581    -2.458850
87
ex_0332 frame4 OC-6-chelate-1-conf5
Ni       0.000000     0.000000     0.000000
C        3.702280     1.796143    -0.000506
C        2.239570     1.593842    -0.000206
N        1.925383     0.308872    -0.000419
C        2.786689    -0.662203    -0.005412
C        3.190967    -1.279135    -1.184700
C        4.166075    -2.244601    -1.147185
C        4.703446    -2.622294     0.057954
C        4.298596    -2.064681     1.245263
C        3.311299    -1.085478     1.220080
N       -1.920014     0.340655    -0.000419
C       -2.796747    -0.596860     0.018606
C       -3.684652    -0.807012    -1.041416
C       -4.675334    -1.778227    -0.949866
C       -4.792459    -2.589873     0.155053
C       -3.893241    -2.417012     1.184684
C       -2.905804    -1.460429     1.111418
C       -2.204953     1.630255    -0.000334
C       -3.660597     1.851926    -0.000490
C       -1.190766     2.657417    -0.000060
N       -0.031783     1.949741    -0.000000
C        1.256018     2.662280     0.000139
C        1.338605     3.978189     0.000504
C        0.025361     4.683630     0.000428
C       -1.198765     4.109272     0.000133
H        4.192361     1.417540     0.899526
H        4.186445     1.299349    -0.892042
H        3.987323     2.861714    -0.116029
H        2.753023    -0.965229    -2.120140
H        4.479318    -2.680646    -2.101125
H        5.475833    -3.389883     0.065839
H        4.750173    -2.393146     2.173038
H        2.960317    -0.619312     2.117014
H       -3.590463    -0.175099    -1.897299
H       -5.390944    -1.931929    -1.743893
H       -5.545587    -3.355320     0.267220
H       -3.932618    -3.026509     2.084679
H       -2.215155    -1.352466     1.941165
H       -4.053383     1.767549    -1.039778
H       -4.194847     1.195229     0.718875
H       -3.859416     2.906654     0.339054
H        2.282909     4.411619     0.000717
H        0.050037     5.791442     0.000625
H       -2.130299     4.587687     0.000079
N        0.000517    -0.237131     1.935528
C        0.004039     0.804897     2.749256
C       -1.164618     1.280628     3.339384
C       -1.155615     2.344887     4.221897
C        0.036666     2.988430     4.528807
C        1.198083     2.546070     3.939397
C        1.180778     1.481548     3.058251
C        0.000398    -1.536840     2.285474
C        0.000643    -1.787317     3.737685
C        0.000065    -2.581255     1.269457
C       -0.000165    -3.899146     1.342244
C       -0.000436    -4.603606     0.032365
C       -0.000457    -4.016755    -1.186324
C       -0.000049    -2.563237    -1.168073
N        0.000000    -1.949954    -0.013377
C        0.000840    -1.550767    -2.202635
C        0.002183    -1.789220    -3.650494
N        0.000517    -0.250508    -1.933842
C        0.022299     0.743883    -2.731011
C        1.198980     1.448191    -3.000515
C        1.224887     2.465444    -3.935559
C        0.062368     2.846237    -4.600082
C       -1.128756     2.183987    -4.306401
C       -1.141355     1.169186    -3.370055
H       -2.135383     0.826204     3.147279
H       -2.047170     2.722307     4.705808
H        0.076045     3.830356     5.220800
H        2.124966     3.066473     4.194698
H        2.117980     1.169134     2.619643
H       -0.809804    -1.253398     4.289711
H        1.001318    -1.484468     4.128976
H       -0.131841    -2.876514     3.968447
H       -0.000135    -4.332509     2.288356
H       -0.000640    -5.712085     0.053312
H       -0.000637    -4.488713    -2.116361
H       -0.845131    -1.328044    -4.189135
H       -0.052739    -2.890365    -3.899554
H        0.992699    -1.492172    -4.104951
H        2.140805     1.183720    -2.502903
H        2.167287     2.960492    -4.141133
H        0.049972     3.632729    -5.331718
H       -2.062908     2.443500    -4.797340
H       -2.083772     0.665040    -3.156038
87
ex_0332 frame5 OC-6-chelate-1-conf6
Ni       0.000000     0.000000     0.000000
C        3.701286     1.780682     0.000426
C        2.247010     1.605207     0.000365
N        1.921281     0.333437     0.000317
C        2.786989    -0.661144    -0.016337
C        3.610046    -0.902312     1.070423
C        4.567338    -1.894459     1.013808
C        4.697954    -2.689425    -0.102944
C        3.852424    -2.484873    -1.182429
C        2.895965    -1.490089    -1.119981
N       -1.918385     0.349714     0.000317
C       -2.802995    -0.605330     0.018562
C       -3.622998    -0.859548    -1.084055
C       -4.607198    -1.819332    -1.001319
C       -4.803307    -2.596566     0.133734
C       -3.961164    -2.374366     1.206435
C       -2.981028    -1.417501     1.122047
C       -2.187333     1.645803     0.000082
C       -3.644804     1.871904     0.000389
C       -1.175729     2.674265    -0.000167
N       -0.016278     1.949932     0.000000
C        1.272040     2.682158     0.000239
C        1.353304     3.998430     0.000297
C        0.037336     4.700011    -0.000157
C       -1.189499     4.128633    -0.000511
H        4.193056     1.287087    -0.868559
H        3.980971     2.871706    -0.067990
H        4.197218     1.379847     0.907239
H        3.478184    -0.256553     1.934218
H        5.228914    -2.067050     1.837365
H        5.441156    -3.477413    -0.176704
H        3.948971    -3.106942    -2.065849
H        2.249604    -1.359381    -1.988356
H       -3.472044    -0.252970    -1.973611
H       -5.237013    -1.955113    -1.861560
H       -5.575754    -3.349547     0.198090
H       -4.077189    -2.963208     2.124219
H       -2.345553    -1.278022     1.985334
H       -4.030204     1.559035    -0.998249
H       -4.152043     1.336930     0.839215
H       -3.880410     2.972712     0.099576
H        2.297180     4.429832     0.000549
H        0.062179     5.807927    -0.000212
H       -2.118986     4.599726    -0.000829
N        0.000423    -0.336807     1.920693
C        0.011538     0.614960     2.801261
C       -1.193813     0.936417     3.428536
C       -1.235429     1.868252     4.447778
C       -0.087101     2.513066     4.803447
C        1.107871     2.246574     4.160564
C        1.175297     1.313252     3.132048
C        0.000266    -1.618573     2.219997
C        0.000592    -1.787301     3.686167
C       -0.000085    -2.704764     1.257226
C       -0.000409    -4.024419     1.339607
C       -0.000422    -4.722633     0.023087
C       -0.000218    -4.156476    -1.203528
C        0.000020    -2.700681    -1.191595
N       -0.000000    -1.949708    -0.033726
C        0.000315    -1.665069    -2.199345
C        0.000523    -1.934014    -3.630806
N        0.000423    -0.370533    -1.914473
C        0.002805     0.604643    -2.803883
C       -1.206001     1.047229    -3.287191
C       -1.322375     2.001863    -4.278689
C       -0.156178     2.570938    -4.777436
C        1.065967     2.177293    -4.280874
C        1.136241     1.224446    -3.294660
H       -2.085266     0.413909     3.128714
H       -2.179382     2.078863     4.955722
H       -0.065147     3.260563     5.604622
H        1.998131     2.770746     4.462525
H        2.104133     1.113319     2.640127
H        0.187717    -2.860229     3.976978
H       -0.952244    -1.505196     4.154001
H        0.875266    -1.238315     4.138490
H       -0.000567    -4.448953     2.282235
H       -0.000624    -5.829227     0.047590
H       -0.000216    -4.622291    -2.136893
H       -0.947868    -1.636662    -4.125076
H        0.060312    -3.047205    -3.812322
H        0.865311    -1.442696    -4.130702
H       -2.121973     0.614714    -2.910338
H       -2.290080     2.306553    -4.664663
H       -0.224474     3.329068    -5.563049
H        1.994860     2.612216    -4.659237
H        2.101888     0.920829    -2.909939
87
ex_0332 frame6 OC-6-chelate-1-conf7
Ni       0.000000     0.000000     0.000000
C        3.724703     1.791884    -0.000058
C        2.266327     1.557730    -0.000123
N        1.931209     0.270060    -0.000012
C        2.760850    -0.767800     0.001242
C        3.220324    -1.279223    -1.205412
C        4.135958    -2.322262    -1.164287
C        4.574345    -2.878453     0.018707
C        4.060563    -2.351834     1.195498
C        3.148776    -1.315810     1.209139
N       -1.927703     0.294042    -0.000012
C       -2.776359    -0.671125    -0.001363
C       -3.456835    -0.982804    -1.168626
C       -4.282647    -2.084005    -1.163095
C       -4.495089    -2.863264    -0.041295
C       -3.836211    -2.503784     1.127146
C       -2.995615    -1.398995     1.158041
C       -2.222304     1.599145     0.000115
C       -3.652909     1.820052     0.000068
C       -1.180390     2.600069     0.000124
N       -0.023982     1.949853     0.000000
C        1.264246     2.606837    -0.000173
C        1.340886     3.923398    -0.000334
C        0.034716     4.638861    -0.000056
C       -1.187086     4.053876     0.000238
H        3.961580     2.890366     0.075493
H        4.206390     1.430534    -0.938979
H        4.257717     1.289679     0.833974
H        2.869696    -0.835891    -2.120474
H        4.488418    -2.676206    -2.121802
H        5.286139    -3.686825     0.000438
H        4.430090    -2.816834     2.114996
H        2.806394    -0.972962     2.159622
H       -3.343647    -0.428579    -2.080482
H       -4.789201    -2.351531    -2.081477
H       -5.133570    -3.725260    -0.013146
H       -3.998172    -3.113327     2.017349
H       -2.487562    -1.122062     2.059590
H       -3.873314     2.915167     0.168588
H       -4.146966     1.601694    -0.969117
H       -4.107869     1.282574     0.847407
H        2.293920     4.358459    -0.000544
H        0.060082     5.744327    -0.000089
H       -2.119050     4.536370     0.000438
N       -0.000170    -0.455841     1.895972
C        0.007993     0.521754     2.825173
C        1.157953     1.206317     3.198195
C        1.110569     2.134802     4.224839
C       -0.078789     2.404790     4.859557
C       -1.240423     1.746554     4.473541
C       -1.173054     0.822129     3.445608
C       -0.000115    -1.727632     2.199752
C       -0.000005    -1.867691     3.674737
C        0.000017    -2.815874     1.265942
C        0.000093    -4.143112     1.348835
C        0.000244    -4.830916     0.024258
C        0.000256    -4.271930    -1.211275
C        0.000067    -2.802667    -1.194793
N        0.000000    -1.949811    -0.027119
C       -0.000213    -1.756738    -2.178615
C       -0.000424    -2.023750    -3.615890
N       -0.000170    -0.482960    -1.889246
C        0.014588     0.499323    -2.790627
C       -1.053952     0.759221    -3.613509
C       -1.056694     1.694942    -4.605749
C        0.103784     2.470033    -4.764533
C        1.160824     2.238091    -3.916007
C        1.152199     1.286570    -2.913628
H        2.096180     0.997237     2.701734
H        2.012091     2.654143     4.533664
H       -0.137277     3.121910     5.658731
H       -2.185316     1.917168     4.929921
H       -2.084258     0.307258     3.144421
H        0.885772    -1.388391     4.134783
H       -0.917493    -1.498865     4.124411
H        0.089893    -2.964027     3.863288
H        0.000089    -4.562860     2.289189
H        0.000396    -5.928840     0.048110
H        0.000332    -4.722504    -2.134488
H        0.200924    -3.123106    -3.735671
H       -0.967758    -1.760817    -4.101501
H        0.797598    -1.514865    -4.159047
H       -1.962575     0.162102    -3.499462
H       -1.902859     1.870312    -5.274047
H        0.132893     3.223807    -5.546058
H        2.083147     2.816033    -4.001982
H        2.014970     1.128742    -2.254374
87
ex_0332 frame7 OC-6-chelate-1-conf8
Ni       0.000000     0.000000     0.000000
C        3.703681     1.786067     0.000000
C        2.243801     1.583418     0.000001
N        1.926690     0.300607     0.000004
C        2.778054    -0.701797    -0.015209
C        2.865992    -1.498606    -1.162308
C        3.790327    -2.512727    -1.274288
C        4.627901    -2.786676    -0.224094
C        4.522358    -2.035077     0.923958
C        3.594662    -1.007541     1.053713
N       -1.921223     0.333771     0.000004
C       -2.801113    -0.609487     0.000344
C       -3.559513    -1.010122     1.079866
C       -4.549863    -1.966149     0.992497
C       -4.782212    -2.604351    -0.212651
C       -4.004466    -2.260568    -1.308941
C       -3.018316    -1.299872    -1.196979
C       -2.212831     1.625626     0.000004
C       -3.655537     1.849610     0.000008
C       -1.188361     2.648084     0.000001
N       -0.033164     1.949718    -0.000000
C        1.256030     2.649336    -0.000000
C        1.339778     3.964903    -0.000002
C        0.029114     4.674052    -0.000001
C       -1.199813     4.101410    -0.000000
H        3.894619     2.851493    -0.264627
H        4.200801     1.144040    -0.764652
H        4.078925     1.533638     1.009689
H        2.220701    -1.303847    -2.000522
H        3.882175    -3.112413    -2.176256
H        5.364350    -3.580820    -0.288598
H        5.191760    -2.270568     1.733742
H        3.513380    -0.419493     1.954317
H       -3.377819    -0.504831     2.040071
H       -5.172873    -2.247466     1.853722
H       -5.556321    -3.362049    -0.310737
H       -4.156711    -2.743984    -2.285310
H       -2.438930    -1.071907    -2.094205
H       -4.077591     1.391539    -0.918670
H       -3.875631     2.948314    -0.119366
H       -4.172762     1.528877     0.927282
H        2.286634     4.396049     0.000002
H        0.056616     5.782287     0.000001
H       -2.122783     4.578186    -0.000001
N        0.000423    -0.336807     1.920693
C        0.011538     0.614960     2.801261
C       -1.193813     0.936417     3.428536
C       -1.235429     1.868252     4.447778
C       -0.087101     2.513066     4.803447
C        1.107871     2.246574     4.160564
C        1.175297     1.313252     3.132048
C        0.000266    -1.618573     2.219997
C        0.000592    -1.787301     3.686167
C       -0.000085    -2.704764     1.257226
C       -0.000409    -4.024419     1.339607
C       -0.000422    -4.722633     0.023087
C       -0.000218    -4.156476    -1.203528
C        0.000020    -2.700681    -1.191595
N       -0.000000    -1.949708    -0.033726
C        0.000315    -1.665069    -2.199345
C        0.000523    -1.934014    -3.630806
N        0.000423    -0.370533    -1.914473
C        0.002805     0.604643    -2.803883
C       -1.206001     1.047229    -3.287191
C       -1.322375     2.001863    -4.278689
C       -0.156178     2.570938    -4.777436
C        1.065967     2.177293    -4.280874
C        1.136241     1.224446    -3.294660
H       -2.085266     0.413909     3.128714
H       -2.179382     2.078863     4.955722
H       -0.065147     3.260563     5.604622
H        1.998131     2.770746     4.462525
H        2.104133     1.113319     2.640127
H        0.187717    -2.860229     3.976978
H       -0.952244    -1.505196     4.154001
H        0.875266    -1.238315     4.138490
H       -0.000567    -4.448953     2.282235
H       -0.000624    -5.829227     0.047590
H       -0.000216    -4.622291    -2.136893
H       -0.947868    -1.636662    -4.125076
H        0.060312    -3.047205    -3.812322
H        0.865311    -1.442696    -4.130702
H       -2.121973     0.614714    -2.910338
H       -2.290080     2.306553    -4.664663
H       -0.224474     3.329068    -5.563049
H        1.994860     2.612216    -4.659237
H        2.101888     0.920829    -2.909939
87
ex_0332 frame8 OC-6-chelate-1-reembed1
Ni       0.000000     0.000000     0.000000
C        3.701286     1.780682     0.000426
C        2.247010     1.605207     0.000365
N        1.921281     0.333437     0.000317
C        2.786989    -0.661144    -0.016337
C        3.610046    -0.902312     1.070423
C        4.567338    -1.894459     1.013808
C        4.697954    -2.689425    -0.102944
C        3.852424    -2.484873    -1.182429
C        2.895965    -1.490089    -1.119981
N       -1.918385     0.349714     0.000317
C       -2.802995    -0.605330     0.018562
C       -3.622998    -0.859548    -1.084055
C       -4.607198    -1.819332    -1.001319
C       -4.803307    -2.596566     0.133734
C       -3.961164    -2.374366     1.206435
C       -2.981028    -1.417501     1.122047
C       -2.187333     1.645803     0.000082
C       -3.644804     1.871904     0.000389
C       -1.175729     2.674265    -0.000167
N       -0.016278     1.949932     0.000000
C        1.272040     2.682158     0.000239
C        1.353304     3.998430     0.000297
C        0.037336     4.700011    -0.000157
C       -1.189499     4.128633    -0.000511
H        4.193056     1.287087    -0.868559
H        3.980971     2.871706    -0.067990
H        4.197218     1.379847     0.907239
H        3.478184    -0.256553     1.934218
H        5.228914    -2.067050     1.837365
H        5.441156    -3.477413    -0.176704
H        3.948971    -3.106942    -2.065849
H        2.249604    -1.359381    -1.988356
H       -3.472044    -0.252970    -1.973611
H       -5.237013    -1.955113    -1.861560
H       -5.575754    -3.349547     0.198090
H       -4.077189    -2.963208     2.124219
H       -2.345553    -1.278022     1.985334
H       -4.030204     1.559035    -0.998249
H       -4.152043     1.336930     0.839215
H       -3.880410     2.972712     0.099576
H        2.297180     4.429832     0.000549
H        0.062179     5.807927    -0.000212
H       -2.118986     4.599726    -0.000829
N        0.000517    -0.237131     1.935528
C        0.004039     0.804897     2.749256
C       -1.164618     1.280628     3.339384
C       -1.155615     2.344887     4.221897
C        0.036666     2.988430     4.528807
C        1.198083     2.546070     3.939397
C        1.180778     1.481548     3.058251
C        0.000398    -1.536840     2.285474
C        0.000643    -1.787317     3.737685
C        0.000065    -2.581255     1.269457
C       -0.000165    -3.899146     1.342244
C       -0.000436    -4.603606     0.032365
C       -0.000457    -4.016755    -1.186324
C       -0.000049    -2.563237    -1.168073
N        0.000000    -1.949954    -0.013377
C        0.000840    -1.550767    -2.202635
C        0.002183    -1.789220    -3.650494
N        0.000517    -0.250508    -1.933842
C        0.022299     0.743883    -2.731011
C        1.198980     1.448191    -3.000515
C        1.224887     2.465444    -3.935559
C        0.062368     2.846237    -4.600082
C       -1.128756     2.183987    -4.306401
C       -1.141355     1.169186    -3.370055
H       -2.135383     0.826204     3.147279
H       -2.047170     2.722307     4.705808
H        0.076045     3.830356     5.220800
H        2.124966     3.066473     4.194698
H        2.117980     1.169134     2.619643
H       -0.809804    -1.253398     4.289711
H        1.001318    -1.484468     4.128976
H       -0.131841    -2.876514     3.968447
H       -0.000135    -4.332509     2.288356
H       -0.000640    -5.712085     0.053312
H       -0.000637    -4.488713    -2.116361
H       -0.845131    -1.328044    -4.189135
H       -0.052739    -2.890365    -3.899554
H        0.992699    -1.492172    -4.104951
H        2.140805     1.183720    -2.502903
H        2.167287     2.960492    -4.141133
H        0.049972     3.632729    -5.331718
H       -2.062908     2.443500    -4.797340
H       -2.083772     0.665040    -3.156038
