62
ex_0542 frame0 TBP-5-chelate-1
Ag       0.000000     0.000000     0.000000
C        0.348342     0.204967     2.558953
N        0.182064     1.372313     1.658074
C        1.397540     1.933519     1.212358
C       -0.820769     2.117694     1.878995
C       -2.037356     1.603946     2.409103
C       -2.507078     1.789063     3.686365
C       -3.761034     1.334733     4.077324
C       -4.520280     0.654570     3.132883
C       -4.071752     0.422390     1.847243
C       -2.841856     0.955793     1.457707
Se      -2.548379     0.684346    -0.244812
C       -1.631654     2.461715    -0.934427
C       -1.125514     1.908275    -2.228463
C       -1.263737     2.346724    -3.428028
C       -0.732727     1.592221    -4.576496
C       -0.089149     0.380569    -4.341071
C       -0.195380    -0.058987    -2.983967
N       -0.418178     0.657864    -2.014433
Se      -1.484013    -1.800089    -1.256935
C       -0.073960    -1.534735    -2.731369
C       -0.811523    -3.077260    -0.142855
C       -1.826531    -3.878027     0.322883
C       -1.534052    -5.005288     1.070679
C       -0.213850    -5.285095     1.411042
C        0.773972    -4.428294     0.990692
C        0.527370    -3.324625     0.193276
C        1.499602    -2.439559    -0.344470
N        1.791902    -1.206046    -0.011791
C        2.333434    -0.967005     1.229390
C        2.363386    -0.380238    -1.077844
H       -0.402163     0.598996     3.374177
H        1.286460     0.380249     3.038219
H       -0.048019    -0.756851     2.348070
H        1.053081     3.050785     1.110806
H        1.913352     1.774971     0.311034
H        1.923999     1.986891     2.176599
H       -0.348125     2.330849     2.814983
H       -0.669260     3.075349     1.494162
H       -1.871368     2.327065     4.383633
H       -4.152552     1.486366     5.053295
H       -5.500833     0.279641     3.376140
H       -4.672817    -0.113207     1.107270
H       -2.578420     2.954744    -1.004699
H       -0.902752     2.932262    -0.372032
H       -1.797223     3.276081    -3.549768
H       -0.832717     1.941401    -5.546001
H        0.305530    -0.216748    -5.099698
H       -0.782722    -1.985325    -3.454795
H        0.774700    -2.040908    -2.688490
H       -2.844264    -3.653907     0.054702
H       -2.316344    -5.659566     1.386773
H        0.079073    -6.136931     1.986598
H        1.810184    -4.633223     1.248968
H        2.471557    -2.787631     0.313198
H        1.980179    -2.615133    -1.284806
H        2.727672    -0.008616     1.412519
H        3.359689    -1.503449     0.848703
H        1.940040    -1.611122     1.993100
H        3.286151     0.020048    -0.570482
H        1.900207     0.410146    -1.603044
H        2.755105    -1.125655    -1.778064
62
ex_0542 frame1 TBP-5-chelate-1-reembed1
Ag       0.000000     0.000000     0.000000
C        0.348342     0.204967     2.558953
N        0.182064     1.372313     1.658074
C        1.397540     1.933519     1.212358
C       -0.820769     2.117694     1.878995
C       -2.037356     1.603946     2.409103
C       -2.507078     1.789063     3.686365
C       -3.761034     1.334733     4.077324
C       -4.520280     0.654570     3.132883
C       -4.071752     0.422390     1.847243
C       -2.841856     0.955793     1.457707
Se      -2.548379     0.684346    -0.244812
C       -1.631654     2.461715    -0.934427
C       -1.125514     1.908275    -2.228463
C       -1.263737     2.346724    -3.428028
C       -0.732727     1.592221    -4.576496
C       -0.089149     0.380569    -4.341071
C       -0.195380    -0.058987    -2.983967
N       -0.418178     0.657864    -2.014433
Se      -1.484013    -1.800089    -1.256935
C       -0.073960    -1.534735    -2.731369
C       -0.811523    -3.077260    -0.142855
C       -1.826531    -3.878027     0.322883
C       -1.534052    -5.005288     1.070679
C       -0.213850    -5.285095     1.411042
C        0.773972    -4.428294     0.990692
C        0.527370    -3.324625     0.193276
C        1.499602    -2.439559    -0.344470
N        1.791902    -1.206046    -0.011791
C        2.333434    -0.967005     1.229390
C        2.363386    -0.380238    -1.077844
H       -0.402163     0.598996     3.374177
H        1.286460     0.380249     3.038219
H       -0.048019    -0.756851     2.348070
H        1.053081     3.050785     1.110806
H        1.913352     1.774971     0.311034
H        1.923999     1.986891     2.176599
H       -0.348125     2.330849     2.814983
H       -0.669260     3.075349     1.494162
H       -1.871368     2.327065     4.383633
H       -4.152552     1.486366     5.053295
H       -5.500833     0.279641     3.376140
H       -4.672817    -0.113207     1.107270
H       -2.578420     2.954744    -1.004699
H       -0.902752     2.932262    -0.372032
H       -1.797223     3.276081    -3.549768
H       -0.832717     1.941401    -5.546001
H        0.305530    -0.216748    -5.099698
H       -0.782722    -1.985325    -3.454795
H        0.774700    -2.040908    -2.688490
H       -2.844264    -3.653907     0.054702
H       -2.316344    -5.659566     1.386773
H        0.079073    -6.136931     1.986598
H        1.810184    -4.633223     1.248968
H        2.471557    -2.787631     0.313198
H        1.980179    -2.615133    -1.284806
H        2.727672    -0.008616     1.412519
H        3.359689    -1.503449     0.848703
H        1.940040    -1.611122     1.993100
H        3.286151     0.020048    -0.570482
H        1.900207     0.410146    -1.603044
H        2.755105    -1.125655    -1.778064
62
ex_0542 frame2 TBP-5-chelate-1_mirror
Ag       0.000000     0.000000     0.000000
C        0.348342     0.204967    -2.558953
N        0.182064     1.372313    -1.658074
C        1.397540     1.933519    -1.212358
C       -0.820769     2.117694    -1.878995
C       -2.037356     1.603946    -2.409103
C       -2.507078     1.789063    -3.686365
C       -3.761034     1.334733    -4.077324
C       -4.520280     0.654570    -3.132883
C       -4.071752     0.422390    -1.847243
C       -2.841856     0.955793    -1.457707
Se      -2.548379     0.684346     0.244812
C       -1.631654     2.461715     0.934427
C       -1.125514     1.908275     2.228463
C       -1.263737     2.346724     3.428028
C       -0.732727     1.592221     4.576496
C       -0.089149     0.380569     4.341071
C       -0.195380    -0.058987     2.983967
N       -0.418178     0.657864     2.014433
Se      -1.484013    -1.800089     1.256935
C       -0.073960    -1.534735     2.731369
C       -0.811523    -3.077260     0.142855
C       -1.826531    -3.878027    -0.322883
C       -1.534052    -5.005288    -1.070679
C       -0.213850    -5.285095    -1.411042
C        0.773972    -4.428294    -0.990692
C        0.527370    -3.324625    -0.193276
C        1.499602    -2.439559     0.344470
N        1.791902    -1.206046     0.011791
C        2.333434    -0.967005    -1.229390
C        2.363386    -0.380238     1.077844
H       -0.402163     0.598996    -3.374177
H        1.286460     0.380249    -3.038219
H       -0.048019    -0.756851    -2.348070
H        1.053081     3.050785    -1.110806
H        1.913352     1.774971    -0.311034
H        1.923999     1.986891    -2.176599
H       -0.348125     2.330849    -2.814983
H       -0.669260     3.075349    -1.494162
H       -1.871368     2.327065    -4.383633
H       -4.152552     1.486366    -5.053295
H       -5.500833     0.279641    -3.376140
H       -4.672817    -0.113207    -1.107270
H       -2.578420     2.954744     1.004699
H       -0.902752     2.932262     0.372032
H       -1.797223     3.276081     3.549768
H       -0.832717     1.941401     5.546001
H        0.305530    -0.216748     5.099698
H       -0.782722    -1.985325     3.454795
H        0.774700    -2.040908     2.688490
H       -2.844264    -3.653907    -0.054702
H       -2.316344    -5.659566    -1.386773
H        0.079073    -6.136931    -1.986598
H        1.810184    -4.633223    -1.248968
H        2.471557    -2.787631    -0.313198
H        1.980179    -2.615133     1.284806
H        2.727672    -0.008616    -1.412519
H        3.359689    -1.503449    -0.848703
H        1.940040    -1.611122    -1.993100
H        3.286151     0.020048     0.570482
H        1.900207     0.410146     1.603044
H        2.755105    -1.125655     1.778064
