46
ex_0593 frame0 Isomer 1
C       -1.139699    -1.535159     2.506292
Se      -0.069427    -2.430874     1.131834
C       -1.342078    -3.523558     0.129655
C       -2.163960    -2.294540    -0.216675
N       -1.849090    -1.040432    -0.463475
C       -2.917844    -0.258722    -0.726576
C       -3.135973     1.067819    -1.030208
C       -4.401064     1.565353    -1.252405
C       -5.504775     0.738830    -1.175393
C       -5.258920    -0.586198    -0.868379
C       -3.989236    -1.060799    -0.650699
N       -3.544694    -2.345836    -0.332987
Cu      -0.054845    -0.592363    -0.300279
Cl       0.687524    -2.180899    -1.843015
N        1.630009     0.087920     0.069554
C        2.323762     0.525071    -0.964681
C        2.081620     0.549583    -2.465277
Se       0.167814     0.811411    -2.156191
C        0.063325     2.478358    -1.124140
N        3.488078     1.041084    -0.412471
C        3.408392     0.878230     0.970870
C        4.293858     1.220437     1.968047
C        4.036176     0.976811     3.303484
C        2.834486     0.366437     3.598537
C        1.963210     0.033199     2.580243
C        2.242533     0.284322     1.255333
H       -2.178767    -1.962404     2.528820
H       -0.677526    -1.921584     3.438259
H       -1.274489    -0.461838     2.451148
H       -1.853493    -4.167145     0.827650
H       -0.853475    -3.961222    -0.734149
H       -2.324151     1.719771    -1.095036
H       -4.544706     2.603548    -1.488492
H       -6.499675     1.094296    -1.342343
H       -6.071358    -1.255568    -0.797189
H       -4.120037    -3.189643    -0.202847
H        2.319040    -0.392655    -2.947371
H        2.415795     1.471256    -2.915033
H        1.058297     2.970299    -1.063025
H       -0.307191     2.421841    -0.109294
H       -0.551615     3.119298    -1.774363
H        4.259175     1.464932    -0.948790
H        5.207595     1.691985     1.678595
H        4.764588     1.266821     4.027311
H        2.598643     0.160385     4.629832
H        1.058011    -0.428233     2.837197
