98
ex_0536 frame0 
O       -1.381932     4.338655     0.746038
S       -1.068050     2.891788     1.085561
O       -1.861070     2.385294     2.316131
C        0.436830     2.206850     0.796290
C        1.415748     2.118747     1.886004
C        1.023493     2.239067     3.229558
C        1.955358     2.064272     4.231401
C        3.279510     1.814909     3.911064
C        3.667202     1.741206     2.588575
C        2.741164     1.914908     1.590980
Pt      -0.301059     0.556856    -0.117695
As       0.801136     0.178915    -2.385916
C       -0.445097    -0.593447    -3.696907
C       -0.745728     0.075948    -4.849974
C       -1.828310    -0.341747    -5.617129
C       -2.502529    -1.512163    -5.280134
C       -2.084513    -2.248051    -4.180876
C       -1.005176    -1.815941    -3.430042
C        2.413859    -0.859049    -2.495854
C        3.521600    -0.440940    -1.802613
C        4.733464    -1.036272    -2.075091
C        4.788237    -2.111735    -2.943470
C        3.633434    -2.590500    -3.537853
C        2.425654    -1.988106    -3.258890
C        1.200075     2.056064    -2.848559
C        2.428526     2.570714    -2.537864
C        2.583918     3.958938    -2.587735
C        1.563003     4.755038    -3.078776
C        0.391045     4.174901    -3.519125
C        0.228952     2.798911    -3.473056
As      -0.228603    -1.505879     1.379761
C       -1.215721    -1.626832     3.049074
C       -0.619189    -2.127892     4.178984
C       -1.239589    -2.082778     5.414687
C       -2.532321    -1.596932     5.516638
C       -3.212602    -1.226648     4.356237
C       -2.542779    -1.209752     3.133949
C       -1.056710    -3.183253     0.773138
C       -2.303814    -3.165160     0.164935
C       -2.743412    -4.325824    -0.469481
C       -2.004207    -5.490026    -0.385359
C       -0.824449    -5.502510     0.330940
C       -0.389034    -4.351754     0.959678
C        1.585626    -2.092774     1.872662
C        2.197451    -1.615823     3.033413
C        3.457330    -2.068031     3.413212
C        4.117162    -2.992162     2.622283
C        3.567561    -3.398502     1.412324
C        2.280579    -2.990835     1.069341
C       -1.713925     1.960770    -0.254490
C       -3.111354     1.664786    -0.282610
C       -3.680524     0.718231    -1.126171
C       -5.057003     0.524835    -1.124241
C       -5.861052     1.260998    -0.261878
C       -5.288622     2.190557     0.598554
C       -3.912143     2.383953     0.596624
H        0.911959     2.804782    -0.003961
H        0.020222     2.428031     3.523227
H        1.649269     2.122455     5.264331
H        4.007031     1.678445     4.696222
H        4.690577     1.548487     2.342734
H        3.049845     1.856237     0.558229
H       -0.220124     0.983388    -5.108223
H       -2.148584     0.235827    -6.471665
H       -3.344191    -1.844778    -5.869517
H       -2.605049    -3.156590    -3.916301
H       -0.681948    -2.390822    -2.574802
H        3.475885     0.398838    -1.125056
H        5.634036    -0.662171    -1.610959
H        5.737263    -2.580178    -3.158671
H        3.668638    -3.480612    -4.132540
H        1.521982    -2.358140    -3.720248
H        3.220711     1.943753    -2.156076
H        3.514740     4.418159    -2.301158
H        1.683819     5.827578    -3.116989
H       -0.404048     4.797642    -3.901775
H       -0.699697     2.402257    -3.824157
H        0.388294    -2.509501     4.103141
H       -0.739098    -2.501476     6.260031
H       -3.049278    -1.644655     6.460990
H       -4.240250    -0.900572     4.419590
H       -3.049651    -0.869754     2.242948
H       -2.911004    -2.288009     0.149406
H       -3.666571    -4.315815    -1.029907
H       -2.348309    -6.387204    -0.878377
H       -0.246377    -6.404308     0.390907
H        0.534167    -4.362080     1.520030
H        1.670509    -0.991458     3.715674
H        3.894190    -1.729105     4.328185
H        5.089410    -3.354599     2.921905
H        4.125398    -4.059169     0.780029
H        1.823535    -3.352460     0.160090
H       -1.645139     2.468350    -1.240759
H       -3.055796     0.146248    -1.796209
H       -5.548035    -0.160747    -1.794957
H       -6.930546     1.110733    -0.260378
H       -5.913350     2.762540     1.268592
H       -3.467377     3.106200     1.265161
98
ex_0536 frame1 
O       -1.381932     4.338655     0.746038
S       -1.068050     2.891788     1.085561
O       -1.861070     2.385294     2.316131
C        0.436830     2.206850     0.796290
C        1.415748     2.118747     1.886004
C        1.023493     2.239067     3.229558
C        1.955358     2.064272     4.231401
C        3.279510     1.814909     3.911064
C        3.667202     1.741206     2.588575
C        2.741164     1.914908     1.590980
Pt      -0.301059     0.556856    -0.117695
As       0.801136     0.178915    -2.385916
C       -0.477881    -0.582206    -3.687918
C       -0.775595     0.099821    -4.823620
C       -1.828478    -0.341613    -5.616981
C       -2.487779    -1.523953    -5.293150
C       -2.084757    -2.247856    -4.180661
C       -1.034968    -1.792128    -3.403754
C        2.429190    -0.847368    -2.519799
C        3.528044    -0.416326    -1.833608
C        4.733491    -1.036169    -2.075220
C        4.785068    -2.123839    -2.928228
C        3.633481    -2.590320    -3.538080
C        2.432122    -1.963402    -3.289999
C        1.189820     2.078072    -2.819076
C        2.409976     2.576119    -2.492926
C        2.583818     3.958967    -2.587493
C        1.572007     4.752414    -3.100588
C        0.390865     4.174953    -3.518689
C        0.210474     2.804295    -3.428291
As      -0.228603    -1.505879     1.379761
C       -1.215721    -1.626832     3.049074
C       -0.619189    -2.127892     4.178984
C       -1.239589    -2.082778     5.414687
C       -2.532321    -1.596932     5.516638
C       -3.212602    -1.226648     4.356237
C       -2.542779    -1.209752     3.133949
C       -1.046804    -3.186818     0.743936
C       -2.283890    -3.155639     0.131127
C       -2.743516    -4.325874    -0.469304
C       -2.014082    -5.494745    -0.368603
C       -0.824183    -5.502383     0.330488
C       -0.368914    -4.342139     0.925537
C        1.585626    -2.092774     1.872662
C        2.197451    -1.615823     3.033413
C        3.457330    -2.068031     3.413212
C        4.117162    -2.992162     2.622283
C        3.567561    -3.398502     1.412324
C        2.280579    -2.990835     1.069341
C       -1.713925     1.960770    -0.254490
C       -3.111354     1.664786    -0.282610
C       -3.680524     0.718231    -1.126171
C       -5.057003     0.524835    -1.124241
C       -5.861052     1.260998    -0.261878
C       -5.288622     2.190557     0.598554
C       -3.912143     2.383953     0.596624
H        0.911959     2.804782    -0.003961
H        0.020222     2.428031     3.523227
H        1.649269     2.122455     5.264331
H        4.007031     1.678445     4.696222
H        4.690577     1.548487     2.342734
H        3.049845     1.856237     0.558229
H       -0.261640     1.016572    -5.071590
H       -2.137209     0.226735    -6.481702
H       -3.306382    -1.874999    -5.902879
H       -2.593795    -3.165586    -3.926232
H       -0.723358    -2.357723    -2.538263
H        3.484836     0.433028    -1.168110
H        5.631557    -0.671640    -1.599036
H        5.729063    -2.611500    -3.119228
H        3.681707    -3.430692    -4.195402
H        1.530979    -2.323775    -3.763523
H        3.194976     1.951252    -2.093732
H        3.499863     4.422494    -2.265117
H        1.707078     5.820801    -3.173337
H       -0.397102     4.795618    -3.918603
H       -0.723567     2.409212    -3.766329
H        0.388294    -2.509501     4.103141
H       -0.739098    -2.501476     6.260031
H       -3.049278    -1.644655     6.460990
H       -4.240250    -0.900572     4.419590
H       -3.049651    -0.869754     2.242948
H       -2.851719    -2.259679     0.048808
H       -3.674607    -4.319655    -1.016271
H       -2.373703    -6.399339    -0.835288
H       -0.257159    -6.409460     0.409202
H        0.562215    -4.348677     1.472437
H        1.670509    -0.991458     3.715674
H        3.894190    -1.729105     4.328185
H        5.089410    -3.354599     2.921905
H        4.125398    -4.059169     0.780029
H        1.823535    -3.352460     0.160090
H       -1.645139     2.468350    -1.240759
H       -3.055796     0.146248    -1.796209
H       -5.548035    -0.160747    -1.794957
H       -6.930546     1.110733    -0.260378
H       -5.913350     2.762540     1.268592
H       -3.467377     3.106200     1.265161
98
ex_0536 frame2 _mirror
O       -1.381932     4.338655    -0.746038
S       -1.068050     2.891788    -1.085561
O       -1.861070     2.385294    -2.316131
C        0.436830     2.206850    -0.796290
C        1.415748     2.118747    -1.886004
C        1.023493     2.239067    -3.229558
C        1.955358     2.064272    -4.231401
C        3.279510     1.814909    -3.911064
C        3.667202     1.741206    -2.588575
C        2.741164     1.914908    -1.590980
Pt      -0.301059     0.556856     0.117695
As       0.801136     0.178915     2.385916
C       -0.477881    -0.582206     3.687918
C       -0.775595     0.099821     4.823620
C       -1.828478    -0.341613     5.616981
C       -2.487779    -1.523953     5.293150
C       -2.084757    -2.247856     4.180661
C       -1.034968    -1.792128     3.403754
C        2.429190    -0.847368     2.519799
C        3.528044    -0.416326     1.833608
C        4.733491    -1.036169     2.075220
C        4.785068    -2.123839     2.928228
C        3.633481    -2.590320     3.538080
C        2.432122    -1.963402     3.289999
C        1.189820     2.078072     2.819076
C        2.409976     2.576119     2.492926
C        2.583818     3.958967     2.587493
C        1.572007     4.752414     3.100588
C        0.390865     4.174953     3.518689
C        0.210474     2.804295     3.428291
As      -0.228603    -1.505879    -1.379761
C       -1.215721    -1.626832    -3.049074
C       -0.619189    -2.127892    -4.178984
C       -1.239589    -2.082778    -5.414687
C       -2.532321    -1.596932    -5.516638
C       -3.212602    -1.226648    -4.356237
C       -2.542779    -1.209752    -3.133949
C       -1.046804    -3.186818    -0.743936
C       -2.283890    -3.155639    -0.131127
C       -2.743516    -4.325874     0.469304
C       -2.014082    -5.494745     0.368603
C       -0.824183    -5.502383    -0.330488
C       -0.368914    -4.342139    -0.925537
C        1.585626    -2.092774    -1.872662
C        2.197451    -1.615823    -3.033413
C        3.457330    -2.068031    -3.413212
C        4.117162    -2.992162    -2.622283
C        3.567561    -3.398502    -1.412324
C        2.280579    -2.990835    -1.069341
C       -1.713925     1.960770     0.254490
C       -3.111354     1.664786     0.282610
C       -3.680524     0.718231     1.126171
C       -5.057003     0.524835     1.124241
C       -5.861052     1.260998     0.261878
C       -5.288622     2.190557    -0.598554
C       -3.912143     2.383953    -0.596624
H        0.911959     2.804782     0.003961
H        0.020222     2.428031    -3.523227
H        1.649269     2.122455    -5.264331
H        4.007031     1.678445    -4.696222
H        4.690577     1.548487    -2.342734
H        3.049845     1.856237    -0.558229
H       -0.261640     1.016572     5.071590
H       -2.137209     0.226735     6.481702
H       -3.306382    -1.874999     5.902879
H       -2.593795    -3.165586     3.926232
H       -0.723358    -2.357723     2.538263
H        3.484836     0.433028     1.168110
H        5.631557    -0.671640     1.599036
H        5.729063    -2.611500     3.119228
H        3.681707    -3.430692     4.195402
H        1.530979    -2.323775     3.763523
H        3.194976     1.951252     2.093732
H        3.499863     4.422494     2.265117
H        1.707078     5.820801     3.173337
H       -0.397102     4.795618     3.918603
H       -0.723567     2.409212     3.766329
H        0.388294    -2.509501    -4.103141
H       -0.739098    -2.501476    -6.260031
H       -3.049278    -1.644655    -6.460990
H       -4.240250    -0.900572    -4.419590
H       -3.049651    -0.869754    -2.242948
H       -2.851719    -2.259679    -0.048808
H       -3.674607    -4.319655     1.016271
H       -2.373703    -6.399339     0.835288
H       -0.257159    -6.409460    -0.409202
H        0.562215    -4.348677    -1.472437
H        1.670509    -0.991458    -3.715674
H        3.894190    -1.729105    -4.328185
H        5.089410    -3.354599    -2.921905
H        4.125398    -4.059169    -0.780029
H        1.823535    -3.352460    -0.160090
H       -1.645139     2.468350     1.240759
H       -3.055796     0.146248     1.796209
H       -5.548035    -0.160747     1.794957
H       -6.930546     1.110733     0.260378
H       -5.913350     2.762540    -1.268592
H       -3.467377     3.106200    -1.265161
