41
ex_0346 frame0 trans-1
N       -3.671583    -0.239898     3.411177
C       -2.889091    -0.335949     2.177014
S       -2.190050     0.986790     1.550266
Ni      -0.519049     0.080086     0.432275
S        0.846855    -1.636405     0.238172
C        0.839765    -2.203442     1.783347
N        1.116764    -3.612648     2.061502
N        0.557428    -1.259446     2.767105
N        0.402906    -0.017650     2.200764
C        1.139681     1.131771     2.460547
C        0.797405     2.176597     1.698012
C        1.219119     3.531944     1.909230
C        0.781170     4.495558     1.036418
C       -0.109035     4.148738    -0.102339
C       -0.483047     2.900449    -0.276918
N        0.028700     1.970807     0.688858
N       -1.984126    -1.284167     0.364809
C       -2.341147    -1.547860    -0.979529
C       -1.448870    -1.123291    -1.894538
C       -1.492711    -1.438103    -3.298661
C       -0.507730    -0.928448    -4.106745
C        0.575355    -0.074618    -3.548886
C        0.593904     0.199656    -2.259340
N       -0.440301    -0.355108    -1.507688
N       -2.691419    -1.516194     1.474763
H       -4.175203     0.683509     3.497302
H       -4.416893    -0.950209     3.424887
H        2.141581    -3.779057     2.161422
H        0.805413    -4.198172     1.245093
H        0.429033    -1.346626     3.743725
H        1.540057     1.018820     3.442291
H        1.858877     3.683100     2.754645
H        1.054119     5.537362     1.127771
H       -0.438790     4.911156    -0.769684
H       -1.133618     2.478232    -1.062624
H       -3.091522    -2.296730    -0.953534
H       -2.309950    -2.059595    -3.607378
H       -0.469652    -1.117433    -5.166740
H        1.332212     0.310385    -4.202426
H        1.312760     0.806692    -1.690226
H       -2.931588    -2.452972     1.673082
41
ex_0346 frame1 cis-same-N-2
N       -4.168617     1.101668    -0.586771
C       -2.986031     0.992552     0.194212
S       -1.983320     1.985520     0.111741
Ni      -0.109762     0.824579    -0.051605
S        0.239451     2.185963    -1.757178
C        1.525479     2.686082    -1.543130
N        1.791340     4.073243    -1.673374
N        2.388551     1.664994    -1.215069
N        1.632347     0.543852    -0.977656
C        1.864628    -0.631504    -1.544209
C        0.833734    -1.449765    -1.426651
C        0.868521    -2.812383    -1.830730
C       -0.232076    -3.585608    -1.686247
C       -1.417432    -2.993801    -1.131565
C       -1.433575    -1.728973    -0.778567
N       -0.327598    -0.968258    -0.890345
N       -1.310940     0.214904     1.416411
C       -0.854422     0.282113     2.660445
C        0.357884     0.813862     2.723076
C        1.120157     0.877278     3.919852
C        2.348057     1.444410     3.903818
C        2.842799     1.974638     2.664614
C        2.117432     1.920347     1.571935
N        0.912086     1.331140     1.580406
N       -2.621284     0.009016     1.086728
H       -4.295849     0.514594    -1.439601
H       -4.892064     0.916718     0.104554
H        1.843953     4.337096    -2.678036
H        2.579140     4.335016    -1.086796
H        3.353957     1.644576    -1.000853
H        2.829938    -0.701133    -1.967059
H        1.791342    -3.133986    -2.235639
H       -0.304243    -4.628439    -1.975401
H       -2.282680    -3.605926    -1.050768
H       -2.343250    -1.311293    -0.373061
H       -1.531594    -0.109963     3.364013
H        0.648346     0.465884     4.772291
H        2.996309     1.551889     4.765186
H        3.795770     2.440157     2.677302
H        2.513842     2.337094     0.657834
H       -3.060986    -0.824422     1.393665
41
ex_0346 frame2 trans-2
N       -2.978870     1.844864    -1.882490
C       -1.634864     1.300630    -1.629212
S       -0.432518     1.842776    -0.463075
Ni       0.223987    -0.236694    -0.052161
S        0.955658    -1.311310     1.727242
C        1.173133     0.235696     2.494424
N        2.244783     0.368012     3.410195
N        0.304163     1.315844     2.205953
N       -0.620610     0.642970     1.524389
C       -1.934740     0.322065     1.667359
C       -2.346155    -0.660555     0.799907
C       -3.619024    -1.180515     0.728607
C       -3.887071    -2.193900    -0.148746
C       -2.855285    -2.752091    -0.993984
C       -1.646885    -2.255135    -0.908429
N       -1.503825    -1.168209    -0.035860
N        0.007898    -0.061757    -2.022420
C        1.152095    -0.029329    -2.698259
C        2.240634    -0.068981    -1.928865
C        3.508615    -0.158373    -2.470544
C        4.577448    -0.216867    -1.678981
C        4.395507    -0.214502    -0.256930
C        3.199576    -0.143324     0.263573
N        2.140340    -0.023372    -0.603359
N       -1.231091     0.222360    -2.388360
H       -2.976336     2.880724    -1.905070
H       -3.204937     1.528459    -2.870653
H        1.971482     0.760460     4.305909
H        2.766019    -0.522737     3.592010
H        0.470047     2.320933     2.368709
H       -2.480813     0.840095     2.405333
H       -4.299168    -0.719707     1.386839
H       -4.847352    -2.630420    -0.255807
H       -3.115798    -3.546123    -1.653895
H       -0.767154    -2.557616    -1.474376
H        1.026895     0.038420    -3.739476
H        3.541398    -0.146581    -3.528862
H        5.568823    -0.262573    -2.073944
H        5.256197    -0.249808     0.358039
H        3.081515    -0.117139     1.285148
H       -1.759915    -0.358171    -3.003145
