133
ex_0397 frame0 linear-conf6
C        3.216830    -3.661651    -0.706681
C        4.554496    -3.431456     0.003406
C        5.420009    -4.700454    -0.067297
C        4.350627    -2.983225     1.459986
C        3.876502    -3.914063     2.402832
C        3.734724    -3.563839     3.737679
C        4.036186    -2.278037     4.159269
C        4.458299    -1.290002     3.251331
C        4.708322     0.120535     3.801209
C        3.497177     1.018848     3.525747
C        6.023782     0.796935     3.410149
C        4.633219    -1.645779     1.873411
N        5.075463    -0.765839     0.848673
C        6.434988    -0.501733     0.533396
C        6.447377     0.408490    -0.560825
N        5.095735     0.695631    -0.894625
C        4.703647     1.566880    -1.951690
C        4.636311     3.004633    -1.846350
C        4.938640     3.777221    -0.556014
C        6.382462     3.680971    -0.055291
C        3.942226     3.448179     0.553791
C        4.274003     3.748285    -2.985383
C        3.952036     3.130242    -4.182873
C        3.987580     1.746955    -4.286913
C        4.358091     0.945111    -3.190969
C        4.381694    -0.574514    -3.353987
C        2.977344    -1.106648    -3.680048
C        5.380078    -0.989348    -4.440415
C        4.243943    -0.021913    -0.018386
Se       2.400000     0.000000     0.000000
Cu       0.000000     0.000000     0.000000
Se      -2.400000     0.000000     0.000000
C       -4.190991     0.021873    -0.020221
N       -5.055567    -0.723371    -0.862963
C       -4.686255    -1.655244    -1.871617
C       -4.248417    -1.128298    -3.124025
C       -4.172946     0.384597    -3.355253
C       -5.478488     0.868862    -3.989005
C       -2.957981     0.826099    -4.190039
C       -3.883188    -2.016115    -4.154416
C       -3.934436    -3.389970    -3.963348
C       -4.346825    -3.914710    -2.747025
C       -4.740556    -3.079807    -1.686882
C       -5.209619    -3.752163    -0.382189
C       -6.734050    -3.737096    -0.207953
C       -4.492881    -3.275271     0.883250
C       -6.401876    -0.397371    -0.551078
C       -6.384852     0.562058     0.496223
N       -5.025485     0.821924     0.809499
C       -4.563023     1.742914     1.801509
C       -4.580392     3.120311     1.486934
C       -5.100403     3.609195     0.120258
C       -3.909713     3.829786    -0.811141
C       -5.962264     4.885158     0.222734
C       -4.118396     4.049470     2.431729
C       -3.646431     3.615654     3.674791
C       -3.632128     2.266239     3.995998
C       -4.092041     1.308221     3.073604
C       -4.085008    -0.183417     3.436148
C       -5.482348    -0.627637     3.881670
C       -3.046941    -0.579817     4.505452
H        2.633959    -2.721732    -0.729273
H        3.398864    -3.967150    -1.758675
H        2.616009    -4.442976    -0.198947
H        5.086333    -2.648039    -0.567185
H        5.624535    -4.965184    -1.124866
H        4.908139    -5.569808     0.397678
H        6.388463    -4.540462     0.452362
H        3.633232    -4.929975     2.119705
H        3.387771    -4.295418     4.456656
H        3.899343    -2.036421     5.206985
H        4.750213     0.040710     4.910406
H        3.331002     1.139798     2.451157
H        3.644697     2.018214     3.990974
H        2.586091     0.565251     3.969649
H        6.019401     1.134696     2.361661
H        6.159582     1.722136     4.015929
H        6.884642     0.124628     3.607277
H        7.293639    -0.971055     0.994607
H        7.317386     0.768162    -1.090508
H        4.787471     4.857727    -0.773857
H        6.529981     4.391016     0.788163
H        6.629636     2.686491     0.336647
H        7.088269     3.956159    -0.865805
H        4.097732     4.117743     1.428520
H        4.083392     2.417578     0.891447
H        2.899803     3.582381     0.192156
H        4.221592     4.828406    -2.939891
H        3.675313     3.730266    -5.038452
H        3.729278     1.303563    -5.239964
H        4.704847    -1.068155    -2.418261
H        2.268512    -0.832137    -2.872505
H        2.998275    -2.212957    -3.762839
H        2.598813    -0.690631    -4.636459
H        5.415813    -2.096224    -4.523006
H        6.398491    -0.625179    -4.182538
H        5.097108    -0.579588    -5.433357
H       -4.080077     0.913759    -2.390487
H       -6.334350     0.618191    -3.325984
H       -5.455160     1.973282    -4.111509
H       -5.639923     0.395753    -4.980000
H       -3.014254     0.448195    -5.232074
H       -2.921737     1.934426    -4.248873
H       -2.017225     0.467177    -3.722065
H       -3.568826    -1.660783    -5.123930
H       -3.658455    -4.057632    -4.769782
H       -4.383151    -4.992253    -2.642516
H       -4.961146    -4.833213    -0.472310
H       -7.018696    -4.368242     0.661484
H       -7.137393    -2.734793    -0.016039
H       -7.224506    -4.159973    -1.110862
H       -4.801641    -2.254042     1.154160
H       -3.392107    -3.319457     0.748529
H       -4.770396    -3.924587     1.740884
H       -7.280791    -0.771797    -1.057220
H       -7.239509     1.048481     0.943884
H       -5.731628     2.847732    -0.348538
H       -4.271752     4.133370    -1.815728
H       -3.221685     4.606018    -0.416793
H       -3.350694     2.876415    -0.923998
H       -6.818636     4.722650     0.911768
H       -5.374731     5.759249     0.578692
H       -6.359371     5.147714    -0.778658
H       -4.096527     5.110479     2.239981
H       -3.292466     4.342830     4.401412
H       -3.265239     1.992701     4.974041
H       -3.779941    -0.758655     2.541181
H       -5.779061    -0.081261     4.804100
H       -6.234914    -0.422964     3.094772
H       -5.493828    -1.716443     4.096348
H       -3.042407    -1.683072     4.635433
H       -2.030022    -0.269505     4.179513
H       -3.275099    -0.131858     5.493625
133
ex_0397 frame1 linear-conf2
C        4.474396     2.997148    -2.704256
C        5.579851     1.940567    -2.616633
C        6.831030     2.406382    -3.385745
C        5.036107     0.592646    -3.125020
C        4.729243     0.470066    -4.493090
C        4.197103    -0.702427    -5.008686
C        3.965986    -1.790395    -4.181770
C        4.278018    -1.742968    -2.808726
C        4.017648    -2.976160    -1.944649
C        2.514976    -3.276874    -1.884188
C        4.794490    -4.194395    -2.458590
C        4.805167    -0.534860    -2.250773
N        5.129663    -0.317529    -0.893842
C        6.412187    -0.053379    -0.351697
C        6.277325     0.114292     1.026249
N        4.907429    -0.033929     1.330611
C        4.361233     0.104508     2.627385
C        4.248261     1.482336     3.011707
C        4.682293     2.628429     2.076897
C        3.463804     3.461314     1.655054
C        5.738589     3.535068     2.730882
C        3.726831     1.801508     4.277431
C        3.317402     0.805070     5.150825
C        3.420081    -0.533159     4.791752
C        3.929091    -0.913575     3.537785
C        3.993137    -2.416386     3.212708
C        2.825498    -2.867980     2.325348
C        5.348602    -2.921838     2.696292
C        4.310961    -0.128194     0.159785
Se       2.400000     0.000000     0.000000
Cu       0.000000     0.000000     0.000000
Se      -2.400000     0.000000     0.000000
C       -4.307406     0.135985     0.057506
N       -4.933306     0.840856     1.000044
C       -4.377058     1.732984     1.939822
C       -3.913227     3.090966     1.826875
C       -3.972028     3.905990     0.522954
C       -2.838851     3.582279    -0.456642
C       -5.349519     3.935053    -0.153047
C       -3.374025     3.721528     2.961610
C       -3.286876     3.071492     4.180514
C       -3.737908     1.770441     4.315715
C       -4.292698     1.068794     3.227968
C       -4.788547    -0.381991     3.455430
C       -3.640132    -1.371559     3.258729
C       -5.442759    -0.613501     4.833044
C       -6.279401     0.495458     0.851018
C       -6.378054    -0.397297    -0.217103
N       -5.104008    -0.545045    -0.780025
C       -4.765081    -1.252389    -1.952541
C       -4.492976    -0.760290    -3.256735
C       -4.564142     0.731561    -3.565034
C       -3.159881     1.269874    -3.850313
C       -5.520207     1.034808    -4.729016
C       -4.151916    -1.669506    -4.279920
C       -4.103478    -3.039033    -4.036019
C       -4.382422    -3.531915    -2.766221
C       -4.696805    -2.671786    -1.709114
C       -4.962464    -3.253386    -0.313733
C       -3.654628    -3.845001     0.230316
C       -6.071236    -4.319786    -0.312706
H        4.136717     3.153671    -3.749123
H        4.840728     3.965546    -2.298472
H        3.608379     2.674879    -2.085878
H        5.840294     1.929548    -1.555089
H        7.643835     1.655363    -3.303319
H        7.200866     3.368009    -2.967806
H        6.611723     2.577282    -4.461224
H        4.873382     1.300136    -5.172835
H        3.953962    -0.764585    -6.062748
H        3.544690    -2.683475    -4.621022
H        4.366270    -2.828125    -0.910092
H        1.962147    -2.394699    -1.503903
H        2.321627    -4.126108    -1.196379
H        2.113728    -3.529609    -2.887699
H        4.621985    -5.061350    -1.785446
H        5.882945    -3.973940    -2.471999
H        4.472559    -4.481826    -3.480926
H        7.315227     0.010294    -0.923200
H        7.061332     0.333258     1.724230
H        5.106421     2.259634     1.128553
H        3.771559     4.266835     0.952570
H        2.732213     2.816361     1.123725
H        2.962139     3.927367     2.525452
H        5.336267     4.031076     3.638894
H        6.634157     2.944105     3.013399
H        6.052754     4.334533     2.023928
H        3.617997     2.834162     4.588450
H        2.904556     1.075027     6.112441
H        3.079819    -1.281780     5.497856
H        3.823794    -2.956323     4.169700
H        1.862488    -2.546644     2.778713
H        2.812285    -3.975208     2.247444
H        2.878635    -2.472471     1.302820
H        5.332552    -4.031218     2.643305
H        5.576210    -2.566478     1.674338
H        6.161374    -2.610972     3.384434
H       -3.768768     4.963518     0.806203
H       -1.859800     3.644125     0.066747
H       -2.832928     4.324679    -1.282421
H       -2.933322     2.595374    -0.920602
H       -5.338665     4.669787    -0.986234
H       -6.127343     4.244594     0.575970
H       -5.628324     2.960599    -0.592360
H       -3.010037     4.739792     2.905958
H       -2.863675     3.584238     5.035214
H       -3.634822     1.317593     5.289406
H       -5.561859    -0.680482     2.746077
H       -3.265253    -1.310394     2.224494
H       -3.999176    -2.412792     3.410126
H       -2.808426    -1.165067     3.962894
H       -5.842345    -1.649507     4.892959
H       -6.285161     0.091860     4.989927
H       -4.715384    -0.511249     5.664465
H       -7.085723     0.816703     1.493705
H       -7.274204    -0.895992    -0.555657
H       -4.953180     1.299629    -2.698039
H       -2.505170     1.080859    -2.972715
H       -3.196923     2.366791    -4.022343
H       -2.712936     0.778656    -4.739632
H       -6.538291     0.658178    -4.495556
H       -5.582843     2.132325    -4.893091
H       -5.173216     0.568039    -5.674453
H       -3.920702    -1.318027    -5.278116
H       -3.839984    -3.716490    -4.833564
H       -4.316325    -4.606581    -2.610724
H       -5.252113    -2.479875     0.413237
H       -3.284582    -4.673227    -0.408363
H       -2.877188    -3.052898     0.272219
H       -3.807975    -4.230010     1.261164
H       -6.235308    -4.694263     0.721719
H       -5.796371    -5.190275    -0.945133
H       -7.023011    -3.890180    -0.686102
133
ex_0397 frame2 linear-1
C       -4.384243     3.898995     0.522705
C       -3.028370     3.551201     1.169748
C       -1.968788     4.616207     0.828415
C       -3.236073     3.511574     2.663410
C       -2.993981     4.667910     3.434536
C       -3.172287     4.671653     4.793887
C       -3.584505     3.523046     5.428144
C       -3.834279     2.341543     4.707297
C       -4.274959     1.094665     5.436251
C       -5.810465     1.019137     5.444511
C       -3.720788     1.076271     6.865952
C       -3.671627     2.337374     3.301882
N       -3.956867     1.113723     2.617194
C       -5.261132     0.675635     2.316238
C       -5.142015    -0.595862     1.692821
N       -3.764704    -0.893358     1.609153
C       -3.197555    -2.084765     1.069460
C       -3.022774    -2.261791    -0.318812
C       -3.420379    -1.164842    -1.275178
C       -4.902656    -1.321473    -1.637025
C       -2.562638    -1.231979    -2.547320
C       -2.477909    -3.464082    -0.791763
C       -2.098073    -4.462040     0.073813
C       -2.261899    -4.299437     1.430883
C       -2.798131    -3.119914     1.953227
C       -2.947534    -2.957519     3.450361
C       -4.331407    -3.450182     3.851303
C       -1.863114    -3.737450     4.226330
C       -3.047933     0.150450     2.172669
Se      -1.214904     0.266581     2.319671
Cu       0.541856    -0.577427     0.919156
Se       1.071029    -0.267109    -1.401120
C        2.690798     0.110968    -2.182097
N        3.917475     0.165344    -1.529513
C        4.189499    -0.024719    -0.152918
C        4.394308    -1.312418     0.431832
C        4.325084    -2.608652    -0.343161
C        2.932093    -3.262141    -0.293600
C        4.937182    -2.651845    -1.736531
C        4.674260    -1.380763     1.795252
C        4.771189    -0.245648     2.582159
C        4.543520     0.991861     2.033824
C        4.265113     1.129853     0.670906
C        4.049335     2.519275     0.102661
C        2.596993     2.944533     0.354900
C        5.020122     3.498536     0.785714
C        4.917639     0.451814    -2.479187
C        4.275198     0.624856    -3.732699
N        2.901895     0.395782    -3.536409
C        1.935192     0.462711    -4.607777
C        1.126938     1.604682    -4.859114
C        1.183994     2.807645    -3.969215
C       -0.041223     2.742347    -3.040962
C        1.138794     4.103441    -4.792503
C        0.260422     1.603978    -5.960922
C        0.146044     0.512908    -6.790833
C        0.875038    -0.620747    -6.535345
C        1.767455    -0.675155    -5.477126
C        2.569027    -1.950895    -5.243082
C        1.730462    -2.934814    -4.436061
C        2.903647    -2.591332    -6.598860
H       -4.274898     4.714324    -0.220066
H       -5.099613     4.277650     1.291362
H       -4.849052     3.020676     0.034537
H       -2.643220     2.573032     0.793762
H       -1.502454     4.442553    -0.148358
H       -1.154380     4.624389     1.589967
H       -2.449284     5.618115     0.824784
H       -2.695984     5.603628     2.996428
H       -2.993429     5.577717     5.352293
H       -3.725004     3.586619     6.490291
H       -3.844946     0.219219     4.900874
H       -6.214495     1.077000     6.475827
H       -6.150607     0.068073     4.998072
H       -6.259196     1.862684     4.869232
H       -4.343572     1.735501     7.508477
H       -3.745585     0.051657     7.268677
H       -2.679942     1.475232     6.895617
H       -6.163307     1.200043     2.567776
H       -5.944335    -1.228469     1.373824
H       -3.231153    -0.183727    -0.767668
H       -5.477354    -1.777205    -0.803376
H       -5.024194    -2.030697    -2.481428
H       -5.336389    -0.346085    -1.927581
H       -1.513710    -1.486315    -2.280796
H       -2.941088    -2.058701    -3.188597
H       -2.580312    -0.295416    -3.127491
H       -2.331931    -3.650759    -1.840847
H       -1.676368    -5.374282    -0.309578
H       -1.962745    -5.113170     2.066790
H       -2.849375    -1.879876     3.700283
H       -4.343024    -4.562034     3.856280
H       -5.103259    -3.118677     3.121474
H       -4.570005    -3.073969     4.862095
H       -1.626818    -3.231724     5.176929
H       -0.923017    -3.824075     3.637769
H       -2.202351    -4.778217     4.433992
H        4.969825    -3.282097     0.258527
H        3.047495    -4.364459    -0.309903
H        2.316136    -2.968092    -1.172676
H        2.408906    -2.973489     0.637934
H        5.894224    -2.097156    -1.741501
H        5.128909    -3.709874    -2.002219
H        4.235073    -2.243218    -2.494377
H        4.872035    -2.328238     2.267952
H        5.034967    -0.311132     3.629830
H        4.633347     1.843805     2.677087
H        4.266025     2.542199    -0.990530
H        2.545317     3.964723     0.776255
H        2.112862     2.270430     1.101055
H        2.027104     2.932497    -0.590095
H        5.173641     4.398783     0.166831
H        4.598195     3.819805     1.763873
H        6.002710     3.014940     0.989212
H        5.956248     0.562908    -2.251217
H        4.728898     0.878713    -4.662427
H        2.138796     2.830016    -3.395563
H       -0.691241     3.631551    -3.159770
H       -0.694755     1.875827    -3.288907
H        0.265556     2.624264    -1.988795
H        0.120003     4.274677    -5.209131
H        1.351009     4.954912    -4.122440
H        1.865914     4.083287    -5.633341
H       -0.337900     2.455275    -6.203397
H       -0.503339     0.550532    -7.652109
H        0.740930    -1.436545    -7.214672
H        3.526852    -1.730505    -4.732199
H        2.263918    -3.904220    -4.378049
H        0.753366    -3.084567    -4.954494
H        1.531143    -2.545915    -3.417657
H        2.035970    -3.191477    -6.967126
H        3.780282    -3.253713    -6.510409
H        3.119387    -1.801401    -7.349680
133
ex_0397 frame3 linear-2
C       -1.507128     4.168135     2.903035
C       -0.839401     3.165270     1.948444
C       -1.271422     3.442929     0.507971
C        0.673954     3.215209     2.072770
C        1.417511     4.026448     1.209319
C        2.792578     4.068389     1.278549
C        3.472553     3.290719     2.205646
C        2.767301     2.490461     3.115976
C        3.513117     1.670668     4.163509
C        3.938223     0.278586     3.684072
C        4.743432     2.412183     4.711608
C        1.345606     2.462375     3.052264
N        0.585235     1.683457     3.951569
C        0.265900     2.076017     5.262118
C       -0.510664     1.041912     5.827182
N       -0.645241     0.024591     4.858908
C       -1.373961    -1.192966     5.084750
C       -2.686158    -1.374414     4.543550
C       -3.347814    -0.309380     3.712835
C       -3.243395    -0.708051     2.230830
C       -4.827885    -0.182916     4.121127
C       -3.377360    -2.572011     4.790005
C       -2.835276    -3.558360     5.574212
C       -1.563252    -3.416447     6.088808
C       -0.791871    -2.276493     5.882785
C        0.586145    -2.188138     6.470372
C        0.568674    -1.490743     7.824412
C        1.721465    -1.728291     5.552222
C        0.068831     0.423520     3.719891
Se       0.293939    -0.552272     2.164070
Cu       0.650188    -0.143571    -0.173888
Se      -0.702461     0.204852    -2.125539
C       -0.411303    -0.627333    -3.774333
N       -1.408823    -1.134449    -4.601620
C       -2.820093    -1.105138    -4.358021
C       -3.529665    -0.001874    -4.938043
C       -2.798294     1.057078    -5.725040
C       -2.748817     0.571625    -7.181248
C       -3.476027     2.434767    -5.620696
C       -4.921158     0.095546    -4.772618
C       -5.612539    -0.865211    -4.058979
C       -4.949694    -1.916409    -3.493544
C       -3.549230    -2.057578    -3.610092
C       -2.874661    -3.201198    -2.945700
C       -2.523064    -2.848745    -1.504392
C       -1.736889    -3.967465    -3.638321
C       -0.823873    -1.696300    -5.742892
C        0.567997    -1.480601    -5.647502
N        0.816586    -0.834341    -4.411525
C        2.133830    -0.482477    -3.961078
C        2.965816    -1.445285    -3.354765
C        2.495308    -2.865118    -3.151324
C        1.988192    -3.086162    -1.723680
C        3.628188    -3.831897    -3.480988
C        4.257031    -1.080384    -2.930859
C        4.739409     0.191188    -3.125332
C        3.932291     1.148275    -3.683335
C        2.634280     0.840734    -4.122957
C        1.805698     1.922647    -4.755208
C        1.177012     2.802274    -3.657485
C        2.712381     2.755700    -5.680223
H       -2.108954     3.637485     3.664463
H       -2.202525     4.838484     2.352210
H       -0.756596     4.831211     3.390502
H       -1.202264     2.135885     2.153848
H       -0.592912     2.926259    -0.207231
H       -1.223838     4.536544     0.310793
H       -2.308434     3.096793     0.357232
H        0.941322     4.651879     0.478094
H        3.318414     4.722697     0.604506
H        4.545622     3.356348     2.237850
H        2.802660     1.535559     5.003569
H        3.185823    -0.187606     3.016484
H        4.102893    -0.360909     4.576511
H        4.895301     0.329757     3.123365
H        5.677091     2.074328     4.205798
H        4.847118     2.212987     5.791407
H        4.674359     3.506458     4.541873
H        0.529391     3.016658     5.702229
H       -0.982639     1.024238     6.797435
H       -2.850049     0.668586     3.913507
H       -2.908347     0.142636     1.609749
H       -4.212721    -1.068563     1.838579
H       -2.555017    -1.576489     2.095363
H       -5.428563    -0.998790     3.657002
H       -4.950901    -0.289484     5.222742
H       -5.243859     0.772286     3.766261
H       -4.381789    -2.717372     4.433388
H       -3.415813    -4.431189     5.800228
H       -1.171226    -4.205218     6.699381
H        0.815924    -3.253595     6.680088
H        1.298045    -1.977757     8.497245
H       -0.438399    -1.594205     8.283492
H        0.829498    -0.418326     7.739173
H        1.555250    -2.067833     4.509081
H        1.818092    -0.622050     5.584509
H        2.680168    -2.157574     5.913121
H       -1.771775     1.152008    -5.297599
H       -1.747108     0.739415    -7.615488
H       -2.985359    -0.515625    -7.254196
H       -3.529345     1.069136    -7.793280
H       -3.887246     2.584582    -4.596104
H       -2.764316     3.242136    -5.861317
H       -4.338746     2.500344    -6.322676
H       -5.483945     0.896933    -5.222421
H       -6.684172    -0.771334    -3.966852
H       -5.505866    -2.653803    -2.946697
H       -3.698699    -3.985568    -2.880853
H       -1.437215    -2.670000    -1.407079
H       -3.035636    -1.907143    -1.217333
H       -2.845139    -3.652355    -0.810739
H       -0.773849    -3.431935    -3.516970
H       -1.970907    -4.112247    -4.711495
H       -1.614487    -4.954987    -3.152008
H       -1.371321    -2.148504    -6.545368
H        1.316432    -1.757216    -6.364688
H        1.694736    -3.118619    -3.874481
H        0.904711    -2.858718    -1.689302
H        2.529383    -2.441961    -0.994176
H        2.133512    -4.139865    -1.412511
H        4.077495    -3.549009    -4.457542
H        4.408183    -3.834922    -2.688438
H        3.209027    -4.850979    -3.547228
H        4.931821    -1.785801    -2.492038
H        5.754173     0.438454    -2.856009
H        4.362483     2.122482    -3.821322
H        1.021104     1.459193    -5.401257
H        1.425245     2.412766    -2.643284
H        0.075614     2.824211    -3.756860
H        1.579027     3.833843    -3.682467
H        3.298370     3.499109    -5.088726
H        3.453975     2.091312    -6.183764
H        2.119555     3.299740    -6.431794
133
ex_0397 frame4 linear-conf4
C        3.063924     1.581387    -3.292917
C        4.203193     0.727802    -3.857949
C        5.588728     1.321825    -3.561333
C        4.106442    -0.769933    -3.529820
C        3.629584    -1.633098    -4.532058
C        3.544151    -3.003561    -4.325789
C        3.902346    -3.550653    -3.107533
C        4.349734    -2.739997    -2.047440
C        4.686910    -3.397301    -0.699779
C        5.983424    -4.210225    -0.798190
C        3.549515    -4.310688    -0.198221
C        4.465337    -1.320110    -2.255848
N        4.941298    -0.633679    -1.105000
C        6.287587    -0.697833    -0.673789
C        6.385304     0.075078     0.483265
N        5.122506     0.632380     0.737235
C        4.800598     1.513398     1.815176
C        4.681294     2.918998     1.627350
C        4.924445     3.549007     0.261111
C        3.609687     4.066892    -0.320318
C        5.978408     4.666137     0.335469
C        4.333370     3.736924     2.721770
C        4.149067     3.201602     3.974342
C        4.283510     1.834578     4.194935
C        4.579787     0.955662     3.126131
C        4.658217    -0.573591     3.393130
C        6.068928    -1.141424     3.626728
C        3.809577    -1.003766     4.615205
C        4.326494     0.007212    -0.123336
Se       2.400000     0.000000     0.000000
Cu       0.000000     0.000000     0.000000
Se      -2.400000     0.000000     0.000000
C       -4.292641     0.063344    -0.086142
N       -4.898583     0.969499    -0.797102
C       -4.383211     1.848045    -1.805104
C       -4.318527     3.175477    -1.206792
C       -4.771750     3.471133     0.248848
C       -3.563261     3.864765     1.097451
C       -5.853867     4.569133     0.301975
C       -3.828500     4.230866    -1.971384
C       -3.407922     4.034241    -3.272285
C       -3.473215     2.773331    -3.848752
C       -3.969253     1.657927    -3.126093
C       -4.008085     0.315369    -3.873432
C       -2.767622    -0.534639    -3.578370
C       -5.315759    -0.476296    -3.772437
C       -6.178159     0.953270    -0.406005
C       -6.309240    -0.137304     0.580062
N       -5.075602    -0.757018     0.650045
C       -4.794181    -1.955459     1.347144
C       -4.748585    -3.268347     0.819052
C       -5.039221    -3.524104    -0.656017
C       -3.731329    -3.813300    -1.389710
C       -6.061478    -4.653433    -0.865983
C       -4.431837    -4.340055     1.668586
C       -4.207059    -4.128962     3.023633
C       -4.271850    -2.848343     3.559309
C       -4.529422    -1.740181     2.736444
C       -4.520846    -0.332662     3.343450
C       -3.114759    -0.030554     3.892897
C       -5.567446    -0.153620     4.451231
H        3.078530     1.653732    -2.201648
H        2.085702     1.159457    -3.608430
H        3.137831     2.616260    -3.689631
H        4.078813     0.816921    -4.959527
H        5.795974     1.413711    -2.480822
H        5.654426     2.347631    -3.980250
H        6.380005     0.698849    -4.029189
H        3.353322    -1.246706    -5.503525
H        3.203122    -3.646026    -5.127164
H        3.822431    -4.624869    -2.991130
H        4.828103    -2.629334     0.086548
H        6.233458    -4.653108     0.190919
H        5.892122    -5.029698    -1.541936
H        6.829598    -3.562965    -1.098573
H        3.799826    -4.719248     0.805300
H        3.398208    -5.183160    -0.870579
H        2.595249    -3.751007    -0.121844
H        7.082959    -1.247146    -1.146772
H        7.274232     0.231546     1.068590
H        5.322489     2.803491    -0.451789
H        3.781498     4.475805    -1.337934
H        3.169426     4.856506     0.322300
H        2.884994     3.228595    -0.399410
H        5.634068     5.509096     0.969852
H        6.929239     4.271187     0.753326
H        6.179644     5.065338    -0.680563
H        4.216665     4.805022     2.597917
H        3.871976     3.842065     4.811436
H        4.107407     1.482999     5.197075
H        4.182163    -1.077533     2.524088
H        6.551446    -0.642788     4.493092
H        6.009632    -2.232199     3.834487
H        6.726335    -1.049462     2.765855
H        4.254331    -0.647315     5.571553
H        2.767656    -0.629777     4.531106
H        3.767841    -2.113118     4.687292
H       -5.175767     2.598441     0.774740
H       -3.064853     4.773899     0.704915
H       -2.834618     3.025939     1.110551
H       -3.880692     4.056923     2.145811
H       -6.745647     4.268206    -0.287152
H       -6.173845     4.745356     1.351601
H       -5.475641     5.533861    -0.097439
H       -3.752273     5.228486    -1.558261
H       -3.019173     4.868532    -3.842373
H       -3.128488     2.666600    -4.865676
H       -3.906520     0.552067    -4.956653
H       -2.736210    -1.412548    -4.257372
H       -2.754687    -0.911947    -2.549869
H       -1.847944     0.066498    -3.753856
H       -6.176216     0.162313    -4.059615
H       -5.490728    -0.890465    -2.766853
H       -5.274697    -1.344738    -4.464845
H       -6.932108     1.654053    -0.732905
H       -7.176754    -0.432623     1.151556
H       -5.480270    -2.623199    -1.125518
H       -3.242632    -4.726390    -0.991924
H       -3.923691    -3.937186    -2.475790
H       -3.039140    -2.954614    -1.256523
H       -5.671290    -5.629945    -0.510099
H       -7.005843    -4.428091    -0.326447
H       -6.290865    -4.759838    -1.947465
H       -4.367250    -5.350451     1.293182
H       -3.971968    -4.967039     3.663158
H       -4.074611    -2.722856     4.615031
H       -4.723056     0.436819     2.572822
H       -3.064724     1.008381     4.283349
H       -2.357994    -0.131512     3.086963
H       -2.840418    -0.721189     4.718862
H       -5.394530    -0.859570     5.291084
H       -6.586565    -0.317145     4.044504
H       -5.515790     0.880838     4.857062
133
ex_0397 frame5 linear
C        3.384947     3.089138    -1.719036
C        4.581159     3.667579    -0.960327
C        5.892999     3.265381    -1.637609
C        4.452097     3.457582     0.569187
C        4.106209     4.582233     1.342808
C        3.930874     4.494229     2.714168
C        4.114616     3.283402     3.366982
C        4.486150     2.124924     2.659667
C        4.694778     0.812390     3.421263
C        6.048040     0.857820     4.125239
C        3.552516     0.481843     4.394628
C        4.666568     2.197320     1.240046
N        5.050730     1.033518     0.565976
C        6.401967     0.774557     0.143436
C        6.431615    -0.492174    -0.455734
N        5.097218    -0.977682    -0.455507
C        4.732633    -2.224899    -1.033836
C        4.655882    -2.173163    -2.454135
C        4.938908    -0.877999    -3.236238
C        3.692972    -0.382106    -3.931766
C        6.092128    -1.085889    -4.254447
C        4.314223    -3.326543    -3.171330
C        4.047665    -4.523474    -2.517042
C        4.112560    -4.585638    -1.131106
C        4.449226    -3.458458    -0.362672
C        4.491701    -3.626164     1.169086
C        5.819181    -3.201154     1.810026
C        3.283766    -3.008861     1.875811
C        4.339009     0.047019     0.053661
Se       2.400000     0.000000     0.000000
Cu       0.000000     0.000000     0.000000
Se      -2.400000     0.000000     0.000000
C       -4.295578    -0.081361     0.123939
N       -4.997117    -1.051952    -0.466622
C       -4.606806    -2.263534    -1.055826
C       -4.331098    -2.024314    -2.451146
C       -4.496288    -0.617889    -3.065965
C       -3.136074    -0.045186    -3.514302
C       -5.496140    -0.610307    -4.234164
C       -3.907401    -3.070910    -3.271483
C       -3.742479    -4.350042    -2.760681
C       -4.015162    -4.604467    -1.418894
C       -4.444361    -3.605047    -0.557378
C       -4.734135    -3.969989     0.914233
C       -6.186973    -3.712620     1.317157
C       -3.750340    -3.373918     1.925504
C       -6.326849    -0.584407    -0.377097
C       -6.313359     0.598408     0.367759
N       -4.997993     0.887758     0.714014
C       -4.618980     1.984487     1.513547
C       -4.398082     2.155860     2.918842
C       -4.552853     1.018822     3.935508
C       -3.349082     0.077762     3.952862
C       -5.891426     0.271375     3.822594
C       -4.020419     3.423849     3.402756
C       -3.884023     4.508779     2.549304
C       -4.097832     4.361006     1.187313
C       -4.453245     3.113244     0.644176
C       -4.655553     2.991207    -0.872440
C       -5.988500     3.624084    -1.290477
C       -3.508443     3.616608    -1.686346
H        2.436822     3.491847    -1.299986
H        3.432622     3.385323    -2.790514
H        3.378146     1.987087    -1.670559
H        4.515305     4.768837    -1.132713
H        5.947869     2.179835    -1.801816
H        5.931052     3.692333    -2.661892
H        6.767027     3.642659    -1.068185
H        3.938056     5.548138     0.872842
H        3.646019     5.371891     3.278732
H        3.979518     3.262504     4.438339
H        4.770332    -0.049650     2.749443
H        6.091413     1.681615     4.865383
H        6.244308    -0.111015     4.632383
H        6.846158     1.009177     3.363672
H        3.735394    -0.506271     4.868326
H        3.477964     1.232136     5.207991
H        2.584150     0.436089     3.853151
H        7.233864     1.443229     0.290192
H        7.296354    -0.985594    -0.859782
H        5.260111    -0.061887    -2.568426
H        3.307832    -1.119727    -4.673906
H        3.897205     0.573456    -4.467226
H        2.896623    -0.186640    -3.183733
H        6.308090    -0.125915    -4.780096
H        7.014876    -1.424076    -3.746208
H        5.812908    -1.831484    -5.030249
H        4.252600    -3.320227    -4.257073
H        3.793321    -5.403918    -3.088311
H        3.902623    -5.538369    -0.660663
H        4.399378    -4.719485     1.376249
H        5.975227    -2.108592     1.768416
H        6.669651    -3.713012     1.311687
H        5.820486    -3.484915     2.884699
H        3.280293    -3.302924     2.945486
H        3.288763    -1.915563     1.847881
H        2.344941    -3.380019     1.410972
H       -4.873320     0.060988    -2.301640
H       -2.298901    -0.494985    -2.941466
H       -2.948214    -0.210786    -4.595114
H       -3.118987     1.049460    -3.322832
H       -5.133252    -1.243746    -5.073700
H       -5.629328     0.419567    -4.625383
H       -6.483613    -1.001753    -3.910131
H       -3.687700    -2.907383    -4.321519
H       -3.421234    -5.156719    -3.406107
H       -3.879388    -5.622035    -1.059592
H       -4.579257    -5.068557     1.000817
H       -6.873356    -4.222279     0.609606
H       -6.372976    -4.115608     2.335507
H       -6.428168    -2.634154     1.341814
H       -3.909152    -3.837679     2.923233
H       -2.701701    -3.563497     1.612856
H       -3.905916    -2.305001     2.065180
H       -7.188228    -1.049948    -0.832836
H       -7.167491     1.219051     0.595049
H       -4.565180     1.480556     4.946668
H       -3.200313    -0.421476     2.987229
H       -2.430334     0.658353     4.181411
H       -3.478973    -0.692138     4.743433
H       -5.954050    -0.368731     2.924764
H       -6.737265     0.992487     3.821047
H       -6.015236    -0.406395     4.693783
H       -3.861208     3.583842     4.462197
H       -3.616418     5.477917     2.948217
H       -3.989558     5.233502     0.559318
H       -4.693968     1.928729    -1.159239
H       -6.151356     3.478906    -2.380588
H       -6.008187     4.708436    -1.060434
H       -6.832983     3.142195    -0.762564
H       -3.672275     3.440440    -2.771377
H       -2.531899     3.175065    -1.400241
H       -3.462202     4.716995    -1.543725
133
ex_0397 frame6 linear-conf3
C        3.163525     3.609538    -0.054752
C        4.306120     3.715108    -1.069744
C        5.682274     3.753858    -0.390930
C        4.234131     2.693767    -2.219832
C        3.793801     3.152690    -3.478962
C        3.742256     2.296182    -4.571549
C        4.097142     0.966174    -4.437478
C        4.504714     0.439090    -3.210321
C        4.850559    -1.048415    -3.100428
C        6.192917    -1.348681    -3.786658
C        3.754239    -1.953103    -3.710257
C        4.575476     1.309440    -2.065323
N        4.984813     0.593536    -0.911637
C        6.356816     0.192467    -0.686255
C        6.332910    -0.563430     0.515644
N        5.044736    -0.528227     1.005727
C        4.640582    -1.141556     2.244130
C        4.495290    -0.334580     3.424977
C        4.782108     1.173552     3.381844
C        6.259325     1.396785     3.681963
C        3.885764     2.021812     4.313050
C        4.094046    -0.930780     4.602012
C        3.862405    -2.317468     4.689089
C        4.030601    -3.106451     3.566028
C        4.381890    -2.562065     2.309458
C        4.457466    -3.538817     1.116474
C        3.326459    -3.340279     0.105075
C        5.801153    -3.679584     0.387193
C        4.293723     0.015729     0.047594
Se       2.400000     0.000000     0.000000
Cu       0.000000     0.000000     0.000000
Se      -2.400000     0.000000     0.000000
C       -4.314804    -0.032983    -0.027992
N       -4.985381    -1.042669    -0.588542
C       -4.519055    -2.312243    -0.991774
C       -4.328845    -3.455061    -0.182335
C       -4.698529    -3.454374     1.305175
C       -3.460056    -3.229255     2.173439
C       -5.443947    -4.732631     1.748000
C       -3.785592    -4.624298    -0.757935
C       -3.480861    -4.666093    -2.108316
C       -3.704570    -3.564883    -2.921463
C       -4.219923    -2.369068    -2.390570
C       -4.454725    -1.151695    -3.299686
C       -3.134895    -0.422879    -3.579727
C       -5.105578    -1.523563    -4.661060
C       -6.301056    -0.541675    -0.691890
C       -6.334059     0.678237    -0.012143
N       -5.056024     0.975873     0.413976
C       -4.626240     2.105148     1.157387
C       -4.576456     3.233840     0.264398
C       -4.913900     3.105120    -1.228227
C       -6.268967     3.733296    -1.594396
C       -3.815446     3.734798    -2.108372
C       -4.208080     4.493310     0.771370
C       -3.825277     4.638211     2.099570
C       -3.837139     3.553005     2.961879
C       -4.269761     2.280011     2.519862
C       -4.350943     1.106708     3.504079
C       -5.807874     0.958781     3.950993
C       -3.423726     1.208490     4.717737
H        3.216525     4.463580     0.654172
H        3.202694     2.692245     0.544442
H        2.188086     3.658858    -0.582017
H        4.172911     4.715748    -1.526675
H        5.735701     4.618756     0.302401
H        5.886216     2.850844     0.215482
H        6.483405     3.866909    -1.153523
H        3.530676     4.184273    -3.621307
H        3.434029     2.683077    -5.531460
H        4.045834     0.339885    -5.325539
H        4.936858    -1.362548    -2.051350
H        6.463101    -2.417224    -3.646096
H        7.001033    -0.736492    -3.341782
H        6.151419    -1.126287    -4.874123
H        3.666042    -1.800036    -4.808188
H        2.772735    -1.747805    -3.239457
H        4.010415    -3.021789    -3.550494
H        7.178035     0.397308    -1.315135
H        7.169550    -1.031007     0.942275
H        4.592772     1.597595     2.387186
H        6.513497     2.488578     3.605139
H        6.517723     1.043127     4.703830
H        6.891898     0.855750     2.940914
H        4.118246     3.099982     4.164353
H        2.823904     1.856427     4.065781
H        4.068709     1.792626     5.378191
H        3.990664    -0.375126     5.537168
H        3.579136    -2.761517     5.639722
H        3.801304    -4.156777     3.660209
H        4.276352    -4.547705     1.539126
H        2.343534    -3.326143     0.624468
H        3.471838    -2.413254    -0.468671
H        3.317161    -4.180367    -0.624766
H        5.775533    -4.582886    -0.252278
H        5.984836    -2.861371    -0.315488
H        6.633604    -3.789467     1.114653
H       -5.396827    -2.618814     1.513253
H       -2.991524    -2.263839     1.913618
H       -3.753779    -3.183142     3.241677
H       -2.721888    -4.039711     2.026609
H       -4.786179    -5.629417     1.688721
H       -5.767810    -4.633939     2.809321
H       -6.346606    -4.900205     1.121129
H       -3.608242    -5.519026    -0.182818
H       -3.072162    -5.565409    -2.555923
H       -3.436136    -3.627747    -3.977530
H       -5.123295    -0.400651    -2.851105
H       -2.740060    -0.001505    -2.641317
H       -2.372259    -1.102647    -4.015988
H       -3.296726     0.439973    -4.264527
H       -5.297186    -0.605722    -5.257479
H       -4.437135    -2.164560    -5.274135
H       -6.068227    -2.047912    -4.504575
H       -7.123323    -1.024031    -1.199443
H       -7.195857     1.318825     0.103403
H       -4.942645     2.041094    -1.519457
H       -6.275897     4.822793    -1.389243
H       -7.094075     3.276292    -1.017805
H       -6.483750     3.562460    -2.672478
H       -4.020421     3.531186    -3.181337
H       -3.785247     4.838877    -1.988793
H       -2.820463     3.318960    -1.853053
H       -4.173406     5.369206     0.139890
H       -3.520119     5.609656     2.468074
H       -3.546049     3.728531     3.984517
H       -4.029924     0.176170     2.984708
H       -6.482585     0.819940     3.080580
H       -6.129226     1.869657     4.500884
H       -5.920817     0.081019     4.620769
H       -3.688721     2.058083     5.376655
H       -2.367885     1.308778     4.384199
H       -3.502389     0.282834     5.327310
133
ex_0397 frame7 linear-conf5
C        3.097269     1.995975     3.071012
C        4.365072     2.760318     2.686835
C        5.655741     2.031634     3.082423
C        4.305212     3.252315     1.239433
C        3.912550     4.582572     1.022516
C        3.816485     5.111933    -0.250516
C        4.108686     4.334237    -1.355591
C        4.496502     2.982404    -1.222632
C        4.765365     2.149667    -2.501963
C        6.230758     2.167664    -2.968349
C        3.914073     2.623412    -3.707866
C        4.616162     2.420184     0.111895
N        5.038266     1.058140     0.107364
C        6.378687     0.633986    -0.061027
C        6.365931    -0.773684    -0.067194
N        5.037745    -1.183002     0.148608
C        4.701696    -2.579333     0.218227
C        4.683887    -3.333882     1.458902
C        5.053309    -2.741818     2.831168
C        6.473904    -2.167680     2.863407
C        4.017307    -1.796501     3.429669
C        4.311108    -4.685337     1.431411
C        3.994350    -5.326738     0.251861
C        4.026259    -4.640644    -0.942346
C        4.371794    -3.280309    -1.012769
C        4.368285    -2.642612    -2.426895
C        3.116347    -1.843037    -2.784202
C        5.635753    -1.905312    -2.862823
C        4.296673    -0.060187     0.092301
Se       2.400000     0.000000     0.000000
Cu       0.000000     0.000000     0.000000
Se      -2.400000     0.000000     0.000000
C       -4.272751     0.035742    -0.151728
N       -4.905946     1.038590    -0.763777
C       -4.378914     2.095616    -1.531064
C       -3.974685     2.173310    -2.901382
C       -4.080508     0.992263    -3.875850
C       -2.994932    -0.075261    -3.703991
C       -5.491034     0.387108    -3.937830
C       -3.453661     3.385623    -3.390177
C       -3.363431     4.512342    -2.586917
C       -3.772599     4.461351    -1.263855
C       -4.265633     3.269090    -0.701506
C       -4.668379     3.256221     0.782193
C       -6.006419     3.977524     0.998224
C       -3.597546     3.907198     1.683948
C       -6.257644     0.832493    -0.487438
C       -6.367753    -0.352518     0.239212
N       -5.083644    -0.873573     0.417753
C       -4.737711    -2.090387     1.063671
C       -4.920949    -1.999627     2.491833
C       -5.391340    -0.694126     3.189121
C       -6.911052    -0.565540     3.430633
C       -4.675832    -0.508555     4.549631
C       -4.663095    -3.138679     3.281711
C       -4.162041    -4.302160     2.723405
C       -3.945991    -4.390080     1.357560
C       -4.251963    -3.313359     0.500258
C       -4.063862    -3.459942    -1.011719
C       -5.423917    -3.735515    -1.664050
C       -3.041010    -4.527208    -1.431458
H        2.992419     1.059945     2.516287
H        2.202364     2.618589     2.851237
H        3.101801     1.763468     4.156183
H        4.339042     3.664875     3.334077
H        6.539796     2.642402     2.804925
H        5.738999     1.034197     2.622784
H        5.667528     1.870319     4.180248
H        3.660847     5.225961     1.857063
H        3.495320     6.138283    -0.385027
H        3.998700     4.811452    -2.316134
H        4.434141     1.112086    -2.308800
H        6.335481     1.614551    -3.926725
H        6.581031     3.210070    -3.114956
H        6.913915     1.673066    -2.277643
H        4.032950     1.923629    -4.562883
H        2.836638     2.668493    -3.446897
H        4.244359     3.618062    -4.081385
H        7.245805     1.275840    -0.190064
H        7.230394    -1.410965    -0.203202
H        5.086720    -3.590678     3.550978
H        6.770587    -1.961108     3.912877
H        6.554655    -1.214606     2.322931
H        7.192765    -2.902748     2.440015
H        3.880694    -0.905604     2.820781
H        3.041494    -2.318873     3.524146
H        4.339874    -1.469256     4.440610
H        4.296186    -5.273308     2.337050
H        3.733113    -6.378271     0.262861
H        3.782107    -5.195643    -1.839923
H        4.310946    -3.504936    -3.129031
H        3.130845    -0.856744    -2.317196
H        2.199089    -2.405702    -2.502788
H        3.081313    -1.660567    -3.881315
H        5.681477    -0.899064    -2.425161
H        5.612518    -1.735953    -3.960841
H        6.539105    -2.498895    -2.616152
H       -3.889492     1.405566    -4.890179
H       -3.042248    -0.793828    -4.549879
H       -3.101067    -0.661358    -2.785075
H       -1.991345     0.401464    -3.709067
H       -5.750713    -0.181818    -3.026142
H       -5.557452    -0.326674    -4.784471
H       -6.244791     1.187798    -4.092047
H       -3.130153     3.468420    -4.420339
H       -2.972448     5.436099    -2.994718
H       -3.688419     5.367739    -0.678377
H       -4.784674     2.215374     1.137444
H       -6.289318     3.944002     2.074020
H       -6.814531     3.484365     0.427475
H       -5.948934     5.037191     0.674074
H       -2.607081     3.430862     1.537694
H       -3.501926     4.996980     1.485757
H       -3.883674     3.807651     2.753787
H       -7.065658     1.495598    -0.759108
H       -7.278168    -0.777741     0.635104
H       -5.030796     0.178341     2.602790
H       -7.134913     0.064118     4.317578
H       -7.388006    -1.557353     3.569782
H       -7.405152    -0.003909     2.624230
H       -3.575845    -0.605414     4.438492
H       -4.888829     0.504766     4.956283
H       -5.037850    -1.228997     5.313825
H       -4.787083    -3.133354     4.353572
H       -3.932254    -5.147175     3.360245
H       -3.563673    -5.327113     0.989267
H       -3.637703    -2.530302    -1.417867
H       -6.150929    -2.931705    -1.424784
H       -5.834159    -4.701009    -1.293545
H       -5.319743    -3.793062    -2.767392
H       -2.898637    -4.495180    -2.532428
H       -3.369423    -5.552212    -1.166633
H       -2.060089    -4.310844    -0.953486
133
ex_0397 frame8 trans-LIN Se0+Se0
C        3.384947     3.089138    -1.719036
C        4.581159     3.667579    -0.960327
C        5.892999     3.265381    -1.637609
C        4.453656     3.457941     0.569366
C        4.106209     4.582233     1.342808
C        3.930874     4.494229     2.714168
C        4.114616     3.283402     3.366982
C        4.487668     2.125285     2.659877
C        4.694778     0.812390     3.421263
C        6.048040     0.857820     4.125239
C        3.552516     0.481843     4.394628
C        4.666766     2.197368     1.240073
N        5.048491     1.041352     0.547043
C        6.405874     0.761439     0.169978
C        6.431888    -0.493092    -0.453877
N        5.093551    -0.965203    -0.480572
C        4.730305    -2.224291    -1.033692
C        4.655078    -2.172957    -2.454085
C        4.938908    -0.877999    -3.236238
C        3.692972    -0.382106    -3.931766
C        6.092128    -1.085889    -4.254447
C        4.314223    -3.326543    -3.171330
C        4.047665    -4.523474    -2.517042
C        4.112560    -4.585638    -1.131106
C        4.448416    -3.458248    -0.362626
C        4.491701    -3.626164     1.169086
C        5.819181    -3.201154     1.810026
C        3.283766    -3.008861     1.875811
C        4.347209     0.055719     0.038553
Se       2.400000     0.000000     0.000000
Cu       0.000000     0.000000     0.000000
Se      -2.400000     0.000000     0.000000
C       -4.297850    -0.060676     0.089954
N       -4.995955    -1.046042    -0.478297
C       -4.607300    -2.263637    -1.055941
C       -4.331266    -2.024351    -2.451186
C       -4.496288    -0.617889    -3.065965
C       -3.136074    -0.045186    -3.514302
C       -5.496140    -0.610307    -4.234164
C       -3.907401    -3.070910    -3.271483
C       -3.742479    -4.350042    -2.760681
C       -4.015162    -4.604467    -1.418894
C       -4.444529    -3.605083    -0.557420
C       -4.734135    -3.969989     0.914233
C       -6.186973    -3.712620     1.317157
C       -3.750340    -3.373918     1.925504
C       -6.326849    -0.584407    -0.377097
C       -6.313359     0.598408     0.367759
N       -4.996990     0.895292     0.703417
C       -4.621599     1.985138     1.513885
C       -4.398989     2.156087     2.918958
C       -4.552853     1.018822     3.935508
C       -3.349082     0.077762     3.952862
C       -5.891426     0.271375     3.822594
C       -4.020419     3.423849     3.402756
C       -3.884023     4.508779     2.549304
C       -4.097832     4.361006     1.187313
C       -4.454144     3.113456     0.644278
C       -4.655553     2.991207    -0.872440
C       -5.988500     3.624084    -1.290477
C       -3.508443     3.616608    -1.686346
H        2.436822     3.491847    -1.299986
H        3.432622     3.385323    -2.790514
H        3.378146     1.987087    -1.670559
H        4.515305     4.768837    -1.132713
H        5.947869     2.179835    -1.801816
H        5.931052     3.692333    -2.661892
H        6.767027     3.642659    -1.068185
H        3.938056     5.548138     0.872842
H        3.646019     5.371891     3.278732
H        3.979518     3.262504     4.438339
H        4.770332    -0.049650     2.749443
H        6.091413     1.681615     4.865383
H        6.244308    -0.111015     4.632383
H        6.846158     1.009177     3.363672
H        3.735394    -0.506271     4.868326
H        3.477964     1.232136     5.207991
H        2.584150     0.436089     3.853151
H        7.267061     1.384996     0.351385
H        7.298202    -1.000360    -0.832112
H        5.260111    -0.061887    -2.568426
H        3.307832    -1.119727    -4.673906
H        3.897205     0.573456    -4.467226
H        2.896623    -0.186640    -3.183733
H        6.308090    -0.125915    -4.780096
H        7.014876    -1.424076    -3.746208
H        5.812908    -1.831484    -5.030249
H        4.252600    -3.320227    -4.257073
H        3.793321    -5.403918    -3.088311
H        3.902623    -5.538369    -0.660663
H        4.399378    -4.719485     1.376249
H        5.975227    -2.108592     1.768416
H        6.669651    -3.713012     1.311687
H        5.820486    -3.484915     2.884699
H        3.280293    -3.302924     2.945486
H        3.288763    -1.915563     1.847881
H        2.344941    -3.380019     1.410972
H       -4.873320     0.060988    -2.301640
H       -2.298901    -0.494985    -2.941466
H       -2.948214    -0.210786    -4.595114
H       -3.118987     1.049460    -3.322832
H       -5.133252    -1.243746    -5.073700
H       -5.629328     0.419567    -4.625383
H       -6.483613    -1.001753    -3.910131
H       -3.687700    -2.907383    -4.321519
H       -3.421234    -5.156719    -3.406107
H       -3.879388    -5.622035    -1.059592
H       -4.579257    -5.068557     1.000817
H       -6.873356    -4.222279     0.609606
H       -6.372976    -4.115608     2.335507
H       -6.428168    -2.634154     1.341814
H       -3.909152    -3.837679     2.923233
H       -2.701701    -3.563497     1.612856
H       -3.905916    -2.305001     2.065180
H       -7.188228    -1.049948    -0.832836
H       -7.167491     1.219051     0.595049
H       -4.565180     1.480556     4.946668
H       -3.200313    -0.421476     2.987229
H       -2.430334     0.658353     4.181411
H       -3.478973    -0.692138     4.743433
H       -5.954050    -0.368731     2.924764
H       -6.737265     0.992487     3.821047
H       -6.015236    -0.406395     4.693783
H       -3.861208     3.583842     4.462197
H       -3.616418     5.477917     2.948217
H       -3.989558     5.233502     0.559318
H       -4.693968     1.928729    -1.159239
H       -6.151356     3.478906    -2.380588
H       -6.008187     4.708436    -1.060434
H       -6.832983     3.142195    -0.762564
H       -3.672275     3.440440    -2.771377
H       -2.531899     3.175065    -1.400241
H       -3.462202     4.716995    -1.543725
133
ex_0397 frame9 linear-conf6
C        3.216830    -3.661651    -0.706681
C        4.554496    -3.431456     0.003406
C        5.420009    -4.700454    -0.067297
C        4.351025    -2.983337     1.460076
C        3.876502    -3.914063     2.402832
C        3.734724    -3.563839     3.737679
C        4.036186    -2.278037     4.159269
C        4.458707    -1.290105     3.251409
C        4.708322     0.120535     3.801209
C        3.497177     1.018848     3.525747
C        6.023782     0.796935     3.410149
C        4.633652    -1.645897     1.873496
N        5.075459    -0.767160     0.847539
C        6.434988    -0.501733     0.533396
C        6.447377     0.408490    -0.560825
N        5.095725     0.694310    -0.895713
C        4.703556     1.566874    -1.951662
C        4.636279     3.004631    -1.846341
C        4.938640     3.777221    -0.556014
C        6.382462     3.680971    -0.055291
C        3.942226     3.448179     0.553791
C        4.274003     3.748285    -2.985383
C        3.952036     3.130242    -4.182873
C        3.987580     1.746955    -4.286913
C        4.358060     0.945109    -3.190960
C        4.381694    -0.574514    -3.353987
C        2.977344    -1.106648    -3.680048
C        5.380078    -0.989348    -4.440415
C        4.243924    -0.022821    -0.019148
Se       2.400000     0.000000     0.000000
Cu       0.000000     0.000000     0.000000
Se      -2.400000     0.000000     0.000000
C       -4.190846     0.027057    -0.025013
N       -5.055510    -0.721209    -0.864948
C       -4.688343    -1.655264    -1.872359
C       -4.249127    -1.128300    -3.124275
C       -4.172946     0.384597    -3.355253
C       -5.478488     0.868862    -3.989005
C       -2.957981     0.826099    -4.190039
C       -3.883188    -2.016115    -4.154416
C       -3.934436    -3.389970    -3.963348
C       -4.346825    -3.914710    -2.747025
C       -4.741277    -3.079814    -1.687145
C       -5.209619    -3.752163    -0.382189
C       -6.734050    -3.737096    -0.207953
C       -4.492881    -3.275271     0.883250
C       -6.401876    -0.397371    -0.551078
C       -6.384852     0.562058     0.496223
N       -5.025444     0.823801     0.807744
C       -4.561958     1.742832     1.801088
C       -4.580029     3.120282     1.486785
C       -5.100403     3.609195     0.120258
C       -3.909713     3.829786    -0.811141
C       -5.962264     4.885158     0.222734
C       -4.118396     4.049470     2.431729
C       -3.646431     3.615654     3.674791
C       -3.632128     2.266239     3.995998
C       -4.091681     1.308187     3.073459
C       -4.085008    -0.183417     3.436148
C       -5.482348    -0.627637     3.881670
C       -3.046941    -0.579817     4.505452
H        2.633959    -2.721732    -0.729273
H        3.398864    -3.967150    -1.758675
H        2.616009    -4.442976    -0.198947
H        5.086333    -2.648039    -0.567185
H        5.624535    -4.965184    -1.124866
H        4.908139    -5.569808     0.397678
H        6.388463    -4.540462     0.452362
H        3.633232    -4.929975     2.119705
H        3.387771    -4.295418     4.456656
H        3.899343    -2.036421     5.206985
H        4.750213     0.040710     4.910406
H        3.331002     1.139798     2.451157
H        3.644697     2.018214     3.990974
H        2.586091     0.565251     3.969649
H        6.019401     1.134696     2.361661
H        6.159582     1.722136     4.015929
H        6.884642     0.124628     3.607277
H        7.293639    -0.971055     0.994607
H        7.317386     0.768162    -1.090508
H        4.787471     4.857727    -0.773857
H        6.529981     4.391016     0.788163
H        6.629636     2.686491     0.336647
H        7.088269     3.956159    -0.865805
H        4.097732     4.117743     1.428520
H        4.083392     2.417578     0.891447
H        2.899803     3.582381     0.192156
H        4.221592     4.828406    -2.939891
H        3.675313     3.730266    -5.038452
H        3.729278     1.303563    -5.239964
H        4.704847    -1.068155    -2.418261
H        2.268512    -0.832137    -2.872505
H        2.998275    -2.212957    -3.762839
H        2.598813    -0.690631    -4.636459
H        5.415813    -2.096224    -4.523006
H        6.398491    -0.625179    -4.182538
H        5.097108    -0.579588    -5.433357
H       -4.080077     0.913759    -2.390487
H       -6.334350     0.618191    -3.325984
H       -5.455160     1.973282    -4.111509
H       -5.639923     0.395753    -4.980000
H       -3.014254     0.448195    -5.232074
H       -2.921737     1.934426    -4.248873
H       -2.017225     0.467177    -3.722065
H       -3.568826    -1.660783    -5.123930
H       -3.658455    -4.057632    -4.769782
H       -4.383151    -4.992253    -2.642516
H       -4.961146    -4.833213    -0.472310
H       -7.018696    -4.368242     0.661484
H       -7.137393    -2.734793    -0.016039
H       -7.224506    -4.159973    -1.110862
H       -4.801641    -2.254042     1.154160
H       -3.392107    -3.319457     0.748529
H       -4.770396    -3.924587     1.740884
H       -7.280791    -0.771797    -1.057220
H       -7.239509     1.048481     0.943884
H       -5.731628     2.847732    -0.348538
H       -4.271752     4.133370    -1.815728
H       -3.221685     4.606018    -0.416793
H       -3.350694     2.876415    -0.923998
H       -6.818636     4.722650     0.911768
H       -5.374731     5.759249     0.578692
H       -6.359371     5.147714    -0.778658
H       -4.096527     5.110479     2.239981
H       -3.292466     4.342830     4.401412
H       -3.265239     1.992701     4.974041
H       -3.779941    -0.758655     2.541181
H       -5.779061    -0.081261     4.804100
H       -6.234914    -0.422964     3.094772
H       -5.493828    -1.716443     4.096348
H       -3.042407    -1.683072     4.635433
H       -2.030022    -0.269505     4.179513
H       -3.275099    -0.131858     5.493625
133
ex_0397 frame10 linear-conf2
C        4.474396     2.997148    -2.704256
C        5.579851     1.940567    -2.616633
C        6.831030     2.406382    -3.385745
C        5.027391     0.595614    -3.123395
C        4.729243     0.470066    -4.493090
C        4.197103    -0.702427    -5.008686
C        3.965986    -1.790395    -4.181770
C        4.269388    -1.739959    -2.806932
C        4.017648    -2.976160    -1.944649
C        2.514976    -3.276874    -1.884188
C        4.794490    -4.194395    -2.458590
C        4.791458    -0.530078    -2.248318
N        5.126779    -0.284661    -0.897870
C        6.414052    -0.073886    -0.348920
C        6.278603     0.100241     1.028151
N        4.904294     0.001569     1.325593
C        4.356906     0.104681     2.625549
C        4.246774     1.482392     3.011082
C        4.682293     2.628429     2.076897
C        3.463804     3.461314     1.655054
C        5.738589     3.535068     2.730882
C        3.726831     1.801508     4.277431
C        3.317402     0.805070     5.150825
C        3.420081    -0.533159     4.791752
C        3.927589    -0.913505     3.537156
C        3.993137    -2.416386     3.212708
C        2.825498    -2.867980     2.325348
C        5.348602    -2.921838     2.696292
C        4.322789    -0.103999     0.157692
Se       2.400000     0.000000     0.000000
Cu       0.000000     0.000000     0.000000
Se      -2.400000     0.000000     0.000000
C       -4.308081     0.107469     0.079772
N       -4.931979     0.831845     1.007968
C       -4.375014     1.732247     1.939312
C       -3.912522     3.090710     1.826683
C       -3.972028     3.905990     0.522954
C       -2.838851     3.582279    -0.456642
C       -5.349519     3.935053    -0.153047
C       -3.374025     3.721528     2.961610
C       -3.286876     3.071492     4.180514
C       -3.737908     1.770441     4.315715
C       -4.292006     1.068529     3.227787
C       -4.788547    -0.381991     3.455430
C       -3.640132    -1.371559     3.258729
C       -5.442759    -0.613501     4.833044
C       -6.279401     0.495458     0.851018
C       -6.378054    -0.397297    -0.217103
N       -5.102414    -0.555475    -0.773404
C       -4.761519    -1.252082    -1.951692
C       -4.491763    -0.760170    -3.256439
C       -4.564142     0.731561    -3.565034
C       -3.159881     1.269874    -3.850313
C       -5.520207     1.034808    -4.729016
C       -4.151916    -1.669506    -4.279920
C       -4.103478    -3.039033    -4.036019
C       -4.382422    -3.531915    -2.766221
C       -4.695596    -2.671683    -1.708840
C       -4.962464    -3.253386    -0.313733
C       -3.654628    -3.845001     0.230316
C       -6.071236    -4.319786    -0.312706
H        4.136717     3.153671    -3.749123
H        4.840728     3.965546    -2.298472
H        3.608379     2.674879    -2.085878
H        5.840294     1.929548    -1.555089
H        7.643835     1.655363    -3.303319
H        7.200866     3.368009    -2.967806
H        6.611723     2.577282    -4.461224
H        4.873382     1.300136    -5.172835
H        3.953962    -0.764585    -6.062748
H        3.544690    -2.683475    -4.621022
H        4.366270    -2.828125    -0.910092
H        1.962147    -2.394699    -1.503903
H        2.321627    -4.126108    -1.196379
H        2.113728    -3.529609    -2.887699
H        4.621985    -5.061350    -1.785446
H        5.882945    -3.973940    -2.471999
H        4.472559    -4.481826    -3.480926
H        7.340563    -0.064336    -0.900610
H        7.077280     0.268351     1.733439
H        5.106421     2.259634     1.128553
H        3.771559     4.266835     0.952570
H        2.732213     2.816361     1.123725
H        2.962139     3.927367     2.525452
H        5.336267     4.031076     3.638894
H        6.634157     2.944105     3.013399
H        6.052754     4.334533     2.023928
H        3.617997     2.834162     4.588450
H        2.904556     1.075027     6.112441
H        3.079819    -1.281780     5.497856
H        3.823794    -2.956323     4.169700
H        1.862488    -2.546644     2.778713
H        2.812285    -3.975208     2.247444
H        2.878635    -2.472471     1.302820
H        5.332552    -4.031218     2.643305
H        5.576210    -2.566478     1.674338
H        6.161374    -2.610972     3.384434
H       -3.768768     4.963518     0.806203
H       -1.859800     3.644125     0.066747
H       -2.832928     4.324679    -1.282421
H       -2.933322     2.595374    -0.920602
H       -5.338665     4.669787    -0.986234
H       -6.127343     4.244594     0.575970
H       -5.628324     2.960599    -0.592360
H       -3.010037     4.739792     2.905958
H       -2.863675     3.584238     5.035214
H       -3.634822     1.317593     5.289406
H       -5.561859    -0.680482     2.746077
H       -3.265253    -1.310394     2.224494
H       -3.999176    -2.412792     3.410126
H       -2.808426    -1.165067     3.962894
H       -5.842345    -1.649507     4.892959
H       -6.285161     0.091860     4.989927
H       -4.715384    -0.511249     5.664465
H       -7.085723     0.816703     1.493705
H       -7.274204    -0.895992    -0.555657
H       -4.953180     1.299629    -2.698039
H       -2.505170     1.080859    -2.972715
H       -3.196923     2.366791    -4.022343
H       -2.712936     0.778656    -4.739632
H       -6.538291     0.658178    -4.495556
H       -5.582843     2.132325    -4.893091
H       -5.173216     0.568039    -5.674453
H       -3.920702    -1.318027    -5.278116
H       -3.839984    -3.716490    -4.833564
H       -4.316325    -4.606581    -2.610724
H       -5.252113    -2.479875     0.413237
H       -3.284582    -4.673227    -0.408363
H       -2.877188    -3.052898     0.272219
H       -3.807975    -4.230010     1.261164
H       -6.235308    -4.694263     0.721719
H       -5.796371    -5.190275    -0.945133
H       -7.023011    -3.890180    -0.686102
133
ex_0397 frame11 linear-1
C       -4.384243     3.898995     0.522705
C       -3.028370     3.551201     1.169748
C       -1.968788     4.616207     0.828415
C       -3.237079     3.511874     2.663277
C       -2.993981     4.667910     3.434536
C       -3.172287     4.671653     4.793887
C       -3.584505     3.523046     5.428144
C       -3.835284     2.341828     4.707179
C       -4.274959     1.094665     5.436251
C       -5.810465     1.019137     5.444511
C       -3.720788     1.076271     6.865952
C       -3.668922     2.336556     3.302205
N       -3.957532     1.107982     2.627940
C       -5.261132     0.675635     2.316238
C       -5.142015    -0.595862     1.692821
N       -3.765277    -0.898501     1.619652
C       -3.198079    -2.084999     1.069424
C       -3.022952    -2.261867    -0.318825
C       -3.420379    -1.164842    -1.275178
C       -4.902656    -1.321473    -1.637025
C       -2.562638    -1.231979    -2.547320
C       -2.477909    -3.464082    -0.791763
C       -2.098073    -4.462040     0.073813
C       -2.261899    -4.299437     1.430883
C       -2.798309    -3.119991     1.953218
C       -2.947534    -2.957519     3.450361
C       -4.331407    -3.450182     3.851303
C       -1.863114    -3.737450     4.226330
C       -3.048251     0.146711     2.180050
Se      -1.214904     0.266581     2.319671
Cu       0.541856    -0.577427     0.919156
Se       1.071029    -0.267109    -1.401120
C        2.690704     0.111624    -2.181974
N        3.917484     0.165274    -1.529524
C        4.191554    -0.024572    -0.153307
C        4.395013    -1.312371     0.431690
C        4.325084    -2.608652    -0.343161
C        2.932093    -3.262141    -0.293600
C        4.937182    -2.651845    -1.736531
C        4.674260    -1.380763     1.795252
C        4.771189    -0.245648     2.582159
C        4.543520     0.991861     2.033824
C        4.265815     1.129906     0.670768
C        4.049335     2.519275     0.102661
C        2.596993     2.944533     0.354900
C        5.020122     3.498536     0.785714
C        4.917639     0.451814    -2.479187
C        4.275198     0.624856    -3.732699
N        2.901856     0.396061    -3.536356
C        1.935390     0.462813    -4.607949
C        1.127008     1.604719    -4.859169
C        1.183994     2.807645    -3.969215
C       -0.041223     2.742347    -3.040962
C        1.138794     4.103441    -4.792503
C        0.260422     1.603978    -5.960922
C        0.146044     0.512908    -6.790833
C        0.875038    -0.620747    -6.535345
C        1.767524    -0.675122    -5.477182
C        2.569027    -1.950895    -5.243082
C        1.730462    -2.934814    -4.436061
C        2.903647    -2.591332    -6.598860
H       -4.274898     4.714324    -0.220066
H       -5.099613     4.277650     1.291362
H       -4.849052     3.020676     0.034537
H       -2.643220     2.573032     0.793762
H       -1.502454     4.442553    -0.148358
H       -1.154380     4.624389     1.589967
H       -2.449284     5.618115     0.824784
H       -2.695984     5.603628     2.996428
H       -2.993429     5.577717     5.352293
H       -3.725004     3.586619     6.490291
H       -3.844946     0.219219     4.900874
H       -6.214495     1.077000     6.475827
H       -6.150607     0.068073     4.998072
H       -6.259196     1.862684     4.869232
H       -4.343572     1.735501     7.508477
H       -3.745585     0.051657     7.268677
H       -2.679942     1.475232     6.895617
H       -6.163307     1.200043     2.567776
H       -5.944335    -1.228469     1.373824
H       -3.231153    -0.183727    -0.767668
H       -5.477354    -1.777205    -0.803376
H       -5.024194    -2.030697    -2.481428
H       -5.336389    -0.346085    -1.927581
H       -1.513710    -1.486315    -2.280796
H       -2.941088    -2.058701    -3.188597
H       -2.580312    -0.295416    -3.127491
H       -2.331931    -3.650759    -1.840847
H       -1.676368    -5.374282    -0.309578
H       -1.962745    -5.113170     2.066790
H       -2.849375    -1.879876     3.700283
H       -4.343024    -4.562034     3.856280
H       -5.103259    -3.118677     3.121474
H       -4.570005    -3.073969     4.862095
H       -1.626818    -3.231724     5.176929
H       -0.923017    -3.824075     3.637769
H       -2.202351    -4.778217     4.433992
H        4.969825    -3.282097     0.258527
H        3.047495    -4.364459    -0.309903
H        2.316136    -2.968092    -1.172676
H        2.408906    -2.973489     0.637934
H        5.894224    -2.097156    -1.741501
H        5.128909    -3.709874    -2.002219
H        4.235073    -2.243218    -2.494377
H        4.872035    -2.328238     2.267952
H        5.034967    -0.311132     3.629830
H        4.633347     1.843805     2.677087
H        4.266025     2.542199    -0.990530
H        2.545317     3.964723     0.776255
H        2.112862     2.270430     1.101055
H        2.027104     2.932497    -0.590095
H        5.173641     4.398783     0.166831
H        4.598195     3.819805     1.763873
H        6.002710     3.014940     0.989212
H        5.956248     0.562908    -2.251217
H        4.728898     0.878713    -4.662427
H        2.138796     2.830016    -3.395563
H       -0.691241     3.631551    -3.159770
H       -0.694755     1.875827    -3.288907
H        0.265556     2.624264    -1.988795
H        0.120003     4.274677    -5.209131
H        1.351009     4.954912    -4.122440
H        1.865914     4.083287    -5.633341
H       -0.337900     2.455275    -6.203397
H       -0.503339     0.550532    -7.652109
H        0.740930    -1.436545    -7.214672
H        3.526852    -1.730505    -4.732199
H        2.263918    -3.904220    -4.378049
H        0.753366    -3.084567    -4.954494
H        1.531143    -2.545915    -3.417657
H        2.035970    -3.191477    -6.967126
H        3.780282    -3.253713    -6.510409
H        3.119387    -1.801401    -7.349680
133
ex_0397 frame12 linear-2
C       -1.507128     4.168135     2.903035
C       -0.839401     3.165270     1.948444
C       -1.271422     3.442929     0.507971
C        0.673715     3.217485     2.074692
C        1.417511     4.026448     1.209319
C        2.792578     4.068389     1.278549
C        3.472553     3.290719     2.205646
C        2.767165     2.492735     3.117860
C        3.513117     1.670668     4.163509
C        3.938223     0.278586     3.684072
C        4.743432     2.412183     4.711608
C        1.345643     2.461749     3.051754
N        0.594892     1.678681     3.955453
C        0.265900     2.076017     5.262118
C       -0.510664     1.041912     5.827182
N       -0.636486     0.019958     4.862675
C       -1.374665    -1.192267     5.086216
C       -2.686397    -1.374174     4.544048
C       -3.347814    -0.309380     3.712835
C       -3.243395    -0.708051     2.230830
C       -4.827885    -0.182916     4.121127
C       -3.377360    -2.572011     4.790005
C       -2.835276    -3.558360     5.574212
C       -1.563252    -3.416447     6.088808
C       -0.792093    -2.276255     5.883271
C        0.586145    -2.188138     6.470372
C        0.568674    -1.490743     7.824412
C        1.721465    -1.728291     5.552222
C        0.075185     0.420367     3.722750
Se       0.293939    -0.552272     2.164070
Cu       0.650188    -0.143571    -0.173888
Se      -0.702461     0.204852    -2.125539
C       -0.411985    -0.619829    -3.778197
N       -1.408996    -1.132090    -4.602876
C       -2.820189    -1.105473    -4.358542
C       -3.529694    -0.001986    -4.938220
C       -2.798294     1.057078    -5.725040
C       -2.748817     0.571625    -7.181248
C       -3.476027     2.434767    -5.620696
C       -4.921158     0.095546    -4.772618
C       -5.612539    -0.865211    -4.058979
C       -4.949694    -1.916409    -3.493544
C       -3.549257    -2.057696    -3.610268
C       -2.874661    -3.201198    -2.945700
C       -2.523064    -2.848745    -1.504392
C       -1.736889    -3.967465    -3.638321
C       -0.823873    -1.696300    -5.742892
C        0.567997    -1.480601    -5.647502
N        0.816303    -0.831213    -4.413113
C        2.134995    -0.483255    -3.963896
C        2.966211    -1.445555    -3.355733
C        2.495308    -2.865118    -3.151324
C        1.988192    -3.086162    -1.723680
C        3.628188    -3.831897    -3.480988
C        4.257031    -1.080384    -2.930859
C        4.739409     0.191188    -3.125332
C        3.932291     1.148275    -3.683335
C        2.634670     0.840470    -4.123922
C        1.805698     1.922647    -4.755208
C        1.177012     2.802274    -3.657485
C        2.712381     2.755700    -5.680223
H       -2.108954     3.637485     3.664463
H       -2.202525     4.838484     2.352210
H       -0.756596     4.831211     3.390502
H       -1.202264     2.135885     2.153848
H       -0.592912     2.926259    -0.207231
H       -1.223838     4.536544     0.310793
H       -2.308434     3.096793     0.357232
H        0.941322     4.651879     0.478094
H        3.318414     4.722697     0.604506
H        4.545622     3.356348     2.237850
H        2.802660     1.535559     5.003569
H        3.185823    -0.187606     3.016484
H        4.102893    -0.360909     4.576511
H        4.895301     0.329757     3.123365
H        5.677091     2.074328     4.205798
H        4.847118     2.212987     5.791407
H        4.674359     3.506458     4.541873
H        0.529391     3.016658     5.702229
H       -0.982639     1.024238     6.797435
H       -2.850049     0.668586     3.913507
H       -2.908347     0.142636     1.609749
H       -4.212721    -1.068563     1.838579
H       -2.555017    -1.576489     2.095363
H       -5.428563    -0.998790     3.657002
H       -4.950901    -0.289484     5.222742
H       -5.243859     0.772286     3.766261
H       -4.381789    -2.717372     4.433388
H       -3.415813    -4.431189     5.800228
H       -1.171226    -4.205218     6.699381
H        0.815924    -3.253595     6.680088
H        1.298045    -1.977757     8.497245
H       -0.438399    -1.594205     8.283492
H        0.829498    -0.418326     7.739173
H        1.555250    -2.067833     4.509081
H        1.818092    -0.622050     5.584509
H        2.680168    -2.157574     5.913121
H       -1.771775     1.152008    -5.297599
H       -1.747108     0.739415    -7.615488
H       -2.985359    -0.515625    -7.254196
H       -3.529345     1.069136    -7.793280
H       -3.887246     2.584582    -4.596104
H       -2.764316     3.242136    -5.861317
H       -4.338746     2.500344    -6.322676
H       -5.483945     0.896933    -5.222421
H       -6.684172    -0.771334    -3.966852
H       -5.505866    -2.653803    -2.946697
H       -3.698699    -3.985568    -2.880853
H       -1.437215    -2.670000    -1.407079
H       -3.035636    -1.907143    -1.217333
H       -2.845139    -3.652355    -0.810739
H       -0.773849    -3.431935    -3.516970
H       -1.970907    -4.112247    -4.711495
H       -1.614487    -4.954987    -3.152008
H       -1.371321    -2.148504    -6.545368
H        1.316432    -1.757216    -6.364688
H        1.694736    -3.118619    -3.874481
H        0.904711    -2.858718    -1.689302
H        2.529383    -2.441961    -0.994176
H        2.133512    -4.139865    -1.412511
H        4.077495    -3.549009    -4.457542
H        4.408183    -3.834922    -2.688438
H        3.209027    -4.850979    -3.547228
H        4.931821    -1.785801    -2.492038
H        5.754173     0.438454    -2.856009
H        4.362483     2.122482    -3.821322
H        1.021104     1.459193    -5.401257
H        1.425245     2.412766    -2.643284
H        0.075614     2.824211    -3.756860
H        1.579027     3.833843    -3.682467
H        3.298370     3.499109    -5.088726
H        3.453975     2.091312    -6.183764
H        2.119555     3.299740    -6.431794
133
ex_0397 frame13 linear-conf4
C        3.063924     1.581387    -3.292917
C        4.203193     0.727802    -3.857949
C        5.588728     1.321825    -3.561333
C        4.102425    -0.769356    -3.528425
C        3.629584    -1.633098    -4.532058
C        3.544151    -3.003561    -4.325789
C        3.902346    -3.550653    -3.107533
C        4.345728    -2.739472    -2.046168
C        4.686910    -3.397301    -0.699779
C        5.983424    -4.210225    -0.798190
C        3.549515    -4.310688    -0.198221
C        4.457246    -1.319082    -2.253154
N        4.936572    -0.657910    -1.086991
C        6.289905    -0.686584    -0.681678
C        6.390095     0.098333     0.466956
N        5.118861     0.610876     0.749787
C        4.795661     1.512858     1.814134
C        4.679619     2.918808     1.626962
C        4.924445     3.549007     0.261111
C        3.609687     4.066892    -0.320318
C        5.978408     4.666137     0.335469
C        4.333370     3.736924     2.721770
C        4.149067     3.201602     3.974342
C        4.283510     1.834578     4.194935
C        4.578095     0.955513     3.125787
C        4.658217    -0.573591     3.393130
C        6.068928    -1.141424     3.626728
C        3.809577    -1.003766     4.615205
C        4.343157    -0.009308    -0.112919
Se       2.400000     0.000000     0.000000
Cu       0.000000     0.000000     0.000000
Se      -2.400000     0.000000     0.000000
C       -4.301524     0.106682    -0.036468
N       -4.893722     0.983535    -0.778558
C       -4.378284     1.847077    -1.803442
C       -4.316857     3.175134    -1.206200
C       -4.771750     3.471133     0.248848
C       -3.563261     3.864765     1.097451
C       -5.853867     4.569133     0.301975
C       -3.828500     4.230866    -1.971384
C       -3.407922     4.034241    -3.272285
C       -3.473215     2.773331    -3.848752
C       -3.967503     1.657540    -3.125494
C       -4.008085     0.315369    -3.873432
C       -2.767622    -0.534639    -3.578370
C       -5.315759    -0.476296    -3.772437
C       -6.177515     0.955288    -0.403567
C       -6.315920    -0.158245     0.554764
N       -5.072325    -0.745148     0.655296
C       -4.790931    -1.955085     1.346475
C       -4.747482    -3.268214     0.818811
C       -5.039221    -3.524104    -0.656017
C       -3.731329    -3.813300    -1.389710
C       -6.061478    -4.653433    -0.865983
C       -4.431837    -4.340055     1.668586
C       -4.207059    -4.128962     3.023633
C       -4.271850    -2.848343     3.559309
C       -4.528310    -1.740090     2.736220
C       -4.520846    -0.332662     3.343450
C       -3.114759    -0.030554     3.892897
C       -5.567446    -0.153620     4.451231
H        3.078530     1.653732    -2.201648
H        2.085702     1.159457    -3.608430
H        3.137831     2.616260    -3.689631
H        4.078813     0.816921    -4.959527
H        5.795974     1.413711    -2.480822
H        5.654426     2.347631    -3.980250
H        6.380005     0.698849    -4.029189
H        3.353322    -1.246706    -5.503525
H        3.203122    -3.646026    -5.127164
H        3.822431    -4.624869    -2.991130
H        4.828103    -2.629334     0.086548
H        6.233458    -4.653108     0.190919
H        5.892122    -5.029698    -1.541936
H        6.829598    -3.562965    -1.098573
H        3.799826    -4.719248     0.805300
H        3.398208    -5.183160    -0.870579
H        2.595249    -3.751007    -0.121844
H        7.097286    -1.201690    -1.178965
H        7.293412     0.300356     1.020398
H        5.322489     2.803491    -0.451789
H        3.781498     4.475805    -1.337934
H        3.169426     4.856506     0.322300
H        2.884994     3.228595    -0.399410
H        5.634068     5.509096     0.969852
H        6.929239     4.271187     0.753326
H        6.179644     5.065338    -0.680563
H        4.216665     4.805022     2.597917
H        3.871976     3.842065     4.811436
H        4.107407     1.482999     5.197075
H        4.182163    -1.077533     2.524088
H        6.551446    -0.642788     4.493092
H        6.009632    -2.232199     3.834487
H        6.726335    -1.049462     2.765855
H        4.254331    -0.647315     5.571553
H        2.767656    -0.629777     4.531106
H        3.767841    -2.113118     4.687292
H       -5.175767     2.598441     0.774740
H       -3.064853     4.773899     0.704915
H       -2.834618     3.025939     1.110551
H       -3.880692     4.056923     2.145811
H       -6.745647     4.268206    -0.287152
H       -6.173845     4.745356     1.351601
H       -5.475641     5.533861    -0.097439
H       -3.752273     5.228486    -1.558261
H       -3.019173     4.868532    -3.842373
H       -3.128488     2.666600    -4.865676
H       -3.906520     0.552067    -4.956653
H       -2.736210    -1.412548    -4.257372
H       -2.754687    -0.911947    -2.549869
H       -1.847944     0.066498    -3.753856
H       -6.176216     0.162313    -4.059615
H       -5.490728    -0.890465    -2.766853
H       -5.274697    -1.344738    -4.464845
H       -6.939607     1.630543    -0.761305
H       -7.198172    -0.499767     1.070445
H       -5.480270    -2.623199    -1.125518
H       -3.242632    -4.726390    -0.991924
H       -3.923691    -3.937186    -2.475790
H       -3.039140    -2.954614    -1.256523
H       -5.671290    -5.629945    -0.510099
H       -7.005843    -4.428091    -0.326447
H       -6.290865    -4.759838    -1.947465
H       -4.367250    -5.350451     1.293182
H       -3.971968    -4.967039     3.663158
H       -4.074611    -2.722856     4.615031
H       -4.723056     0.436819     2.572822
H       -3.064724     1.008381     4.283349
H       -2.357994    -0.131512     3.086963
H       -2.840418    -0.721189     4.718862
H       -5.394530    -0.859570     5.291084
H       -6.586565    -0.317145     4.044504
H       -5.515790     0.880838     4.857062
133
ex_0397 frame14 linear-conf3
C        3.163525     3.609538    -0.054752
C        4.306120     3.715108    -1.069744
C        5.682274     3.753858    -0.390930
C        4.228835     2.692595    -2.218432
C        3.793801     3.152690    -3.478962
C        3.742256     2.296182    -4.571549
C        4.097142     0.966174    -4.437478
C        4.499522     0.437952    -3.209109
C        4.850559    -1.048415    -3.100428
C        6.192917    -1.348681    -3.786658
C        3.754239    -1.953103    -3.710257
C        4.565197     1.307201    -2.063036
N        4.979758     0.562664    -0.930007
C        6.356603     0.191167    -0.687029
C        6.337985    -0.532443     0.534084
N        5.042236    -0.546444     0.992718
C        4.640448    -1.141533     2.244098
C        4.495246    -0.334572     3.424966
C        4.782108     1.173552     3.381844
C        6.259325     1.396785     3.681963
C        3.885764     2.021812     4.313050
C        4.094046    -0.930780     4.602012
C        3.862405    -2.317468     4.689089
C        4.030601    -3.106451     3.566028
C        4.381843    -2.562057     2.309448
C        4.457466    -3.538817     1.116474
C        3.326459    -3.340279     0.105075
C        5.801153    -3.679584     0.387193
C        4.303491    -0.002771     0.037903
Se       2.400000     0.000000     0.000000
Cu       0.000000     0.000000     0.000000
Se      -2.400000     0.000000     0.000000
C       -4.313939    -0.017018    -0.060075
N       -4.983029    -1.038456    -0.599439
C       -4.516492    -2.311461    -0.991263
C       -4.327980    -3.454766    -0.182120
C       -4.698529    -3.454374     1.305175
C       -3.460056    -3.229255     2.173439
C       -5.443947    -4.732631     1.748000
C       -3.785592    -4.624298    -0.757935
C       -3.480861    -4.666093    -2.108316
C       -3.704570    -3.564883    -2.921463
C       -4.219066    -2.368775    -2.390400
C       -4.454725    -1.151695    -3.299686
C       -3.134895    -0.422879    -3.579727
C       -5.105578    -1.523563    -4.661060
C       -6.301056    -0.541675    -0.691890
C       -6.334059     0.678237    -0.012143
N       -5.054253     0.981686     0.404298
C       -4.625279     2.104930     1.157164
C       -4.576125     3.233771     0.264329
C       -4.913900     3.105120    -1.228227
C       -6.268967     3.733296    -1.594396
C       -3.815446     3.734798    -2.108372
C       -4.208080     4.493310     0.771370
C       -3.825277     4.638211     2.099570
C       -3.837139     3.553005     2.961879
C       -4.269435     2.279926     2.519788
C       -4.350943     1.106708     3.504079
C       -5.807874     0.958781     3.950993
C       -3.423726     1.208490     4.717737
H        3.216525     4.463580     0.654172
H        3.202694     2.692245     0.544442
H        2.188086     3.658858    -0.582017
H        4.172911     4.715748    -1.526675
H        5.735701     4.618756     0.302401
H        5.886216     2.850844     0.215482
H        6.483405     3.866909    -1.153523
H        3.530676     4.184273    -3.621307
H        3.434029     2.683077    -5.531460
H        4.045834     0.339885    -5.325539
H        4.936858    -1.362548    -2.051350
H        6.463101    -2.417224    -3.646096
H        7.001033    -0.736492    -3.341782
H        6.151419    -1.126287    -4.874123
H        3.666042    -1.800036    -4.808188
H        2.772735    -1.747805    -3.239457
H        4.010415    -3.021789    -3.550494
H        7.217865     0.414011    -1.298542
H        7.194270    -0.965117     1.025505
H        4.592772     1.597595     2.387186
H        6.513497     2.488578     3.605139
H        6.517723     1.043127     4.703830
H        6.891898     0.855750     2.940914
H        4.118246     3.099982     4.164353
H        2.823904     1.856427     4.065781
H        4.068709     1.792626     5.378191
H        3.990664    -0.375126     5.537168
H        3.579136    -2.761517     5.639722
H        3.801304    -4.156777     3.660209
H        4.276352    -4.547705     1.539126
H        2.343534    -3.326143     0.624468
H        3.471838    -2.413254    -0.468671
H        3.317161    -4.180367    -0.624766
H        5.775533    -4.582886    -0.252278
H        5.984836    -2.861371    -0.315488
H        6.633604    -3.789467     1.114653
H       -5.396827    -2.618814     1.513253
H       -2.991524    -2.263839     1.913618
H       -3.753779    -3.183142     3.241677
H       -2.721888    -4.039711     2.026609
H       -4.786179    -5.629417     1.688721
H       -5.767810    -4.633939     2.809321
H       -6.346606    -4.900205     1.121129
H       -3.608242    -5.519026    -0.182818
H       -3.072162    -5.565409    -2.555923
H       -3.436136    -3.627747    -3.977530
H       -5.123295    -0.400651    -2.851105
H       -2.740060    -0.001505    -2.641317
H       -2.372259    -1.102647    -4.015988
H       -3.296726     0.439973    -4.264527
H       -5.297186    -0.605722    -5.257479
H       -4.437135    -2.164560    -5.274135
H       -6.068227    -2.047912    -4.504575
H       -7.131901    -1.046953    -1.161773
H       -7.195857     1.318825     0.103403
H       -4.942645     2.041094    -1.519457
H       -6.275897     4.822793    -1.389243
H       -7.094075     3.276292    -1.017805
H       -6.483750     3.562460    -2.672478
H       -4.020421     3.531186    -3.181337
H       -3.785247     4.838877    -1.988793
H       -2.820463     3.318960    -1.853053
H       -4.173406     5.369206     0.139890
H       -3.520119     5.609656     2.468074
H       -3.546049     3.728531     3.984517
H       -4.029924     0.176170     2.984708
H       -6.482585     0.819940     3.080580
H       -6.129226     1.869657     4.500884
H       -5.920817     0.081019     4.620769
H       -3.688721     2.058083     5.376655
H       -2.367885     1.308778     4.384199
H       -3.502389     0.282834     5.327310
133
ex_0397 frame15 linear-conf5
C        3.097269     1.995975     3.071012
C        4.365072     2.760318     2.686835
C        5.655741     2.031634     3.082423
C        4.300927     3.251025     1.239186
C        3.912550     4.582572     1.022516
C        3.816485     5.111933    -0.250516
C        4.108686     4.334237    -1.355591
C        4.492262     2.981191    -1.222748
C        4.765365     2.149667    -2.501963
C        6.230758     2.167664    -2.968349
C        3.914073     2.623412    -3.707866
C        4.609308     2.418051     0.111596
N        5.035157     1.057712     0.074994
C        6.379128     0.634039    -0.056463
C        6.368654    -0.773354    -0.038997
N        5.035468    -1.182458     0.121974
C        4.705357    -2.580231     0.217745
C        4.685143    -3.334226     1.458714
C        5.053309    -2.741818     2.831168
C        6.473904    -2.167680     2.863407
C        4.017307    -1.796501     3.429669
C        4.311108    -4.685337     1.431411
C        3.994350    -5.326738     0.251861
C        4.026259    -4.640644    -0.942346
C        4.373069    -3.280642    -1.012924
C        4.368285    -2.642612    -2.426895
C        3.116347    -1.843037    -2.784202
C        5.635753    -1.905312    -2.862823
C        4.305435    -0.061177     0.071545
Se       2.400000     0.000000     0.000000
Cu       0.000000     0.000000     0.000000
Se      -2.400000     0.000000     0.000000
C       -4.274157     0.054406    -0.121734
N       -4.905128     1.045033    -0.754505
C       -4.379479     2.095782    -1.531222
C       -3.974880     2.173372    -2.901436
C       -4.080508     0.992263    -3.875850
C       -2.994932    -0.075261    -3.703991
C       -5.491034     0.387108    -3.937830
C       -3.453661     3.385623    -3.390177
C       -3.363431     4.512342    -2.586917
C       -3.772599     4.461351    -1.263855
C       -4.265827     3.269146    -0.701558
C       -4.668379     3.256221     0.782193
C       -6.006419     3.977524     0.998224
C       -3.597546     3.907198     1.683948
C       -6.257644     0.832493    -0.487438
C       -6.367753    -0.352518     0.239212
N       -5.082873    -0.867461     0.429113
C       -4.733666    -2.089000     1.064115
C       -4.919547    -1.999203     2.491989
C       -5.391340    -0.694126     3.189121
C       -6.911052    -0.565540     3.430633
C       -4.675832    -0.508555     4.549631
C       -4.663095    -3.138679     3.281711
C       -4.162041    -4.302160     2.723405
C       -3.945991    -4.390080     1.357560
C       -4.250594    -3.312875     0.500380
C       -4.063862    -3.459942    -1.011719
C       -5.423917    -3.735515    -1.664050
C       -3.041010    -4.527208    -1.431458
H        2.992419     1.059945     2.516287
H        2.202364     2.618589     2.851237
H        3.101801     1.763468     4.156183
H        4.339042     3.664875     3.334077
H        6.539796     2.642402     2.804925
H        5.738999     1.034197     2.622784
H        5.667528     1.870319     4.180248
H        3.660847     5.225961     1.857063
H        3.495320     6.138283    -0.385027
H        3.998700     4.811452    -2.316134
H        4.434141     1.112086    -2.308800
H        6.335481     1.614551    -3.926725
H        6.581031     3.210070    -3.114956
H        6.913915     1.673066    -2.277643
H        4.032950     1.923629    -4.562883
H        2.836638     2.668493    -3.446897
H        4.244359     3.618062    -4.081385
H        7.246162     1.277488    -0.147728
H        7.230717    -1.416775    -0.114734
H        5.086720    -3.590678     3.550978
H        6.770587    -1.961108     3.912877
H        6.554655    -1.214606     2.322931
H        7.192765    -2.902748     2.440015
H        3.880694    -0.905604     2.820781
H        3.041494    -2.318873     3.524146
H        4.339874    -1.469256     4.440610
H        4.296186    -5.273308     2.337050
H        3.733113    -6.378271     0.262861
H        3.782107    -5.195643    -1.839923
H        4.310946    -3.504936    -3.129031
H        3.130845    -0.856744    -2.317196
H        2.199089    -2.405702    -2.502788
H        3.081313    -1.660567    -3.881315
H        5.681477    -0.899064    -2.425161
H        5.612518    -1.735953    -3.960841
H        6.539105    -2.498895    -2.616152
H       -3.889492     1.405566    -4.890179
H       -3.042248    -0.793828    -4.549879
H       -3.101067    -0.661358    -2.785075
H       -1.991345     0.401464    -3.709067
H       -5.750713    -0.181818    -3.026142
H       -5.557452    -0.326674    -4.784471
H       -6.244791     1.187798    -4.092047
H       -3.130153     3.468420    -4.420339
H       -2.972448     5.436099    -2.994718
H       -3.688419     5.367739    -0.678377
H       -4.784674     2.215374     1.137444
H       -6.289318     3.944002     2.074020
H       -6.814531     3.484365     0.427475
H       -5.948934     5.037191     0.674074
H       -2.607081     3.430862     1.537694
H       -3.501926     4.996980     1.485757
H       -3.883674     3.807651     2.753787
H       -7.065658     1.495598    -0.759108
H       -7.278168    -0.777741     0.635104
H       -5.030796     0.178341     2.602790
H       -7.134913     0.064118     4.317578
H       -7.388006    -1.557353     3.569782
H       -7.405152    -0.003909     2.624230
H       -3.575845    -0.605414     4.438492
H       -4.888829     0.504766     4.956283
H       -5.037850    -1.228997     5.313825
H       -4.787083    -3.133354     4.353572
H       -3.932254    -5.147175     3.360245
H       -3.563673    -5.327113     0.989267
H       -3.637703    -2.530302    -1.417867
H       -6.150929    -2.931705    -1.424784
H       -5.834159    -4.701009    -1.293545
H       -5.319743    -3.793062    -2.767392
H       -2.898637    -4.495180    -2.532428
H       -3.369423    -5.552212    -1.166633
H       -2.060089    -4.310844    -0.953486
133
ex_0397 frame16 trans-LIN Se0+Se0
C        3.384947     3.089138    -1.719036
C        4.581159     3.667579    -0.960327
C        5.892999     3.265381    -1.637609
C        4.454630     3.458166     0.569477
C        4.106209     4.582233     1.342808
C        3.930874     4.494229     2.714168
C        4.114616     3.283402     3.366982
C        4.488616     2.125510     2.660009
C        4.694778     0.812390     3.421263
C        6.048040     0.857820     4.125239
C        3.552516     0.481843     4.394628
C        4.667843     2.197639     1.240229
N        5.042458     1.064059     0.513280
C        6.401967     0.774557     0.143436
C        6.431615    -0.492174    -0.455734
N        5.090427    -0.952567    -0.510818
C        4.728125    -2.223727    -1.033560
C        4.654325    -2.172763    -2.454039
C        4.938908    -0.877999    -3.236238
C        3.692972    -0.382106    -3.931766
C        6.092128    -1.085889    -4.254447
C        4.314223    -3.326543    -3.171330
C        4.047665    -4.523474    -2.517042
C        4.112560    -4.585638    -1.131106
C        4.447658    -3.458053    -0.362583
C        4.491701    -3.626164     1.169086
C        5.819181    -3.201154     1.810026
C        3.283766    -3.008861     1.875811
C        4.338769     0.066990     0.014324
Se       2.400000     0.000000     0.000000
Cu       0.000000     0.000000     0.000000
Se      -2.400000     0.000000     0.000000
C       -4.298342    -0.055769     0.081893
N       -4.995689    -1.044645    -0.481080
C       -4.607439    -2.263666    -1.055974
C       -4.331314    -2.024362    -2.451197
C       -4.496288    -0.617889    -3.065965
C       -3.136074    -0.045186    -3.514302
C       -5.496140    -0.610307    -4.234164
C       -3.907401    -3.070910    -3.271483
C       -3.742479    -4.350042    -2.760681
C       -4.015162    -4.604467    -1.418894
C       -4.444576    -3.605093    -0.557432
C       -4.734135    -3.969989     0.914233
C       -6.186973    -3.712620     1.317157
C       -3.750340    -3.373918     1.925504
C       -6.326849    -0.584407    -0.377097
C       -6.313359     0.598408     0.367759
N       -4.996760     0.897107     0.700882
C       -4.622154     1.985276     1.513956
C       -4.399181     2.156135     2.918983
C       -4.552853     1.018822     3.935508
C       -3.349082     0.077762     3.952862
C       -5.891426     0.271375     3.822594
C       -4.020419     3.423849     3.402756
C       -3.884023     4.508779     2.549304
C       -4.097832     4.361006     1.187313
C       -4.454334     3.113501     0.644300
C       -4.655553     2.991207    -0.872440
C       -5.988500     3.624084    -1.290477
C       -3.508443     3.616608    -1.686346
H        2.436822     3.491847    -1.299986
H        3.432622     3.385323    -2.790514
H        3.378146     1.987087    -1.670559
H        4.515305     4.768837    -1.132713
H        5.947869     2.179835    -1.801816
H        5.931052     3.692333    -2.661892
H        6.767027     3.642659    -1.068185
H        3.938056     5.548138     0.872842
H        3.646019     5.371891     3.278732
H        3.979518     3.262504     4.438339
H        4.770332    -0.049650     2.749443
H        6.091413     1.681615     4.865383
H        6.244308    -0.111015     4.632383
H        6.846158     1.009177     3.363672
H        3.735394    -0.506271     4.868326
H        3.477964     1.232136     5.207991
H        2.584150     0.436089     3.853151
H        7.262540     1.401775     0.323469
H        7.287927    -0.965864    -0.901910
H        5.260111    -0.061887    -2.568426
H        3.307832    -1.119727    -4.673906
H        3.897205     0.573456    -4.467226
H        2.896623    -0.186640    -3.183733
H        6.308090    -0.125915    -4.780096
H        7.014876    -1.424076    -3.746208
H        5.812908    -1.831484    -5.030249
H        4.252600    -3.320227    -4.257073
H        3.793321    -5.403918    -3.088311
H        3.902623    -5.538369    -0.660663
H        4.399378    -4.719485     1.376249
H        5.975227    -2.108592     1.768416
H        6.669651    -3.713012     1.311687
H        5.820486    -3.484915     2.884699
H        3.280293    -3.302924     2.945486
H        3.288763    -1.915563     1.847881
H        2.344941    -3.380019     1.410972
H       -4.873320     0.060988    -2.301640
H       -2.298901    -0.494985    -2.941466
H       -2.948214    -0.210786    -4.595114
H       -3.118987     1.049460    -3.322832
H       -5.133252    -1.243746    -5.073700
H       -5.629328     0.419567    -4.625383
H       -6.483613    -1.001753    -3.910131
H       -3.687700    -2.907383    -4.321519
H       -3.421234    -5.156719    -3.406107
H       -3.879388    -5.622035    -1.059592
H       -4.579257    -5.068557     1.000817
H       -6.873356    -4.222279     0.609606
H       -6.372976    -4.115608     2.335507
H       -6.428168    -2.634154     1.341814
H       -3.909152    -3.837679     2.923233
H       -2.701701    -3.563497     1.612856
H       -3.905916    -2.305001     2.065180
H       -7.188228    -1.049948    -0.832836
H       -7.167491     1.219051     0.595049
H       -4.565180     1.480556     4.946668
H       -3.200313    -0.421476     2.987229
H       -2.430334     0.658353     4.181411
H       -3.478973    -0.692138     4.743433
H       -5.954050    -0.368731     2.924764
H       -6.737265     0.992487     3.821047
H       -6.015236    -0.406395     4.693783
H       -3.861208     3.583842     4.462197
H       -3.616418     5.477917     2.948217
H       -3.989558     5.233502     0.559318
H       -4.693968     1.928729    -1.159239
H       -6.151356     3.478906    -2.380588
H       -6.008187     4.708436    -1.060434
H       -6.832983     3.142195    -0.762564
H       -3.672275     3.440440    -2.771377
H       -2.531899     3.175065    -1.400241
H       -3.462202     4.716995    -1.543725
