132
ex_0490 frame0 Br/N-cis-1
C        0.381748     4.712878    -7.576087
N        0.353308     3.261959    -7.445289
C       -0.172733     2.467528    -8.546640
C        0.818869     2.616663    -6.236989
C        1.319729     3.337286    -5.204237
C        1.778875     2.685166    -3.933412
N        1.741965     1.235574    -3.913401
B        2.303685     0.476215    -2.732395
N        1.681825     0.689157    -1.351373
N        0.435443     0.035400    -1.351749
W       -0.318240    -0.318554     0.629674
Br       2.054663    -1.228925     0.842866
P       -0.085537     2.080652     1.070401
C       -1.006907     3.160327    -0.110335
C       -0.754018     3.054299    -1.500559
C       -1.501683     3.782498    -2.434861
C       -2.480978     4.669199    -1.997472
C       -2.710216     4.825117    -0.631499
C       -1.965078     4.100863     0.303570
C        1.626647     2.736810     0.817789
C        1.809177     4.103198     0.580066
C        3.093856     4.644886     0.431011
C        4.223540     3.823767     0.466751
C        4.067977     2.469165     0.675026
C        2.793667     1.957546     0.845032
C       -0.955499     2.340133     2.708409
C       -0.967224     1.151833     3.721048
P        0.009258    -0.206831     3.053654
C       -0.437242    -1.675099     4.002087
C        0.236612    -2.884713     3.726855
C        0.011288    -4.015181     4.515777
C       -0.928617    -3.964649     5.544652
C       -1.646742    -2.789097     5.776493
C       -1.421415    -1.656500     4.994052
C        1.675636     0.375789     3.638621
C        2.774705    -0.521032     3.625337
C        4.046286    -0.139581     4.049433
C        4.262492     1.151032     4.511582
C        3.203493     2.052702     4.556369
C        1.934778     1.680845     4.107933
P       -2.654880    -1.039333     0.782341
C       -3.722311    -1.048103    -0.620217
C       -4.404358    -2.167021    -1.079793
C       -5.129957    -2.076862    -2.263154
C       -5.220945    -0.858650    -2.949145
C       -4.577211     0.275793    -2.455809
C       -3.853546     0.186804    -1.277365
C       -3.690025    -0.198736     1.979224
C       -4.107424    -0.943732     3.099867
C       -4.967374    -0.387707     4.040789
C       -5.407049     0.925229     3.881829
C       -4.963095     1.685978     2.794171
C       -4.091892     1.132119     1.852609
C       -2.409338    -2.876526     1.154072
C       -1.612027    -3.718451     0.156787
P       -0.536300    -2.480322    -0.503524
C       -1.262269    -2.206954    -2.198467
C       -1.575776    -0.970600    -2.839221
C       -1.975261    -0.937320    -4.177691
C       -2.189878    -2.120082    -4.872796
C       -1.984949    -3.339683    -4.238402
C       -1.529354    -3.379033    -2.925830
C        1.031627    -3.357414    -0.875344
C        1.593827    -4.278959     0.020627
C        2.784663    -4.942268    -0.294543
C        3.433959    -4.696737    -1.506143
C        2.900283    -3.774593    -2.405405
C        1.706483    -3.108418    -2.097660
B        3.984808     0.261052    -2.836715
Br       4.415446    -0.714254    -4.544593
Br       4.944221     2.033932    -2.871033
Br       4.730287    -0.809264    -1.314862
C        1.181570     0.504618    -4.994718
C        0.757222     1.128134    -6.099779
H       -0.079009     5.059859    -8.524048
H        1.434046     5.068503    -7.559543
H       -0.186678     5.179200    -6.743855
H        0.626654     1.807892    -8.947225
H       -0.536066     3.098612    -9.384483
H       -1.028743     1.851979    -8.199252
H        1.401700     4.416416    -5.244223
H        2.222179     3.250677    -3.084782
H       -0.039309     2.362348    -1.892498
H       -1.336218     3.647885    -3.499669
H       -3.069572     5.229272    -2.713779
H       -3.481106     5.499902    -0.288377
H       -2.205569     4.253613     1.335359
H        0.960691     4.765563     0.565387
H        3.210533     5.705852     0.300261
H        5.218863     4.228211     0.360387
H        4.927849     1.805667     0.730973
H        2.789873     0.970729     1.064572
H       -2.016727     2.583969     2.560946
H       -0.512307     3.263383     3.134504
H       -1.999940     0.777640     3.676138
H       -0.801306     1.427346     4.782090
H        0.991101    -2.949233     2.955768
H        0.579880    -4.922733     4.344433
H       -1.092301    -4.830858     6.171165
H       -2.364228    -2.740840     6.581722
H       -1.961525    -0.758467     5.233743
H        2.669338    -1.550566     3.331000
H        4.860122    -0.855205     4.031849
H        5.244077     1.444701     4.855952
H        3.358873     3.047477     4.947313
H        1.176119     2.425497     4.192767
H       -4.315442    -3.120373    -0.590218
H       -5.599637    -2.963667    -2.654656
H       -5.769951    -0.798519    -3.873937
H       -4.604565     1.214572    -2.995438
H       -3.297864     1.060409    -0.951455
H       -3.795285    -1.969472     3.245737
H       -5.299383    -0.984009     4.882450
H       -6.091943     1.349997     4.601304
H       -5.301535     2.703859     2.671543
H       -3.768039     1.735222     1.024408
H       -3.344014    -3.403061     1.433128
H       -1.818133    -2.855071     2.087089
H       -1.082943    -4.483629     0.762386
H       -2.250775    -4.212302    -0.586558
H       -1.466708     0.005351    -2.412587
H       -2.111225     0.015495    -4.678276
H       -2.508110    -2.091914    -5.904645
H       -2.148176    -4.266564    -4.766760
H       -1.321441    -4.348730    -2.501273
H        1.123638    -4.479081     0.968385
H        3.205410    -5.649286     0.405893
H        4.353513    -5.218052    -1.744370
H        3.415949    -3.578865    -3.339755
H        1.325596    -2.394470    -2.817865
H        1.118061    -0.579700    -4.943690
H        0.367333     0.510839    -6.899674
