61
ex_0153 frame0 Isomer 1
C       -2.745875     3.952804     1.233157
C       -1.465807     4.177527     1.979085
C       -1.131503     5.453643     2.438407
C        0.062324     5.660032     3.133156
C        0.931902     4.593531     3.371737
C        0.604434     3.307589     2.928260
C        1.545850     2.173373     3.220916
C       -0.595837     3.111848     2.220156
N       -0.931514     1.838202     1.747394
C       -1.240168     0.828337     1.346837
Cu      -1.783881    -0.914740     0.619303
C       -0.551911    -2.341925     1.199891
N        0.171668    -3.149829     1.534508
C        1.036347    -4.151229     1.984871
C        2.074762    -4.599392     1.153576
C        2.254900    -3.999915    -0.210939
C        2.932927    -5.605905     1.612864
C        2.747217    -6.151786     2.886765
C        1.711138    -5.691263     3.708038
C        0.848342    -4.689154     3.256996
C       -0.270937    -4.190807     4.124493
C       -1.854305    -0.883001    -1.328219
N       -1.876569    -0.858773    -2.482058
C       -1.960452    -0.859595    -3.871004
C       -0.964280    -0.208428    -4.619490
C        0.202313     0.477359    -3.949290
C       -1.065965    -0.201858    -6.014471
C       -2.130690    -0.856539    -6.642944
C       -3.106784    -1.507863    -5.885952
C       -3.032254    -1.507611    -4.493514
C       -4.100160    -2.200413    -3.694383
N       -3.621288    -1.301465     1.307483
C       -3.829752    -1.256226     2.545427
S       -4.053532    -1.172990     3.934176
H       -3.539364     3.725365     1.972060
H       -3.014043     4.846583     0.637758
H       -2.659912     3.095612     0.530403
H       -1.798694     6.283850     2.255855
H        0.310630     6.647891     3.490260
H        1.851290     4.761829     3.918688
H        2.484556     2.299675     2.642319
H        1.106739     1.185154     2.972146
H        1.775094     2.174267     4.305790
H        2.255282    -2.893357    -0.120583
H        1.417270    -4.308176    -0.874717
H        3.217714    -4.310893    -0.664039
H        3.731519    -5.975418     0.980611
H        3.405568    -6.933532     3.236788
H        1.570917    -6.112496     4.692802
H       -0.541117    -3.140502     3.877062
H        0.014746    -4.214111     5.193071
H       -1.160171    -4.826218     3.941827
H        1.141167     0.225771    -4.483624
H        0.053157     1.577577    -3.950211
H        0.335318     0.149184    -2.896293
H       -0.310345     0.292191    -6.611274
H       -2.203853    -0.864251    -7.719070
H       -3.928957    -2.007236    -6.378690
H       -5.092520    -1.800002    -3.981194
H       -4.054835    -3.289026    -3.895882
H       -3.985564    -2.051230    -2.601110
61
ex_0153 frame1 Isomer 2
C       -4.611173    -1.635393     1.352678
C       -3.999676    -2.527823     2.399697
C       -4.829063    -3.320522     3.206742
C       -4.279113    -4.149451     4.187403
C       -2.896451    -4.203333     4.368314
C       -2.046212    -3.429991     3.567121
C       -0.556472    -3.533549     3.785941
C       -2.605119    -2.581046     2.584678
N       -1.756635    -1.786667     1.789856
C       -1.125833    -1.125833     1.125833
Cu       0.000000     0.000000     0.000000
C       -1.125833     1.125833    -1.125833
N       -1.771690     1.798682    -1.772660
C       -2.591757     2.579701    -2.607387
C       -2.716853     3.960074    -2.350394
C       -1.985634     4.590297    -1.193283
C       -3.529453     4.742313    -3.183044
C       -4.217125     4.154663    -4.246825
C       -4.095157     2.784192    -4.495045
C       -3.276075     1.986350    -3.682188
C       -3.141765     0.514132    -3.970168
C        1.125833    -1.125833    -1.125833
N        1.816259    -1.774330    -1.785521
C        2.591504    -2.609068    -2.607866
C        3.949992    -2.288945    -2.822075
C        4.597518    -1.085658    -2.178035
C        4.722799    -3.107730    -3.654708
C        4.161677    -4.240088    -4.247616
C        2.820573    -4.561729    -4.023728
C        2.020407    -3.747695    -3.209762
C        0.573582    -4.116141    -3.003868
N        0.849499     0.868755     1.590041
C        1.731468     1.744564     1.770171
S        2.705323     2.723126     2.062005
H       -4.744666    -2.212218     0.414032
H       -5.592591    -1.245186     1.693102
H       -3.969766    -0.754165     1.141204
H       -5.903741    -3.292554     3.079672
H       -4.926107    -4.754504     4.808711
H       -2.484479    -4.854464     5.130178
H       -0.301308    -3.187591     4.809152
H        0.029853    -2.929039     3.064246
H       -0.235674    -4.590766     3.671629
H       -0.894884     4.399629    -1.282146
H       -2.350164     4.150172    -0.240214
H       -2.143601     5.688737    -1.152048
H       -3.638535     5.804899    -3.002823
H       -4.846887     4.764213    -4.881112
H       -4.631652     2.346028    -5.326525
H       -2.184950     0.106959    -3.579833
H       -3.141723     0.328504    -5.064070
H       -3.980537    -0.033358    -3.493745
H        5.515818    -1.394956    -1.635802
H        4.867599    -0.343217    -2.957107
H        3.938228    -0.582889    -1.440646
H        5.764969    -2.872744    -3.834363
H        4.769299    -4.871119    -4.882247
H        2.400690    -5.442491    -4.492822
H        0.058833    -4.157392    -3.986276
H        0.505443    -5.108031    -2.511568
H        0.028014    -3.386038    -2.371953
61
ex_0153 frame2 conf2
C       -4.595460    -1.498519     1.547191
C       -3.960530    -2.472621     2.488342
C       -4.763226    -3.271232     3.286732
C       -4.170183    -4.172023     4.165301
C       -2.778110    -4.283704     4.256192
C       -1.970377    -3.486538     3.454912
C       -0.484978    -3.583967     3.530404
C       -2.575389    -2.593759     2.583193
N       -1.796208    -1.797306     1.781813
C       -1.125833    -1.125833     1.125833
Cu       0.000000     0.000000     0.000000
C       -1.125833     1.125833    -1.125833
N       -1.786544     1.816863    -1.780702
C       -2.590730     2.608574    -2.587337
C       -2.294201     3.958819    -2.791234
C       -1.102925     4.578043    -2.144919
C       -3.129648     4.727392    -3.611324
C       -4.239355     4.125492    -4.214130
C       -4.517678     2.780708    -3.993912
C       -3.688013     2.027900    -3.183214
C       -3.995037     0.600504    -2.967715
C        1.125833    -1.125833    -1.125833
N        1.785055    -1.771665    -1.784563
C        2.585977    -2.582209    -2.579887
C        3.464921    -3.459082    -1.972662
C        3.546754    -3.526583    -0.488268
C        4.261602    -4.267286    -2.775799
C        4.175382    -4.198011    -4.164098
C        3.287120    -3.312148    -4.763708
C        2.488979    -2.498679    -3.967845
C        1.534594    -1.542230    -4.591384
N        1.188336     1.187821     1.086563
C        1.895175     1.894578     1.908240
S        2.723589     2.723145     2.749002
H       -5.320742    -2.013112     0.881203
H       -5.143400    -0.749818     2.140008
H       -3.825096    -0.961164     0.960803
H       -5.843604    -3.200002     3.236551
H       -4.800855    -4.781248     4.776330
H       -2.321241    -4.987704     4.939785
H       -0.225728    -4.146440     4.434923
H       -0.080173    -4.146235     2.662854
H       -0.043658    -2.566078     3.618255
H       -0.180737     4.319050    -2.708162
H       -1.037061     4.289970    -1.072042
H       -1.211485     5.670106    -2.193749
H       -2.908569     5.777595    -3.785879
H       -4.894829     4.685661    -4.853317
H       -5.371490     2.306503    -4.460141
H       -3.121113     0.044881    -2.573590
H       -4.814980     0.543800    -2.226819
H       -4.280524     0.182015    -3.950700
H        3.441815    -2.488788    -0.096393
H        4.537488    -3.937267    -0.223134
H        2.735829    -4.181286    -0.093226
H        4.946548    -4.957596    -2.328294
H        4.802770    -4.837300    -4.760759
H        3.216882    -3.255645    -5.837656
H        1.901189    -1.167110    -5.565664
H        1.453789    -0.664099    -3.923952
H        0.552840    -2.037768    -4.739745
61
ex_0153 frame3 conf3
C       -4.571958    -1.996556     1.083301
C       -3.971043    -2.704649     2.269224
C       -4.786143    -3.516451     3.072156
C       -4.257324    -4.165132     4.191407
C       -2.907271    -4.022135     4.515537
C       -2.067640    -3.240680     3.710014
C       -0.602042    -3.121757     4.041688
C       -2.606542    -2.572456     2.590532
N       -1.761182    -1.771333     1.798674
C       -1.125833    -1.125833     1.125833
Cu       0.000000     0.000000     0.000000
C       -1.125833     1.125833    -1.125833
N       -1.806432     1.777025    -1.802543
C       -2.594869     2.599458    -2.631301
C       -3.964542     2.310149    -2.795941
C       -4.589613     1.136123    -2.087572
C       -4.743752     3.127240    -3.627756
C       -4.171299     4.227482    -4.269805
C       -2.813819     4.513597    -4.102879
C       -2.014216     3.700830    -3.285202
C       -0.550891     4.000738    -3.107095
C        1.125833    -1.125833    -1.125833
N        1.801305    -1.783134    -1.807465
C        2.590918    -2.613381    -2.625013
C        2.142937    -3.908700    -2.948833
C        0.823455    -4.425762    -2.438607
C        2.941616    -4.727476    -3.760039
C        4.164776    -4.261708    -4.247590
C        4.603632    -2.974467    -3.932843
C        3.829749    -2.142165    -3.113030
C        4.350714    -0.765931    -2.779806
N        1.352092     0.596005     1.347539
C        1.738761     1.728820     1.725670
S        2.223501     2.961579     2.204236
H       -5.544074    -1.537523     1.359022
H       -4.726686    -2.727017     0.262891
H       -3.922741    -1.178743     0.707468
H       -5.835767    -3.638278     2.836783
H       -4.894512    -4.785187     4.808063
H       -2.511771    -4.542659     5.379325
H       -0.297810    -2.055928     4.105880
H       -0.011457    -3.616644     3.240543
H       -0.355122    -3.612897     5.006716
H       -5.644601     0.981769    -2.398273
H       -4.024650     0.205541    -2.307599
H       -4.571177     1.317179    -0.991546
H       -5.799012     2.925224    -3.764076
H       -4.783506     4.863100    -4.895826
H       -2.389274     5.372372    -4.607025
H       -0.335827     4.171643    -2.030607
H        0.054196     3.139694    -3.462800
H       -0.243349     4.904142    -3.673769
H        0.991610    -4.970339    -1.486183
H        0.102443    -3.601300    -2.255912
H        0.352497    -5.106848    -3.177528
H        2.618536    -5.729904    -4.011010
H        4.777288    -4.901808    -4.868667
H        5.557201    -2.629792    -4.314390
H        4.431271    -0.158311    -3.704962
H        3.699980    -0.219253    -2.067132
H        5.355077    -0.851788    -2.313858
61
ex_0153 frame4 conf4
C       -2.889078    -0.609385     4.047222
C       -3.154094    -2.033414     3.714382
C       -3.966087    -2.799885     4.540904
C       -4.207909    -4.135948     4.237223
C       -3.652249    -4.712782     3.095812
C       -2.835961    -3.945701     2.262576
C       -2.237873    -4.569801     1.051318
C       -2.596386    -2.603871     2.583930
N       -1.789543    -1.817469     1.768072
C       -1.125833    -1.125833     1.125833
Cu       0.000000     0.000000     0.000000
C       -1.125833     1.125833    -1.125833
N       -1.791672     1.807749    -1.760604
C       -2.592071     2.599298    -2.576668
C       -3.430904     3.566259    -2.009233
C       -3.467902     3.753194    -0.519647
C       -4.224779     4.345044    -2.856243
C       -4.168604     4.151136    -4.240818
C       -3.324995     3.183267    -4.787275
C       -2.539706     2.406435    -3.949297
C       -1.648484     1.372984    -4.535775
C        1.125833    -1.125833    -1.125833
N        1.782336    -1.798563    -1.795475
C        2.583188    -2.604575    -2.592861
C        3.349287    -3.596701    -1.995706
C        3.299799    -3.759761    -0.513562
C        4.149232    -4.420393    -2.793250
C        4.183818    -4.228491    -4.176821
C        3.405054    -3.224607    -4.761961
C        2.606886    -2.401881    -3.968300
C        1.787173    -1.315259    -4.591793
N        1.167223     1.141418     1.157956
C        1.881021     1.910272     1.863251
S        2.715777     2.704981     2.686924
H       -2.062810    -0.182507     3.445875
H       -2.592430    -0.567734     5.109418
H       -3.802052    -0.022692     3.831416
H       -4.393634    -2.361302     5.427783
H       -4.827006    -4.715154     4.894724
H       -3.841710    -5.754202     2.869901
H       -1.471469    -3.910927     0.590161
H       -1.778965    -5.531254     1.350881
H       -3.045369    -4.751452     0.319287
H       -4.238339     3.088919    -0.067700
H       -2.464632     3.519813    -0.106282
H       -3.674616     4.806205    -0.251329
H       -4.885079     5.095483    -2.450241
H       -4.780155     4.750930    -4.888493
H       -3.270276     3.018203    -5.856459
H       -0.953485     1.859560    -5.240687
H       -2.281975     0.631778    -5.047446
H       -1.059004     0.839294    -3.769506
H        2.249009    -3.660514    -0.143013
H        3.928564    -2.972624    -0.052042
H        3.719582    -4.739255    -0.243741
H        4.757095    -5.189934    -2.339356
H        4.814808    -4.854254    -4.790954
H        3.428260    -3.061018    -5.826871
H        0.822411    -1.150583    -4.056694
H        1.614553    -1.540246    -5.662172
H        2.371567    -0.379601    -4.522614
61
ex_0153 frame5 conf5
C       -1.385780    -4.599671     1.694133
C       -2.415801    -3.959130     2.576285
C       -3.213445    -4.745168     3.395797
C       -4.178903    -4.147932     4.218946
C       -4.347895    -2.760977     4.223901
C       -3.546915    -1.976607     3.400066
C       -3.672576    -0.495895     3.347693
C       -2.592174    -2.582447     2.595313
N       -1.793149    -1.795419     1.789171
C       -1.125833    -1.125833     1.125833
Cu       0.000000     0.000000     0.000000
C       -1.125833     1.125833    -1.125833
N       -1.781123     1.793717    -1.802124
C       -2.575429     2.595670    -2.583488
C       -2.825763     3.913467    -2.213478
C       -2.247436     4.499255    -0.960112
C       -3.634143     4.688213    -3.039989
C       -4.178779     4.150829    -4.202357
C       -3.918969     2.829801    -4.548445
C       -3.113705     2.047332    -3.737351
C       -2.842065     0.635279    -4.119236
C        1.125833    -1.125833    -1.125833
N        1.800452    -1.781819    -1.796209
C        2.593511    -2.594535    -2.602939
C        2.040505    -3.291203    -3.654474
C        0.598147    -3.208751    -3.971368
C        2.828324    -4.099584    -4.456203
C        4.186523    -4.202065    -4.182396
C        4.760444    -3.502287    -3.122500
C        3.965133    -2.690434    -2.322348
C        4.566801    -1.943497    -1.194716
N        1.124842     1.124149     1.214426
C        1.908113     1.906745     1.886803
S        2.743990     2.741561     2.716440
H       -0.800174    -5.371691     2.242645
H       -1.922336    -5.093704     0.864003
H       -0.712859    -3.834778     1.256160
H       -3.073974    -5.815830     3.389756
H       -4.800774    -4.751946     4.854491
H       -5.091495    -2.292454     4.856686
H       -4.539887    -0.146249     3.929644
H       -2.723346    -0.002300     3.665514
H       -3.844957    -0.226250     2.292183
H       -2.023384     5.579231    -1.104098
H       -1.336080     3.954358    -0.638019
H       -2.987790     4.385764    -0.142743
H       -3.845401     5.709405    -2.786625
H       -4.803134     4.769109    -4.825119
H       -4.340397     2.411393    -5.445438
H       -3.677199     0.014625    -3.744049
H       -2.842301     0.577317    -5.222145
H       -1.869590     0.281380    -3.706076
H        0.029554    -2.807014    -3.111595
H        0.505148    -2.574864    -4.874183
H        0.216931    -4.220088    -4.221420
H        2.374476    -4.651042    -5.280638
H        4.806028    -4.821396    -4.785535
H        5.819686    -3.583663    -2.912976
H        4.906286    -0.957962    -1.554566
H        5.427952    -2.528540    -0.838778
H        3.841536    -1.778926    -0.369362
61
ex_0153 frame6 conf6
C       -3.588686    -3.498559     0.453153
C       -3.481605    -3.453435     1.935889
C       -4.321725    -4.305701     2.653901
C       -4.220205    -4.262116     4.039195
C       -3.350676    -3.436406     4.693451
C       -2.537790    -2.609559     3.944765
C       -1.576377    -1.694486     4.617200
C       -2.601331    -2.617045     2.587005
N       -1.800234    -1.800234     1.800234
C       -1.125833    -1.125833     1.125833
Cu       0.000000     0.000000     0.000000
C       -1.125833     1.125833    -1.125833
N       -1.789208     1.789208    -1.789208
C       -2.580348     2.577338    -2.608105
C       -1.993516     3.634036    -3.279627
C       -0.539641     3.943045    -3.144079
C       -2.783706     4.403913    -4.084092
C       -4.144208     4.154873    -4.242213
C       -4.704084     3.097104    -3.562870
C       -3.934101     2.295084    -2.738555
C       -4.572754     1.160914    -2.020012
C        1.125833    -1.125833    -1.125833
N        1.789208    -1.789208    -1.789208
C        2.608145    -2.579889    -2.577759
C        3.254843    -1.999180    -3.653158
C        3.092676    -0.552340    -3.981748
C        4.059608    -2.788847    -4.423255
C        4.242031    -4.142906    -4.156356
C        3.587120    -4.696766    -3.080171
C        2.763296    -3.927108    -2.277335
C        2.071529    -4.559156    -1.122996
N        1.154701     1.154701     1.154701
C        1.887863     1.887863     1.887863
S        2.809854     2.821477     2.783621
H       -3.155798    -4.419805     0.063074
H       -4.665456    -3.472094     0.215083
H       -3.084306    -2.633729    -0.024339
H       -5.016887    -4.967182     2.164670
H       -4.852639    -4.905948     4.635077
H       -3.253546    -3.384648     5.770216
H       -1.503123    -1.894773     5.703356
H       -0.557831    -1.828589     4.204767
H       -1.907987    -0.633233     4.452040
H       -0.405522     4.973276    -2.715031
H       -0.087756     3.952058    -4.136965
H       -0.063176     3.221974    -2.463610
H       -2.315363     5.244001    -4.617535
H       -4.747619     4.777883    -4.883834
H       -5.762812     2.914071    -3.694305
H       -5.377894     0.788298    -2.662490
H       -3.863868     0.432753    -1.640483
H       -5.086947     1.620576    -1.138742
H        2.646311    -0.440272    -5.007246
H        4.078354    -0.085870    -4.012555
H        2.415905    -0.075214    -3.257641
H        4.573289    -2.325379    -5.278231
H        4.883351    -4.746044    -4.779941
H        3.737306    -5.750518    -2.883365
H        2.731627    -5.348874    -0.748181
H        1.692213    -3.845060    -0.399831
H        1.191389    -5.093357    -1.561519
61
ex_0153 frame7 square-planar trans
C       -4.401028    -1.690520    -1.981727
C       -5.154340    -0.850943    -0.982753
C       -6.556885    -0.882658    -0.999047
C       -7.297112    -0.116746    -0.097995
C       -6.648020     0.688844     0.832310
C       -5.248063     0.737593     0.880756
C       -4.596470     1.620087     1.914602
C       -4.494999    -0.039131    -0.035528
N       -3.079100     0.016756     0.019778
C       -1.950000     0.000000     0.000000
Cu       0.000000     0.000000     0.000000
C        0.000000     1.950000     0.000000
N        0.002533     3.084802    -0.021505
C       -0.017732     4.496580     0.055119
C        0.413826     5.241907    -1.064479
C        0.880370     4.539865    -2.312564
C        0.407392     6.642096    -1.012480
C       -0.016426     7.301002     0.140645
C       -0.446792     6.569584     1.249603
C       -0.456695     5.165331     1.220585
C       -0.937200     4.426081     2.439013
C        0.000000    -1.950000     0.000000
N        0.026137    -3.103899    -0.016111
C       -0.033635    -4.508441     0.018816
C        0.960897    -5.258283    -0.666431
C        2.083457    -4.598220    -1.428851
C        0.913016    -6.659549    -0.643973
C       -0.101741    -7.321334     0.043853
C       -1.079284    -6.591317     0.720362
C       -1.057943    -5.187529     0.715820
C       -2.138352    -4.453897     1.461410
N        2.000000     0.000000     0.000000
C        3.160477    -0.242061     0.416107
S        4.501346    -0.461735     0.791838
H       -4.642140    -2.761482    -1.815586
H       -4.718350    -1.406614    -3.011347
H       -3.307928    -1.563558    -1.915271
H       -7.079224    -1.503698    -1.717959
H       -8.378235    -0.152366    -0.118938
H       -7.235023     1.274716     1.530005
H       -4.915517     2.672274     1.763014
H       -3.488265     1.592643     1.877121
H       -4.908498     1.291150     2.927620
H        0.062821     3.909251    -2.720758
H        1.750876     3.892997    -2.071993
H        1.191330     5.259408    -3.099748
H        0.738859     7.227658    -1.863205
H       -0.012981     8.382980     0.175920
H       -0.774915     7.099306     2.135393
H       -0.928281     3.325957     2.303989
H       -1.979794     4.732671     2.670207
H       -0.287069     4.675030     3.303696
H        3.060420    -4.918047    -1.009521
H        2.034883    -4.899329    -2.496426
H        2.044032    -3.490958    -1.387158
H        1.665235    -7.240364    -1.166493
H       -0.131041    -8.403116     0.051382
H       -1.862131    -7.123799     1.248739
H       -3.128716    -4.727566     1.040919
H       -2.108525    -4.741459     2.533685
H       -2.031551    -3.352287     1.398780
61
ex_0153 frame8 square-planar trans-conf2
C       -4.480522     2.444921    -0.889566
C       -5.206875     1.205432    -0.438560
C       -6.613646     1.205415    -0.429129
C       -7.321571     0.076950    -0.004722
C       -6.637422    -1.064040     0.406716
C       -5.239541    -1.086500     0.391133
C       -4.510113    -2.315609     0.818149
C       -4.517682     0.051928    -0.024160
N       -3.103447     0.001211    -0.012166
C       -1.950000     0.000000     0.000000
Cu       0.000000     0.000000     0.000000
C        0.000000     1.950000     0.000000
N       -0.000328     3.108517     0.027450
C       -0.036840     4.516235    -0.017225
C        0.464587     5.252982     1.079110
C        1.039897     4.550599     2.283211
C        0.424851     6.653945     1.042935
C       -0.099781     7.313647    -0.068782
C       -0.595579     6.583610    -1.151797
C       -0.566327     5.181384    -1.139169
C       -1.102334     4.426736    -2.326542
C        0.000000    -1.950000     0.000000
N        0.009738    -3.083791     0.004526
C        0.074050    -4.501101    -0.016564
C       -0.889815    -5.222214     0.763608
C       -1.918929    -4.499511     1.574304
C       -0.867026    -6.618237     0.766264
C        0.074320    -7.305789     0.004670
C        1.020099    -6.602109    -0.744981
C        1.020615    -5.195526    -0.751907
C        2.053153    -4.456777    -1.560976
N        2.000000     0.000000     0.000000
C        3.254876    -0.058477     0.059558
S        4.661692    -0.060459     0.110579
H       -4.775921     2.701907    -1.927482
H       -4.742743     3.285116    -0.213044
H       -3.378368     2.324492    -0.868119
H       -7.164346     2.084145    -0.738991
H       -8.403534     0.082868     0.009383
H       -7.195287    -1.933189     0.735694
H       -5.191919    -3.111346     1.184548
H       -3.963152    -2.693655    -0.069474
H       -3.795364    -2.067233     1.633321
H        1.947009     3.982064     1.987039
H        0.293864     3.845951     2.707695
H        1.326969     5.268603     3.081402
H        0.806674     7.237108     1.872469
H       -0.119709     8.395246    -0.091209
H       -0.997779     7.112078    -2.006498
H       -0.942900     3.332138    -2.247720
H       -2.193506     4.606755    -2.413318
H       -0.594689     4.771222    -3.251046
H       -1.460139    -3.686940     2.177471
H       -2.474267    -5.176872     2.253570
H       -2.631507    -4.078581     0.859574
H       -1.595052    -7.174060     1.343662
H        0.067938    -8.387659     0.001183
H        1.746604    -7.158509    -1.324179
H        2.959649    -5.082468    -1.705892
H        2.376422    -3.537334    -1.029021
H        1.631034    -4.179660    -2.550085
61
ex_0153 frame9 square-planar trans-conf3
C       -4.443749    -0.660054    -2.502289
C       -5.171028    -0.314480    -1.231437
C       -6.574722    -0.317692    -1.240097
C       -7.293210     0.001556    -0.086668
C       -6.621402     0.327648     1.090775
C       -5.219677     0.330507     1.127592
C       -4.504002     0.673851     2.407744
C       -4.489902     0.009145    -0.037706
N       -3.077963     0.019271     0.019512
C       -1.950000     0.000000     0.000000
Cu       0.000000     0.000000     0.000000
C        0.000000     1.950000     0.000000
N       -0.019373     3.109608    -0.011620
C        0.022249     4.523658    -0.034557
C       -1.178510     5.247252     0.105739
C       -2.491212     4.530120     0.278123
C       -1.143965     6.651400     0.083742
C        0.067907     7.323540    -0.074365
C        1.257692     6.605430    -0.214401
C        1.246421     5.198804    -0.194978
C        2.531113     4.433562    -0.344444
C        0.000000    -1.950000     0.000000
N        0.007656    -3.113017    -0.016169
C       -0.042143    -4.523004     0.002690
C       -1.167370    -5.200679     0.518857
C       -2.365449    -4.456251     1.053436
C       -1.180193    -6.602206     0.539007
C       -0.099513    -7.327880     0.036178
C        1.010396    -6.663575    -0.485314
C        1.056649    -5.266874    -0.503310
C        2.284156    -4.596435    -1.065112
N        2.000000     0.000000     0.000000
C        3.187475     0.410638    -0.001195
S        4.549167     0.775141    -0.002681
H       -4.751387     0.038479    -3.308635
H       -4.700975    -1.697196    -2.803069
H       -3.342418    -0.594950    -2.396872
H       -7.114689    -0.569887    -2.144343
H       -8.375377    -0.005583    -0.104138
H       -7.196192     0.568940     1.976699
H       -3.851644     1.559312     2.253988
H       -3.877835    -0.187963     2.722932
H       -5.215275     0.903069     3.229587
H       -3.340635     5.238807     0.371220
H       -2.680194     3.874155    -0.598745
H       -2.457366     3.904730     1.195619
H       -2.056592     7.226016     0.191467
H        0.085909     8.404783    -0.086995
H        2.187622     7.147277    -0.334620
H        2.692466     3.801404     0.554657
H        2.477682     3.781050    -1.241779
H        3.403157     5.111229    -0.455670
H       -2.390512    -4.559096     2.157581
H       -2.342614    -3.378403     0.798162
H       -3.297272    -4.879917     0.625568
H       -2.032232    -7.135837     0.938176
H       -0.119700    -8.410634     0.051164
H        1.844402    -7.242385    -0.867277
H        2.428462    -4.898684    -2.124406
H        2.232976    -3.489733    -1.031472
H        3.174341    -4.911138    -0.478514
61
ex_0153 frame10 square-planar trans-conf4
C       -4.432702     1.519406     2.095528
C       -5.177804     0.764466     1.028064
C       -6.580967     0.794645     1.039741
C       -7.314609     0.110122     0.069455
C       -6.658671    -0.616856    -0.922544
C       -5.259184    -0.665191    -0.958422
C       -4.599792    -1.467537    -2.053566
C       -4.512645     0.032837     0.020645
N       -3.103306    -0.017176    -0.030528
C       -1.950000     0.000000     0.000000
Cu       0.000000     0.000000     0.000000
C        0.000000     1.950000     0.000000
N        0.033859     3.094612    -0.001543
C       -0.031219     4.504624    -0.022387
C        1.151581     5.241299     0.212669
C        2.455901     4.539369     0.495565
C        1.111613     6.641943     0.182424
C       -0.091255     7.305939    -0.054156
C       -1.262930     6.580186    -0.278858
C       -1.246713     5.176523    -0.272028
C       -2.532236     4.438057    -0.532418
C        0.000000    -1.950000     0.000000
N       -0.004623    -3.104051    -0.011275
C       -0.056030    -4.516436    -0.001754
C       -1.077488    -5.195205     0.688652
C       -2.130970    -4.433152     1.443182
C       -1.102748    -6.599532     0.665412
C       -0.128247    -7.313679    -0.034943
C        0.886678    -6.638124    -0.712967
C        0.934656    -5.237086    -0.698499
C        2.038501    -4.514071    -1.423594
N        2.000000     0.000000     0.000000
C        3.257170     0.041409     0.002964
S        4.665619    -0.023656    -0.000178
H       -3.332800     1.417130     2.005683
H       -4.730378     1.140868     3.095829
H       -4.683091     2.598599     2.025359
H       -7.108699     1.354772     1.801488
H       -8.396214     0.143132     0.084911
H       -7.241956    -1.142342    -1.669550
H       -3.492692    -1.459447    -1.992453
H       -4.932431    -2.525373    -1.995862
H       -4.887929    -1.052746    -3.042445
H        2.414565     4.081205     1.506823
H        2.643080     3.742580    -0.254852
H        3.314730     5.243463     0.466549
H        2.009220     7.221574     0.361678
H       -0.114623     8.387859    -0.061398
H       -2.186097     7.114517    -0.464780
H       -2.915839     4.716562    -1.536634
H       -3.285840     4.713921     0.233982
H       -2.407343     3.336815    -0.510124
H       -2.669821    -3.757251     0.746373
H       -1.655603    -3.829190     2.244533
H       -2.871282    -5.116085     1.911550
H       -1.880431    -7.145610     1.183303
H       -0.158304    -8.395682    -0.053160
H        1.634761    -7.209391    -1.249004
H        1.605702    -3.817032    -2.171900
H        2.714787    -5.218013    -1.953440
H        2.643910    -3.932527    -0.695346
61
ex_0153 frame11 square-planar trans-conf5
C       -4.500737    -1.469560    -2.062528
C       -5.213814    -0.688847    -0.975806
C       -6.614258    -0.677795    -0.958517
C       -7.295447     0.029317     0.035705
C       -6.585376     0.741532     1.010185
C       -5.183338     0.746946     1.004427
C       -4.393736     1.505736     2.029263
C       -4.506365     0.025450     0.016106
N       -3.104839     0.000637    -0.004428
C       -1.950000     0.000000     0.000000
Cu       0.000000     0.000000     0.000000
C        0.000000     1.950000     0.000000
N        0.003738     3.104391    -0.014473
C        0.027372     4.507566     0.011128
C        1.075729     5.214971     0.606517
C        2.227760     4.493846     1.239857
C        1.034924     6.616622     0.603304
C       -0.033010     7.300499     0.012296
C       -1.079929     6.593256    -0.581319
C       -1.061207     5.191554    -0.588471
C       -2.211464     4.450091    -1.240439
C        0.000000    -1.950000     0.000000
N        0.004715    -3.105267    -0.012982
C       -0.010234    -4.513762    -0.014846
C       -1.202887    -5.218916     0.188596
C       -2.504573    -4.510748     0.422408
C       -1.181383    -6.619255     0.173673
C        0.012051    -7.312759    -0.022252
C        1.207021    -6.615819    -0.220733
C        1.209243    -5.211754    -0.227089
C        2.511580    -4.476641    -0.460042
N        2.000000     0.000000     0.000000
C        3.256452    -0.022754    -0.031952
S        4.665748     0.027206     0.010749
H       -4.841002    -2.526668    -2.068919
H       -4.715073    -1.013403    -3.052301
H       -3.398477    -1.482853    -1.936284
H       -7.175473    -1.223406    -1.709420
H       -8.376745     0.026861     0.050253
H       -7.127349     1.285882     1.770754
H       -5.051162     2.047243     2.736461
H       -3.753063     0.799361     2.600593
H       -3.737967     2.242596     1.515552
H        3.185490     4.986295     0.980528
H        2.299615     3.436787     0.905527
H        2.086440     4.503221     2.339299
H        1.835987     7.179011     1.061995
H       -0.049498     8.382047     0.016265
H       -1.903882     7.137184    -1.031689
H       -3.055008     4.392017    -0.520356
H       -2.555542     4.964112    -2.164181
H       -1.935598     3.416319    -1.534122
H       -2.389869    -3.413224     0.542624
H       -3.192992    -4.690530    -0.430529
H       -2.977472    -4.893531     1.352939
H       -2.101110    -7.174815     0.333684
H        0.011608    -8.395203    -0.016462
H        2.120238    -7.170829    -0.375487
H        2.621657    -4.272655    -1.545207
H        3.371429    -5.081139    -0.108110
H        2.529819    -3.516325     0.094326
61
ex_0153 frame12 square-planar trans-conf6
C       -4.353451     0.225008    -2.514114
C       -5.121633     0.099872    -1.246737
C       -6.513278     0.097996    -1.351731
C       -7.229301    -0.019027    -0.166462
C       -6.628289    -0.128388     1.055320
C       -5.249334    -0.122253     1.113952
C       -4.554175    -0.239076     2.424276
C       -4.506439    -0.009931    -0.018786
N       -3.118097     0.000000     0.000000
C       -1.950000     0.000000     0.000000
Cu       0.000000     0.000000     0.000000
C        0.000000     1.950000     0.000000
N       -0.000000     3.098999    -0.000000
C       -0.023324     4.483583    -0.005606
C        0.009624     5.142563    -1.220753
C        0.069269     4.403314    -2.515963
C       -0.013864     6.507725    -1.213505
C       -0.069306     7.240719    -0.031289
C       -0.101205     6.561042     1.164898
C       -0.078785     5.177526     1.196349
C       -0.114439     4.476589     2.507050
C        0.000000    -1.950000     0.000000
N        0.000000    -3.098999    -0.000000
C        0.020121    -4.483583     0.013061
C        0.878951    -5.142563    -0.847217
C        1.777486    -4.403314    -1.781968
C        0.889860    -6.507725    -0.825189
C        0.070401    -7.240719     0.028741
C       -0.775397    -6.561042     0.875208
C       -0.813644    -5.177526     0.880590
C       -1.739930    -4.476589     1.808602
N        2.000000     0.000000     0.000000
C        3.269874     0.000000    -0.000000
S        4.858375     0.023332    -0.014411
H       -4.410192    -0.697422    -3.092171
H       -4.822395     1.043377    -3.086106
H       -3.287257     0.468546    -2.329049
H       -7.014078     0.182742    -2.301558
H       -8.310186    -0.024863    -0.201405
H       -7.163999    -0.220530     1.991302
H       -5.254610    -0.485513     3.245174
H       -3.805424    -1.054009     2.396413
H       -4.037561     0.733381     2.649965
H        1.010676     4.672974    -3.067761
H       -0.766420     4.720865    -3.141174
H        0.077307     3.319048    -2.330756
H        0.012367     7.030336    -2.180896
H       -0.086869     8.319234    -0.051825
H       -0.144245     7.142509     2.076888
H       -0.709964     5.097242     3.185293
H       -0.381110     3.427789     2.431657
H        0.932001     4.530043     2.900020
H        1.529815    -4.672974    -2.844695
H        2.806233    -4.720865    -1.606060
H        1.637598    -3.319048    -1.660323
H        1.573582    -7.030336    -1.510066
H        0.097387    -8.319234     0.027347
H       -1.407361    -7.142509     1.534146
H       -1.822054    -5.097242     2.707444
H       -1.501689    -3.427789     1.950161
H       -2.745260    -4.530043     1.319957
61
ex_0153 frame13 see-saw C-N-ax
C       -2.579297    -0.341668    -4.406666
C       -1.285239    -0.159496    -5.153316
C       -1.317799    -0.148664    -6.556745
C       -0.143109     0.006565    -7.293943
C        1.078885     0.158768    -6.641571
C        1.140797     0.162797    -5.241885
C        2.489021     0.343037    -4.588998
C       -0.048343     0.001057    -4.490127
N        0.025700     0.003378    -3.079100
C        0.000000     0.000000    -1.950000
Cu       0.000000     0.000000     0.000000
C        1.912132     0.000000     0.382426
N        3.028717     0.009464     0.585881
C        4.401303    -0.013370     0.926124
C        5.355035     0.228107    -0.087326
C        4.915433     0.505701    -1.501042
C        6.721506     0.208883     0.226886
C        7.139938    -0.055803     1.530086
C        6.200722    -0.295396     2.534304
C        4.826669    -0.272522     2.248014
C        3.857278    -0.526809     3.369096
C       -1.912132     0.000000     0.382426
N       -3.048851     0.015236     0.582586
C       -4.422768    -0.013372     0.912198
C       -5.348022     0.638612     0.061896
C       -4.920119     1.360687    -1.191787
C       -6.711964     0.621251     0.382755
C       -7.160055    -0.032982     1.528719
C       -6.252208    -0.680601     2.367071
C       -4.879842    -0.679282     2.071980
C       -3.946150    -1.393269     3.011534
N        0.000000     0.000000     2.000000
C       -0.029348    -0.052840     3.269450
S       -0.039718    -0.044592     4.654960
H       -3.252021     0.514850    -4.620691
H       -3.070791    -1.280574    -4.738191
H       -2.436763    -0.403447    -3.309324
H       -2.257333    -0.265386    -7.082427
H       -0.178874     0.009894    -8.375701
H        1.981864     0.281131    -7.228210
H        3.171834    -0.475232    -4.900100
H        2.437453     0.341195    -3.482034
H        2.924890     1.314671    -4.904279
H        4.272299     1.410518    -1.529829
H        4.338429    -0.362467    -1.884311
H        5.780367     0.671454    -2.177894
H        7.465433     0.389614    -0.539507
H        8.196925    -0.076041     1.762120
H        6.545725    -0.498648     3.540580
H        2.802865    -0.441587     3.044859
H        4.025129     0.212423     4.180675
H        4.014999    -1.549191     3.771101
H       -5.423941     0.910619    -2.073028
H       -5.207973     2.430724    -1.119732
H       -3.826585     1.314597    -1.368444
H       -7.429762     1.119921    -0.257826
H       -8.215735    -0.037421     1.767541
H       -6.620232    -1.183459     3.252894
H       -4.023582    -0.941991     4.022982
H       -4.229373    -2.465257     3.071327
H       -2.887381    -1.336164     2.690223
61
ex_0153 frame14 see-saw C-N-ax-conf2
C       -2.282002     1.126725    -4.503417
C       -1.081766     0.535662    -5.215882
C       -1.075725     0.526291    -6.616985
C        0.010464    -0.018982    -7.308310
C        1.091999    -0.549643    -6.607348
C        1.109224    -0.545645    -5.202977
C        2.275487    -1.115840    -4.452507
C        0.018205    -0.003710    -4.509521
N        0.000123     0.012226    -3.103447
C        0.000000     0.000000    -1.950000
Cu       0.000000     0.000000     0.000000
C        1.912132     0.000000     0.382426
N        3.045555     0.024051     0.622609
C        4.437064     0.001719     0.844017
C        4.968180     0.708798     1.945771
C        4.064091     1.472470     2.880607
C        6.352275     0.697700     2.168857
C        7.196445    -0.010239     1.313030
C        6.669958    -0.709765     0.224397
C        5.288534    -0.714166    -0.019599
C        4.756558    -1.484927    -1.198783
C       -1.912132     0.000000     0.382426
N       -3.024141     0.010671     0.603605
C       -4.417972     0.002174     0.844063
C       -5.287407    -0.677486    -0.020874
C       -4.753191    -1.411712    -1.219885
C       -6.665712    -0.663747     0.247312
C       -7.160964     0.011949     1.366203
C       -6.290935     0.689900     2.220792
C       -4.912454     0.691334     1.970557
C       -3.984105     1.425773     2.904606
N        0.000000     0.000000     2.000000
C       -0.153943    -0.001884     3.247451
S       -0.264720    -0.002884     4.652448
H       -2.420101     2.185792    -4.801476
H       -3.189798     0.550393    -4.773223
H       -2.186655     1.099175    -3.398554
H       -1.911373     0.930602    -7.170268
H        0.003796    -0.029298    -8.389822
H        1.924172    -0.972942    -7.165943
H        3.033855    -1.557715    -5.138765
H        2.768530    -0.319788    -3.854566
H        1.925724    -1.916795    -3.765689
H        3.373092     0.768995     3.392141
H        3.466798     2.215853     2.311506
H        4.640940     2.017744     3.658329
H        6.778817     1.232586     3.009042
H        8.262869    -0.017908     1.496203
H        7.340060    -1.254429    -0.428300
H        3.648684    -1.485508    -1.247846
H        5.138949    -1.032075    -2.136573
H        5.088664    -2.541859    -1.136895
H       -4.128753    -0.728250    -1.835401
H       -5.572725    -1.801807    -1.859498
H       -4.129383    -2.265230    -0.881998
H       -7.358186    -1.181610    -0.403799
H       -8.222711     0.007304     1.574497
H       -6.690134     1.205360     3.085880
H       -4.526121     2.212348     3.470908
H       -3.173258     1.933910     2.340157
H       -3.530299     0.709679     3.621105
61
ex_0153 frame15 see-saw C-N-ax-conf3
C       -1.782840     1.871066    -4.442401
C       -0.880888     0.911905    -5.171001
C       -0.884732     0.920225    -6.574603
C       -0.071301     0.041677    -7.292570
C        0.759093    -0.854358    -6.620274
C        0.790242    -0.874080    -5.218552
C        1.702724    -1.835233    -4.502200
C       -0.034514     0.010613    -4.489742
N        0.006452    -0.026654    -3.077963
C        0.000000     0.000000    -1.950000
Cu       0.000000     0.000000     0.000000
C        1.912132     0.000000     0.382426
N        3.052955     0.012161     0.591176
C        4.438463    -0.033362     0.866318
C        5.232649     1.103459     0.606664
C        4.614210     2.355229     0.043516
C        6.608508     1.061899     0.877048
C        7.188118    -0.093367     1.402439
C        6.403389    -1.219230     1.660120
C        5.024238    -1.200181     1.395575
C        4.184877    -2.415256     1.675910
C       -1.912132     0.000000     0.382426
N       -3.055452    -0.010160     0.596074
C       -4.439167     0.034808     0.877603
C       -5.038881     1.231216     1.329557
C       -4.242828     2.493787     1.515927
C       -6.413259     1.245439     1.612964
C       -7.186013     0.096762     1.436180
C       -6.597006    -1.082862     0.983027
C       -5.224262    -1.129324     0.706484
C       -4.634392    -2.434600     0.232212
N        0.000000     0.000000     2.000000
C        0.017862    -0.009103     3.257367
S       -0.013323    -0.026709     4.665986
H       -2.833406     1.713714    -4.765179
H       -1.481483     2.912369    -4.680995
H       -1.743908     1.744004    -3.341968
H       -1.521342     1.609935    -7.114742
H       -0.082207     0.056404    -8.374713
H        1.386616    -1.525072    -7.194612
H        1.111888    -2.504426    -3.841956
H        2.426952    -1.263151    -3.883692
H        2.278191    -2.465867    -5.212875
H        5.370274     3.153605    -0.113727
H        4.135390     2.132423    -0.933493
H        3.844142     2.738738     0.745921
H        7.233702     1.925437     0.685423
H        8.249749    -0.115048     1.612107
H        6.873573    -2.104133     2.070189
H        3.392244    -2.157031     2.409814
H        3.710505    -2.768734     0.736379
H        4.792478    -3.244786     2.095588
H       -4.028824     2.628671     2.596048
H       -3.283493     2.469756     0.959410
H       -4.815405     3.369627     1.145740
H       -6.888843     2.151885     1.964873
H       -8.246064     0.120218     1.652844
H       -7.210530    -1.966619     0.854839
H       -5.121612    -2.746388    -0.715995
H       -3.542149    -2.375805     0.050006
H       -4.806798    -3.216915     1.001369
61
ex_0153 frame16 see-saw C-N-ax-conf4
C       -2.338687     1.097807    -4.432051
C       -1.148230     0.556788    -5.177887
C       -1.163295     0.584869    -6.580787
C       -0.081280     0.092652    -7.312805
C        1.028360    -0.436658    -6.655262
C        1.070862    -0.476941    -5.255697
C        2.295369    -1.060372    -4.592616
C       -0.022722     0.026568    -4.511973
N        0.033156    -0.011299    -3.103306
C        0.000000     0.000000    -1.950000
Cu       0.000000     0.000000     0.000000
C        1.912132     0.000000     0.382426
N        3.040122     0.018215     0.578875
C        4.410818     0.004299     0.913976
C        5.353818     0.384653    -0.067040
C        4.912738     0.786504    -1.452356
C        6.718621     0.388556     0.251780
C        7.145849    -0.002492     1.520327
C        6.215681    -0.384072     2.489236
C        4.842445    -0.380727     2.200966
C        3.877046    -0.789815     3.280264
C       -1.912132     0.000000     0.382426
N       -3.046054     0.003622     0.597345
C       -4.430707     0.046812     0.875578
C       -4.992255     1.116537     1.596588
C       -4.116724     2.228631     2.099214
C       -6.377161     1.128271     1.837803
C       -7.188568     0.093839     1.364435
C       -6.629175    -0.971660     0.659151
C       -5.250016    -1.006539     0.413998
C       -4.656629    -2.169558    -0.340499
N        0.000000     0.000000     2.000000
C        0.028159    -0.000137     3.247619
S        0.074477     0.023045     4.671135
H       -2.235760     1.004911    -3.332255
H       -3.252229     0.545056    -4.735330
H       -2.466352     2.173493    -4.674271
H       -2.015695     0.993041    -7.109216
H       -0.101597     0.121515    -8.394379
H        1.860729    -0.814467    -7.237249
H        2.229452    -1.067172    -3.485644
H        2.439413    -2.109324    -4.927435
H        3.189988    -0.466285    -4.874475
H        4.633872    -0.122648    -2.026952
H        4.037303     1.468081    -1.408030
H        5.722423     1.314419    -1.999700
H        7.455000     0.673059    -0.490121
H        8.202808    -0.011811     1.751977
H        6.566409    -0.680817     3.469708
H        3.985899    -0.107732     4.149643
H        4.093182    -1.829241     3.602664
H        2.822135    -0.748496     2.946771
H       -3.593816     2.691414     1.237305
H       -3.364479     1.817213     2.804946
H       -4.711169     3.009116     2.614178
H       -6.831800     1.943236     2.380389
H       -8.256127     0.116872     1.542087
H       -7.274770    -1.768605     0.301007
H       -4.106410    -1.809445    -1.234848
H       -5.436420    -2.882370    -0.690913
H       -3.951657    -2.729927     0.313173
61
ex_0153 frame17 see-saw C-N-ax-conf5
C       -1.034545     2.332714    -4.503783
C       -0.491505     1.108473    -5.214875
C       -0.486103     1.089945    -6.616386
C        0.006969    -0.025704    -7.297688
C        0.486624    -1.132648    -6.588620
C        0.484526    -1.136631    -5.188667
C        0.979879    -2.314096    -4.404805
C       -0.014496     0.015959    -4.509686
N       -0.004135     0.001706    -3.104839
C        0.000000     0.000000    -1.950000
Cu       0.000000     0.000000     0.000000
C        1.912132     0.000000     0.382426
N        3.045503     0.013141     0.601834
C        4.424496    -0.014127     0.865338
C        5.286296    -0.855790     0.139901
C        4.771415    -1.752619    -0.951691
C        6.654257    -0.851229     0.448983
C        7.154922    -0.019563     1.456112
C        6.296146     0.815747     2.172083
C        4.925778     0.824370     1.884967
C        4.013375     1.735183     2.677321
C       -1.912132     0.000000     0.382426
N       -3.047656    -0.001591     0.595540
C       -4.428554     0.028762     0.879367
C       -5.025856     1.147720     1.486695
C       -4.226776     2.362194     1.870068
C       -6.405538     1.132599     1.742925
C       -7.176443     0.014865     1.417474
C       -6.584089    -1.096812     0.818612
C       -5.211684    -1.099474     0.539312
C       -4.596512    -2.310970    -0.120922
N        0.000000     0.000000     2.000000
C       -0.025949     0.020452     3.258127
S        0.009951     0.001076     4.667462
H       -0.493325     3.243383    -4.839041
H       -2.117178     2.448716    -4.730322
H       -0.929762     2.271603    -3.401214
H       -0.856703     1.938591    -7.180988
H        0.019357    -0.036448    -8.379251
H        0.860372    -1.990438    -7.128576
H        1.312406    -3.135934    -5.065848
H        1.830516    -2.002116    -3.762676
H        0.163868    -2.695049    -3.751635
H        5.439026    -1.713435    -1.836939
H        3.755840    -1.461815    -1.292623
H        4.727891    -2.792702    -0.569152
H        7.334963    -1.493415    -0.093922
H        8.212352    -0.025357     1.684856
H        6.696770     1.448999     2.955980
H        3.775937     1.244931     3.645469
H        4.491832     2.719095     2.867898
H        3.057684     1.939610     2.151401
H       -3.136345     2.218680     1.724683
H       -4.547723     3.229440     1.256000
H       -4.392679     2.591763     2.944169
H       -6.882545     1.984239     2.213678
H       -8.236797     0.006386     1.632044
H       -7.194885    -1.955542     0.570819
H       -4.601649    -2.175837    -1.222812
H       -5.163987    -3.231181     0.131595
H       -3.551858    -2.472470     0.218395
61
ex_0153 frame18 see-saw C-N-ax-conf6
C        1.937854     1.617443    -4.353451
C        0.967643     0.792460    -5.121633
C        1.054995     0.850744    -6.513278
C        0.147638     0.079214    -7.229301
C       -0.794092    -0.706826    -6.628289
C       -0.845770    -0.735192    -5.249334
C       -1.856010    -1.577814    -4.554175
C        0.021096     0.002543    -4.506439
N        0.000000     0.000000    -3.118097
C        0.000000     0.000000    -1.950000
Cu       0.000000     0.000000     0.000000
C        1.912132     0.000000     0.382426
N        3.038819     0.000000     0.607764
C        4.395176     0.022997     0.885992
C        5.250899     0.602736    -0.032466
C        4.751759     1.199439    -1.306208
C        6.586014     0.619442     0.252946
C        7.098618     0.075660     1.427480
C        6.225922    -0.495495     2.325269
C        4.866135    -0.530647     2.069632
C        3.952782    -1.155874     3.062306
C       -1.912132     0.000000     0.382426
N       -3.038819     0.000000     0.607764
C       -4.392176    -0.009270     0.900997
C       -5.082918    -1.203440     0.807436
C       -4.410269    -2.472362     0.401241
C       -6.416795    -1.200050     1.099040
C       -7.087676    -0.041989     1.482188
C       -6.377437     1.133635     1.567696
C       -5.024141     1.168272     1.279607
C       -4.288729     2.456328     1.382572
N        0.000000     0.000000     2.000000
C       -0.000000    -0.000000     3.269874
S        0.018113     0.020592     4.858375
H        2.938490     1.188778    -4.410192
H        1.941604     2.615885    -4.822395
H        1.647003     1.712129    -3.287257
H        1.787261     1.461595    -7.014078
H        0.179679     0.094328    -8.310186
H       -1.510765    -1.315866    -7.163999
H       -2.390193    -2.248078    -5.254610
H       -1.368766    -2.231638    -3.805424
H       -2.595582    -0.907260    -4.037561
H        5.202282     0.660675    -2.183823
H        5.087251     2.235853    -1.364471
H        3.657893     1.099772    -1.365576
H        7.265293     1.080976    -0.478643
H        8.157951     0.101144     1.630182
H        6.637037    -0.914747     3.234606
H        4.387770    -0.979834     4.052088
H        2.910970    -0.887278     2.923513
H        4.041208    -2.258483     2.892736
H       -4.874271    -2.866202    -0.543766
H       -4.579523    -3.223389     1.174168
H       -3.342795    -2.288261     0.209916
H       -6.964732    -2.150741     1.024159
H       -8.142492    -0.065073     1.707476
H       -6.910625     2.026947     1.866670
H       -4.760734     3.030395     2.187265
H       -3.211041     2.339183     1.423155
H       -4.531370     3.011880     0.441930
61
ex_0153 frame19 see-saw C-C-ax
C       -1.986636     1.646192     4.407827
C       -0.985971     0.807345     5.157165
C       -1.013128     0.811753     6.560315
C       -0.085306     0.066521     7.290296
C        0.868907    -0.706756     6.630363
C        0.905844    -0.745737     5.230366
C        1.947871    -1.611572     4.565945
C       -0.025202     0.019394     4.488736
N        0.020175    -0.016275     3.079100
C        0.000000     0.000000     1.950000
Cu       0.000000     0.000000     0.000000
C        0.000000     0.000000    -1.950000
N       -0.000784     0.021640    -3.084802
C        0.009271    -0.029351    -4.495100
C       -0.335955     1.128860    -5.223707
C       -0.713552     2.398713    -4.506363
C       -0.325878     1.092202    -6.625319
C        0.007951    -0.085081    -7.295319
C        0.340178    -1.234690    -6.574939
C        0.356987    -1.216362    -5.171728
C        0.746357    -2.466479    -4.429450
C       -1.912132     0.000000     0.382426
N       -3.048851     0.015236     0.582586
C       -4.421968    -0.010729     0.904973
C       -5.338720     0.651553     0.055382
C       -4.898633     1.374849    -1.194051
C       -6.702910     0.642848     0.373604
C       -7.158217    -0.020354     1.512246
C       -6.256888    -0.682788     2.347020
C       -4.883927    -0.684959     2.056983
C       -3.953241    -1.410775     2.991942
N        1.611689    -1.161167     0.114931
C        2.666781    -0.603040     0.527625
S        3.845111     0.026011     0.978610
H       -2.991520     1.185471     4.487908
H       -2.021715     2.668354     4.840010
H       -1.730217     1.751374     3.334132
H       -1.742728     1.410495     7.090989
H       -0.103685     0.088999     8.372173
H        1.580474    -1.281936     7.211091
H        2.962901    -1.268128     4.855840
H        1.885660    -1.593690     3.459249
H        1.816975    -2.665020     4.892603
H        0.122296     2.731762    -3.855627
H       -1.610680     2.214811    -3.877062
H       -0.951345     3.219227    -5.216203
H       -0.584686     1.972709    -7.200822
H        0.010158    -0.105445    -8.377362
H        0.602076    -2.137334    -7.112638
H        0.953048    -2.272433    -3.357098
H        1.672107    -2.894720    -4.868423
H       -0.072941    -3.210523    -4.503334
H       -5.420347     0.946737    -2.075922
H       -5.153227     2.452102    -1.111576
H       -3.808364     1.296376    -1.380962
H       -7.415188     1.150834    -0.265659
H       -8.214528    -0.021329     1.747426
H       -6.629853    -1.192952     3.226436
H       -4.044458    -0.984365     4.012322
H       -4.227292    -2.485919     3.026811
H       -2.890998    -1.337244     2.684217
61
ex_0153 frame20 see-saw C-C-ax-conf2
C       -2.429969    -0.509711     4.691764
C       -1.087454    -0.250591     5.299274
C       -1.013253    -0.239856     6.698112
C        0.197855    -0.010454     7.338737
C        1.354156     0.199433     6.589064
C        1.309101     0.184029     5.182272
C        2.571678     0.387310     4.398087
C        0.077024    -0.025165     4.524241
N       -0.003916    -0.011582     3.103447
C        0.000000     0.000000     1.950000
Cu       0.000000     0.000000     0.000000
C        0.000000     0.000000    -1.950000
N        0.008586     0.026075    -3.108517
C       -0.050161    -0.012342    -4.518114
C        0.776435     0.861748    -5.258697
C        1.710875     1.814350    -4.557517
C        0.725029     0.840804    -6.659582
C       -0.133906    -0.038429    -7.318281
C       -0.949380    -0.905082    -6.587332
C       -0.916387    -0.903593    -5.184246
C       -1.809922    -1.856735    -4.436923
C       -1.912132     0.000000     0.382426
N       -3.024141     0.010671     0.603605
C       -4.429606     0.007557     0.811756
C       -5.273182    -0.749720    -0.035812
C       -4.711422    -1.520400    -1.193497
C       -6.658474    -0.776384     0.216018
C       -7.201075    -0.059588     1.282943
C       -6.375575     0.703999     2.100560
C       -4.996679     0.763928     1.860187
C       -4.181721     1.653235     2.756295
N        1.626890     1.157620     0.098069
C        2.690977     0.588386     0.450907
S        3.876266    -0.089715     0.822582
H       -2.783039    -1.521635     4.977876
H       -3.134750     0.227558     5.115814
H       -2.424241    -0.444488     3.585796
H       -1.903718    -0.410214     7.293419
H        0.237894    -0.005211     8.420593
H        2.287880     0.359338     7.112311
H        3.445442     0.540703     5.066977
H        2.761095    -0.521028     3.787750
H        2.475244     1.268197     3.731707
H        2.449790     1.242204    -3.957179
H        1.134273     2.481113    -3.882029
H        2.268487     2.450780    -5.277614
H        1.350572     1.505238    -7.243581
H       -0.166610    -0.047854    -8.399951
H       -1.609694    -1.580309    -7.116692
H       -1.672783    -1.801851    -3.338173
H       -2.870452    -1.619181    -4.661579
H       -1.593126    -2.898104    -4.753983
H       -4.144116    -0.822172    -1.845825
H       -5.518227    -1.976408    -1.805206
H       -4.034891    -2.322062    -0.835798
H       -7.324409    -1.342346    -0.421306
H       -8.267583    -0.079744     1.467005
H       -6.814901     1.275216     2.911801
H       -4.553385     2.695048     2.662475
H       -3.101378     1.653679     2.505227
H       -4.327123     1.356020     3.806286
61
ex_0153 frame21 see-saw C-C-ax-conf3
C       -2.562068     0.176531     4.427987
C       -1.253019     0.092649     5.167167
C       -1.261140     0.085834     6.570228
C       -0.062752     0.032753     7.286375
C        1.157326    -0.027970     6.612278
C        1.189077    -0.050212     5.211021
C        2.508477    -0.149388     4.489987
C       -0.020559     0.018617     4.487271
N        0.024615     0.012091     3.077963
C        0.000000     0.000000     1.950000
Cu       0.000000     0.000000     0.000000
C        0.000000     0.000000    -1.950000
N       -0.006854    -0.021526    -3.109608
C        0.027093    -0.015178    -4.519790
C       -0.968901    -0.705053    -5.241184
C       -2.066760    -1.439995    -4.517726
C       -0.930019    -0.702126    -6.643231
C        0.077682    -0.010567    -7.317966
C        1.062629     0.674416    -6.602318
C        1.047220     0.676443    -5.198848
C        2.109523     1.409899    -4.427294
C       -1.912132     0.000000     0.382426
N       -3.055452    -0.010160     0.596074
C       -4.435728     0.028934     0.876264
C       -5.035164     1.222816     1.327628
C       -4.231729     2.482630     1.514108
C       -6.409734     1.236227     1.608756
C       -7.179262     0.084504     1.431678
C       -6.586393    -1.093793     0.977110
C       -5.213083    -1.137650     0.704196
C       -4.612494    -2.438778     0.233479
N        1.657935     1.120003     0.112043
C        2.714608     0.515835     0.464182
S        3.874949    -0.151484     0.915156
H       -3.179763     1.002821     4.837450
H       -3.108955    -0.782255     4.538825
H       -2.424075     0.376796     3.347319
H       -2.198051     0.133339     7.110693
H       -0.078763     0.035417     8.368379
H        2.075922    -0.078445     7.184310
H        2.627443     0.694562     3.778805
H        2.541205    -1.105766     3.924748
H        3.367309    -0.135631     5.194143
H       -2.735020    -1.979507    -5.221967
H       -1.632267    -2.181874    -3.814699
H       -2.679847    -0.713642    -3.942737
H       -1.687322    -1.223701    -7.215572
H        0.093058    -0.003147    -8.399961
H        1.833725     1.206746    -7.144564
H        1.634983     2.182095    -3.785054
H        2.665424     0.695973    -3.783174
H        2.834274     1.912375    -5.101544
H       -3.945081     2.576374     2.582165
H       -3.310970     2.481249     0.894658
H       -4.823010     3.372673     1.212440
H       -6.887318     2.141132     1.963607
H       -8.238996     0.103065     1.649791
H       -7.195167    -1.980782     0.850334
H       -5.067657    -2.736405    -0.733824
H       -3.514195    -2.382328     0.090536
H       -4.810816    -3.230444     0.986447
61
ex_0153 frame22 see-saw C-C-ax-conf4
C        1.434299     2.138538     4.426027
C        0.693260     1.063342     5.175695
C        0.690563     1.094936     6.578180
C        0.017068     0.113925     7.309033
C       -0.661293    -0.911188     6.650200
C       -0.675509    -0.966263     5.250715
C       -1.422559    -2.095989     4.583278
C        0.002787     0.029979     4.510329
N       -0.022602    -0.026761     3.103306
C        0.000000     0.000000     1.950000
Cu       0.000000     0.000000     0.000000
C        0.000000     0.000000    -1.950000
N        0.004127    -0.033642    -3.094612
C       -0.019440     0.018845    -4.502152
C        0.422226    -1.106538    -5.232296
C        0.918342    -2.345214    -4.528236
C        0.399032    -1.071462    -6.632740
C       -0.040249     0.071950    -7.300349
C       -0.475361     1.185636    -6.578032
C       -0.473434     1.170951    -5.175236
C       -0.957423     2.388972    -4.434073
C       -1.912132     0.000000     0.382426
N       -3.046054     0.003622     0.597345
C       -4.429062     0.041531     0.872666
C       -4.981257     1.117635     1.595571
C       -4.101287     2.229965     2.096363
C       -6.363313     1.140059     1.843458
C       -7.180388     0.105471     1.380550
C       -6.629686    -0.961234     0.668413
C       -5.251245    -1.006732     0.417242
C       -4.658014    -2.169254    -0.334103
N        1.677373    -1.085095     0.031168
C        2.710287    -0.522881     0.459672
S        3.897674     0.155245     0.883257
H        1.407152     1.993905     3.327148
H        2.499279     2.146553     4.738039
H        0.978543     3.124870     4.651676
H        1.211280     1.883419     7.106639
H        0.020347     0.147301     8.390547
H       -1.179429    -1.665315     7.230811
H       -1.349398    -2.071907     3.476894
H       -1.014265    -3.070499     4.925126
H       -2.498204    -2.041487     4.852682
H        1.977401    -2.196498    -4.227893
H        0.314146    -2.562351    -3.622085
H        0.856114    -3.236811    -5.187523
H        0.740572    -1.923603    -7.208006
H       -0.041456     0.094842    -8.382048
H       -0.816145     2.062842    -7.113207
H       -2.010850     2.597759    -4.715047
H       -0.327337     3.262646    -4.699731
H       -0.921051     2.264974    -3.332896
H       -3.554380     2.686757     1.244400
H       -3.365708     1.823977     2.823123
H       -4.691149     3.025361     2.599259
H       -6.811148     1.956674     2.395635
H       -8.244245     0.127030     1.577497
H       -7.276970    -1.758002     0.323330
H       -4.060728    -1.806325    -1.197025
H       -5.442149    -2.854652    -0.718386
H       -3.994583    -2.744716     0.346613
61
ex_0153 frame23 see-saw C-C-ax-conf5
C        2.416790    -0.787768     4.504117
C        1.151705    -0.380411     5.217205
C        1.124477    -0.371087     6.617874
C       -0.036069     0.005413     7.299348
C       -1.187388     0.363201     6.589546
C       -1.180621     0.356794     5.188667
C       -2.406891     0.733794     4.405056
C        0.038094    -0.024082     4.509495
N        0.002121    -0.003939     3.104839
C        0.000000     0.000000     1.950000
Cu       0.000000     0.000000     0.000000
C        0.000000     0.000000    -1.950000
N        0.011355    -0.009722    -3.104391
C       -0.007799    -0.027436    -4.509195
C        0.527566     1.099943    -5.213624
C        1.114135     2.292641    -4.493959
C        0.503316     1.089761    -6.616187
C       -0.030982    -0.005825    -7.301933
C       -0.546613    -1.094895    -6.596868
C       -0.536533    -1.104748    -5.197420
C       -1.100051    -2.285318    -4.453723
C       -1.912132     0.000000     0.382426
N       -3.047656    -0.001591     0.595540
C       -4.430122     0.020447     0.872047
C       -5.034283     1.142179     1.472816
C       -4.241283     2.359460     1.841551
C       -6.412875     1.116387     1.731234
C       -7.178861    -0.007248     1.411403
C       -6.581381    -1.116136     0.814635
C       -5.207363    -1.109105     0.535836
C       -4.590919    -2.323511    -0.123529
N        1.801170    -0.832845     0.250718
C        2.907914    -0.246062     0.483367
S        4.176217     0.341312     0.743428
H        3.269066    -0.161746     4.843349
H        2.636291    -1.855440     4.718689
H        2.346614    -0.678579     3.402973
H        2.008471    -0.649202     7.181393
H       -0.045804     0.019723     8.380905
H       -2.078370     0.649873     7.130033
H       -3.264316     0.977408     5.061700
H       -2.170446     1.620008     3.781461
H       -2.698458    -0.107907     3.739904
H        2.049341     2.630763    -4.987009
H        1.365732     2.062102    -3.438013
H        0.370745     3.116753    -4.504604
H        0.896114     1.926469    -7.178727
H       -0.048918    -0.010671    -8.383307
H       -0.965295    -1.934277    -7.139728
H       -2.203334    -2.174043    -4.395643
H       -0.851273    -3.236842    -4.966386
H       -0.705138    -2.364752    -3.418758
H       -3.152561     2.221433     1.681017
H       -4.572575     3.216191     1.222761
H       -4.400908     2.588367     2.915296
H       -6.890647     1.966091     2.199268
H       -8.238704    -0.018633     1.628345
H       -7.190888    -1.979767     0.568673
H       -4.601315    -2.194423    -1.227148
H       -5.154343    -3.249030     0.128568
H       -3.544265    -2.482892     0.209131
61
ex_0153 frame24 see-saw C-C-ax-conf6
C       -1.955053    -1.596610     4.353451
C       -0.961317    -0.800124     5.121633
C       -1.035083    -0.874862     6.513278
C       -0.105731    -0.129972     7.229301
C        0.844375     0.645922     6.628289
C        0.882012     0.691296     5.249334
C        1.900647     1.523749     4.554175
C       -0.006490    -0.020233     4.506439
N        0.000000     0.000000     3.118097
C        0.000000     0.000000     1.950000
Cu       0.000000     0.000000     0.000000
C        0.000000     0.000000    -1.950000
N       -0.000000     0.000000    -3.098999
C        0.023982    -0.000482    -4.483583
C        0.299796     1.183407    -5.142563
C        0.570056     2.451510    -4.403314
C        0.320684     1.170448    -6.507725
C        0.074970     0.012720    -7.240719
C       -0.197058    -1.152561    -6.561042
C       -0.226711    -1.177310    -5.177526
C       -0.524101    -2.454326    -4.476589
C       -1.912132     0.000000     0.382426
N       -3.038819     0.000000     0.607764
C       -4.392176    -0.009270     0.900997
C       -5.082918    -1.203440     0.807436
C       -4.410269    -2.472362     0.401241
C       -6.416795    -1.200050     1.099040
C       -7.087676    -0.041989     1.482188
C       -6.377437     1.133635     1.567696
C       -5.024141     1.168272     1.279607
C       -4.288729     2.456328     1.382572
N        1.961161     0.000000     0.392232
C        3.206376     0.000000     0.641275
S        4.766969     0.022962     0.938102
H       -1.723573    -2.660304     4.410192
H       -2.936151    -1.411276     4.822395
H       -1.992966    -1.293094     3.287257
H       -1.773515    -1.478245     7.014078
H       -0.126638    -0.158572     8.310186
H        1.578077     1.234337     7.163999
H        2.659918     1.921384     5.254610
H        2.450407     0.921539     3.805424
H        1.382228     2.376891     4.037561
H       -0.200951     3.223700    -4.672974
H        1.536821     2.844741    -4.720865
H        0.515384     2.274375    -3.319048
H        0.540261     2.112955    -7.030336
H        0.097161     0.028140    -8.319234
H       -0.386345    -2.045729    -7.142509
H       -0.119721    -3.261258    -5.097242
H       -0.247030    -2.448913    -3.427789
H       -1.635943    -2.569520    -4.530043
H       -4.874271    -2.866202    -0.543766
H       -4.579523    -3.223389     1.174168
H       -3.342795    -2.288261     0.209916
H       -6.964732    -2.150741     1.024159
H       -8.142492    -0.065073     1.707476
H       -6.910625     2.026947     1.866670
H       -4.760734     3.030395     2.187265
H       -3.211041     2.339183     1.423155
H       -4.531370     3.011880     0.441930
61
ex_0153 frame25 Isomer 1
C       -2.745875     3.952804     1.233157
C       -1.465648     4.177591     1.978793
C       -1.131503     5.453643     2.438407
C        0.062324     5.660032     3.133156
C        0.931902     4.593531     3.371737
C        0.604598     3.307649     2.927965
C        1.545850     2.173373     3.220916
C       -0.595729     3.111892     2.219961
N       -0.931514     1.838202     1.747394
C       -1.240168     0.828337     1.346837
Cu      -1.783881    -0.914740     0.619303
C       -0.551911    -2.341925     1.199891
N        0.171668    -3.149829     1.534508
C        1.036011    -4.151614     1.984659
C        2.074648    -4.599522     1.153504
C        2.254900    -3.999915    -0.210939
C        2.932927    -5.605905     1.612864
C        2.747217    -6.151786     2.886765
C        1.711138    -5.691263     3.708038
C        0.848228    -4.689285     3.256924
C       -0.270937    -4.190807     4.124493
C       -1.854305    -0.883001    -1.328219
N       -1.876569    -0.858773    -2.482058
C       -1.960373    -0.859721    -3.871009
C       -0.964253    -0.208471    -4.619492
C        0.202313     0.477359    -3.949290
C       -1.065965    -0.201858    -6.014471
C       -2.130690    -0.856539    -6.642944
C       -3.106784    -1.507863    -5.885952
C       -3.032227    -1.507654    -4.493515
C       -4.100160    -2.200413    -3.694383
N       -3.621288    -1.301465     1.307483
C       -3.829752    -1.256226     2.545427
S       -4.053532    -1.172990     3.934176
H       -3.539364     3.725365     1.972060
H       -3.014043     4.846583     0.637758
H       -2.659912     3.095612     0.530403
H       -1.798694     6.283850     2.255855
H        0.310630     6.647891     3.490260
H        1.851290     4.761829     3.918688
H        2.484556     2.299675     2.642319
H        1.106739     1.185154     2.972146
H        1.775094     2.174267     4.305790
H        2.255282    -2.893357    -0.120583
H        1.417270    -4.308176    -0.874717
H        3.217714    -4.310893    -0.664039
H        3.731519    -5.975418     0.980611
H        3.405568    -6.933532     3.236788
H        1.570917    -6.112496     4.692802
H       -0.541117    -3.140502     3.877062
H        0.014746    -4.214111     5.193071
H       -1.160171    -4.826218     3.941827
H        1.141167     0.225771    -4.483624
H        0.053157     1.577577    -3.950211
H        0.335318     0.149184    -2.896293
H       -0.310345     0.292191    -6.611274
H       -2.203853    -0.864251    -7.719070
H       -3.928957    -2.007236    -6.378690
H       -5.092520    -1.800002    -3.981194
H       -4.054835    -3.289026    -3.895882
H       -3.985564    -2.051230    -2.601110
61
ex_0153 frame26 conf2
C       -4.595460    -1.498519     1.547191
C       -3.960516    -2.471892     2.489086
C       -4.763226    -3.271232     3.286732
C       -4.170183    -4.172023     4.165301
C       -2.778110    -4.283704     4.256192
C       -1.970366    -3.485814     3.455645
C       -0.484978    -3.583967     3.530404
C       -2.575380    -2.593270     2.583687
N       -1.796208    -1.797306     1.781813
C       -1.125833    -1.125833     1.125833
Cu       0.000000     0.000000     0.000000
C       -1.125833     1.125833    -1.125833
N       -1.786544     1.816863    -1.780702
C       -2.590389     2.608426    -2.587821
C       -2.294086     3.958769    -2.791399
C       -1.102925     4.578043    -2.144919
C       -3.129648     4.727392    -3.611324
C       -4.239355     4.125492    -4.214130
C       -4.517678     2.780708    -3.993912
C       -3.687896     2.027850    -3.183381
C       -3.995037     0.600504    -2.967715
C        1.125833    -1.125833    -1.125833
N        1.785055    -1.771665    -1.784563
C        2.585647    -2.582538    -2.579884
C        3.464810    -3.459193    -1.972661
C        3.546754    -3.526583    -0.488268
C        4.261602    -4.267286    -2.775799
C        4.175382    -4.198011    -4.164098
C        3.287120    -3.312148    -4.763708
C        2.488867    -2.498790    -3.967844
C        1.534594    -1.542230    -4.591384
N        1.188336     1.187821     1.086563
C        1.895175     1.894578     1.908240
S        2.723589     2.723145     2.749002
H       -5.320742    -2.013112     0.881203
H       -5.143400    -0.749818     2.140008
H       -3.825096    -0.961164     0.960803
H       -5.843604    -3.200002     3.236551
H       -4.800855    -4.781248     4.776330
H       -2.321241    -4.987704     4.939785
H       -0.225728    -4.146440     4.434923
H       -0.080173    -4.146235     2.662854
H       -0.043658    -2.566078     3.618255
H       -0.180737     4.319050    -2.708162
H       -1.037061     4.289970    -1.072042
H       -1.211485     5.670106    -2.193749
H       -2.908569     5.777595    -3.785879
H       -4.894829     4.685661    -4.853317
H       -5.371490     2.306503    -4.460141
H       -3.121113     0.044881    -2.573590
H       -4.814980     0.543800    -2.226819
H       -4.280524     0.182015    -3.950700
H        3.441815    -2.488788    -0.096393
H        4.537488    -3.937267    -0.223134
H        2.735829    -4.181286    -0.093226
H        4.946548    -4.957596    -2.328294
H        4.802770    -4.837300    -4.760759
H        3.216882    -3.255645    -5.837656
H        1.901189    -1.167110    -5.565664
H        1.453789    -0.664099    -3.923952
H        0.552840    -2.037768    -4.739745
61
ex_0153 frame27 conf4
C       -2.889078    -0.609385     4.047222
C       -3.154047    -2.033430     3.714413
C       -3.966087    -2.799885     4.540904
C       -4.207909    -4.135948     4.237223
C       -3.652249    -4.712782     3.095812
C       -2.835914    -3.945717     2.262607
C       -2.237873    -4.569801     1.051318
C       -2.596354    -2.603882     2.583951
N       -1.789543    -1.817469     1.768072
C       -1.125833    -1.125833     1.125833
Cu       0.000000     0.000000     0.000000
C       -1.125833     1.125833    -1.125833
N       -1.791672     1.807749    -1.760604
C       -2.592628     2.598786    -2.576618
C       -3.431091     3.566087    -2.009216
C       -3.467902     3.753194    -0.519647
C       -4.224779     4.345044    -2.856243
C       -4.168604     4.151136    -4.240818
C       -3.324995     3.183267    -4.787275
C       -2.539898     2.406260    -3.949280
C       -1.648484     1.372984    -4.535775
C        1.125833    -1.125833    -1.125833
N        1.782336    -1.798563    -1.795475
C        2.584299    -2.603624    -2.592703
C        3.349664    -3.596382    -1.995658
C        3.299799    -3.759761    -0.513562
C        4.149232    -4.420393    -2.793250
C        4.183818    -4.228491    -4.176821
C        3.405054    -3.224607    -4.761961
C        2.607269    -2.401561    -3.968247
C        1.787173    -1.315259    -4.591793
N        1.167223     1.141418     1.157956
C        1.881021     1.910272     1.863251
S        2.715777     2.704981     2.686924
H       -2.062810    -0.182507     3.445875
H       -2.592430    -0.567734     5.109418
H       -3.802052    -0.022692     3.831416
H       -4.393634    -2.361302     5.427783
H       -4.827006    -4.715154     4.894724
H       -3.841710    -5.754202     2.869901
H       -1.471469    -3.910927     0.590161
H       -1.778965    -5.531254     1.350881
H       -3.045369    -4.751452     0.319287
H       -4.238339     3.088919    -0.067700
H       -2.464632     3.519813    -0.106282
H       -3.674616     4.806205    -0.251329
H       -4.885079     5.095483    -2.450241
H       -4.780155     4.750930    -4.888493
H       -3.270276     3.018203    -5.856459
H       -0.953485     1.859560    -5.240687
H       -2.281975     0.631778    -5.047446
H       -1.059004     0.839294    -3.769506
H        2.249009    -3.660514    -0.143013
H        3.928564    -2.972624    -0.052042
H        3.719582    -4.739255    -0.243741
H        4.757095    -5.189934    -2.339356
H        4.814808    -4.854254    -4.790954
H        3.428260    -3.061018    -5.826871
H        0.822411    -1.150583    -4.056694
H        1.614553    -1.540246    -5.662172
H        2.371567    -0.379601    -4.522614
61
ex_0153 frame28 conf5
C       -1.385780    -4.599671     1.694133
C       -2.415335    -3.959077     2.576790
C       -3.213445    -4.745168     3.395797
C       -4.178903    -4.147932     4.218946
C       -4.347895    -2.760977     4.223901
C       -3.546463    -1.976551     3.400559
C       -3.672576    -0.495895     3.347693
C       -2.591868    -2.582412     2.595650
N       -1.793149    -1.795419     1.789171
C       -1.125833    -1.125833     1.125833
Cu       0.000000     0.000000     0.000000
C       -1.125833     1.125833    -1.125833
N       -1.781123     1.793717    -1.802124
C       -2.576440     2.595298    -2.582841
C       -2.826109     3.913340    -2.213259
C       -2.247436     4.499255    -0.960112
C       -3.634143     4.688213    -3.039989
C       -4.178779     4.150829    -4.202357
C       -3.918969     2.829801    -4.548445
C       -3.114052     2.047205    -3.737129
C       -2.842065     0.635279    -4.119236
C        1.125833    -1.125833    -1.125833
N        1.800452    -1.781819    -1.796209
C        2.593420    -2.594934    -2.602627
C        2.040473    -3.291342    -3.654365
C        0.598147    -3.208751    -3.971368
C        2.828324    -4.099584    -4.456203
C        4.186523    -4.202065    -4.182396
C        4.760444    -3.502287    -3.122500
C        3.965102    -2.690568    -2.322243
C        4.566801    -1.943497    -1.194716
N        1.124842     1.124149     1.214426
C        1.908113     1.906745     1.886803
S        2.743990     2.741561     2.716440
H       -0.800174    -5.371691     2.242645
H       -1.922336    -5.093704     0.864003
H       -0.712859    -3.834778     1.256160
H       -3.073974    -5.815830     3.389756
H       -4.800774    -4.751946     4.854491
H       -5.091495    -2.292454     4.856686
H       -4.539887    -0.146249     3.929644
H       -2.723346    -0.002300     3.665514
H       -3.844957    -0.226250     2.292183
H       -2.023384     5.579231    -1.104098
H       -1.336080     3.954358    -0.638019
H       -2.987790     4.385764    -0.142743
H       -3.845401     5.709405    -2.786625
H       -4.803134     4.769109    -4.825119
H       -4.340397     2.411393    -5.445438
H       -3.677199     0.014625    -3.744049
H       -2.842301     0.577317    -5.222145
H       -1.869590     0.281380    -3.706076
H        0.029554    -2.807014    -3.111595
H        0.505148    -2.574864    -4.874183
H        0.216931    -4.220088    -4.221420
H        2.374476    -4.651042    -5.280638
H        4.806028    -4.821396    -4.785535
H        5.819686    -3.583663    -2.912976
H        4.906286    -0.957962    -1.554566
H        5.427952    -2.528540    -0.838778
H        3.841536    -1.778926    -0.369362
61
ex_0153 frame29 square-planar trans
C       -4.401028    -1.690520    -1.981727
C       -5.154336    -0.851297    -0.982452
C       -6.556885    -0.882658    -0.999047
C       -7.297112    -0.116746    -0.097995
C       -6.648020     0.688844     0.832310
C       -5.248061     0.737240     0.881056
C       -4.596470     1.620087     1.914602
C       -4.494997    -0.039367    -0.035327
N       -3.079100     0.016756     0.019778
C       -1.950000     0.000000     0.000000
Cu       0.000000     0.000000     0.000000
C        0.000000     1.950000     0.000000
N        0.002533     3.084802    -0.021505
C       -0.017402     4.496578     0.055245
C        0.413938     5.241906    -1.064436
C        0.880370     4.539865    -2.312564
C        0.407392     6.642096    -1.012480
C       -0.016426     7.301002     0.140645
C       -0.446792     6.569584     1.249603
C       -0.456581     5.165329     1.220629
C       -0.937200     4.426081     2.439013
C        0.000000    -1.950000     0.000000
N        0.026137    -3.103899    -0.016111
C       -0.034026    -4.508438     0.018244
C        0.960762    -5.258282    -0.666628
C        2.083457    -4.598220    -1.428851
C        0.913016    -6.659549    -0.643973
C       -0.101741    -7.321334     0.043853
C       -1.079284    -6.591317     0.720362
C       -1.058078    -5.187528     0.715623
C       -2.138352    -4.453897     1.461410
N        2.000000     0.000000     0.000000
C        3.160477    -0.242061     0.416107
S        4.501346    -0.461735     0.791838
H       -4.642140    -2.761482    -1.815586
H       -4.718350    -1.406614    -3.011347
H       -3.307928    -1.563558    -1.915271
H       -7.079224    -1.503698    -1.717959
H       -8.378235    -0.152366    -0.118938
H       -7.235023     1.274716     1.530005
H       -4.915517     2.672274     1.763014
H       -3.488265     1.592643     1.877121
H       -4.908498     1.291150     2.927620
H        0.062821     3.909251    -2.720758
H        1.750876     3.892997    -2.071993
H        1.191330     5.259408    -3.099748
H        0.738859     7.227658    -1.863205
H       -0.012981     8.382980     0.175920
H       -0.774915     7.099306     2.135393
H       -0.928281     3.325957     2.303989
H       -1.979794     4.732671     2.670207
H       -0.287069     4.675030     3.303696
H        3.060420    -4.918047    -1.009521
H        2.034883    -4.899329    -2.496426
H        2.044032    -3.490958    -1.387158
H        1.665235    -7.240364    -1.166493
H       -0.131041    -8.403116     0.051382
H       -1.862131    -7.123799     1.248739
H       -3.128716    -4.727566     1.040919
H       -2.108525    -4.741459     2.533685
H       -2.031551    -3.352287     1.398780
61
ex_0153 frame30 square-planar trans-conf2
C       -4.480522     2.444921    -0.889566
C       -5.206868     1.205854    -0.437393
C       -6.613646     1.205415    -0.429129
C       -7.321571     0.076950    -0.004722
C       -6.637422    -1.064040     0.406716
C       -5.239523    -1.086091     0.392281
C       -4.510113    -2.315609     0.818149
C       -4.517678     0.052207    -0.023388
N       -3.103447     0.001211    -0.012166
C       -1.950000     0.000000     0.000000
Cu       0.000000     0.000000     0.000000
C        0.000000     1.950000     0.000000
N       -0.000328     3.108517     0.027450
C       -0.036972     4.516234    -0.017164
C        0.464542     5.252981     1.079131
C        1.039897     4.550599     2.283211
C        0.424851     6.653945     1.042935
C       -0.099781     7.313647    -0.068782
C       -0.595579     6.583610    -1.151797
C       -0.566372     5.181383    -1.139148
C       -1.102334     4.426736    -2.326542
C        0.000000    -1.950000     0.000000
N        0.009738    -3.083791     0.004526
C        0.074251    -4.501096    -0.016310
C       -0.889747    -5.222213     0.763693
C       -1.918929    -4.499511     1.574304
C       -0.867026    -6.618237     0.766264
C        0.074320    -7.305789     0.004670
C        1.020099    -6.602109    -0.744981
C        1.020684    -5.195526    -0.751818
C        2.053153    -4.456777    -1.560976
N        2.000000     0.000000     0.000000
C        3.254876    -0.058477     0.059558
S        4.661692    -0.060459     0.110579
H       -4.775921     2.701907    -1.927482
H       -4.742743     3.285116    -0.213044
H       -3.378368     2.324492    -0.868119
H       -7.164346     2.084145    -0.738991
H       -8.403534     0.082868     0.009383
H       -7.195287    -1.933189     0.735694
H       -5.191919    -3.111346     1.184548
H       -3.963152    -2.693655    -0.069474
H       -3.795364    -2.067233     1.633321
H        1.947009     3.982064     1.987039
H        0.293864     3.845951     2.707695
H        1.326969     5.268603     3.081402
H        0.806674     7.237108     1.872469
H       -0.119709     8.395246    -0.091209
H       -0.997779     7.112078    -2.006498
H       -0.942900     3.332138    -2.247720
H       -2.193506     4.606755    -2.413318
H       -0.594689     4.771222    -3.251046
H       -1.460139    -3.686940     2.177471
H       -2.474267    -5.176872     2.253570
H       -2.631507    -4.078581     0.859574
H       -1.595052    -7.174060     1.343662
H        0.067938    -8.387659     0.001183
H        1.746604    -7.158509    -1.324179
H        2.959649    -5.082468    -1.705892
H        2.376422    -3.537334    -1.029021
H        1.631034    -4.179660    -2.550085
61
ex_0153 frame31 square-planar trans-conf3
C       -4.443749    -0.660054    -2.502289
C       -5.171028    -0.315060    -1.231279
C       -6.574722    -0.317692    -1.240097
C       -7.293210     0.001556    -0.086668
C       -6.621402     0.327648     1.090775
C       -5.219680     0.329935     1.127748
C       -4.504002     0.673851     2.407744
C       -4.489903     0.008760    -0.037601
N       -3.077963     0.019271     0.019512
C       -1.950000     0.000000     0.000000
Cu       0.000000     0.000000     0.000000
C        0.000000     1.950000     0.000000
N       -0.019373     3.109608    -0.011620
C        0.022264     4.523659    -0.034439
C       -1.178505     5.247253     0.105779
C       -2.491212     4.530120     0.278123
C       -1.143965     6.651400     0.083742
C        0.067907     7.323540    -0.074365
C        1.257692     6.605430    -0.214401
C        1.246426     5.198805    -0.194938
C        2.531113     4.433562    -0.344444
C        0.000000    -1.950000     0.000000
N        0.007656    -3.113017    -0.016169
C       -0.041881    -4.523005     0.003260
C       -1.167281    -5.200677     0.519054
C       -2.365449    -4.456251     1.053436
C       -1.180193    -6.602206     0.539007
C       -0.099513    -7.327880     0.036178
C        1.010396    -6.663575    -0.485314
C        1.056739    -5.266874    -0.503115
C        2.284156    -4.596435    -1.065112
N        2.000000     0.000000     0.000000
C        3.187475     0.410638    -0.001195
S        4.549167     0.775141    -0.002681
H       -4.751387     0.038479    -3.308635
H       -4.700975    -1.697196    -2.803069
H       -3.342418    -0.594950    -2.396872
H       -7.114689    -0.569887    -2.144343
H       -8.375377    -0.005583    -0.104138
H       -7.196192     0.568940     1.976699
H       -3.851644     1.559312     2.253988
H       -3.877835    -0.187963     2.722932
H       -5.215275     0.903069     3.229587
H       -3.340635     5.238807     0.371220
H       -2.680194     3.874155    -0.598745
H       -2.457366     3.904730     1.195619
H       -2.056592     7.226016     0.191467
H        0.085909     8.404783    -0.086995
H        2.187622     7.147277    -0.334620
H        2.692466     3.801404     0.554657
H        2.477682     3.781050    -1.241779
H        3.403157     5.111229    -0.455670
H       -2.390512    -4.559096     2.157581
H       -2.342614    -3.378403     0.798162
H       -3.297272    -4.879917     0.625568
H       -2.032232    -7.135837     0.938176
H       -0.119700    -8.410634     0.051164
H        1.844402    -7.242385    -0.867277
H        2.428462    -4.898684    -2.124406
H        2.232976    -3.489733    -1.031472
H        3.174341    -4.911138    -0.478514
61
ex_0153 frame32 square-planar trans-conf4
C       -4.432702     1.519406     2.095528
C       -5.177797     0.764943     1.027722
C       -6.580967     0.794645     1.039741
C       -7.314609     0.110122     0.069455
C       -6.658671    -0.616856    -0.922544
C       -5.259177    -0.664714    -0.958767
C       -4.599792    -1.467537    -2.053566
C       -4.512642     0.033155     0.020416
N       -3.103306    -0.017176    -0.030528
C       -1.950000     0.000000     0.000000
Cu       0.000000     0.000000     0.000000
C        0.000000     1.950000     0.000000
N        0.033859     3.094612    -0.001543
C       -0.031200     4.504623    -0.022483
C        1.151588     5.241298     0.212636
C        2.455901     4.539369     0.495565
C        1.111613     6.641943     0.182424
C       -0.091255     7.305939    -0.054156
C       -1.262930     6.580186    -0.278858
C       -1.246706     5.176523    -0.272062
C       -2.532236     4.438057    -0.532418
C        0.000000    -1.950000     0.000000
N       -0.004623    -3.104051    -0.011275
C       -0.056324    -4.516428    -0.002180
C       -1.077589    -5.195201     0.688507
C       -2.130970    -4.433152     1.443182
C       -1.102748    -6.599532     0.665412
C       -0.128247    -7.313679    -0.034943
C        0.886678    -6.638124    -0.712967
C        0.934557    -5.237081    -0.698644
C        2.038501    -4.514071    -1.423594
N        2.000000     0.000000     0.000000
C        3.257170     0.041409     0.002964
S        4.665619    -0.023656    -0.000178
H       -3.332800     1.417130     2.005683
H       -4.730378     1.140868     3.095829
H       -4.683091     2.598599     2.025359
H       -7.108699     1.354772     1.801488
H       -8.396214     0.143132     0.084911
H       -7.241956    -1.142342    -1.669550
H       -3.492692    -1.459447    -1.992453
H       -4.932431    -2.525373    -1.995862
H       -4.887929    -1.052746    -3.042445
H        2.414565     4.081205     1.506823
H        2.643080     3.742580    -0.254852
H        3.314730     5.243463     0.466549
H        2.009220     7.221574     0.361678
H       -0.114623     8.387859    -0.061398
H       -2.186097     7.114517    -0.464780
H       -2.915839     4.716562    -1.536634
H       -3.285840     4.713921     0.233982
H       -2.407343     3.336815    -0.510124
H       -2.669821    -3.757251     0.746373
H       -1.655603    -3.829190     2.244533
H       -2.871282    -5.116085     1.911550
H       -1.880431    -7.145610     1.183303
H       -0.158304    -8.395682    -0.053160
H        1.634761    -7.209391    -1.249004
H        1.605702    -3.817032    -2.171900
H        2.714787    -5.218013    -1.953440
H        2.643910    -3.932527    -0.695346
61
ex_0153 frame33 square-planar trans-conf5
C       -4.500737    -1.469560    -2.062528
C       -5.213814    -0.688766    -0.975864
C       -6.614258    -0.677795    -0.958517
C       -7.295447     0.029317     0.035705
C       -6.585376     0.741532     1.010185
C       -5.183339     0.747025     1.004369
C       -4.393736     1.505736     2.029263
C       -4.506365     0.025504     0.016067
N       -3.104839     0.000637    -0.004428
C       -1.950000     0.000000     0.000000
Cu       0.000000     0.000000     0.000000
C        0.000000     1.950000     0.000000
N        0.003738     3.104391    -0.014473
C        0.026519     4.507550     0.012654
C        1.075439     5.214964     0.607037
C        2.227760     4.493846     1.239857
C        1.034924     6.616622     0.603304
C       -0.033010     7.300499     0.012296
C       -1.079929     6.593256    -0.581319
C       -1.061501     5.191548    -0.587946
C       -2.211464     4.450091    -1.240439
C        0.000000    -1.950000     0.000000
N        0.004715    -3.105267    -0.012982
C       -0.010220    -4.513762    -0.014766
C       -1.202882    -5.218916     0.188624
C       -2.504573    -4.510748     0.422408
C       -1.181383    -6.619255     0.173673
C        0.012051    -7.312759    -0.022252
C        1.207021    -6.615819    -0.220733
C        1.209248    -5.211754    -0.227062
C        2.511580    -4.476641    -0.460042
N        2.000000     0.000000     0.000000
C        3.256452    -0.022754    -0.031952
S        4.665748     0.027206     0.010749
H       -4.841002    -2.526668    -2.068919
H       -4.715073    -1.013403    -3.052301
H       -3.398477    -1.482853    -1.936284
H       -7.175473    -1.223406    -1.709420
H       -8.376745     0.026861     0.050253
H       -7.127349     1.285882     1.770754
H       -5.051162     2.047243     2.736461
H       -3.753063     0.799361     2.600593
H       -3.737967     2.242596     1.515552
H        3.185490     4.986295     0.980528
H        2.299615     3.436787     0.905527
H        2.086440     4.503221     2.339299
H        1.835987     7.179011     1.061995
H       -0.049498     8.382047     0.016265
H       -1.903882     7.137184    -1.031689
H       -3.055008     4.392017    -0.520356
H       -2.555542     4.964112    -2.164181
H       -1.935598     3.416319    -1.534122
H       -2.389869    -3.413224     0.542624
H       -3.192992    -4.690530    -0.430529
H       -2.977472    -4.893531     1.352939
H       -2.101110    -7.174815     0.333684
H        0.011608    -8.395203    -0.016462
H        2.120238    -7.170829    -0.375487
H        2.621657    -4.272655    -1.545207
H        3.371429    -5.081139    -0.108110
H        2.529819    -3.516325     0.094326
61
ex_0153 frame34 see-saw C-N-ax
C       -2.579297    -0.341668    -4.406666
C       -1.285301    -0.159038    -5.153311
C       -1.317799    -0.148664    -6.556745
C       -0.143109     0.006565    -7.293943
C        1.078885     0.158768    -6.641571
C        1.140735     0.163255    -5.241884
C        2.489021     0.343037    -4.588998
C       -0.048383     0.001362    -4.490125
N        0.025700     0.003378    -3.079100
C        0.000000     0.000000    -1.950000
Cu       0.000000     0.000000     0.000000
C        1.912132     0.000000     0.382426
N        3.028717     0.009464     0.585881
C        4.401321    -0.013892     0.926016
C        5.355041     0.227929    -0.087363
C        4.915433     0.505701    -1.501042
C        6.721506     0.208883     0.226886
C        7.139938    -0.055803     1.530086
C        6.200722    -0.295396     2.534304
C        4.826674    -0.272702     2.247977
C        3.857278    -0.526809     3.369096
C       -1.912132     0.000000     0.382426
N       -3.048851     0.015236     0.582586
C       -4.422737    -0.013135     0.912346
C       -5.348011     0.638694     0.061947
C       -4.920119     1.360687    -1.191787
C       -6.711964     0.621251     0.382755
C       -7.160055    -0.032982     1.528719
C       -6.252208    -0.680601     2.367071
C       -4.879831    -0.679200     2.072031
C       -3.946150    -1.393269     3.011534
N        0.000000     0.000000     2.000000
C       -0.029348    -0.052840     3.269450
S       -0.039718    -0.044592     4.654960
H       -3.252021     0.514850    -4.620691
H       -3.070791    -1.280574    -4.738191
H       -2.436763    -0.403447    -3.309324
H       -2.257333    -0.265386    -7.082427
H       -0.178874     0.009894    -8.375701
H        1.981864     0.281131    -7.228210
H        3.171834    -0.475232    -4.900100
H        2.437453     0.341195    -3.482034
H        2.924890     1.314671    -4.904279
H        4.272299     1.410518    -1.529829
H        4.338429    -0.362467    -1.884311
H        5.780367     0.671454    -2.177894
H        7.465433     0.389614    -0.539507
H        8.196925    -0.076041     1.762120
H        6.545725    -0.498648     3.540580
H        2.802865    -0.441587     3.044859
H        4.025129     0.212423     4.180675
H        4.014999    -1.549191     3.771101
H       -5.423941     0.910619    -2.073028
H       -5.207973     2.430724    -1.119732
H       -3.826585     1.314597    -1.368444
H       -7.429762     1.119921    -0.257826
H       -8.215735    -0.037421     1.767541
H       -6.620232    -1.183459     3.252894
H       -4.023582    -0.941991     4.022982
H       -4.229373    -2.465257     3.071327
H       -2.887381    -1.336164     2.690223
61
ex_0153 frame35 see-saw C-N-ax-conf2
C       -2.282002     1.126725    -4.503417
C       -1.082300     0.534575    -5.215878
C       -1.075725     0.526291    -6.616985
C        0.010464    -0.018982    -7.308310
C        1.091999    -0.549643    -6.607348
C        1.108699    -0.546711    -5.202969
C        2.275487    -1.115840    -4.452507
C        0.017850    -0.004429    -4.509517
N        0.000123     0.012226    -3.103447
C        0.000000     0.000000    -1.950000
Cu       0.000000     0.000000     0.000000
C        1.912132     0.000000     0.382426
N        3.045555     0.024051     0.622609
C        4.437082     0.001856     0.843921
C        4.968186     0.708845     1.945738
C        4.064091     1.472470     2.880607
C        6.352275     0.697700     2.168857
C        7.196445    -0.010239     1.313030
C        6.669958    -0.709765     0.224397
C        5.288540    -0.714119    -0.019632
C        4.756558    -1.484927    -1.198783
C       -1.912132     0.000000     0.382426
N       -3.024141     0.010671     0.603605
C       -4.417982     0.002257     0.844008
C       -5.287410    -0.677458    -0.020893
C       -4.753191    -1.411712    -1.219885
C       -6.665712    -0.663747     0.247312
C       -7.160964     0.011949     1.366203
C       -6.290935     0.689900     2.220792
C       -4.912457     0.691362     1.970538
C       -3.984105     1.425773     2.904606
N        0.000000     0.000000     2.000000
C       -0.153943    -0.001884     3.247451
S       -0.264720    -0.002884     4.652448
H       -2.420101     2.185792    -4.801476
H       -3.189798     0.550393    -4.773223
H       -2.186655     1.099175    -3.398554
H       -1.911373     0.930602    -7.170268
H        0.003796    -0.029298    -8.389822
H        1.924172    -0.972942    -7.165943
H        3.033855    -1.557715    -5.138765
H        2.768530    -0.319788    -3.854566
H        1.925724    -1.916795    -3.765689
H        3.373092     0.768995     3.392141
H        3.466798     2.215853     2.311506
H        4.640940     2.017744     3.658329
H        6.778817     1.232586     3.009042
H        8.262869    -0.017908     1.496203
H        7.340060    -1.254429    -0.428300
H        3.648684    -1.485508    -1.247846
H        5.138949    -1.032075    -2.136573
H        5.088664    -2.541859    -1.136895
H       -4.128753    -0.728250    -1.835401
H       -5.572725    -1.801807    -1.859498
H       -4.129383    -2.265230    -0.881998
H       -7.358186    -1.181610    -0.403799
H       -8.222711     0.007304     1.574497
H       -6.690134     1.205360     3.085880
H       -4.526121     2.212348     3.470908
H       -3.173258     1.933910     2.340157
H       -3.530299     0.709679     3.621105
61
ex_0153 frame36 see-saw C-N-ax-conf3
C       -1.782840     1.871066    -4.442401
C       -0.880394     0.912369    -5.171000
C       -0.884732     0.920225    -6.574603
C       -0.071301     0.041677    -7.292570
C        0.759093    -0.854358    -6.620274
C        0.790729    -0.873622    -5.218557
C        1.702724    -1.835233    -4.502200
C       -0.034186     0.010920    -4.489743
N        0.006452    -0.026654    -3.077963
C        0.000000     0.000000    -1.950000
Cu       0.000000     0.000000     0.000000
C        1.912132     0.000000     0.382426
N        3.052955     0.012161     0.591176
C        4.438405    -0.033251     0.866627
C        5.232629     1.103497     0.606769
C        4.614210     2.355229     0.043516
C        6.608508     1.061899     0.877048
C        7.188118    -0.093367     1.402439
C        6.403389    -1.219230     1.660120
C        5.024218    -1.200143     1.395680
C        4.184877    -2.415256     1.675910
C       -1.912132     0.000000     0.382426
N       -3.055452    -0.010160     0.596074
C       -4.439013     0.034588     0.878391
C       -5.038826     1.231142     1.329827
C       -4.242828     2.493787     1.515927
C       -6.413259     1.245439     1.612964
C       -7.186013     0.096762     1.436180
C       -6.597006    -1.082862     0.983027
C       -5.224210    -1.129399     0.706756
C       -4.634392    -2.434600     0.232212
N        0.000000     0.000000     2.000000
C        0.017862    -0.009103     3.257367
S       -0.013323    -0.026709     4.665986
H       -2.833406     1.713714    -4.765179
H       -1.481483     2.912369    -4.680995
H       -1.743908     1.744004    -3.341968
H       -1.521342     1.609935    -7.114742
H       -0.082207     0.056404    -8.374713
H        1.386616    -1.525072    -7.194612
H        1.111888    -2.504426    -3.841956
H        2.426952    -1.263151    -3.883692
H        2.278191    -2.465867    -5.212875
H        5.370274     3.153605    -0.113727
H        4.135390     2.132423    -0.933493
H        3.844142     2.738738     0.745921
H        7.233702     1.925437     0.685423
H        8.249749    -0.115048     1.612107
H        6.873573    -2.104133     2.070189
H        3.392244    -2.157031     2.409814
H        3.710505    -2.768734     0.736379
H        4.792478    -3.244786     2.095588
H       -4.028824     2.628671     2.596048
H       -3.283493     2.469756     0.959410
H       -4.815405     3.369627     1.145740
H       -6.888843     2.151885     1.964873
H       -8.246064     0.120218     1.652844
H       -7.210530    -1.966619     0.854839
H       -5.121612    -2.746388    -0.715995
H       -3.542149    -2.375805     0.050006
H       -4.806798    -3.216915     1.001369
61
ex_0153 frame37 see-saw C-N-ax-conf4
C       -2.338687     1.097807    -4.432051
C       -1.147981     0.557326    -5.177879
C       -1.163295     0.584869    -6.580787
C       -0.081280     0.092652    -7.312805
C        1.028360    -0.436658    -6.655262
C        1.071114    -0.476404    -5.255689
C        2.295369    -1.060372    -4.592616
C       -0.022555     0.026927    -4.511970
N        0.033156    -0.011299    -3.103306
C        0.000000     0.000000    -1.950000
Cu       0.000000     0.000000     0.000000
C        1.912132     0.000000     0.382426
N        3.040122     0.018215     0.578875
C        4.410826     0.004177     0.913937
C        5.353821     0.384611    -0.067053
C        4.912738     0.786504    -1.452356
C        6.718621     0.388556     0.251780
C        7.145849    -0.002492     1.520327
C        6.215681    -0.384072     2.489236
C        4.842448    -0.380769     2.200952
C        3.877046    -0.789815     3.280264
C       -1.912132     0.000000     0.382426
N       -3.046054     0.003622     0.597345
C       -4.430822     0.047176     0.874949
C       -4.992291     1.116661     1.596376
C       -4.116724     2.228631     2.099214
C       -6.377161     1.128271     1.837803
C       -7.188568     0.093839     1.364435
C       -6.629175    -0.971660     0.659151
C       -5.250051    -1.006417     0.413782
C       -4.656629    -2.169558    -0.340499
N        0.000000     0.000000     2.000000
C        0.028159    -0.000137     3.247619
S        0.074477     0.023045     4.671135
H       -2.235760     1.004911    -3.332255
H       -3.252229     0.545056    -4.735330
H       -2.466352     2.173493    -4.674271
H       -2.015695     0.993041    -7.109216
H       -0.101597     0.121515    -8.394379
H        1.860729    -0.814467    -7.237249
H        2.229452    -1.067172    -3.485644
H        2.439413    -2.109324    -4.927435
H        3.189988    -0.466285    -4.874475
H        4.633872    -0.122648    -2.026952
H        4.037303     1.468081    -1.408030
H        5.722423     1.314419    -1.999700
H        7.455000     0.673059    -0.490121
H        8.202808    -0.011811     1.751977
H        6.566409    -0.680817     3.469708
H        3.985899    -0.107732     4.149643
H        4.093182    -1.829241     3.602664
H        2.822135    -0.748496     2.946771
H       -3.593816     2.691414     1.237305
H       -3.364479     1.817213     2.804946
H       -4.711169     3.009116     2.614178
H       -6.831800     1.943236     2.380389
H       -8.256127     0.116872     1.542087
H       -7.274770    -1.768605     0.301007
H       -4.106410    -1.809445    -1.234848
H       -5.436420    -2.882370    -0.690913
H       -3.951657    -2.729927     0.313173
61
ex_0153 frame38 see-saw C-N-ax-conf5
C       -1.034545     2.332714    -4.503783
C       -0.494515     1.107148    -5.214877
C       -0.486103     1.089945    -6.616386
C        0.006969    -0.025704    -7.297688
C        0.486624    -1.132648    -6.588620
C        0.481659    -1.137855    -5.188682
C        0.979879    -2.314096    -4.404805
C       -0.016465     0.015103    -4.509677
N       -0.004135     0.001706    -3.104839
C        0.000000     0.000000    -1.950000
Cu       0.000000     0.000000     0.000000
C        1.912132     0.000000     0.382426
N        3.045503     0.013141     0.601834
C        4.424240    -0.015422     0.866532
C        5.286206    -0.856233     0.140307
C        4.771415    -1.752619    -0.951691
C        6.654257    -0.851229     0.448983
C        7.154922    -0.019563     1.456112
C        6.296146     0.815747     2.172083
C        4.925690     0.823926     1.885376
C        4.013375     1.735183     2.677321
C       -1.912132     0.000000     0.382426
N       -3.047656    -0.001591     0.595540
C       -4.428507     0.028657     0.879608
C       -5.025840     1.147684     1.486778
C       -4.226776     2.362194     1.870068
C       -6.405538     1.132599     1.742925
C       -7.176443     0.014865     1.417474
C       -6.584089    -1.096812     0.818612
C       -5.211667    -1.099510     0.539394
C       -4.596512    -2.310970    -0.120922
N        0.000000     0.000000     2.000000
C       -0.025949     0.020452     3.258127
S        0.009951     0.001076     4.667462
H       -0.493325     3.243383    -4.839041
H       -2.117178     2.448716    -4.730322
H       -0.929762     2.271603    -3.401214
H       -0.856703     1.938591    -7.180988
H        0.019357    -0.036448    -8.379251
H        0.860372    -1.990438    -7.128576
H        1.312406    -3.135934    -5.065848
H        1.830516    -2.002116    -3.762676
H        0.163868    -2.695049    -3.751635
H        5.439026    -1.713435    -1.836939
H        3.755840    -1.461815    -1.292623
H        4.727891    -2.792702    -0.569152
H        7.334963    -1.493415    -0.093922
H        8.212352    -0.025357     1.684856
H        6.696770     1.448999     2.955980
H        3.775937     1.244931     3.645469
H        4.491832     2.719095     2.867898
H        3.057684     1.939610     2.151401
H       -3.136345     2.218680     1.724683
H       -4.547723     3.229440     1.256000
H       -4.392679     2.591763     2.944169
H       -6.882545     1.984239     2.213678
H       -8.236797     0.006386     1.632044
H       -7.194885    -1.955542     0.570819
H       -4.601649    -2.175837    -1.222812
H       -5.163987    -3.231181     0.131595
H       -3.551858    -2.472470     0.218395
61
ex_0153 frame39 see-saw C-C-ax
C       -1.986636     1.646192     4.407827
C       -0.986046     0.807254     5.157164
C       -1.013128     0.811753     6.560315
C       -0.085306     0.066521     7.290296
C        0.868907    -0.706756     6.630363
C        0.905768    -0.745829     5.230367
C        1.947871    -1.611572     4.565945
C       -0.025252     0.019333     4.488736
N        0.020175    -0.016275     3.079100
C        0.000000     0.000000     1.950000
Cu       0.000000     0.000000     0.000000
C        0.000000     0.000000    -1.950000
N       -0.000784     0.021640    -3.084802
C        0.008955    -0.029444    -4.495099
C       -0.336062     1.128828    -5.223707
C       -0.713552     2.398713    -4.506363
C       -0.325878     1.092202    -6.625319
C        0.007951    -0.085081    -7.295319
C        0.340178    -1.234690    -6.574939
C        0.356879    -1.216395    -5.171726
C        0.746357    -2.466479    -4.429450
C       -1.912132     0.000000     0.382426
N       -3.048851     0.015236     0.582586
C       -4.421951    -0.010601     0.905054
C       -5.338714     0.651597     0.055410
C       -4.898633     1.374849    -1.194051
C       -6.702910     0.642848     0.373604
C       -7.158217    -0.020354     1.512246
C       -6.256888    -0.682788     2.347020
C       -4.883921    -0.684915     2.057011
C       -3.953241    -1.410775     2.991942
N        1.611689    -1.161167     0.114931
C        2.666781    -0.603040     0.527625
S        3.845111     0.026011     0.978610
H       -2.991520     1.185471     4.487908
H       -2.021715     2.668354     4.840010
H       -1.730217     1.751374     3.334132
H       -1.742728     1.410495     7.090989
H       -0.103685     0.088999     8.372173
H        1.580474    -1.281936     7.211091
H        2.962901    -1.268128     4.855840
H        1.885660    -1.593690     3.459249
H        1.816975    -2.665020     4.892603
H        0.122296     2.731762    -3.855627
H       -1.610680     2.214811    -3.877062
H       -0.951345     3.219227    -5.216203
H       -0.584686     1.972709    -7.200822
H        0.010158    -0.105445    -8.377362
H        0.602076    -2.137334    -7.112638
H        0.953048    -2.272433    -3.357098
H        1.672107    -2.894720    -4.868423
H       -0.072941    -3.210523    -4.503334
H       -5.420347     0.946737    -2.075922
H       -5.153227     2.452102    -1.111576
H       -3.808364     1.296376    -1.380962
H       -7.415188     1.150834    -0.265659
H       -8.214528    -0.021329     1.747426
H       -6.629853    -1.192952     3.226436
H       -4.044458    -0.984365     4.012322
H       -4.227292    -2.485919     3.026811
H       -2.890998    -1.337244     2.684217
61
ex_0153 frame40 see-saw C-C-ax-conf2
C       -2.429969    -0.509711     4.691764
C       -1.087276    -0.251514     5.299272
C       -1.013253    -0.239856     6.698112
C        0.197855    -0.010454     7.338737
C        1.354156     0.199433     6.589064
C        1.309252     0.183120     5.182278
C        2.571678     0.387310     4.398087
C        0.077134    -0.025773     4.524229
N       -0.003916    -0.011582     3.103447
C        0.000000     0.000000     1.950000
Cu       0.000000     0.000000     0.000000
C        0.000000     0.000000    -1.950000
N        0.008586     0.026075    -3.108517
C       -0.050391    -0.012121    -4.518110
C        0.776357     0.861823    -5.258695
C        1.710875     1.814350    -4.557517
C        0.725029     0.840804    -6.659582
C       -0.133906    -0.038429    -7.318281
C       -0.949380    -0.905082    -6.587332
C       -0.916466    -0.903517    -5.184244
C       -1.809922    -1.856735    -4.436923
C       -1.912132     0.000000     0.382426
N       -3.024141     0.010671     0.603605
C       -4.429808     0.009302     0.810392
C       -5.273275    -0.749117    -0.036259
C       -4.711422    -1.520400    -1.193497
C       -6.658474    -0.776384     0.216018
C       -7.201075    -0.059588     1.282943
C       -6.375575     0.703999     2.100560
C       -4.996790     0.764521     1.859700
C       -4.181721     1.653235     2.756295
N        1.626890     1.157620     0.098069
C        2.690977     0.588386     0.450907
S        3.876266    -0.089715     0.822582
H       -2.783039    -1.521635     4.977876
H       -3.134750     0.227558     5.115814
H       -2.424241    -0.444488     3.585796
H       -1.903718    -0.410214     7.293419
H        0.237894    -0.005211     8.420593
H        2.287880     0.359338     7.112311
H        3.445442     0.540703     5.066977
H        2.761095    -0.521028     3.787750
H        2.475244     1.268197     3.731707
H        2.449790     1.242204    -3.957179
H        1.134273     2.481113    -3.882029
H        2.268487     2.450780    -5.277614
H        1.350572     1.505238    -7.243581
H       -0.166610    -0.047854    -8.399951
H       -1.609694    -1.580309    -7.116692
H       -1.672783    -1.801851    -3.338173
H       -2.870452    -1.619181    -4.661579
H       -1.593126    -2.898104    -4.753983
H       -4.144116    -0.822172    -1.845825
H       -5.518227    -1.976408    -1.805206
H       -4.034891    -2.322062    -0.835798
H       -7.324409    -1.342346    -0.421306
H       -8.267583    -0.079744     1.467005
H       -6.814901     1.275216     2.911801
H       -4.553385     2.695048     2.662475
H       -3.101378     1.653679     2.505227
H       -4.327123     1.356020     3.806286
61
ex_0153 frame41 see-saw C-C-ax-conf3
C       -2.562068     0.176531     4.427987
C       -1.253066     0.091887     5.167163
C       -1.261140     0.085834     6.570228
C       -0.062752     0.032753     7.286375
C        1.157326    -0.027970     6.612278
C        1.189027    -0.050966     5.211032
C        2.508477    -0.149388     4.489987
C       -0.020589     0.018111     4.487272
N        0.024615     0.012091     3.077963
C        0.000000     0.000000     1.950000
Cu       0.000000     0.000000     0.000000
C        0.000000     0.000000    -1.950000
N       -0.006854    -0.021526    -3.109608
C        0.026781    -0.014722    -4.519795
C       -0.969007    -0.704898    -5.241187
C       -2.066760    -1.439995    -4.517726
C       -0.930019    -0.702126    -6.643231
C        0.077682    -0.010567    -7.317966
C        1.062629     0.674416    -6.602318
C        1.047114     0.676598    -5.198849
C        2.109523     1.409899    -4.427294
C       -1.912132     0.000000     0.382426
N       -3.055452    -0.010160     0.596074
C       -4.435548     0.028678     0.877183
C       -5.035101     1.222729     1.327942
C       -4.231729     2.482630     1.514108
C       -6.409734     1.236227     1.608756
C       -7.179262     0.084504     1.431678
C       -6.586393    -1.093793     0.977110
C       -5.213023    -1.137737     0.704514
C       -4.612494    -2.438778     0.233479
N        1.657935     1.120003     0.112043
C        2.714608     0.515835     0.464182
S        3.874949    -0.151484     0.915156
H       -3.179763     1.002821     4.837450
H       -3.108955    -0.782255     4.538825
H       -2.424075     0.376796     3.347319
H       -2.198051     0.133339     7.110693
H       -0.078763     0.035417     8.368379
H        2.075922    -0.078445     7.184310
H        2.627443     0.694562     3.778805
H        2.541205    -1.105766     3.924748
H        3.367309    -0.135631     5.194143
H       -2.735020    -1.979507    -5.221967
H       -1.632267    -2.181874    -3.814699
H       -2.679847    -0.713642    -3.942737
H       -1.687322    -1.223701    -7.215572
H        0.093058    -0.003147    -8.399961
H        1.833725     1.206746    -7.144564
H        1.634983     2.182095    -3.785054
H        2.665424     0.695973    -3.783174
H        2.834274     1.912375    -5.101544
H       -3.945081     2.576374     2.582165
H       -3.310970     2.481249     0.894658
H       -4.823010     3.372673     1.212440
H       -6.887318     2.141132     1.963607
H       -8.238996     0.103065     1.649791
H       -7.195167    -1.980782     0.850334
H       -5.067657    -2.736405    -0.733824
H       -3.514195    -2.382328     0.090536
H       -4.810816    -3.230444     0.986447
61
ex_0153 frame42 see-saw C-C-ax-conf4
C        1.434299     2.138538     4.426027
C        0.692771     1.063674     5.175687
C        0.690563     1.094936     6.578180
C        0.017068     0.113925     7.309033
C       -0.661293    -0.911188     6.650200
C       -0.676002    -0.965933     5.250707
C       -1.422559    -2.095989     4.583278
C        0.002460     0.030200     4.510326
N       -0.022602    -0.026761     3.103306
C        0.000000     0.000000     1.950000
Cu       0.000000     0.000000     0.000000
C        0.000000     0.000000    -1.950000
N        0.004127    -0.033642    -3.094612
C       -0.019123     0.018970    -4.502153
C        0.422334    -1.106495    -5.232297
C        0.918342    -2.345214    -4.528236
C        0.399032    -1.071462    -6.632740
C       -0.040249     0.071950    -7.300349
C       -0.475361     1.185636    -6.578032
C       -0.473325     1.170994    -5.175236
C       -0.957423     2.388972    -4.434073
C       -1.912132     0.000000     0.382426
N       -3.046054     0.003622     0.597345
C       -4.429082     0.041593     0.872559
C       -4.981263     1.117656     1.595534
C       -4.101287     2.229965     2.096363
C       -6.363313     1.140059     1.843458
C       -7.180388     0.105471     1.380550
C       -6.629686    -0.961234     0.668413
C       -5.251251    -1.006711     0.417205
C       -4.658014    -2.169254    -0.334103
N        1.677373    -1.085095     0.031168
C        2.710287    -0.522881     0.459672
S        3.897674     0.155245     0.883257
H        1.407152     1.993905     3.327148
H        2.499279     2.146553     4.738039
H        0.978543     3.124870     4.651676
H        1.211280     1.883419     7.106639
H        0.020347     0.147301     8.390547
H       -1.179429    -1.665315     7.230811
H       -1.349398    -2.071907     3.476894
H       -1.014265    -3.070499     4.925126
H       -2.498204    -2.041487     4.852682
H        1.977401    -2.196498    -4.227893
H        0.314146    -2.562351    -3.622085
H        0.856114    -3.236811    -5.187523
H        0.740572    -1.923603    -7.208006
H       -0.041456     0.094842    -8.382048
H       -0.816145     2.062842    -7.113207
H       -2.010850     2.597759    -4.715047
H       -0.327337     3.262646    -4.699731
H       -0.921051     2.264974    -3.332896
H       -3.554380     2.686757     1.244400
H       -3.365708     1.823977     2.823123
H       -4.691149     3.025361     2.599259
H       -6.811148     1.956674     2.395635
H       -8.244245     0.127030     1.577497
H       -7.276970    -1.758002     0.323330
H       -4.060728    -1.806325    -1.197025
H       -5.442149    -2.854652    -0.718386
H       -3.994583    -2.744716     0.346613
61
ex_0153 frame43 see-saw C-C-ax-conf5
C        2.416790    -0.787768     4.504117
C        1.151531    -0.380954     5.217205
C        1.124477    -0.371087     6.617874
C       -0.036069     0.005413     7.299348
C       -1.187388     0.363201     6.589546
C       -1.180781     0.356279     5.188669
C       -2.406891     0.733794     4.405056
C        0.037982    -0.024437     4.509493
N        0.002121    -0.003939     3.104839
C        0.000000     0.000000     1.950000
Cu       0.000000     0.000000     0.000000
C        0.000000     0.000000    -1.950000
N        0.011355    -0.009722    -3.104391
C       -0.009704    -0.026517    -4.509177
C        0.526920     1.100256    -5.213615
C        1.114135     2.292641    -4.493959
C        0.503316     1.089761    -6.616187
C       -0.030982    -0.005825    -7.301933
C       -0.546613    -1.094895    -6.596868
C       -0.537189    -1.104431    -5.197413
C       -1.100051    -2.285318    -4.453723
C       -1.912132     0.000000     0.382426
N       -3.047656    -0.001591     0.595540
C       -4.430063     0.020315     0.872354
C       -5.034262     1.142134     1.472921
C       -4.241283     2.359460     1.841551
C       -6.412875     1.116387     1.731234
C       -7.178861    -0.007248     1.411403
C       -6.581381    -1.116136     0.814635
C       -5.207341    -1.109151     0.535941
C       -4.590919    -2.323511    -0.123529
N        1.801170    -0.832845     0.250718
C        2.907914    -0.246062     0.483367
S        4.176217     0.341312     0.743428
H        3.269066    -0.161746     4.843349
H        2.636291    -1.855440     4.718689
H        2.346614    -0.678579     3.402973
H        2.008471    -0.649202     7.181393
H       -0.045804     0.019723     8.380905
H       -2.078370     0.649873     7.130033
H       -3.264316     0.977408     5.061700
H       -2.170446     1.620008     3.781461
H       -2.698458    -0.107907     3.739904
H        2.049341     2.630763    -4.987009
H        1.365732     2.062102    -3.438013
H        0.370745     3.116753    -4.504604
H        0.896114     1.926469    -7.178727
H       -0.048918    -0.010671    -8.383307
H       -0.965295    -1.934277    -7.139728
H       -2.203334    -2.174043    -4.395643
H       -0.851273    -3.236842    -4.966386
H       -0.705138    -2.364752    -3.418758
H       -3.152561     2.221433     1.681017
H       -4.572575     3.216191     1.222761
H       -4.400908     2.588367     2.915296
H       -6.890647     1.966091     2.199268
H       -8.238704    -0.018633     1.628345
H       -7.190888    -1.979767     0.568673
H       -4.601315    -2.194423    -1.227148
H       -5.154343    -3.249030     0.128568
H       -3.544265    -2.482892     0.209131
