49
ex_0407 frame0 T-4-1
Zn       0.000000     0.000000     0.000000
C        4.059744     4.057316     4.053180
C        2.905391     3.506913     4.531851
C        2.075899     2.705029     3.777010
C        2.457217     2.457217     2.457217
Se       1.397188     1.397188     1.397188
C        3.628978     3.001853     1.933291
C        4.418626     3.800123     2.746250
H        4.677381     4.681819     4.689379
H        2.603584     3.693593     5.550869
H        1.174266     2.290681     4.192950
H        3.874513     2.776186     0.904738
H        5.328992     4.225438     2.345085
C        4.054412    -4.055283    -4.060545
C        4.226670    -4.010804    -2.706681
C        3.457821    -3.232047    -1.868068
C        2.457217    -2.457217    -2.457217
Se       1.397188    -1.397188    -1.397188
C        2.251461    -2.476515    -3.836145
C        3.060047    -3.282007    -4.622946
H        4.687128    -4.685535    -4.675916
H        4.997855    -4.606686    -2.243505
H        3.626539    -3.225894    -0.805463
H        1.461972    -1.856125    -4.237340
H        2.904970    -3.301000    -5.693545
C       -4.053989     4.060430    -4.055821
C       -4.331376     2.735352    -3.877427
C       -3.567333     1.898055    -3.092549
C       -2.457217     2.457217    -2.457217
Se      -1.397188     1.397188    -1.397188
C       -2.142299     3.806255    -2.615569
C       -2.952385     4.593466    -3.419149
H       -4.687900     4.676127    -4.684552
H       -5.187591     2.295458    -4.364997
H       -3.820871     0.858675    -2.978350
H       -1.270788     4.184990    -2.099659
H       -2.712878     5.640946    -3.545691
C       -4.059440    -4.053039     4.057761
C       -2.980676    -4.566753     3.396726
C       -2.154640    -3.813513     2.589784
C       -2.457217    -2.457217     2.457217
Se      -1.397188    -1.397188     1.397188
C       -3.550488    -1.896903     3.116731
C       -4.341215    -2.710363     3.913421
H       -4.677937    -4.689636     4.681005
H       -2.740008    -5.614114     3.493924
H       -1.313995    -4.257727     2.086174
H       -3.737048    -0.841010     2.977379
H       -5.190872    -2.281054     4.427589
49
ex_0407 frame1 T-4-1-conf2
Zn       0.000000     0.000000     0.000000
C        4.059744     4.057316     4.053180
C        2.905391     3.506913     4.531851
C        2.075899     2.705029     3.777010
C        2.457217     2.457217     2.457217
Se       1.397188     1.397188     1.397188
C        3.628978     3.001853     1.933291
C        4.418626     3.800123     2.746250
H        4.677381     4.681819     4.689379
H        2.603584     3.693593     5.550869
H        1.174266     2.290681     4.192950
H        3.874513     2.776186     0.904738
H        5.328992     4.225438     2.345085
C        4.054412    -4.055283    -4.060545
C        4.226670    -4.010804    -2.706681
C        3.457821    -3.232047    -1.868068
C        2.457217    -2.457217    -2.457217
Se       1.397188    -1.397188    -1.397188
C        2.251461    -2.476515    -3.836145
C        3.060047    -3.282007    -4.622946
H        4.687128    -4.685535    -4.675916
H        4.997855    -4.606686    -2.243505
H        3.626539    -3.225894    -0.805463
H        1.461972    -1.856125    -4.237340
H        2.904970    -3.301000    -5.693545
C       -4.053989     4.060430    -4.055821
C       -4.331376     2.735352    -3.877427
C       -3.567333     1.898055    -3.092549
C       -2.457217     2.457217    -2.457217
Se      -1.397188     1.397188    -1.397188
C       -2.142299     3.806255    -2.615569
C       -2.952385     4.593466    -3.419149
H       -4.687900     4.676127    -4.684552
H       -5.187591     2.295458    -4.364997
H       -3.820871     0.858675    -2.978350
H       -1.270788     4.184990    -2.099659
H       -2.712878     5.640946    -3.545691
C       -4.037333    -4.023354     4.034386
C       -4.276766    -2.670642     3.934401
C       -3.477579    -1.876586     3.136296
C       -2.436810    -2.436810     2.436810
Se      -1.397188    -1.397188     1.397188
C       -2.220050    -3.783930     2.553440
C       -2.985918    -4.624104     3.335167
H       -4.646722    -4.689162     4.655796
H       -5.102216    -2.265410     4.497501
H       -3.690781    -0.833819     3.081764
H       -1.403770    -4.252886     2.011113
H       -2.784530    -5.677224     3.401214
49
ex_0407 frame2 T-4-1-conf3
Zn       0.000000     0.000000     0.000000
C        4.059744     4.057316     4.053180
C        2.905391     3.506913     4.531851
C        2.075899     2.705029     3.777010
C        2.457217     2.457217     2.457217
Se       1.397188     1.397188     1.397188
C        3.628978     3.001853     1.933291
C        4.418626     3.800123     2.746250
H        4.677381     4.681819     4.689379
H        2.603584     3.693593     5.550869
H        1.174266     2.290681     4.192950
H        3.874513     2.776186     0.904738
H        5.328992     4.225438     2.345085
C        4.054412    -4.055283    -4.060545
C        4.226670    -4.010804    -2.706681
C        3.457821    -3.232047    -1.868068
C        2.457217    -2.457217    -2.457217
Se       1.397188    -1.397188    -1.397188
C        2.251461    -2.476515    -3.836145
C        3.060047    -3.282007    -4.622946
H        4.687128    -4.685535    -4.675916
H        4.997855    -4.606686    -2.243505
H        3.626539    -3.225894    -0.805463
H        1.461972    -1.856125    -4.237340
H        2.904970    -3.301000    -5.693545
C       -4.096901     4.091731    -4.089775
C       -2.759336     3.974043    -4.432478
C       -1.932278     3.145760    -3.603737
C       -2.604693     2.604693    -2.604693
Se      -1.397188     1.397188    -1.397188
C       -3.858040     2.639157    -2.179143
C       -4.688932     3.465770    -3.004136
H       -4.737998     4.728971    -4.725533
H       -2.310046     4.465217    -5.278601
H       -0.889968     3.025839    -3.831952
H       -4.278266     2.134936    -1.326030
H       -5.730144     3.565053    -2.747907
C       -4.059440    -4.053039     4.057761
C       -2.980676    -4.566753     3.396726
C       -2.154640    -3.813513     2.589784
C       -2.457217    -2.457217     2.457217
Se      -1.397188    -1.397188     1.397188
C       -3.550488    -1.896903     3.116731
C       -4.341215    -2.710363     3.913421
H       -4.677937    -4.689636     4.681005
H       -2.740008    -5.614114     3.493924
H       -1.313995    -4.257727     2.086174
H       -3.737048    -0.841010     2.977379
H       -5.190872    -2.281054     4.427589
49
ex_0407 frame3 T-4-1-conf4
Zn       0.000000     0.000000     0.000000
C        4.089206     4.096564     4.092637
C        4.566181     2.838349     3.761327
C        3.737305     2.011213     2.933258
C        2.604693     2.604693     2.604693
Se       1.397188     1.397188     1.397188
C        2.044981     3.778755     2.852605
C        2.869502     4.609368     3.679968
H        4.724540     4.737406     4.730555
H        5.515820     2.450236     4.087808
H        4.067047     1.028904     2.651807
H        1.090114     4.138848     2.510271
H        2.509596     5.589307     3.944202
C        4.054412    -4.055283    -4.060545
C        4.226670    -4.010804    -2.706681
C        3.457821    -3.232047    -1.868068
C        2.457217    -2.457217    -2.457217
Se       1.397188    -1.397188    -1.397188
C        2.251461    -2.476515    -3.836145
C        3.060047    -3.282007    -4.622946
H        4.687128    -4.685535    -4.675916
H        4.997855    -4.606686    -2.243505
H        3.626539    -3.225894    -0.805463
H        1.461972    -1.856125    -4.237340
H        2.904970    -3.301000    -5.693545
C       -4.053989     4.060430    -4.055821
C       -4.331376     2.735352    -3.877427
C       -3.567333     1.898055    -3.092549
C       -2.457217     2.457217    -2.457217
Se      -1.397188     1.397188    -1.397188
C       -2.142299     3.806255    -2.615569
C       -2.952385     4.593466    -3.419149
H       -4.687900     4.676127    -4.684552
H       -5.187591     2.295458    -4.364997
H       -3.820871     0.858675    -2.978350
H       -1.270788     4.184990    -2.099659
H       -2.712878     5.640946    -3.545691
C       -4.059440    -4.053039     4.057761
C       -2.980676    -4.566753     3.396726
C       -2.154640    -3.813513     2.589784
C       -2.457217    -2.457217     2.457217
Se      -1.397188    -1.397188     1.397188
C       -3.550488    -1.896903     3.116731
C       -4.341215    -2.710363     3.913421
H       -4.677937    -4.689636     4.681005
H       -2.740008    -5.614114     3.493924
H       -1.313995    -4.257727     2.086174
H       -3.737048    -0.841010     2.977379
H       -5.190872    -2.281054     4.427589
49
ex_0407 frame4 T-4-1-conf5
Zn       0.000000     0.000000     0.000000
C        4.059744     4.057316     4.053180
C        2.905391     3.506913     4.531851
C        2.075899     2.705029     3.777010
C        2.457217     2.457217     2.457217
Se       1.397188     1.397188     1.397188
C        3.628978     3.001853     1.933291
C        4.418626     3.800123     2.746250
H        4.677381     4.681819     4.689379
H        2.603584     3.693593     5.550869
H        1.174266     2.290681     4.192950
H        3.874513     2.776186     0.904738
H        5.328992     4.225438     2.345085
C        4.054412    -4.055283    -4.060545
C        4.226670    -4.010804    -2.706681
C        3.457821    -3.232047    -1.868068
C        2.457217    -2.457217    -2.457217
Se       1.397188    -1.397188    -1.397188
C        2.251461    -2.476515    -3.836145
C        3.060047    -3.282007    -4.622946
H        4.687128    -4.685535    -4.675916
H        4.997855    -4.606686    -2.243505
H        3.626539    -3.225894    -0.805463
H        1.461972    -1.856125    -4.237340
H        2.904970    -3.301000    -5.693545
C       -4.096901     4.091731    -4.089775
C       -2.759336     3.974043    -4.432478
C       -1.932278     3.145760    -3.603737
C       -2.604693     2.604693    -2.604693
Se      -1.397188     1.397188    -1.397188
C       -3.858040     2.639157    -2.179143
C       -4.688932     3.465770    -3.004136
H       -4.737998     4.728971    -4.725533
H       -2.310046     4.465217    -5.278601
H       -0.889968     3.025839    -3.831952
H       -4.278266     2.134936    -1.326030
H       -5.730144     3.565053    -2.747907
C       -4.037333    -4.023354     4.034386
C       -4.276766    -2.670642     3.934401
C       -3.477579    -1.876586     3.136296
C       -2.436810    -2.436810     2.436810
Se      -1.397188    -1.397188     1.397188
C       -2.220050    -3.783930     2.553440
C       -2.985918    -4.624104     3.335167
H       -4.646722    -4.689162     4.655796
H       -5.102216    -2.265410     4.497501
H       -3.690781    -0.833819     3.081764
H       -1.403770    -4.252886     2.011113
H       -2.784530    -5.677224     3.401214
49
ex_0407 frame5 T-4-1-conf6
Zn       0.000000     0.000000     0.000000
C        4.059744     4.057316     4.053180
C        2.905391     3.506913     4.531851
C        2.075899     2.705029     3.777010
C        2.457217     2.457217     2.457217
Se       1.397188     1.397188     1.397188
C        3.628978     3.001853     1.933291
C        4.418626     3.800123     2.746250
H        4.677381     4.681819     4.689379
H        2.603584     3.693593     5.550869
H        1.174266     2.290681     4.192950
H        3.874513     2.776186     0.904738
H        5.328992     4.225438     2.345085
C        4.026738    -4.028176    -4.040159
C        3.060574    -3.221562    -4.599674
C        2.265275    -2.425736    -3.799449
C        2.436810    -2.436810    -2.436810
Se       1.397188    -1.397188    -1.397188
C        3.404245    -3.247525    -1.905651
C        4.226373    -4.062228    -2.656589
H        4.678850    -4.674627    -4.638202
H        2.954129    -3.238456    -5.672541
H        1.527433    -1.813774    -4.265156
H        3.561177    -3.275620    -0.830972
H        4.974919    -4.685053    -2.202995
C       -4.053989     4.060430    -4.055821
C       -4.331376     2.735352    -3.877427
C       -3.567333     1.898055    -3.092549
C       -2.457217     2.457217    -2.457217
Se      -1.397188     1.397188    -1.397188
C       -2.142299     3.806255    -2.615569
C       -2.952385     4.593466    -3.419149
H       -4.687900     4.676127    -4.684552
H       -5.187591     2.295458    -4.364997
H       -3.820871     0.858675    -2.978350
H       -1.270788     4.184990    -2.099659
H       -2.712878     5.640946    -3.545691
C       -4.059440    -4.053039     4.057761
C       -2.980676    -4.566753     3.396726
C       -2.154640    -3.813513     2.589784
C       -2.457217    -2.457217     2.457217
Se      -1.397188    -1.397188     1.397188
C       -3.550488    -1.896903     3.116731
C       -4.341215    -2.710363     3.913421
H       -4.677937    -4.689636     4.681005
H       -2.740008    -5.614114     3.493924
H       -1.313995    -4.257727     2.086174
H       -3.737048    -0.841010     2.977379
H       -5.190872    -2.281054     4.427589
49
ex_0407 frame6 T-4-1-conf7
Zn       0.000000     0.000000     0.000000
C        4.089206     4.096564     4.092637
C        4.566181     2.838349     3.761327
C        3.737305     2.011213     2.933258
C        2.604693     2.604693     2.604693
Se       1.397188     1.397188     1.397188
C        2.044981     3.778755     2.852605
C        2.869502     4.609368     3.679968
H        4.724540     4.737406     4.730555
H        5.515820     2.450236     4.087808
H        4.067047     1.028904     2.651807
H        1.090114     4.138848     2.510271
H        2.509596     5.589307     3.944202
C        4.054412    -4.055283    -4.060545
C        4.226670    -4.010804    -2.706681
C        3.457821    -3.232047    -1.868068
C        2.457217    -2.457217    -2.457217
Se       1.397188    -1.397188    -1.397188
C        2.251461    -2.476515    -3.836145
C        3.060047    -3.282007    -4.622946
H        4.687128    -4.685535    -4.675916
H        4.997855    -4.606686    -2.243505
H        3.626539    -3.225894    -0.805463
H        1.461972    -1.856125    -4.237340
H        2.904970    -3.301000    -5.693545
C       -4.053989     4.060430    -4.055821
C       -4.331376     2.735352    -3.877427
C       -3.567333     1.898055    -3.092549
C       -2.457217     2.457217    -2.457217
Se      -1.397188     1.397188    -1.397188
C       -2.142299     3.806255    -2.615569
C       -2.952385     4.593466    -3.419149
H       -4.687900     4.676127    -4.684552
H       -5.187591     2.295458    -4.364997
H       -3.820871     0.858675    -2.978350
H       -1.270788     4.184990    -2.099659
H       -2.712878     5.640946    -3.545691
C       -4.037333    -4.023354     4.034386
C       -4.276766    -2.670642     3.934401
C       -3.477579    -1.876586     3.136296
C       -2.436810    -2.436810     2.436810
Se      -1.397188    -1.397188     1.397188
C       -2.220050    -3.783930     2.553440
C       -2.985918    -4.624104     3.335167
H       -4.646722    -4.689162     4.655796
H       -5.102216    -2.265410     4.497501
H       -3.690781    -0.833819     3.081764
H       -1.403770    -4.252886     2.011113
H       -2.784530    -5.677224     3.401214
49
ex_0407 frame7 T-4-1-conf8
Zn       0.000000     0.000000     0.000000
C        4.089206     4.096564     4.092637
C        4.566181     2.838349     3.761327
C        3.737305     2.011213     2.933258
C        2.604693     2.604693     2.604693
Se       1.397188     1.397188     1.397188
C        2.044981     3.778755     2.852605
C        2.869502     4.609368     3.679968
H        4.724540     4.737406     4.730555
H        5.515820     2.450236     4.087808
H        4.067047     1.028904     2.651807
H        1.090114     4.138848     2.510271
H        2.509596     5.589307     3.944202
C        4.054412    -4.055283    -4.060545
C        4.226670    -4.010804    -2.706681
C        3.457821    -3.232047    -1.868068
C        2.457217    -2.457217    -2.457217
Se       1.397188    -1.397188    -1.397188
C        2.251461    -2.476515    -3.836145
C        3.060047    -3.282007    -4.622946
H        4.687128    -4.685535    -4.675916
H        4.997855    -4.606686    -2.243505
H        3.626539    -3.225894    -0.805463
H        1.461972    -1.856125    -4.237340
H        2.904970    -3.301000    -5.693545
C       -4.096901     4.091731    -4.089775
C       -2.759336     3.974043    -4.432478
C       -1.932278     3.145760    -3.603737
C       -2.604693     2.604693    -2.604693
Se      -1.397188     1.397188    -1.397188
C       -3.858040     2.639157    -2.179143
C       -4.688932     3.465770    -3.004136
H       -4.737998     4.728971    -4.725533
H       -2.310046     4.465217    -5.278601
H       -0.889968     3.025839    -3.831952
H       -4.278266     2.134936    -1.326030
H       -5.730144     3.565053    -2.747907
C       -4.059440    -4.053039     4.057761
C       -2.980676    -4.566753     3.396726
C       -2.154640    -3.813513     2.589784
C       -2.457217    -2.457217     2.457217
Se      -1.397188    -1.397188     1.397188
C       -3.550488    -1.896903     3.116731
C       -4.341215    -2.710363     3.913421
H       -4.677937    -4.689636     4.681005
H       -2.740008    -5.614114     3.493924
H       -1.313995    -4.257727     2.086174
H       -3.737048    -0.841010     2.977379
H       -5.190872    -2.281054     4.427589
49
ex_0407 frame8 T-4-1-conf9
Zn       0.000000     0.000000     0.000000
C        4.059744     4.057316     4.053180
C        2.905391     3.506913     4.531851
C        2.075899     2.705029     3.777010
C        2.457217     2.457217     2.457217
Se       1.397188     1.397188     1.397188
C        3.628978     3.001853     1.933291
C        4.418626     3.800123     2.746250
H        4.677381     4.681819     4.689379
H        2.603584     3.693593     5.550869
H        1.174266     2.290681     4.192950
H        3.874513     2.776186     0.904738
H        5.328992     4.225438     2.345085
C        4.094736    -4.088557    -4.095114
C        3.268333    -4.718948    -3.178577
C        2.440761    -3.889917    -2.351098
C        2.604693    -2.604693    -2.604693
Se       1.397188    -1.397188    -1.397188
C        3.347294    -1.891689    -3.437357
C        4.176395    -2.715674    -4.266770
H        4.734224    -4.723410    -4.734868
H        3.213121    -5.786861    -3.053882
H        1.784951    -4.335658    -1.627149
H        3.380151    -0.820561    -3.538521
H        4.822919    -2.237311    -4.982876
C       -4.053989     4.060430    -4.055821
C       -4.331376     2.735352    -3.877427
C       -3.567333     1.898055    -3.092549
C       -2.457217     2.457217    -2.457217
Se      -1.397188     1.397188    -1.397188
C       -2.142299     3.806255    -2.615569
C       -2.952385     4.593466    -3.419149
H       -4.687900     4.676127    -4.684552
H       -5.187591     2.295458    -4.364997
H       -3.820871     0.858675    -2.978350
H       -1.270788     4.184990    -2.099659
H       -2.712878     5.640946    -3.545691
C       -4.060454    -4.055732     4.054054
C       -2.729350    -3.899378     4.315427
C       -1.891778    -3.115507     3.550652
C       -2.457217    -2.457217     2.457217
Se      -1.397188    -1.397188     1.397188
C       -3.812511    -2.592684     2.158927
C       -4.599637    -3.396578     2.968784
H       -4.676083    -4.684714     4.687782
H       -2.284583    -4.404773     5.158689
H       -0.847537    -3.019090     3.791270
H       -4.195948    -2.059579     1.299910
H       -5.651956    -3.505421     2.742138
49
ex_0407 frame9 T-4-1-conf10
Zn       0.000000     0.000000     0.000000
C        4.059744     4.057316     4.053180
C        2.905391     3.506913     4.531851
C        2.075899     2.705029     3.777010
C        2.457217     2.457217     2.457217
Se       1.397188     1.397188     1.397188
C        3.628978     3.001853     1.933291
C        4.418626     3.800123     2.746250
H        4.677381     4.681819     4.689379
H        2.603584     3.693593     5.550869
H        1.174266     2.290681     4.192950
H        3.874513     2.776186     0.904738
H        5.328992     4.225438     2.345085
C        4.094736    -4.088557    -4.095114
C        3.268333    -4.718948    -3.178577
C        2.440761    -3.889917    -2.351098
C        2.604693    -2.604693    -2.604693
Se       1.397188    -1.397188    -1.397188
C        3.347294    -1.891689    -3.437357
C        4.176395    -2.715674    -4.266770
H        4.734224    -4.723410    -4.734868
H        3.213121    -5.786861    -3.053882
H        1.784951    -4.335658    -1.627149
H        3.380151    -0.820561    -3.538521
H        4.822919    -2.237311    -4.982876
C       -4.025612     4.039887    -4.029574
C       -2.927764     4.567510    -3.386535
C       -2.132880     3.767385    -2.590195
C       -2.436810     2.436810    -2.436810
Se      -1.397188     1.397188    -1.397188
C       -3.533589     1.936975    -3.086857
C       -4.361880     2.689406    -3.893904
H       -4.682385     4.639058    -4.670236
H       -2.719542     5.615729    -3.529856
H       -1.291174     4.207939    -2.107251
H       -3.796786     0.888031    -2.982952
H       -5.214180     2.260939    -4.387848
C       -4.059440    -4.053039     4.057761
C       -2.980676    -4.566753     3.396726
C       -2.154640    -3.813513     2.589784
C       -2.457217    -2.457217     2.457217
Se      -1.397188    -1.397188     1.397188
C       -3.550488    -1.896903     3.116731
C       -4.341215    -2.710363     3.913421
H       -4.677937    -4.689636     4.681005
H       -2.740008    -5.614114     3.493924
H       -1.313995    -4.257727     2.086174
H       -3.737048    -0.841010     2.977379
H       -5.190872    -2.281054     4.427589
49
ex_0407 frame10 SP-4-1
Zn       0.000000     0.000000     0.000000
C        7.026491    -0.003057     0.003561
C        6.318611     0.757600    -0.882388
C        4.940927     0.792372    -0.922888
C        4.256025     0.000000    -0.000000
Se       2.420000     0.000000     0.000000
C        4.944498    -0.789846     0.919945
C        6.330645    -0.778988     0.907299
H        8.110951     0.005588    -0.006509
H        6.840473     1.372836    -1.598963
H        4.421289     1.406094    -1.637698
H        4.362134    -1.383312     1.611164
H        6.870188    -1.389894     1.618831
C        0.004692     7.026491     0.000100
C       -1.162737     6.318611    -0.024697
C       -1.216104     4.940927    -0.025831
C       -0.000000     4.256025    -0.000000
Se       0.000000     2.420000     0.000000
C        1.212226     4.944498     0.025749
C        1.195562     6.330645     0.025395
H       -0.008576     8.110951    -0.000183
H       -2.106978     6.840473    -0.044754
H       -2.158021     4.421289    -0.045838
H        2.123056     4.362134     0.045095
H        2.133159     6.870188     0.045311
C       -7.026491     0.004693    -0.000028
C       -6.318611    -1.162977     0.007071
C       -4.940927    -1.216356     0.007395
C       -4.256025     0.000000    -0.000000
Se      -2.420000     0.000000     0.000000
C       -4.944498     1.212477    -0.007372
C       -6.330645     1.195809    -0.007270
H       -8.110951    -0.008578     0.000052
H       -6.840473    -2.107414     0.012813
H       -4.421289    -2.158468     0.013123
H       -4.362134     2.123496    -0.012911
H       -6.870188     2.133600    -0.012971
C       -0.004690    -7.026491    -0.000165
C        1.162282    -6.318611     0.040824
C        1.215628    -4.940927     0.042698
C       -0.000000    -4.256025    -0.000000
Se       0.000000    -2.420000     0.000000
C       -1.211753    -4.944498    -0.042562
C       -1.195094    -6.330645    -0.041976
H        0.008573    -8.110951     0.000301
H        2.106155    -6.840473     0.073976
H        2.157177    -4.421289     0.075768
H       -2.122226    -4.362134    -0.074541
H       -2.132325    -6.870188    -0.074895
