49
ex_0050 frame0 OC-6-chelate-1
Ni       0.000000     0.000000     0.000000
C        4.438028    -3.930255     4.492793
C        4.169686    -4.436316     3.237069
C        3.325987    -3.803910     2.324044
C        2.720039    -2.597617     2.694997
B        1.771987    -1.793192     1.797246
O        2.450126    -0.577832     1.330875
N        1.815355     0.334624     0.628501
C        2.372112     1.438361     0.344285
C        1.506478     2.315034    -0.434456
N        0.379354     1.792625    -0.667147
O       -0.541366     2.436482    -1.354289
B       -1.789777     1.797796    -1.788380
C       -2.620814     2.747167    -2.662534
C       -2.822658     4.048192    -2.226626
C       -3.552221     4.973656    -2.935293
C       -4.112814     4.588939    -4.142544
C       -3.921929     3.290808    -4.595747
C       -3.178877     2.360285    -3.866690
O       -2.435830     1.330506    -0.580345
N       -1.811601     0.628079     0.355130
C       -2.372530     0.368442     1.450145
C       -1.488808    -0.421407     2.332474
N       -0.383934    -0.655301     1.796016
O        0.554065    -1.352370     2.427466
N        0.672809    -1.799418    -0.334549
C        0.408837    -2.316870    -1.470985
C       -0.365743    -1.450777    -2.338270
N       -0.657305    -0.322704    -1.807294
O       -1.348247     0.573105    -2.447148
O        1.354938    -2.442935     0.569231
C        3.005480    -2.110983     3.960128
C        3.832662    -2.729408     4.857459
H        5.079436    -4.390783     5.214545
H        4.646865    -5.362723     2.977175
H        3.120642    -4.196325     1.356105
H        3.347329     1.635024     0.664785
H        1.751492     3.280893    -0.783650
H       -2.385905     4.359302    -1.279199
H       -3.674278     5.986269    -2.535099
H       -4.674475     5.328708    -4.671616
H       -4.380763     3.044878    -5.542170
H       -3.051199     1.371523    -4.242674
H       -3.345481     0.680116     1.692391
H       -1.731378    -0.757760     3.294003
H        0.749636    -3.279967    -1.691832
H       -0.686975    -1.677036    -3.322005
H        2.546593    -1.170265     4.278095
H        4.005789    -2.282547     5.831877
49
ex_0050 frame1 OC-6-chelate-1-conf3
Ni       0.000000     0.000000     0.000000
C       -4.341462     3.969153     4.414849
C       -3.853289     4.532242     3.239175
C       -3.024169     3.776783     2.411800
C       -2.664438     2.483829     2.712185
B       -1.762276     1.684677     1.803184
O       -0.963541     0.594832     2.463588
N        0.216310     0.229386     1.924342
C        1.339668     0.062571     2.386535
C        2.364007    -0.337410     1.351055
N        1.902311    -0.384257     0.189895
O        2.545736    -0.716405    -0.922105
B        1.748400    -1.804560    -1.699175
C        2.646683    -2.723819    -2.504298
C        3.949131    -2.986783    -2.052567
C        4.730461    -3.831067    -2.819304
C        4.248938    -4.397409    -3.989308
C        2.973712    -4.141816    -4.434416
C        2.178117    -3.295743    -3.674275
O        0.951601    -2.465060    -0.604558
N       -0.228223    -1.921265    -0.243216
C       -1.356519    -2.378433    -0.088491
C       -2.373759    -1.335564     0.312227
N       -1.906196    -0.181934     0.368531
O       -2.556403     0.905478     0.704821
N       -0.430546     1.890600    -0.206790
C       -0.275200     2.345536    -1.357236
C        0.204444     1.335509    -2.365357
N        0.394946     0.192960    -1.899812
O        0.800863    -0.947621    -2.447052
O       -0.821397     2.435337     0.937142
C       -3.154860     1.930608     3.884751
C       -3.986621     2.672301     4.725811
H       -4.980565     4.548429     5.054694
H       -4.110167     5.550345     2.959898
H       -2.670153     4.251441     1.513917
H        1.562544     0.183086     3.395481
H        3.359774    -0.552570     1.569649
H        4.324959    -2.539782    -1.131869
H        5.756557    -4.053003    -2.485747
H        4.948730    -5.052416    -4.523093
H        2.616523    -4.597732    -5.356432
H        1.176933    -3.118011    -4.058408
H       -1.588954    -3.384094    -0.217749
H       -3.374736    -1.547132     0.521202
H       -0.467000     3.348988    -1.589126
H        0.371896     1.545326    -3.368015
H       -2.905076     0.923779     4.167817
H       -4.360070     2.208931     5.647473
49
ex_0050 frame2 OC-6-chelate-1-conf4
Ni       0.000000     0.000000     0.000000
C        4.294134    -4.303653    -4.199344
C        4.765688    -3.864368    -2.963074
C        3.941769    -3.047468    -2.204773
C        2.692425    -2.688674    -2.675612
B        1.810287    -1.777218    -1.795116
O        2.413693    -0.481526    -1.434181
N        1.765352     0.383634    -0.734069
C        2.271507     1.532451    -0.504871
C        1.413956     2.375830     0.307251
N        0.320308     1.813145     0.642189
O       -0.532775     2.443200     1.370180
B       -1.798806     1.794738     1.788648
C       -2.688181     2.664430     2.697626
C       -3.096939     3.901461     2.295559
C       -3.899463     4.687146     3.114611
C       -4.282994     4.201050     4.349503
C       -3.886348     2.951239     4.788052
C       -3.090890     2.209320     3.940132
O       -2.402525     1.430336     0.503356
N       -1.764968     0.735684    -0.382306
C       -2.264385     0.519549    -1.531318
C       -1.404728    -0.293070    -2.383410
N       -0.315874    -0.635938    -1.816124
O        0.549826    -1.366563    -2.433373
N        0.672357    -1.788025     0.391665
C        0.429492    -2.338854     1.478544
C       -0.407391    -1.465467     2.351913
N       -0.667637    -0.385414     1.791149
O       -1.400324     0.534021     2.388349
O        1.398845    -2.386136    -0.537548
C        2.223738    -3.123242    -3.900617
C        3.045432    -3.938682    -4.658244
H        4.908974    -4.953578    -4.839478
H        5.749839    -4.172736    -2.639553
H        4.336050    -2.723595    -1.251070
H        3.212282     1.784615    -0.888362
H        1.618215     3.364322     0.623784
H       -2.817462     4.317981     1.334716
H       -4.227600     5.685014     2.787130
H       -4.907416     4.782602     5.015936
H       -4.206745     2.601840     5.764192
H       -2.765577     1.226328     4.258621
H       -3.207423     0.909410    -1.791856
H       -1.617424    -0.594912    -3.375709
H        0.764442    -3.300732     1.762750
H       -0.732098    -1.725649     3.306969
H        1.257549    -2.824776    -4.226107
H        2.670678    -4.270094    -5.608145
49
ex_0050 frame3 OC-6-chelate-1-conf5
Ni       0.000000     0.000000     0.000000
C       -4.488978     4.111071     4.292858
C       -3.422224     4.718086     3.657716
C       -2.532808     4.021309     2.854162
C       -2.696728     2.677001     2.666778
B       -1.776640     1.791400     1.798865
O       -0.507790     1.420861     2.404172
N        0.393256     0.706016     1.774652
C        1.512066     0.467508     2.301043
C        2.368239    -0.350129     1.442937
N        1.803341    -0.652757     0.352658
O        2.422013    -1.384564    -0.537448
B        1.783347    -1.800383    -1.798063
C        2.663064    -2.697311    -2.696589
C        2.746139    -2.410122    -4.060991
C        3.529224    -3.197757    -4.897883
C        4.216643    -4.263113    -4.345937
C        4.127513    -4.539670    -2.990681
C        3.342907    -3.753158    -2.143011
O        0.526641    -2.412118    -1.394001
N       -0.386521    -1.788697    -0.673547
C       -1.489454    -2.334105    -0.429793
C       -2.351653    -1.461431     0.389782
N       -1.797359    -0.375716     0.656383
O       -2.412647     0.537456     1.385208
N       -0.663562     1.802105    -0.338530
C       -0.366647     2.350389    -1.451998
C        0.438139     1.502532    -2.307174
N        0.696981     0.370999    -1.782997
O        1.407583    -0.514404    -2.417546
O       -1.382280     2.438424     0.532334
C       -3.775877     2.051890     3.306788
C       -4.657386     2.747171     4.104272
H       -5.193139     4.632100     4.922073
H       -3.289820     5.787122     3.805233
H       -1.710456     4.515724     2.370578
H        1.772630     0.833539     3.261215
H        3.349864    -0.669966     1.675468
H        2.190315    -1.564777    -4.452196
H        3.615079    -3.004843    -5.950562
H        4.829647    -4.875391    -5.015857
H        4.663683    -5.370324    -2.561289
H        3.294937    -3.994267    -1.096122
H       -1.753491    -3.294386    -0.772854
H       -3.321208    -1.703469     0.722086
H       -0.703016     3.320936    -1.666299
H        0.801715     1.742261    -3.273509
H       -3.924994     0.971906     3.168858
H       -5.474529     2.194306     4.570798
49
ex_0050 frame4 OC-6-chelate-1_mirror
Ni       0.000000     0.000000     0.000000
C        4.438028    -3.930255    -4.492793
C        4.169686    -4.436316    -3.237069
C        3.325987    -3.803910    -2.324044
C        2.720039    -2.597617    -2.694997
B        1.771987    -1.793192    -1.797246
O        2.450126    -0.577832    -1.330875
N        1.815355     0.334624    -0.628501
C        2.372112     1.438361    -0.344285
C        1.506478     2.315034     0.434456
N        0.379354     1.792625     0.667147
O       -0.541366     2.436482     1.354289
B       -1.789777     1.797796     1.788380
C       -2.620814     2.747167     2.662534
C       -2.822658     4.048192     2.226626
C       -3.552221     4.973656     2.935293
C       -4.112814     4.588939     4.142544
C       -3.921929     3.290808     4.595747
C       -3.178877     2.360285     3.866690
O       -2.435830     1.330506     0.580345
N       -1.811601     0.628079    -0.355130
C       -2.372530     0.368442    -1.450145
C       -1.488808    -0.421407    -2.332474
N       -0.383934    -0.655301    -1.796016
O        0.554065    -1.352370    -2.427466
N        0.672809    -1.799418     0.334549
C        0.408837    -2.316870     1.470985
C       -0.365743    -1.450777     2.338270
N       -0.657305    -0.322704     1.807294
O       -1.348247     0.573105     2.447148
O        1.354938    -2.442935    -0.569231
C        3.005480    -2.110983    -3.960128
C        3.832662    -2.729408    -4.857459
H        5.079436    -4.390783    -5.214545
H        4.646865    -5.362723    -2.977175
H        3.120642    -4.196325    -1.356105
H        3.347329     1.635024    -0.664785
H        1.751492     3.280893     0.783650
H       -2.385905     4.359302     1.279199
H       -3.674278     5.986269     2.535099
H       -4.674475     5.328708     4.671616
H       -4.380763     3.044878     5.542170
H       -3.051199     1.371523     4.242674
H       -3.345481     0.680116    -1.692391
H       -1.731378    -0.757760    -3.294003
H        0.749636    -3.279967     1.691832
H       -0.686975    -1.677036     3.322005
H        2.546593    -1.170265    -4.278095
H        4.005789    -2.282547    -5.831877
