35
ex_0565 frame0 
O        1.601875     1.988379     0.233110
C        1.235662     1.004051     0.585177
W        0.508003    -0.862371     1.234133
C       -0.777127    -1.456966     2.597690
O       -1.499313    -1.791309     3.392147
C        0.443100    -2.673287     0.483700
O        0.425909    -3.716301     0.054327
C        2.753219    -1.323339     1.050611
O        3.802123    -1.553225     0.951142
C        1.558388    -0.135526     3.142817
O        2.035090     0.205614     4.049702
Sb      -1.825266    -0.152158    -0.529826
Cl      -3.437573    -1.741965    -0.540112
C       -2.539166     1.653985     0.383940
C       -2.484043     1.760489     1.746981
C       -2.943222     2.931671     2.380978
C       -3.450934     3.977864     1.645378
C       -3.505648     3.868413     0.277588
C       -3.046246     2.695054    -0.376481
C       -0.887189     0.024952    -2.452633
C        0.124565    -0.839795    -2.765145
C        0.765472    -0.756789    -4.012672
C        0.383286     0.195441    -4.939189
C       -0.634544     1.061732    -4.620866
C       -1.287252     0.989730    -3.368139
H       -2.105876     1.003604     2.385791
H       -2.906295     3.029897     3.442114
H       -3.797093     4.867908     2.164579
H       -3.901592     4.686445    -0.287058
H       -3.101077     2.648273    -1.399058
H        0.477859    -1.595500    -2.108744
H        1.554645    -1.432495    -4.252091
H        0.883146     0.252230    -5.899268
H       -0.930529     1.801423    -5.341373
H       -2.041590     1.654260    -3.166084
35
ex_0565 frame1 C-trans-conf11
O        3.221302     0.000000     0.000000
C        2.100000     0.000000     0.000000
W        0.000000     0.000000     0.000000
C       -2.100000     0.000000     0.000000
O       -3.221302    -0.000000    -0.000000
C        0.000000     2.100000     0.000000
O       -0.000000     3.221302    -0.000000
C        0.000000    -2.100000     0.000000
O       -0.000000    -3.221302    -0.000000
C        0.000000     0.000000     2.100000
O       -0.000000    -0.000000     3.221302
Sb       0.000000     0.000000    -3.010000
Cl      -0.304076     2.271257    -3.663118
C       -1.559401    -1.261104    -3.805935
C       -1.872693    -1.081655    -5.143265
C       -2.872331    -1.857619    -5.741784
C       -3.522506    -2.795403    -4.952885
C       -3.189122    -2.949116    -3.631113
C       -2.201469    -2.191704    -3.014611
C        1.834860    -0.795646    -3.820193
C        2.444643    -1.876010    -3.171907
C        3.623136    -2.407248    -3.669553
C        4.175139    -1.855969    -4.802380
C        3.577033    -0.777095    -5.459839
C        2.386322    -0.239588    -4.957891
H       -1.339870    -0.329202    -5.746077
H       -3.112550    -1.712879    -6.786641
H       -4.300943    -3.402962    -5.410010
H       -3.730317    -3.695675    -3.067056
H       -1.933532    -2.307238    -1.974086
H        1.991217    -2.307235    -2.265690
H        4.127500    -3.252154    -3.188081
H        5.095917    -2.223442    -5.244725
H        4.020719    -0.349763    -6.352641
H        1.898285     0.607276    -5.456718
