41
ex_0427 frame0 T-4-1
Zn       0.000000     0.000000     0.000000
Br       1.397188     1.397188     1.397188
Br       1.397188    -1.397188    -1.397188
C       -4.058290     0.673318    -3.255307
N       -3.519125     2.025670    -3.164858
C       -4.005728     3.112267    -3.793803
C       -5.067968     3.312331    -4.651521
C       -5.387285     4.543821    -5.187223
C       -4.605481     5.647552    -4.852703
C       -3.544764     5.440048    -3.994382
C       -3.233375     4.203675    -3.463569
N       -2.263067     3.768572    -2.620209
C       -2.459371     2.459371    -2.459371
Se      -1.397188     1.397188    -1.397188
H       -3.690599     0.122372    -2.356316
H       -3.823474     0.190261    -4.208201
H       -5.177676     0.707806    -3.119514
H       -5.716524     2.482018    -4.949260
H       -6.234801     4.649364    -5.858732
H       -4.840145     6.633711    -5.265639
H       -2.947699     6.315700    -3.746664
H       -1.512995     4.366636    -2.189941
C       -1.134452    -4.599899     2.252563
N       -2.229129    -3.758091     2.722433
C       -3.233996    -4.148701     3.529101
C       -3.551516    -5.348895     4.131408
C       -4.658741    -5.522260     4.937327
C       -5.505605    -4.438761     5.161371
C       -5.181865    -3.241524     4.555805
C       -4.071503    -3.078137     3.750979
N       -3.563481    -2.022184     3.066182
C       -2.459371    -2.459371     2.459371
Se      -1.397188    -1.397188     1.397188
H       -0.309994    -3.910963     1.948330
H       -1.447943    -5.300642     1.473351
H       -0.706220    -5.175813     3.122963
H       -2.922670    -6.234077     3.991055
H       -4.865365    -6.488498     5.389034
H       -6.389389    -4.553184     5.796922
H       -5.856883    -2.408811     4.744370
H       -3.977888    -1.056404     3.035279
41
ex_0427 frame1 T-4-1-conf2
Zn       0.000000     0.000000     0.000000
Br       1.397188     1.397188     1.397188
Br       1.397188    -1.397188    -1.397188
C       -4.058290     0.673318    -3.255307
N       -3.519125     2.025670    -3.164858
C       -4.005728     3.112267    -3.793803
C       -5.067968     3.312331    -4.651521
C       -5.387285     4.543821    -5.187223
C       -4.605481     5.647552    -4.852703
C       -3.544764     5.440048    -3.994382
C       -3.233375     4.203675    -3.463569
N       -2.263067     3.768572    -2.620209
C       -2.459371     2.459371    -2.459371
Se      -1.397188     1.397188    -1.397188
H       -3.690599     0.122372    -2.356316
H       -3.823474     0.190261    -4.208201
H       -5.177676     0.707806    -3.119514
H       -5.716524     2.482018    -4.949260
H       -6.234801     4.649364    -5.858732
H       -4.840145     6.633711    -5.265639
H       -2.947699     6.315700    -3.746664
H       -1.512995     4.366636    -2.189941
C       -4.465633    -2.596350     0.928844
N       -3.719140    -2.883035     2.137178
C       -4.155805    -3.641603     3.182915
C       -5.334767    -4.296691     3.370684
C       -5.535676    -5.007407     4.536170
C       -4.562154    -5.064497     5.512618
C       -3.357526    -4.393057     5.316815
C       -3.156940    -3.682429     4.151204
N       -2.124186    -2.947074     3.681139
C       -2.489382    -2.489382     2.489382
Se      -1.397188    -1.397188     1.397188
H       -4.526814    -3.460187     0.227471
H       -3.886640    -1.822305     0.386617
H       -5.457679    -2.155441     1.155729
H       -6.157709    -4.297790     2.638649
H       -6.469836    -5.528931     4.689605
H       -4.749054    -5.639189     6.433286
H       -2.577281    -4.421975     6.067557
H       -1.214566    -2.755229     4.129602
41
ex_0427 frame2 T-4-1-conf3
Zn       0.000000     0.000000     0.000000
Br       1.397188     1.397188     1.397188
Br       1.397188    -1.397188    -1.397188
C       -2.655534     0.898306    -4.436986
N       -2.909507     2.123519    -3.706327
C       -3.657884     3.174515    -4.147925
C       -4.329558     3.353725    -5.318859
C       -5.024132     4.527540    -5.527580
C       -5.048592     5.520824    -4.569852
C       -4.360271     5.333732    -3.373396
C       -3.665791     4.159788    -3.164993
N       -2.921020     3.694583    -2.136797
C       -2.489382     2.489382    -2.489382
Se      -1.397188     1.397188    -1.397188
H       -3.531794     0.210685    -4.471993
H       -1.880934     0.352780    -3.861848
H       -2.227717     1.101238    -5.439894
H       -4.356678     2.608264    -6.129205
H       -5.558721     4.674234    -6.455416
H       -5.611005     6.447828    -4.762696
H       -4.363569     6.097693    -2.605551
H       -2.706449     4.154771    -1.238177
C       -1.134452    -4.599899     2.252563
N       -2.229129    -3.758091     2.722433
C       -3.233996    -4.148701     3.529101
C       -3.551516    -5.348895     4.131408
C       -4.658741    -5.522260     4.937327
C       -5.505605    -4.438761     5.161371
C       -5.181865    -3.241524     4.555805
C       -4.071503    -3.078137     3.750979
N       -3.563481    -2.022184     3.066182
C       -2.459371    -2.459371     2.459371
Se      -1.397188    -1.397188     1.397188
H       -0.309994    -3.910963     1.948330
H       -1.447943    -5.300642     1.473351
H       -0.706220    -5.175813     3.122963
H       -2.922670    -6.234077     3.991055
H       -4.865365    -6.488498     5.389034
H       -6.389389    -4.553184     5.796922
H       -5.856883    -2.408811     4.744370
H       -3.977888    -1.056404     3.035279
41
ex_0427 frame3 T-4-1-conf4
Zn       0.000000     0.000000     0.000000
Br       1.397188     1.397188     1.397188
Br       1.397188    -1.397188    -1.397188
C       -2.655534     0.898306    -4.436986
N       -2.909507     2.123519    -3.706327
C       -3.657884     3.174515    -4.147925
C       -4.329558     3.353725    -5.318859
C       -5.024132     4.527540    -5.527580
C       -5.048592     5.520824    -4.569852
C       -4.360271     5.333732    -3.373396
C       -3.665791     4.159788    -3.164993
N       -2.921020     3.694583    -2.136797
C       -2.489382     2.489382    -2.489382
Se      -1.397188     1.397188    -1.397188
H       -3.531794     0.210685    -4.471993
H       -1.880934     0.352780    -3.861848
H       -2.227717     1.101238    -5.439894
H       -4.356678     2.608264    -6.129205
H       -5.558721     4.674234    -6.455416
H       -5.611005     6.447828    -4.762696
H       -4.363569     6.097693    -2.605551
H       -2.706449     4.154771    -1.238177
C       -4.465633    -2.596350     0.928844
N       -3.719140    -2.883035     2.137178
C       -4.155805    -3.641603     3.182915
C       -5.334767    -4.296691     3.370684
C       -5.535676    -5.007407     4.536170
C       -4.562154    -5.064497     5.512618
C       -3.357526    -4.393057     5.316815
C       -3.156940    -3.682429     4.151204
N       -2.124186    -2.947074     3.681139
C       -2.489382    -2.489382     2.489382
Se      -1.397188    -1.397188     1.397188
H       -4.526814    -3.460187     0.227471
H       -3.886640    -1.822305     0.386617
H       -5.457679    -2.155441     1.155729
H       -6.157709    -4.297790     2.638649
H       -6.469836    -5.528931     4.689605
H       -4.749054    -5.639189     6.433286
H       -2.577281    -4.421975     6.067557
H       -1.214566    -2.755229     4.129602
41
ex_0427 frame4 T-4-1-conf5
Zn       0.000000     0.000000     0.000000
Br       1.397188     1.397188     1.397188
Br       1.397188    -1.397188    -1.397188
C       -4.058290     0.673318    -3.255307
N       -3.519125     2.025670    -3.164858
C       -4.005728     3.112267    -3.793803
C       -5.067968     3.312331    -4.651521
C       -5.387285     4.543821    -5.187223
C       -4.605481     5.647552    -4.852703
C       -3.544764     5.440048    -3.994382
C       -3.233375     4.203675    -3.463569
N       -2.263067     3.768572    -2.620209
C       -2.459371     2.459371    -2.459371
Se      -1.397188     1.397188    -1.397188
H       -3.690599     0.122372    -2.356316
H       -3.823474     0.190261    -4.208201
H       -5.177676     0.707806    -3.119514
H       -5.716524     2.482018    -4.949260
H       -6.234801     4.649364    -5.858732
H       -4.840145     6.633711    -5.265639
H       -2.947699     6.315700    -3.746664
H       -1.512995     4.366636    -2.189941
C       -0.724710    -3.072046     4.190158
N       -2.048344    -3.084003     3.577306
C       -3.125831    -3.745431     4.040535
C       -3.338985    -4.556471     5.136364
C       -4.556626    -5.141559     5.420145
C       -5.631730    -4.909121     4.564887
C       -5.411272    -4.096991     3.470931
C       -4.188942    -3.516100     3.195576
N       -3.745714    -2.701716     2.204417
C       -2.459371    -2.459371     2.459371
Se      -1.397188    -1.397188     1.397188
H       -0.201895    -2.164528     3.802865
H       -0.180649    -4.007940     4.033348
H       -0.827518    -2.880368     5.297111
H       -2.531125    -4.774146     5.842531
H       -4.673434    -5.772898     6.296566
H       -6.606479    -5.362741     4.770274
H       -6.264565    -3.929006     2.816493
H       -4.323310    -2.344435     1.401827
41
ex_0427 frame5 T-4-1-conf6
Zn       0.000000     0.000000     0.000000
Br       1.397188     1.397188     1.397188
Br       1.397188    -1.397188    -1.397188
C       -4.651292     2.069303    -1.266320
N       -3.780765     2.641578    -2.287310
C       -4.162264     3.480729    -3.268804
C       -5.375549     4.036359    -3.619912
C       -5.535065     4.891663    -4.691601
C       -4.422939     5.217788    -5.465010
C       -3.212748     4.658414    -5.108032
C       -3.063404     3.803510    -4.033704
N       -1.999326     3.147690    -3.504832
C       -2.459371     2.459371    -2.459371
Se      -1.397188     1.397188    -1.397188
H       -3.990486     1.756542    -0.422259
H       -5.291030     1.273090    -1.657817
H       -5.295525     2.883817    -0.825655
H       -6.283183     3.815941    -3.048678
H       -6.512568     5.303199    -4.927131
H       -4.525952     5.894025    -6.319518
H       -2.357676     4.926711    -5.725677
H       -1.013079     3.189774    -3.866720
C       -1.134452    -4.599899     2.252563
N       -2.229129    -3.758091     2.722433
C       -3.233996    -4.148701     3.529101
C       -3.551516    -5.348895     4.131408
C       -4.658741    -5.522260     4.937327
C       -5.505605    -4.438761     5.161371
C       -5.181865    -3.241524     4.555805
C       -4.071503    -3.078137     3.750979
N       -3.563481    -2.022184     3.066182
C       -2.459371    -2.459371     2.459371
Se      -1.397188    -1.397188     1.397188
H       -0.309994    -3.910963     1.948330
H       -1.447943    -5.300642     1.473351
H       -0.706220    -5.175813     3.122963
H       -2.922670    -6.234077     3.991055
H       -4.865365    -6.488498     5.389034
H       -6.389389    -4.553184     5.796922
H       -5.856883    -2.408811     4.744370
H       -3.977888    -1.056404     3.035279
41
ex_0427 frame6 T-4-1-conf7
Zn       0.000000     0.000000     0.000000
Br       1.397188     1.397188     1.397188
Br       1.397188    -1.397188    -1.397188
C       -4.058290     0.673318    -3.255307
N       -3.519125     2.025670    -3.164858
C       -4.005728     3.112267    -3.793803
C       -5.067968     3.312331    -4.651521
C       -5.387285     4.543821    -5.187223
C       -4.605481     5.647552    -4.852703
C       -3.544764     5.440048    -3.994382
C       -3.233375     4.203675    -3.463569
N       -2.263067     3.768572    -2.620209
C       -2.459371     2.459371    -2.459371
Se      -1.397188     1.397188    -1.397188
H       -3.690599     0.122372    -2.356316
H       -3.823474     0.190261    -4.208201
H       -5.177676     0.707806    -3.119514
H       -5.716524     2.482018    -4.949260
H       -6.234801     4.649364    -5.858732
H       -4.840145     6.633711    -5.265639
H       -2.947699     6.315700    -3.746664
H       -1.512995     4.366636    -2.189941
C       -2.252563    -1.134452     4.599899
N       -2.722433    -2.229129     3.758091
C       -3.529101    -3.233996     4.148701
C       -4.131408    -3.551516     5.348895
C       -4.937327    -4.658741     5.522260
C       -5.161371    -5.505605     4.438761
C       -4.555805    -5.181865     3.241524
C       -3.750979    -4.071503     3.078137
N       -3.066182    -3.563481     2.022184
C       -2.459371    -2.459371     2.459371
Se      -1.397188    -1.397188     1.397188
H       -1.948330    -0.309994     3.910963
H       -1.473351    -1.447943     5.300642
H       -3.122963    -0.706220     5.175813
H       -3.991055    -2.922670     6.234077
H       -5.389034    -4.865365     6.488498
H       -5.796922    -6.389389     4.553184
H       -4.744370    -5.856883     2.408811
H       -3.035279    -3.977888     1.056404
41
ex_0427 frame7 T-4-1-conf8
Zn       0.000000     0.000000     0.000000
Br       1.397188     1.397188     1.397188
Br       1.397188    -1.397188    -1.397188
C       -2.655534     0.898306    -4.436986
N       -2.909507     2.123519    -3.706327
C       -3.657884     3.174515    -4.147925
C       -4.329558     3.353725    -5.318859
C       -5.024132     4.527540    -5.527580
C       -5.048592     5.520824    -4.569852
C       -4.360271     5.333732    -3.373396
C       -3.665791     4.159788    -3.164993
N       -2.921020     3.694583    -2.136797
C       -2.489382     2.489382    -2.489382
Se      -1.397188     1.397188    -1.397188
H       -3.531794     0.210685    -4.471993
H       -1.880934     0.352780    -3.861848
H       -2.227717     1.101238    -5.439894
H       -4.356678     2.608264    -6.129205
H       -5.558721     4.674234    -6.455416
H       -5.611005     6.447828    -4.762696
H       -4.363569     6.097693    -2.605551
H       -2.706449     4.154771    -1.238177
C       -0.724710    -3.072046     4.190158
N       -2.048344    -3.084003     3.577306
C       -3.125831    -3.745431     4.040535
C       -3.338985    -4.556471     5.136364
C       -4.556626    -5.141559     5.420145
C       -5.631730    -4.909121     4.564887
C       -5.411272    -4.096991     3.470931
C       -4.188942    -3.516100     3.195576
N       -3.745714    -2.701716     2.204417
C       -2.459371    -2.459371     2.459371
Se      -1.397188    -1.397188     1.397188
H       -0.201895    -2.164528     3.802865
H       -0.180649    -4.007940     4.033348
H       -0.827518    -2.880368     5.297111
H       -2.531125    -4.774146     5.842531
H       -4.673434    -5.772898     6.296566
H       -6.606479    -5.362741     4.770274
H       -6.264565    -3.929006     2.816493
H       -4.323310    -2.344435     1.401827
41
ex_0427 frame8 T-4-1-conf9
Zn       0.000000     0.000000     0.000000
Br       1.397188     1.397188     1.397188
Br       1.397188    -1.397188    -1.397188
C       -4.651292     2.069303    -1.266320
N       -3.780765     2.641578    -2.287310
C       -4.162264     3.480729    -3.268804
C       -5.375549     4.036359    -3.619912
C       -5.535065     4.891663    -4.691601
C       -4.422939     5.217788    -5.465010
C       -3.212748     4.658414    -5.108032
C       -3.063404     3.803510    -4.033704
N       -1.999326     3.147690    -3.504832
C       -2.459371     2.459371    -2.459371
Se      -1.397188     1.397188    -1.397188
H       -3.990486     1.756542    -0.422259
H       -5.291030     1.273090    -1.657817
H       -5.295525     2.883817    -0.825655
H       -6.283183     3.815941    -3.048678
H       -6.512568     5.303199    -4.927131
H       -4.525952     5.894025    -6.319518
H       -2.357676     4.926711    -5.725677
H       -1.013079     3.189774    -3.866720
C       -4.465633    -2.596350     0.928844
N       -3.719140    -2.883035     2.137178
C       -4.155805    -3.641603     3.182915
C       -5.334767    -4.296691     3.370684
C       -5.535676    -5.007407     4.536170
C       -4.562154    -5.064497     5.512618
C       -3.357526    -4.393057     5.316815
C       -3.156940    -3.682429     4.151204
N       -2.124186    -2.947074     3.681139
C       -2.489382    -2.489382     2.489382
Se      -1.397188    -1.397188     1.397188
H       -4.526814    -3.460187     0.227471
H       -3.886640    -1.822305     0.386617
H       -5.457679    -2.155441     1.155729
H       -6.157709    -4.297790     2.638649
H       -6.469836    -5.528931     4.689605
H       -4.749054    -5.639189     6.433286
H       -2.577281    -4.421975     6.067557
H       -1.214566    -2.755229     4.129602
41
ex_0427 frame9 T-4-1-conf10
Zn       0.000000     0.000000     0.000000
Br       1.397188     1.397188     1.397188
Br       1.397188    -1.397188    -1.397188
C       -3.255307     4.058290    -0.673318
N       -3.164858     3.519125    -2.025670
C       -3.793803     4.005728    -3.112267
C       -4.651521     5.067968    -3.312331
C       -5.187223     5.387285    -4.543821
C       -4.852703     4.605481    -5.647552
C       -3.994382     3.544764    -5.440048
C       -3.463569     3.233375    -4.203675
N       -2.620209     2.263067    -3.768572
C       -2.459371     2.459371    -2.459371
Se      -1.397188     1.397188    -1.397188
H       -2.356316     3.690599    -0.122372
H       -4.208201     3.823474    -0.190261
H       -3.119514     5.177676    -0.707806
H       -4.949260     5.716524    -2.482018
H       -5.858732     6.234801    -4.649364
H       -5.265639     4.840145    -6.633711
H       -3.746664     2.947699    -6.315700
H       -2.189941     1.512995    -4.366636
C       -1.134452    -4.599899     2.252563
N       -2.229129    -3.758091     2.722433
C       -3.233996    -4.148701     3.529101
C       -3.551516    -5.348895     4.131408
C       -4.658741    -5.522260     4.937327
C       -5.505605    -4.438761     5.161371
C       -5.181865    -3.241524     4.555805
C       -4.071503    -3.078137     3.750979
N       -3.563481    -2.022184     3.066182
C       -2.459371    -2.459371     2.459371
Se      -1.397188    -1.397188     1.397188
H       -0.309994    -3.910963     1.948330
H       -1.447943    -5.300642     1.473351
H       -0.706220    -5.175813     3.122963
H       -2.922670    -6.234077     3.991055
H       -4.865365    -6.488498     5.389034
H       -6.389389    -4.553184     5.796922
H       -5.856883    -2.408811     4.744370
H       -3.977888    -1.056404     3.035279
41
ex_0427 frame10 T-4-1-reembed1
Zn       0.000000     0.000000     0.000000
Br       1.397188     1.397188     1.397188
Br       1.397188    -1.397188    -1.397188
C       -0.926911     2.597936    -4.464796
N       -2.131637     2.874262    -3.703919
C       -3.169927     3.629396    -4.142766
C       -3.409709     4.319972    -5.336947
C       -4.575736     5.019275    -5.514859
C       -5.541320     5.063614    -4.530031
C       -5.315813     4.385100    -3.345437
C       -4.151709     3.679007    -3.150992
N       -3.677056     2.939988    -2.116586
C       -2.479690     2.479690    -2.479690
Se      -1.397188     1.397188    -1.397188
H       -0.219528     3.436097    -4.318634
H       -0.476920     1.623274    -4.198718
H       -1.238246     2.529194    -5.533358
H       -2.654939     4.285214    -6.106543
H       -4.701442     5.531564    -6.459025
H       -6.470311     5.628191    -4.687542
H       -6.060830     4.410137    -2.566159
H       -4.156873     2.765880    -1.211932
C       -4.703364    -1.746556     1.539723
N       -3.809942    -2.495898     2.403978
C       -4.208358    -3.395317     3.338414
C       -5.466900    -3.856208     3.743519
C       -5.578176    -4.793317     4.738378
C       -4.461819    -5.307041     5.366105
C       -3.212549    -4.859338     4.974463
C       -3.083497    -3.919876     3.978335
N       -2.011352    -3.315537     3.406740
C       -2.479690    -2.479690     2.479690
Se      -1.397188    -1.397188     1.397188
H       -5.044503    -0.845682     2.084074
H       -4.235032    -1.493679     0.570200
H       -5.564036    -2.419713     1.317049
H       -6.339294    -3.454594     3.252808
H       -6.577535    -5.108639     5.005858
H       -4.567299    -6.057305     6.161440
H       -2.330477    -5.251217     5.455432
H       -1.013338    -3.474607     3.646741
41
ex_0427 frame11 T-4-1-reembed2
Zn       0.000000     0.000000     0.000000
Br       1.397188     1.397188     1.397188
Br       1.397188    -1.397188    -1.397188
C       -2.597936     4.464796    -0.926911
N       -2.874262     3.703919    -2.131637
C       -3.629396     4.142766    -3.169927
C       -4.319972     5.336947    -3.409709
C       -5.019275     5.514859    -4.575736
C       -5.063614     4.530031    -5.541320
C       -4.385100     3.345437    -5.315813
C       -3.679007     3.150992    -4.151709
N       -2.939988     2.116586    -3.677056
C       -2.479690     2.479690    -2.479690
Se      -1.397188     1.397188    -1.397188
H       -3.436097     4.318634    -0.219528
H       -1.623274     4.198718    -0.476920
H       -2.529194     5.533358    -1.238246
H       -4.285214     6.106543    -2.654939
H       -5.531564     6.459025    -4.701442
H       -5.628191     4.687542    -6.470311
H       -4.410137     2.566159    -6.060830
H       -2.765880     1.211932    -4.156873
C       -4.703364    -1.746556     1.539723
N       -3.809942    -2.495898     2.403978
C       -4.208358    -3.395317     3.338414
C       -5.466900    -3.856208     3.743519
C       -5.578176    -4.793317     4.738378
C       -4.461819    -5.307041     5.366105
C       -3.212549    -4.859338     4.974463
C       -3.083497    -3.919876     3.978335
N       -2.011352    -3.315537     3.406740
C       -2.479690    -2.479690     2.479690
Se      -1.397188    -1.397188     1.397188
H       -5.044503    -0.845682     2.084074
H       -4.235032    -1.493679     0.570200
H       -5.564036    -2.419713     1.317049
H       -6.339294    -3.454594     3.252808
H       -6.577535    -5.108639     5.005858
H       -4.567299    -6.057305     6.161440
H       -2.330477    -5.251217     5.455432
H       -1.013338    -3.474607     3.646741
41
ex_0427 frame12 T-4-1-reembed3
Zn       0.000000     0.000000     0.000000
Br       1.397188     1.397188     1.397188
Br       1.397188    -1.397188    -1.397188
C       -4.464796     0.926911    -2.597936
N       -3.703919     2.131637    -2.874262
C       -4.142766     3.169927    -3.629396
C       -5.336947     3.409709    -4.319972
C       -5.514859     4.575736    -5.019275
C       -4.530031     5.541320    -5.063614
C       -3.345437     5.315813    -4.385100
C       -3.150992     4.151709    -3.679007
N       -2.116586     3.677056    -2.939988
C       -2.479690     2.479690    -2.479690
Se      -1.397188     1.397188    -1.397188
H       -4.318634     0.219528    -3.436097
H       -4.198718     0.476920    -1.623274
H       -5.533358     1.238246    -2.529194
H       -6.106543     2.654939    -4.285214
H       -6.459025     4.701442    -5.531564
H       -4.687542     6.470311    -5.628191
H       -2.566159     6.060830    -4.410137
H       -1.211932     4.156873    -2.765880
C       -4.703364    -1.746556     1.539723
N       -3.809942    -2.495898     2.403978
C       -4.208358    -3.395317     3.338414
C       -5.466900    -3.856208     3.743519
C       -5.578176    -4.793317     4.738378
C       -4.461819    -5.307041     5.366105
C       -3.212549    -4.859338     4.974463
C       -3.083497    -3.919876     3.978335
N       -2.011352    -3.315537     3.406740
C       -2.479690    -2.479690     2.479690
Se      -1.397188    -1.397188     1.397188
H       -5.044503    -0.845682     2.084074
H       -4.235032    -1.493679     0.570200
H       -5.564036    -2.419713     1.317049
H       -6.339294    -3.454594     3.252808
H       -6.577535    -5.108639     5.005858
H       -4.567299    -6.057305     6.161440
H       -2.330477    -5.251217     5.455432
H       -1.013338    -3.474607     3.646741
41
ex_0427 frame13 T-4-1-reembed4
Zn       0.000000     0.000000     0.000000
Br       1.397188     1.397188     1.397188
Br       1.397188    -1.397188    -1.397188
C       -0.926911     2.597936    -4.464796
N       -2.131637     2.874262    -3.703919
C       -3.169927     3.629396    -4.142766
C       -3.409709     4.319972    -5.336947
C       -4.575736     5.019275    -5.514859
C       -5.541320     5.063614    -4.530031
C       -5.315813     4.385100    -3.345437
C       -4.151709     3.679007    -3.150992
N       -3.677056     2.939988    -2.116586
C       -2.479690     2.479690    -2.479690
Se      -1.397188     1.397188    -1.397188
H       -0.219528     3.436097    -4.318634
H       -0.476920     1.623274    -4.198718
H       -1.238246     2.529194    -5.533358
H       -2.654939     4.285214    -6.106543
H       -4.701442     5.531564    -6.459025
H       -6.470311     5.628191    -4.687542
H       -6.060830     4.410137    -2.566159
H       -4.156873     2.765880    -1.211932
C       -1.746556    -1.539723     4.703364
N       -2.495898    -2.403978     3.809942
C       -3.395317    -3.338414     4.208358
C       -3.856208    -3.743519     5.466900
C       -4.793317    -4.738378     5.578176
C       -5.307041    -5.366105     4.461819
C       -4.859338    -4.974463     3.212549
C       -3.919876    -3.978335     3.083497
N       -3.315537    -3.406740     2.011352
C       -2.479690    -2.479690     2.479690
Se      -1.397188    -1.397188     1.397188
H       -0.845682    -2.084074     5.044503
H       -1.493679    -0.570200     4.235032
H       -2.419713    -1.317049     5.564036
H       -3.454594    -3.252808     6.339294
H       -5.108639    -5.005858     6.577535
H       -6.057305    -6.161440     4.567299
H       -5.251217    -5.455432     2.330477
H       -3.474607    -3.646741     1.013338
41
ex_0427 frame14 T-4-1-reembed5
Zn       0.000000     0.000000     0.000000
Br       1.397188     1.397188     1.397188
Br       1.397188    -1.397188    -1.397188
C       -0.926911     2.597936    -4.464796
N       -2.131637     2.874262    -3.703919
C       -3.169927     3.629396    -4.142766
C       -3.409709     4.319972    -5.336947
C       -4.575736     5.019275    -5.514859
C       -5.541320     5.063614    -4.530031
C       -5.315813     4.385100    -3.345437
C       -4.151709     3.679007    -3.150992
N       -3.677056     2.939988    -2.116586
C       -2.479690     2.479690    -2.479690
Se      -1.397188     1.397188    -1.397188
H       -0.219528     3.436097    -4.318634
H       -0.476920     1.623274    -4.198718
H       -1.238246     2.529194    -5.533358
H       -2.654939     4.285214    -6.106543
H       -4.701442     5.531564    -6.459025
H       -6.470311     5.628191    -4.687542
H       -6.060830     4.410137    -2.566159
H       -4.156873     2.765880    -1.211932
C       -1.539723    -4.703364     1.746556
N       -2.403978    -3.809942     2.495898
C       -3.338414    -4.208358     3.395317
C       -3.743519    -5.466900     3.856208
C       -4.738378    -5.578176     4.793317
C       -5.366105    -4.461819     5.307041
C       -4.974463    -3.212549     4.859338
C       -3.978335    -3.083497     3.919876
N       -3.406740    -2.011352     3.315537
C       -2.479690    -2.479690     2.479690
Se      -1.397188    -1.397188     1.397188
H       -2.084074    -5.044503     0.845682
H       -0.570200    -4.235032     1.493679
H       -1.317049    -5.564036     2.419713
H       -3.252808    -6.339294     3.454594
H       -5.005858    -6.577535     5.108639
H       -6.161440    -4.567299     6.057305
H       -5.455432    -2.330477     5.251217
H       -3.646741    -1.013338     3.474607
41
ex_0427 frame15 T-4-1-reembed6
Zn       0.000000     0.000000     0.000000
Br       1.397188     1.397188     1.397188
Br       1.397188    -1.397188    -1.397188
C       -2.597936     4.464796    -0.926911
N       -2.874262     3.703919    -2.131637
C       -3.629396     4.142766    -3.169927
C       -4.319972     5.336947    -3.409709
C       -5.019275     5.514859    -4.575736
C       -5.063614     4.530031    -5.541320
C       -4.385100     3.345437    -5.315813
C       -3.679007     3.150992    -4.151709
N       -2.939988     2.116586    -3.677056
C       -2.479690     2.479690    -2.479690
Se      -1.397188     1.397188    -1.397188
H       -3.436097     4.318634    -0.219528
H       -1.623274     4.198718    -0.476920
H       -2.529194     5.533358    -1.238246
H       -4.285214     6.106543    -2.654939
H       -5.531564     6.459025    -4.701442
H       -5.628191     4.687542    -6.470311
H       -4.410137     2.566159    -6.060830
H       -2.765880     1.211932    -4.156873
C       -1.746556    -1.539723     4.703364
N       -2.495898    -2.403978     3.809942
C       -3.395317    -3.338414     4.208358
C       -3.856208    -3.743519     5.466900
C       -4.793317    -4.738378     5.578176
C       -5.307041    -5.366105     4.461819
C       -4.859338    -4.974463     3.212549
C       -3.919876    -3.978335     3.083497
N       -3.315537    -3.406740     2.011352
C       -2.479690    -2.479690     2.479690
Se      -1.397188    -1.397188     1.397188
H       -0.845682    -2.084074     5.044503
H       -1.493679    -0.570200     4.235032
H       -2.419713    -1.317049     5.564036
H       -3.454594    -3.252808     6.339294
H       -5.108639    -5.005858     6.577535
H       -6.057305    -6.161440     4.567299
H       -5.251217    -5.455432     2.330477
H       -3.474607    -3.646741     1.013338
41
ex_0427 frame16 SP-4-1
Zn       0.000000     0.000000     0.000000
Br       2.420000     0.000000     0.000000
Br       0.000000     2.420000     0.000000
C       -4.611247    -2.500838     0.047989
N       -5.028521    -1.103376     0.021165
C       -6.299929    -0.660100     0.012650
C       -7.523924    -1.297082     0.024870
C       -8.728571    -0.623162     0.011938
C       -8.721301     0.769883    -0.014791
C       -7.493541     1.400243    -0.026883
C       -6.293475     0.716859    -0.013771
N       -4.995147     1.112275    -0.021348
C       -4.259755     0.000000    -0.000000
Se      -2.420000     0.000000     0.000000
H       -3.561840    -2.513283     0.429447
H       -4.746937    -2.998413    -0.916634
H       -5.199037    -3.050893     0.838304
H       -7.590887    -2.389679     0.045835
H       -9.666516    -1.171338     0.022455
H       -9.664552     1.325092    -0.025446
H       -7.511364     2.488298    -0.047754
H       -4.658970     2.108286    -0.040460
C        2.447456    -4.611247    -0.516194
N        1.079822    -5.028521    -0.227754
C        0.646005    -6.299929    -0.136267
C        1.269390    -7.523924    -0.267748
C        0.609856    -8.728571    -0.128645
C       -0.753453    -8.721301     0.158894
C       -1.370356    -7.493541     0.289008
C       -0.701560    -6.293475     0.147951
N       -1.088534    -4.995147     0.229579
C        0.000000    -4.259755    -0.000000
Se       0.000000    -2.420000     0.000000
H        2.545450    -3.561840    -0.147328
H        2.715118    -4.746937    -1.568067
H        3.161297    -5.199037     0.130017
H        2.338665    -7.590887    -0.493270
H        1.146330    -9.666516    -0.241796
H       -1.296811    -9.664552     0.273492
H       -2.435184    -7.511364     0.513600
H       -2.063284    -4.658970     0.435165
41
ex_0427 frame17 SP-4-2
Zn       0.000000     0.000000     0.000000
Br       2.420000     0.000000     0.000000
C       -2.343351     4.611247     0.874758
N       -1.033895     5.028521     0.385938
C       -0.618536     6.299929     0.230877
C       -1.215406     7.523924     0.453682
C       -0.583926     8.728571     0.217955
C        0.721395     8.721301    -0.269310
C        1.312060     7.493541    -0.489798
C        0.671710     6.293475    -0.250761
N        1.042230     4.995147    -0.389062
C       -0.000000     4.259755     0.000000
Se       0.000000     2.420000     0.000000
H       -2.228568     3.561840     1.238750
H       -3.132707     4.746937     0.129778
H       -2.600134     5.199037     1.802777
H       -2.239199     7.590887     0.835856
H       -1.097582     9.666516     0.409696
H        1.241640     9.664552    -0.463516
H        2.331598     7.511364    -0.870377
H        1.975518     4.658970    -0.737452
Br      -2.420000     0.000000     0.000000
C        2.447456    -4.611247    -0.516194
N        1.079822    -5.028521    -0.227754
C        0.646005    -6.299929    -0.136267
C        1.269390    -7.523924    -0.267748
C        0.609856    -8.728571    -0.128645
C       -0.753453    -8.721301     0.158894
C       -1.370356    -7.493541     0.289008
C       -0.701560    -6.293475     0.147951
N       -1.088534    -4.995147     0.229579
C        0.000000    -4.259755    -0.000000
Se       0.000000    -2.420000     0.000000
H        2.545450    -3.561840    -0.147328
H        2.715118    -4.746937    -1.568067
H        3.161297    -5.199037     0.130017
H        2.338665    -7.590887    -0.493270
H        1.146330    -9.666516    -0.241796
H       -1.296811    -9.664552     0.273492
H       -2.435184    -7.511364     0.513600
H       -2.063284    -4.658970     0.435165
